<?xml version="1.0"?>
<VTKFile type="UnstructuredGrid" version="0.1" byte_order="LittleEndian">
<UnstructuredGrid>
<Piece NumberOfPoints="31898" NumberOfCells="11152">
<Points>
<DataArray type="Float64" NumberOfComponents="3" format="ascii">
-0.5 -0.5 0 -0.47620991077874902 -0.44978878706170539 0 -0.49999999999999473 -0.42132396840504388 0 -0.5 -0.5 0 -0.47160970827802529 -0.4793630013852106 0 -0.47620991077874902 -0.44978878706170539 0 -0.5 -0.5 0 -0.47160970827802529 -0.4793630013852106 0 -0.44860394795025399 -0.5 0 -0.47160970827802529 -0.4793630013852106 0 -0.44860394795025399 -0.5 0 -0.4490820238307246 -0.45820516232899983 0 -0.44860394795025399 -0.5 0 -0.4490820238307246 -0.45820516232899983 0 -0.42881687682924802 -0.47781464288736519 0 -0.4490820238307246 -0.45820516232899983 0 -0.45555437223955858 -0.42914059360647611 0 -0.4490820238307246 -0.45820516232899983 0 -0.45555437223955858 -0.42914059360647611 0 -0.43867285131603428 -0.4271457417558665 0 -0.4490820238307246 -0.45820516232899983 0 -0.43867285131603428 -0.4271457417558665 0 -0.4263356171060747 -0.44269880333887462 0 -0.47160970827802529 -0.4793630013852106 0 -0.4490820238307246 -0.45820516232899983 0 -0.47620991077874902 -0.44978878706170539 0 -0.4490820238307246 -0.45820516232899983 0 -0.47620991077874902 -0.44978878706170539 0 -0.45555437223955858 -0.42914059360647611 0 -0.47620991077874902 -0.44978878706170539 0 -0.48101336032419229 -0.41069999664450008 0 -0.45555437223955858 -0.42914059360647611 0 -0.47620991077874902 -0.44978878706170539 0 -0.49999999999999473 -0.42132396840504388 0 -0.48101336032419229 -0.41069999664450008 0 -0.49999999999999473 -0.42132396840504388 0 -0.48101336032419229 -0.41069999664450008 0 -0.5 -0.393886241813306 0 -0.49999999999999473 -0.42132396840504388 0 -0.48101336032419229 -0.41069999664450008 0 -0.5 -0.393886241813306 0 -0.47854472220918332 -0.38978458738689759 0 -0.48422759779560409 -0.37130120630367158 0 -0.5 -0.393886241813306 0 -0.5 -0.36644851522156802 0 -0.48422759779560409 -0.37130120630367158 0 -0.48101336032419229 -0.41069999664450008 0 -0.5 -0.393886241813306 0 -0.47854472220918332 -0.38978458738689759 0 -0.48101336032419229 -0.41069999664450008 0 -0.47854472220918332 -0.38978458738689759 0 -0.46202672064839212 -0.40007602488395211 0 -0.48101336032419229 -0.41069999664450008 0 -0.46202672064839212 -0.40007602488395211 0 -0.47854472220918332 -0.38978458738689759 0 -0.46725442735267431 -0.37660061361585562 0 -0.46202672064839212 -0.40007602488395211 0 -0.47854472220918332 -0.38978458738689759 0 -0.46725442735267431 -0.37660061361585562 0 -0.48422759779560409 -0.37130120630367158 0 -0.46725442735267431 -0.37660061361585562 0 -0.46202672064839212 -0.40007602488395211 0 -0.46725442735267431 -0.37660061361585562 0 -0.45645674801697989 -0.38644133236760531 0 -0.46202672064839212 -0.40007602488395211 0 -0.46725442735267431 -0.37660061361585562 0 -0.45645674801697989 -0.38644133236760531 0 -0.4540003998136638 -0.37455519391687309 0 -0.45645674801697989 -0.38644133236760531 0 -0.46202672064839212 -0.40007602488395211 0 -0.44257020456291563 -0.38918913383950271 0 -0.46202672064839212 -0.40007602488395211 0 -0.44257020456291563 -0.38918913383950271 0 -0.44727608925983742 -0.41095911152778891 0 -0.46202672064839212 -0.40007602488395211 0 -0.44257020456291563 -0.38918913383950271 0 -0.44257020456291563 -0.38918913383950271 0 -0.44727608925983742 -0.41095911152778891 0 -0.43479358559901082 -0.4041454901736512 0 -0.44257020456291563 -0.38918913383950271 0 -0.4540003998136638 -0.37455519391687309 0 -0.44172858264042247 -0.37082207246888088 0 -0.45645674801697989 -0.38644133236760531 0 -0.44257020456291563 -0.38918913383950271 0 -0.4540003998136638 -0.37455519391687309 0 -0.46202672064839212 -0.40007602488395211 0 -0.45555437223955858 -0.42914059360647611 0 -0.44727608925983742 -0.41095911152778891 0 -0.46202672064839212 -0.40007602488395211 0 -0.45555437223955858 -0.42914059360647611 0 -0.48101336032419229 -0.41069999664450008 0 -0.46202672064839212 -0.40007602488395211 0 -0.45555437223955858 -0.42914059360647611 0 -0.44727608925983742 -0.41095911152778891 0 -0.43867285131603428 -0.4271457417558665 0 -0.43676601469929588 -0.41441201227470881 0 -0.44727608925983742 -0.41095911152778891 0 -0.43676601469929588 -0.41441201227470881 0 -0.43479358559901082 -0.4041454901736512 0 -0.45555437223955858 -0.42914059360647611 0 -0.44727608925983742 -0.41095911152778891 0 -0.43867285131603428 -0.4271457417558665 0 -0.43867285131603428 -0.4271457417558665 0 -0.42681803064840879 -0.42717069814352421 0 -0.4263356171060747 -0.44269880333887462 0 -0.42681803064840879 -0.42717069814352421 0 -0.41531815884496182 -0.42985383783075998 0 -0.4263356171060747 -0.44269880333887462 0 -0.42681803064840879 -0.42717069814352421 0 -0.42624289495594048 -0.42089725947505818 0 -0.42083332353326591 -0.42146747131641099 0 -0.42681803064840879 -0.42717069814352421 0 -0.43096994786351572 -0.41951492446283251 0 -0.42624289495594048 -0.42089725947505818 0 -0.43867285131603428 -0.4271457417558665 0 -0.42681803064840879 -0.42717069814352421 0 -0.43096994786351572 -0.41951492446283251 0 -0.43867285131603428 -0.4271457417558665 0 -0.43676601469929588 -0.41441201227470881 0 -0.43096994786351572 -0.41951492446283251 0 -0.43676601469929588 -0.41441201227470881 0 -0.43096994786351572 -0.41951492446283251 0 -0.42907264086257813 -0.41311715872526122 0 -0.43676601469929588 -0.41441201227470881 0 -0.42907264086257813 -0.41311715872526122 0 -0.43479358559901082 -0.4041454901736512 0 -0.42907264086257813 -0.41311715872526122 0 -0.43479358559901082 -0.4041454901736512 0 -0.42460885511582858 -0.40417321677700252 0 -0.42907264086257813 -0.41311715872526122 0 -0.41997834854398469 -0.41180534796019508 0 -0.42907264086257813 -0.41311715872526122 0 -0.42635027777857132 -0.41543594397746519 0 -0.41997834854398469 -0.41180534796019508 0 -0.42907264086257813 -0.41311715872526122 0 -0.41997834854398469 -0.41180534796019508 0 -0.42460885511582858 -0.40417321677700252 0 -0.42635027777857132 -0.41543594397746519 0 -0.41997834854398469 -0.41180534796019508 0 -0.42635027777857132 -0.41543594397746519 0 -0.42083332353326591 -0.42146747131641099 0 -0.41997834854398469 -0.41180534796019508 0 -0.43096994786351572 -0.41951492446283251 0 -0.42624289495594048 -0.42089725947505818 0 -0.42635027777857132 -0.41543594397746519 0 -0.43096994786351572 -0.41951492446283251 0 -0.42907264086257813 -0.41311715872526122 0 -0.42635027777857132 -0.41543594397746519 0 -0.42624289495594048 -0.42089725947505818 0 -0.42635027777857132 -0.41543594397746519 0 -0.42083332353326591 -0.42146747131641099 0 -0.42083332353326591 -0.42146747131641099 0 -0.41997834854398469 -0.41180534796019508 0 -0.40992282953163789 -0.42011435591993562 0 -0.41997834854398469 -0.41180534796019508 0 -0.39756877647335259 -0.40857286797681719 0 -0.41997834854398469 -0.41180534796019508 0 -0.40992282953163789 -0.42011435591993562 0 -0.39756877647335259 -0.40857286797681719 0 -0.40992282953163789 -0.42011435591993562 0 -0.41531815884496182 -0.42985383783075998 0 -0.39591554026262499 -0.42887225451549271 0 -0.41531815884496182 -0.42985383783075998 0 -0.39591554026262499 -0.42887225451549271 0 -0.41160927495564159 -0.44339431233754628 0 -0.42083332353326591 -0.42146747131641099 0 -0.40992282953163789 -0.42011435591993562 0 -0.41531815884496182 -0.42985383783075998 0 -0.42681803064840879 -0.42717069814352421 0 -0.42083332353326591 -0.42146747131641099 0 -0.41531815884496182 -0.42985383783075998 0 -0.44257020456291563 -0.38918913383950271 0 -0.42311368847744002 -0.37830224279505142 0 -0.42594061475171041 -0.39368797999533162 0 -0.44257020456291563 -0.38918913383950271 0 -0.42311368847744002 -0.37830224279505142 0 -0.44172858264042247 -0.37082207246888088 0 -0.44257020456291563 -0.38918913383950271 0 -0.42311368847744002 -0.37830224279505142 0 -0.42311368847744002 -0.37830224279505142 0 -0.42594061475171041 -0.39368797999533162 0 -0.416587075656149 -0.38785930376960043 0 -0.44257020456291563 -0.38918913383950271 0 -0.42594061475171041 -0.39368797999533162 0 -0.43479358559901082 -0.4041454901736512 0 -0.42594061475171041 -0.39368797999533162 0 -0.43479358559901082 -0.4041454901736512 0 -0.42460885511582858 -0.40417321677700252 0 -0.41997834854398469 -0.41180534796019508 0 -0.41325908582185972 -0.39811010703057192 0 -0.39770572831670092 -0.39911486077581648 0 -0.41997834854398469 -0.41180534796019508 0 -0.39770572831670092 -0.39911486077581648 0 -0.42594061475171041 -0.39368797999533162 0 -0.42460885511582858 -0.40417321677700252 0 -0.41325908582185972 -0.39811010703057192 0 -0.41997834854398469 -0.41180534796019508 0 -0.42460885511582858 -0.40417321677700252 0 -0.41325908582185972 -0.39811010703057192 0 -0.42594061475171041 -0.39368797999533162 0 -0.41325908582185972 -0.39811010703057192 0 -0.416587075656149 -0.38785930376960043 0 -0.41325908582185972 -0.39811010703057192 0 -0.416587075656149 -0.38785930376960043 0 -0.40403491357358612 -0.38133688525744702 0 -0.42311368847744002 -0.37830224279505142 0 -0.40403491357358612 -0.38133688525744702 0 -0.40365717239196519 -0.36741535175059892 0 -0.42311368847744002 -0.37830224279505142 0 -0.416587075656149 -0.38785930376960043 0 -0.40403491357358612 -0.38133688525744702 0 -0.40403491357358612 -0.38133688525744702 0 -0.39190790742475001 -0.38540387676521748 0 -0.39770572831670092 -0.39911486077581648 0 -0.40403491357358612 -0.38133688525744702 0 -0.39190790742475001 -0.38540387676521748 0 -0.3904578797192948 -0.37473938743617019 0 -0.41325908582185972 -0.39811010703057192 0 -0.40403491357358612 -0.38133688525744702 0 -0.39770572831670092 -0.39911486077581648 0 -0.39770572831670092 -0.39911486077581648 0 -0.37543310808941849 -0.38642437359143528 0 -0.39770572831670092 -0.39911486077581648 0 -0.37515920440272033 -0.40534038799344108 0 -0.37543310808941849 -0.38642437359143528 0 -0.39770572831670092 -0.39911486077581648 0 -0.37515920440272033 -0.40534038799344108 0 -0.39756877647335259 -0.40857286797681719 0 -0.37515920440272033 -0.40534038799344108 0 -0.37543310808941849 -0.38642437359143528 0 -0.37543310808941849 -0.38642437359143528 0 -0.3904578797192948 -0.37473938743617019 0 -0.37568304780698558 -0.36916333065311507 0 -0.39190790742475001 -0.38540387676521748 0 -0.37543310808941849 -0.38642437359143528 0 -0.3904578797192948 -0.37473938743617019 0 -0.37543310808941849 -0.38642437359143528 0 -0.37568304780698558 -0.36916333065311507 0 -0.39190790742475001 -0.38540387676521748 0 -0.39770572831670092 -0.39911486077581648 0 -0.37543310808941849 -0.38642437359143528 0 -0.41997834854398469 -0.41180534796019508 0 -0.39770572831670092 -0.39911486077581648 0 -0.39756877647335259 -0.40857286797681719 0 -0.40992282953163789 -0.42011435591993562 0 -0.39591554026262499 -0.42887225451549271 0 -0.39756877647335259 -0.40857286797681719 0 -0.37515920440272033 -0.40534038799344108 0 -0.39591554026262499 -0.42887225451549271 0 -0.39756877647335259 -0.40857286797681719 0 -0.37515920440272033 -0.40534038799344108 0 -0.39756877647335259 -0.40857286797681719 0 -0.37515920440272033 -0.40534038799344108 0 -0.39591554026262499 -0.42887225451549271 0 -0.37472313619600889 -0.43545561783144832 0 -0.39591554026262499 -0.42887225451549271 0 -0.39301703415267508 -0.44654444244683272 0 -0.37472313619600889 -0.43545561783144832 0 -0.39301703415267508 -0.44654444244683272 0 -0.37428706798929601 -0.46557084766945539 0 -0.37472313619600889 -0.43545561783144832 0 -0.39591554026262499 -0.42887225451549271 0 -0.39301703415267508 -0.44654444244683272 0 -0.41160927495564159 -0.44339431233754628 0 -0.39301703415267508 -0.44654444244683272 0 -0.40396056051613372 -0.45751466911048011 0 -0.41160927495564159 -0.44339431233754628 0 -0.40396056051613372 -0.45751466911048011 0 -0.39245383412573559 -0.47875733455523922 0 -0.41207507163844148 -0.46917161410542801 0 -0.40396056051613372 -0.45751466911048011 0 -0.38912381425271458 -0.46154275838996711 0 -0.39245383412573559 -0.47875733455523922 0 -0.40396056051613372 -0.45751466911048011 0 -0.39245383412573559 -0.47875733455523922 0 -0.40396056051613372 -0.45751466911048011 0 -0.40649676728151513 -0.45682610390212369 0 -0.40396056051613372 -0.45751466911048011 0 -0.38912381425271458 -0.46154275838996711 0 -0.39301703415267508 -0.44654444244683272 0 -0.40396056051613372 -0.45751466911048011 0 -0.38912381425271458 -0.46154275838996711 0 -0.39301703415267508 -0.44654444244683272 0 -0.38912381425271458 -0.46154275838996711 0 -0.37428706798929601 -0.46557084766945539 0 -0.38912381425271458 -0.46154275838996711 0 -0.37428706798929601 -0.46557084766945539 0 -0.38912381425271458 -0.46154275838996711 0 -0.38378714202547332 -0.47159002408209011 0 -0.37428706798929601 -0.46557084766945539 0 -0.38378714202547332 -0.47159002408209011 0 -0.39245383412573559 -0.47875733455523922 0 -0.37411677223754131 -0.47733161267270968 0 -0.39245383412573559 -0.47875733455523922 0 -0.37240076261097882 -0.48974555046165519 0 -0.37411677223754131 -0.47733161267270968 0 -0.38378714202547332 -0.47159002408209011 0 -0.37411677223754131 -0.47733161267270968 0 -0.37428706798929601 -0.46557084766945539 0 -0.38912381425271458 -0.46154275838996711 0 -0.38378714202547332 -0.47159002408209011 0 -0.39245383412573559 -0.47875733455523922 0 -0.38094710773533791 -0.49999999999999839 0 -0.39245383412573559 -0.47875733455523922 0 -0.38094710773533791 -0.49999999999999839 0 -0.39245383412573559 -0.47875733455523922 0 -0.37240076261097882 -0.48974555046165519 0 -0.38094710773533791 -0.49999999999999839 0 -0.39245383412573559 -0.47875733455523922 0 -0.40997732063196057 -0.5 0 -0.39245383412573559 -0.47875733455523922 0 -0.41207507163844148 -0.46917161410542801 0 -0.40997732063196057 -0.5 0 -0.41207507163844148 -0.46917161410542801 0 -0.40997732063196057 -0.5 0 -0.42881687682924802 -0.47781464288736519 0 -0.44860394795025399 -0.5 0 -0.40997732063196057 -0.5 0 -0.42881687682924802 -0.47781464288736519 0 -0.41207507163844148 -0.46917161410542801 0 -0.42881687682924802 -0.47781464288736519 0 -0.42627766738448791 -0.46032764904509182 0 -0.4490820238307246 -0.45820516232899983 0 -0.42881687682924802 -0.47781464288736519 0 -0.42627766738448791 -0.46032764904509182 0 -0.4490820238307246 -0.45820516232899983 0 -0.42627766738448791 -0.46032764904509182 0 -0.4263356171060747 -0.44269880333887462 0 -0.42627766738448791 -0.46032764904509182 0 -0.4263356171060747 -0.44269880333887462 0 -0.41655419253802572 -0.45404861160063659 0 -0.4263356171060747 -0.44269880333887462 0 -0.41160927495564159 -0.44339431233754628 0 -0.41655419253802572 -0.45404861160063659 0 -0.41531815884496182 -0.42985383783075998 0 -0.4263356171060747 -0.44269880333887462 0 -0.41160927495564159 -0.44339431233754628 0 -0.40396056051613372 -0.45751466911048011 0 -0.41160927495564159 -0.44339431233754628 0 -0.40649676728151513 -0.45682610390212369 0 -0.41160927495564159 -0.44339431233754628 0 -0.40649676728151513 -0.45682610390212369 0 -0.41655419253802572 -0.45404861160063659 0 -0.40396056051613372 -0.45751466911048011 0 -0.41160927495564159 -0.44339431233754628 0 -0.41207507163844148 -0.46917161410542801 0 -0.40649676728151513 -0.45682610390212369 0 -0.41655419253802572 -0.45404861160063659 0 -0.40396056051613372 -0.45751466911048011 0 -0.41207507163844148 -0.46917161410542801 0 -0.40649676728151513 -0.45682610390212369 0 -0.41207507163844148 -0.46917161410542801 0 -0.42627766738448791 -0.46032764904509182 0 -0.41655419253802572 -0.45404861160063659 0 -0.45662330498375908 -0.25656877445722759 0 -0.43445882011373449 -0.25478651907497341 0 -0.45662330498375908 -0.25656877445722759 0 -0.43445882011373449 -0.25478651907497341 0 -0.45034617445999431 -0.24335722649563979 0 -0.44999384684511368 -0.2755750489792308 0 -0.45662330498375908 -0.25656877445722759 0 -0.43445882011373449 -0.25478651907497341 0 -0.44999384684511368 -0.2755750489792308 0 -0.43077531442077321 -0.27459050524281542 0 -0.43445882011373449 -0.25478651907497341 0 -0.44999384684511368 -0.2755750489792308 0 -0.441361257405879 -0.29303276451920029 0 -0.43077531442077321 -0.27459050524281542 0 -0.44999384684511368 -0.2755750489792308 0 -0.4670541169931961 -0.26846056693166809 0 -0.46910519348062618 -0.28320526693770848 0 -0.44999384684511368 -0.2755750489792308 0 -0.4670541169931961 -0.26846056693166809 0 -0.45662330498375908 -0.25656877445722759 0 -0.45662330498375908 -0.25656877445722759 0 -0.47878778985378329 -0.25835102983948688 0 -0.4670541169931961 -0.26846056693166809 0 -0.45662330498375908 -0.25656877445722759 0 -0.47878778985378329 -0.25835102983948688 0 -0.45662330498375908 -0.25656877445722759 0 -0.47878778985378329 -0.25835102983948688 0 -0.47142395938804471 -0.23802335247430181 0 -0.47878778985378329 -0.25835102983948688 0 -0.5 -0.25669760885461612 0 -0.48361763707807442 -0.27426406281091331 0 -0.47878778985378329 -0.25835102983948688 0 -0.5 -0.25669760885461612 0 -0.4875835208682564 -0.24248539692068891 0 -0.5 -0.25669760885461612 0 -0.48361763707807442 -0.27426406281091331 0 -0.5 -0.28413533544635422 0 -0.4670541169931961 -0.26846056693166809 0 -0.47878778985378329 -0.25835102983948688 0 -0.48361763707807442 -0.27426406281091331 0 -0.4670541169931961 -0.26846056693166809 0 -0.48361763707807442 -0.27426406281091331 0 -0.46910519348062618 -0.28320526693770848 0 -0.46910519348062618 -0.28320526693770848 0 -0.48580896399913942 -0.29193665231809679 0 -0.47164434439118558 -0.29859902487093259 0 -0.48361763707807442 -0.27426406281091331 0 -0.46910519348062618 -0.28320526693770848 0 -0.48580896399913942 -0.29193665231809679 0 -0.5 -0.28413533544635422 0 -0.48580896399913942 -0.29193665231809679 0 -0.5 -0.3115730620380921 0 -0.48361763707807442 -0.27426406281091331 0 -0.5 -0.28413533544635422 0 -0.48580896399913942 -0.29193665231809679 0 -0.48580896399913942 -0.29193665231809679 0 -0.5 -0.3115730620380921 0 -0.48293754746551898 -0.30617437981156609 0 -0.48293754746551898 -0.30617437981156609 0 -0.47164434439118558 -0.29859902487093259 0 -0.47203566342767839 -0.31514771464943409 0 -0.48580896399913942 -0.29193665231809679 0 -0.48293754746551898 -0.30617437981156609 0 -0.47164434439118558 -0.29859902487093259 0 -0.47164434439118558 -0.29859902487093259 0 -0.46096111539772322 -0.3069557537098867 0 -0.47203566342767839 -0.31514771464943409 0 -0.46096111539772322 -0.3069557537098867 0 -0.44739706002137658 -0.30395698434733032 0 -0.45229582611609759 -0.31444164243390338 0 -0.46096111539772322 -0.3069557537098867 0 -0.45682111422556548 -0.29317658806621089 0 -0.44739706002137658 -0.30395698434733032 0 -0.47164434439118558 -0.29859902487093259 0 -0.46096111539772322 -0.3069557537098867 0 -0.45682111422556548 -0.29317658806621089 0 -0.44999384684511368 -0.2755750489792308 0 -0.46910519348062618 -0.28320526693770848 0 -0.45682111422556548 -0.29317658806621089 0 -0.46910519348062618 -0.28320526693770848 0 -0.47164434439118558 -0.29859902487093259 0 -0.45682111422556548 -0.29317658806621089 0 -0.44999384684511368 -0.2755750489792308 0 -0.45682111422556548 -0.29317658806621089 0 -0.441361257405879 -0.29303276451920029 0 -0.45682111422556548 -0.29317658806621089 0 -0.441361257405879 -0.29303276451920029 0 -0.44739706002137658 -0.30395698434733032 0 -0.441361257405879 -0.29303276451920029 0 -0.44739706002137658 -0.30395698434733032 0 -0.43527018611072049 -0.30465000121327751 0 -0.44739706002137658 -0.30395698434733032 0 -0.44024276041750632 -0.31887045497680111 0 -0.43527018611072049 -0.30465000121327751 0 -0.44739706002137658 -0.30395698434733032 0 -0.45229582611609759 -0.31444164243390338 0 -0.44024276041750632 -0.31887045497680111 0 -0.44024276041750632 -0.31887045497680111 0 -0.45653421084860168 -0.32646185290925811 0 -0.44024276041750632 -0.31887045497680111 0 -0.43930980958642257 -0.33554338078202212 0 -0.45653421084860168 -0.32646185290925811 0 -0.45229582611609759 -0.31444164243390338 0 -0.44024276041750632 -0.31887045497680111 0 -0.45653421084860168 -0.32646185290925811 0 -0.43930980958642257 -0.33554338078202212 0 -0.44966367396753332 -0.33841986907325933 0 -0.46855294336124231 -0.32873531729210143 0 -0.43930980958642257 -0.33554338078202212 0 -0.4507851133594416 -0.34910720111649318 0 -0.43930980958642257 -0.33554338078202212 0 -0.44966367396753332 -0.33841986907325933 0 -0.4507851133594416 -0.34910720111649318 0 -0.44966367396753332 -0.33841986907325933 0 -0.46855294336124231 -0.32873531729210143 0 -0.46386644800117471 -0.33586508895417932 0 -0.43930980958642257 -0.33554338078202212 0 -0.46855294336124231 -0.32873531729210143 0 -0.43930980958642257 -0.33554338078202212 0 -0.46855294336124231 -0.32873531729210143 0 -0.45653421084860168 -0.32646185290925811 0 -0.44966367396753332 -0.33841986907325933 0 -0.4586808436472537 -0.3401528003513713 0 -0.45711636988675219 -0.34547487934353349 0 -0.44966367396753332 -0.33841986907325933 0 -0.4586808436472537 -0.3401528003513713 0 -0.46386644800117471 -0.33586508895417932 0 -0.4586808436472537 -0.3401528003513713 0 -0.46472493826860672 -0.34236766697450172 0 -0.45711636988675219 -0.34547487934353349 0 -0.4586808436472537 -0.3401528003513713 0 -0.46472493826860672 -0.34236766697450172 0 -0.46386644800117471 -0.33586508895417932 0 -0.46855294336124231 -0.32873531729210143 0 -0.46207595183026873 -0.31834845619891672 0 -0.47203566342767839 -0.31514771464943409 0 -0.46855294336124231 -0.32873531729210143 0 -0.45653421084860168 -0.32646185290925811 0 -0.46207595183026873 -0.31834845619891672 0 -0.46096111539772322 -0.3069557537098867 0 -0.45229582611609759 -0.31444164243390338 0 -0.46207595183026873 -0.31834845619891672 0 -0.45229582611609759 -0.31444164243390338 0 -0.45653421084860168 -0.32646185290925811 0 -0.46207595183026873 -0.31834845619891672 0 -0.46096111539772322 -0.3069557537098867 0 -0.46207595183026873 -0.31834845619891672 0 -0.47203566342767839 -0.31514771464943409 0 -0.48293754746551898 -0.30617437981156609 0 -0.47203566342767839 -0.31514771464943409 0 -0.47770984076123751 -0.32964979107966252 0 -0.48293754746551898 -0.30617437981156609 0 -0.47770984076123751 -0.32964979107966252 0 -0.48293754746551898 -0.30617437981156609 0 -0.48763303240419292 -0.31981883507337211 0 -0.47770984076123751 -0.32964979107966252 0 -0.46855294336124231 -0.32873531729210143 0 -0.47203566342767839 -0.31514771464943409 0 -0.47770984076123751 -0.32964979107966252 0 -0.5 -0.3115730620380921 0 -0.5 -0.33901078862982997 0 -0.49048543526404831 -0.32960291085151988 0 -0.5 -0.3115730620380921 0 -0.48763303240419292 -0.31981883507337211 0 -0.49048543526404831 -0.32960291085151988 0 -0.5 -0.3115730620380921 0 -0.48293754746551898 -0.30617437981156609 0 -0.48763303240419292 -0.31981883507337211 0 -0.48763303240419292 -0.31981883507337211 0 -0.49048543526404831 -0.32960291085151988 0 -0.47770984076123751 -0.32964979107966252 0 -0.49048543526404831 -0.32960291085151988 0 -0.47770984076123751 -0.32964979107966252 0 -0.48708430315481122 -0.3479620774366432 0 -0.5 -0.33901078862982997 0 -0.49048543526404831 -0.32960291085151988 0 -0.48708430315481122 -0.3479620774366432 0 -0.47770984076123751 -0.32964979107966252 0 -0.47248213405695583 -0.35312520234775913 0 -0.47770984076123751 -0.32964979107966252 0 -0.47248213405695583 -0.35312520234775913 0 -0.48708430315481122 -0.3479620774366432 0 -0.46472493826860672 -0.34236766697450172 0 -0.47770984076123751 -0.32964979107966252 0 -0.47248213405695583 -0.35312520234775913 0 -0.46855294336124231 -0.32873531729210143 0 -0.46386644800117471 -0.33586508895417932 0 -0.47770984076123751 -0.32964979107966252 0 -0.46472493826860672 -0.34236766697450172 0 -0.46386644800117471 -0.33586508895417932 0 -0.47770984076123751 -0.32964979107966252 0 -0.47248213405695583 -0.35312520234775913 0 -0.48708430315481122 -0.3479620774366432 0 -0.48422759779560409 -0.37130120630367158 0 -0.5 -0.33901078862982997 0 -0.48708430315481122 -0.3479620774366432 0 -0.5 -0.36644851522156802 0 -0.48708430315481122 -0.3479620774366432 0 -0.5 -0.36644851522156802 0 -0.48422759779560409 -0.37130120630367158 0 -0.46725442735267431 -0.37660061361585562 0 -0.47248213405695583 -0.35312520234775913 0 -0.48422759779560409 -0.37130120630367158 0 -0.46725442735267431 -0.37660061361585562 0 -0.47248213405695583 -0.35312520234775913 0 -0.46725442735267431 -0.37660061361585562 0 -0.4540003998136638 -0.37455519391687309 0 -0.46226041713245919 -0.36267102145096558 0 -0.46725442735267431 -0.37660061361585562 0 -0.47248213405695583 -0.35312520234775913 0 -0.46226041713245919 -0.36267102145096558 0 -0.4540003998136638 -0.37455519391687309 0 -0.46226041713245919 -0.36267102145096558 0 -0.45167034254705118 -0.36337553476545958 0 -0.47248213405695583 -0.35312520234775913 0 -0.46226041713245919 -0.36267102145096558 0 -0.46130034509645268 -0.35111989715704561 0 -0.46472493826860672 -0.34236766697450172 0 -0.47248213405695583 -0.35312520234775913 0 -0.46130034509645268 -0.35111989715704561 0 -0.46472493826860672 -0.34236766697450172 0 -0.46130034509645268 -0.35111989715704561 0 -0.45711636988675219 -0.34547487934353349 0 -0.46130034509645268 -0.35111989715704561 0 -0.45711636988675219 -0.34547487934353349 0 -0.4507851133594416 -0.34910720111649318 0 -0.46226041713245919 -0.36267102145096558 0 -0.4507851133594416 -0.34910720111649318 0 -0.45167034254705118 -0.36337553476545958 0 -0.46226041713245919 -0.36267102145096558 0 -0.46130034509645268 -0.35111989715704561 0 -0.4507851133594416 -0.34910720111649318 0 -0.46226041713245919 -0.36267102145096558 0 -0.4507851133594416 -0.34910720111649318 0 -0.4507851133594416 -0.34910720111649318 0 -0.44504098357239391 -0.35771747353496869 0 -0.45167034254705118 -0.36337553476545958 0 -0.44966367396753332 -0.33841986907325933 0 -0.45711636988675219 -0.34547487934353349 0 -0.4507851133594416 -0.34910720111649318 0 -0.4507851133594416 -0.34910720111649318 0 -0.44408457896710762 -0.34741130507322732 0 -0.44504098357239391 -0.35771747353496869 0 -0.43930980958642257 -0.33554338078202212 0 -0.4507851133594416 -0.34910720111649318 0 -0.44408457896710762 -0.34741130507322732 0 -0.44408457896710762 -0.34741130507322732 0 -0.43834809566141358 -0.35386966642967582 0 -0.4310745521241639 -0.35060051531725012 0 -0.44408457896710762 -0.34741130507322732 0 -0.43834809566141358 -0.35386966642967582 0 -0.44504098357239391 -0.35771747353496869 0 -0.43834809566141358 -0.35386966642967582 0 -0.44504098357239391 -0.35771747353496869 0 -0.43256408976529492 -0.36260533289695268 0 -0.44504098357239391 -0.35771747353496869 0 -0.44172858264042247 -0.37082207246888088 0 -0.43256408976529492 -0.36260533289695268 0 -0.4540003998136638 -0.37455519391687309 0 -0.44172858264042247 -0.37082207246888088 0 -0.45167034254705118 -0.36337553476545958 0 -0.44504098357239391 -0.35771747353496869 0 -0.44172858264042247 -0.37082207246888088 0 -0.45167034254705118 -0.36337553476545958 0 -0.42311368847744002 -0.37830224279505142 0 -0.44172858264042247 -0.37082207246888088 0 -0.43256408976529492 -0.36260533289695268 0 -0.42311368847744002 -0.37830224279505142 0 -0.43256408976529492 -0.36260533289695268 0 -0.41867380740831611 -0.36398836527224071 0 -0.43256408976529492 -0.36260533289695268 0 -0.42210656065146929 -0.35476551363046099 0 -0.41867380740831611 -0.36398836527224071 0 -0.44408457896710762 -0.34741130507322732 0 -0.4310745521241639 -0.35060051531725012 0 -0.42443636388738298 -0.3390060521705498 0 -0.43834809566141358 -0.35386966642967582 0 -0.43256408976529492 -0.36260533289695268 0 -0.4310745521241639 -0.35060051531725012 0 -0.4310745521241639 -0.35060051531725012 0 -0.42266042161335821 -0.34652378860874011 0 -0.42210656065146929 -0.35476551363046099 0 -0.4310745521241639 -0.35060051531725012 0 -0.42266042161335821 -0.34652378860874011 0 -0.42443636388738298 -0.3390060521705498 0 -0.43256408976529492 -0.36260533289695268 0 -0.4310745521241639 -0.35060051531725012 0 -0.42210656065146929 -0.35476551363046099 0 -0.42210656065146929 -0.35476551363046099 0 -0.41243440171204931 -0.35621682403100541 0 -0.41867380740831611 -0.36398836527224071 0 -0.41243440171204931 -0.35621682403100541 0 -0.40365717239196519 -0.36741535175059892 0 -0.40302160193259851 -0.3439916005776541 0 -0.42210656065146929 -0.35476551363046099 0 -0.41714587076776338 -0.34786779488983011 0 -0.41243440171204931 -0.35621682403100541 0 -0.42266042161335821 -0.34652378860874011 0 -0.42210656065146929 -0.35476551363046099 0 -0.41714587076776338 -0.34786779488983011 0 -0.42266042161335821 -0.34652378860874011 0 -0.41714587076776338 -0.34786779488983011 0 -0.41853876063601031 -0.34037906703560689 0 -0.41714587076776338 -0.34786779488983011 0 -0.41853876063601031 -0.34037906703560689 0 -0.41714587076776338 -0.34786779488983011 0 -0.41243440171204931 -0.35621682403100541 0 -0.40302160193259851 -0.3439916005776541 0 -0.41714587076776338 -0.34786779488983011 0 -0.40302160193259851 -0.3439916005776541 0 -0.41853876063601031 -0.34037906703560689 0 -0.42311368847744002 -0.37830224279505142 0 -0.41867380740831611 -0.36398836527224071 0 -0.40365717239196519 -0.36741535175059892 0 -0.42311368847744002 -0.37830224279505142 0 -0.40365717239196519 -0.36741535175059892 0 -0.41243440171204931 -0.35621682403100541 0 -0.41867380740831611 -0.36398836527224071 0 -0.40365717239196519 -0.36741535175059892 0 -0.40403491357358612 -0.38133688525744702 0 -0.40365717239196519 -0.36741535175059892 0 -0.40403491357358612 -0.38133688525744702 0 -0.40365717239196519 -0.36741535175059892 0 -0.3904578797192948 -0.37473938743617019 0 -0.40365717239196519 -0.36741535175059892 0 -0.38979507995825918 -0.35965881973269581 0 -0.40365717239196519 -0.36741535175059892 0 -0.3904578797192948 -0.37473938743617019 0 -0.38979507995825918 -0.35965881973269581 0 -0.3904578797192948 -0.37473938743617019 0 -0.38979507995825918 -0.35965881973269581 0 -0.37568304780698558 -0.36916333065311507 0 -0.37568304780698558 -0.36916333065311507 0 -0.37593298752455201 -0.35190228771479481 0 -0.38979507995825918 -0.35965881973269581 0 -0.37568304780698558 -0.36916333065311507 0 -0.37593298752455201 -0.35190228771479481 0 -0.38979507995825918 -0.35965881973269581 0 -0.37595629511297179 -0.35029264644438168 0 -0.40302160193259851 -0.3439916005776541 0 -0.37595629511297179 -0.35029264644438168 0 -0.40302160193259851 -0.3439916005776541 0 -0.38842354837557669 -0.33756560667471242 0 -0.37595629511297179 -0.35029264644438168 0 -0.40302160193259851 -0.3439916005776541 0 -0.37595629511297179 -0.35029264644438168 0 -0.37607676276689278 -0.3419730509543204 0 -0.37390838074359528 -0.35076941925389299 0 -0.37595629511297179 -0.35029264644438168 0 -0.37607676276689278 -0.3419730509543204 0 -0.37595629511297179 -0.35029264644438168 0 -0.37593298752455201 -0.35190228771479481 0 -0.37390838074359528 -0.35076941925389299 0 -0.37595629511297179 -0.35029264644438168 0 -0.37593298752455201 -0.35190228771479481 0 -0.38979507995825918 -0.35965881973269581 0 -0.37595629511297179 -0.35029264644438168 0 -0.37593298752455201 -0.35190228771479481 0 -0.38979507995825918 -0.35965881973269581 0 -0.37593298752455201 -0.35190228771479481 0 -0.40365717239196519 -0.36741535175059892 0 -0.40302160193259851 -0.3439916005776541 0 -0.40365717239196519 -0.36741535175059892 0 -0.38979507995825918 -0.35965881973269581 0 -0.40302160193259851 -0.3439916005776541 0 -0.40302160193259851 -0.3439916005776541 0 -0.40263324863316441 -0.32967896077653092 0 -0.40263324863316441 -0.32967896077653092 0 -0.38842354837557669 -0.33756560667471242 0 -0.38442983343225828 -0.32189177462067481 0 -0.40302160193259851 -0.3439916005776541 0 -0.40263324863316441 -0.32967896077653092 0 -0.38842354837557669 -0.33756560667471242 0 -0.37607676276689278 -0.3419730509543204 0 -0.37641717267996733 -0.3184640617331177 0 -0.38842354837557669 -0.33756560667471242 0 -0.37607676276689278 -0.3419730509543204 0 -0.38442983343225828 -0.32189177462067481 0 -0.37607676276689278 -0.3419730509543204 0 -0.38442983343225828 -0.32189177462067481 0 -0.37595629511297179 -0.35029264644438168 0 -0.38842354837557669 -0.33756560667471242 0 -0.37607676276689278 -0.3419730509543204 0 -0.37607676276689278 -0.3419730509543204 0 -0.37641717267996733 -0.3184640617331177 0 -0.38442983343225828 -0.32189177462067481 0 -0.37641717267996733 -0.3184640617331177 0 -0.38442983343225828 -0.32189177462067481 0 -0.3841914044669909 -0.30132118344037401 0 -0.37641717267996733 -0.3184640617331177 0 -0.38442983343225828 -0.32189177462067481 0 -0.40263324863316441 -0.32967896077653092 0 -0.38442983343225828 -0.32189177462067481 0 -0.40185461233875269 -0.30098256284660307 0 -0.40263324863316441 -0.32967896077653092 0 -0.38442983343225828 -0.32189177462067481 0 -0.40263324863316441 -0.32967896077653092 0 -0.40185461233875269 -0.30098256284660307 0 -0.40263324863316441 -0.32967896077653092 0 -0.41242695344044827 -0.31820451366256841 0 -0.40185461233875269 -0.30098256284660307 0 -0.41242695344044827 -0.31820451366256841 0 -0.41920998916455232 -0.33677027649670849 0 -0.42301959421646518 -0.31628833020920039 0 -0.41920998916455232 -0.33677027649670849 0 -0.42301959421646518 -0.31628833020920039 0 -0.41242695344044827 -0.31820451366256841 0 -0.42301959421646518 -0.31628833020920039 0 -0.41541732284930832 -0.30730243798379953 0 -0.40302160193259851 -0.3439916005776541 0 -0.41920998916455232 -0.33677027649670849 0 -0.41853876063601031 -0.34037906703560689 0 -0.40302160193259851 -0.3439916005776541 0 -0.40263324863316441 -0.32967896077653092 0 -0.41920998916455232 -0.33677027649670849 0 -0.40263324863316441 -0.32967896077653092 0 -0.41920998916455232 -0.33677027649670849 0 -0.40263324863316441 -0.32967896077653092 0 -0.41242695344044827 -0.31820451366256841 0 -0.41920998916455232 -0.33677027649670849 0 -0.40302160193259851 -0.3439916005776541 0 -0.41853876063601031 -0.34037906703560689 0 -0.41853876063601031 -0.34037906703560689 0 -0.42443636388738298 -0.3390060521705498 0 -0.41920998916455232 -0.33677027649670849 0 -0.42443636388738298 -0.3390060521705498 0 -0.41920998916455232 -0.33677027649670849 0 -0.41853876063601031 -0.34037906703560689 0 -0.42443636388738298 -0.3390060521705498 0 -0.41920998916455232 -0.33677027649670849 0 -0.41853876063601031 -0.34037906703560689 0 -0.43930980958642257 -0.33554338078202212 0 -0.44408457896710762 -0.34741130507322732 0 -0.42443636388738298 -0.3390060521705498 0 -0.43930980958642257 -0.33554338078202212 0 -0.42443636388738298 -0.3390060521705498 0 -0.42301959421646518 -0.31628833020920039 0 -0.41920998916455232 -0.33677027649670849 0 -0.42443636388738298 -0.3390060521705498 0 -0.42301959421646518 -0.31628833020920039 0 -0.44408457896710762 -0.34741130507322732 0 -0.42443636388738298 -0.3390060521705498 0 -0.42266042161335821 -0.34652378860874011 0 -0.41853876063601031 -0.34037906703560689 0 -0.42443636388738298 -0.3390060521705498 0 -0.43930980958642257 -0.33554338078202212 0 -0.42443636388738298 -0.3390060521705498 0 -0.43930980958642257 -0.33554338078202212 0 -0.42301959421646518 -0.31628833020920039 0 -0.44024276041750632 -0.31887045497680111 0 -0.42395130998641067 -0.31127905704434472 0 -0.44024276041750632 -0.31887045497680111 0 -0.43930980958642257 -0.33554338078202212 0 -0.42301959421646518 -0.31628833020920039 0 -0.44024276041750632 -0.31887045497680111 0 -0.42301959421646518 -0.31628833020920039 0 -0.42395130998641067 -0.31127905704434472 0 -0.42301959421646518 -0.31628833020920039 0 -0.42395130998641067 -0.31127905704434472 0 -0.42395130998641067 -0.31127905704434472 0 -0.42709180872781188 -0.29439449141065738 0 -0.44024276041750632 -0.31887045497680111 0 -0.42395130998641067 -0.31127905704434472 0 -0.43527018611072049 -0.30465000121327751 0 -0.42395130998641067 -0.31127905704434472 0 -0.42709180872781188 -0.29439449141065738 0 -0.41541732284930832 -0.30730243798379953 0 -0.42395130998641067 -0.31127905704434472 0 -0.43527018611072049 -0.30465000121327751 0 -0.42709180872781188 -0.29439449141065738 0 -0.441361257405879 -0.29303276451920029 0 -0.43527018611072049 -0.30465000121327751 0 -0.42709180872781188 -0.29439449141065738 0 -0.42709180872781188 -0.29439449141065738 0 -0.43077531442077321 -0.27459050524281542 0 -0.42709180872781188 -0.29439449141065738 0 -0.41684225135067149 -0.28376244362903152 0 -0.43077531442077321 -0.27459050524281542 0 -0.441361257405879 -0.29303276451920029 0 -0.42709180872781188 -0.29439449141065738 0 -0.441361257405879 -0.29303276451920029 0 -0.42709180872781188 -0.29439449141065738 0 -0.43077531442077321 -0.27459050524281542 0 -0.42709180872781188 -0.29439449141065738 0 -0.41684225135067149 -0.28376244362903152 0 -0.40618483967714292 -0.29638963380315841 0 -0.42709180872781188 -0.29439449141065738 0 -0.40618483967714292 -0.29638963380315841 0 -0.41684225135067149 -0.28376244362903152 0 -0.40690107601488551 -0.28490397733270861 0 -0.40618483967714292 -0.29638963380315841 0 -0.41541732284930832 -0.30730243798379953 0 -0.40185461233875269 -0.30098256284660307 0 -0.40618483967714292 -0.29638963380315841 0 -0.42709180872781188 -0.29439449141065738 0 -0.41541732284930832 -0.30730243798379953 0 -0.40618483967714292 -0.29638963380315841 0 -0.41541732284930832 -0.30730243798379953 0 -0.40618483967714292 -0.29638963380315841 0 -0.41242695344044827 -0.31820451366256841 0 -0.41541732284930832 -0.30730243798379953 0 -0.40185461233875269 -0.30098256284660307 0 -0.41541732284930832 -0.30730243798379953 0 -0.40185461233875269 -0.30098256284660307 0 -0.42301959421646518 -0.31628833020920039 0 -0.41541732284930832 -0.30730243798379953 0 -0.42395130998641067 -0.31127905704434472 0 -0.41541732284930832 -0.30730243798379953 0 -0.42301959421646518 -0.31628833020920039 0 -0.42395130998641067 -0.31127905704434472 0 -0.41541732284930832 -0.30730243798379953 0 -0.38442983343225828 -0.32189177462067481 0 -0.40185461233875269 -0.30098256284660307 0 -0.39448508010510541 -0.297525044214214 0 -0.40185461233875269 -0.30098256284660307 0 -0.40174149504185092 -0.29681366012781812 0 -0.40618483967714292 -0.29638963380315841 0 -0.40185461233875269 -0.30098256284660307 0 -0.40174149504185092 -0.29681366012781812 0 -0.40185461233875269 -0.30098256284660307 0 -0.39448508010510541 -0.297525044214214 0 -0.40174149504185092 -0.29681366012781812 0 -0.40185461233875269 -0.30098256284660307 0 -0.39448508010510541 -0.297525044214214 0 -0.39448508010510541 -0.297525044214214 0 -0.40174149504185092 -0.29681366012781812 0 -0.37641717267996733 -0.3184640617331177 0 -0.37669606201677502 -0.29920373422444158 0 -0.38442983343225828 -0.32189177462067481 0 -0.39448508010510541 -0.297525044214214 0 -0.38442983343225828 -0.32189177462067481 0 -0.39448508010510541 -0.297525044214214 0 -0.3841914044669909 -0.30132118344037401 0 -0.37641717267996733 -0.3184640617331177 0 -0.3841914044669909 -0.30132118344037401 0 -0.37669606201677502 -0.29920373422444158 0 -0.39448508010510541 -0.297525044214214 0 -0.3841914044669909 -0.30132118344037401 0 -0.37928718982873688 -0.29895646409505849 0 -0.39448508010510541 -0.297525044214214 0 -0.37928718982873688 -0.29895646409505849 0 -0.3841914044669909 -0.30132118344037401 0 -0.37928718982873688 -0.29895646409505849 0 -0.3841914044669909 -0.30132118344037401 0 -0.37928718982873688 -0.29895646409505849 0 -0.37669606201677502 -0.29920373422444158 0 -0.37928718982873688 -0.29895646409505849 0 -0.37669606201677502 -0.29920373422444158 0 -0.37671758341694961 -0.29771744858697219 0 -0.37928718982873688 -0.29895646409505849 0 -0.37671758341694961 -0.29771744858697219 0 -0.37928718982873688 -0.29895646409505849 0 -0.37669606201677502 -0.29920373422444158 0 -0.37669606201677502 -0.29920373422444158 0 -0.37671758341694961 -0.29771744858697219 0 -0.37671758341694961 -0.29771744858697219 0 -0.38607699004493318 -0.28757386461908069 0 -0.38483052758877101 -0.28123782127595193 0 -0.37671758341694961 -0.29771744858697219 0 -0.3770412393053626 -0.27536550612006683 0 -0.37671758341694961 -0.29771744858697219 0 -0.38483052758877101 -0.28123782127595193 0 -0.3770412393053626 -0.27536550612006683 0 -0.37928718982873688 -0.29895646409505849 0 -0.37671758341694961 -0.29771744858697219 0 -0.38467000758835601 -0.29297497791584359 0 -0.37671758341694961 -0.29771744858697219 0 -0.38467000758835601 -0.29297497791584359 0 -0.38607699004493318 -0.28757386461908069 0 -0.39448508010510541 -0.297525044214214 0 -0.37928718982873688 -0.29895646409505849 0 -0.38467000758835601 -0.29297497791584359 0 -0.39448508010510541 -0.297525044214214 0 -0.38467000758835601 -0.29297497791584359 0 -0.39448508010510541 -0.297525044214214 0 -0.38467000758835601 -0.29297497791584359 0 -0.39217701296355612 -0.28987936211692023 0 -0.38467000758835601 -0.29297497791584359 0 -0.38607699004493318 -0.28757386461908069 0 -0.39217701296355612 -0.28987936211692023 0 -0.38607699004493318 -0.28757386461908069 0 -0.39049541959166939 -0.28414526237041138 0 -0.39217701296355612 -0.28987936211692023 0 -0.39049541959166939 -0.28414526237041138 0 -0.39420405367365152 -0.27853706101481662 0 -0.38483052758877101 -0.28123782127595193 0 -0.38607699004493318 -0.28757386461908069 0 -0.39049541959166939 -0.28414526237041138 0 -0.38483052758877101 -0.28123782127595193 0 -0.39597078832761667 -0.28551153658085893 0 -0.40174149504185092 -0.29681366012781812 0 -0.40123596036735593 -0.27818233727432817 0 -0.39049541959166939 -0.28414526237041138 0 -0.39597078832761667 -0.28551153658085893 0 -0.39420405367365152 -0.27853706101481662 0 -0.40174149504185092 -0.29681366012781812 0 -0.40123596036735593 -0.27818233727432817 0 -0.40174149504185092 -0.29681366012781812 0 -0.40322207619149192 -0.29288764445213411 0 -0.40123596036735593 -0.27818233727432817 0 -0.39049541959166939 -0.28414526237041138 0 -0.39597078832761667 -0.28551153658085893 0 -0.39217701296355612 -0.28987936211692023 0 -0.39597078832761667 -0.28551153658085893 0 -0.39217701296355612 -0.28987936211692023 0 -0.40174149504185092 -0.29681366012781812 0 -0.39448508010510541 -0.297525044214214 0 -0.39217701296355612 -0.28987936211692023 0 -0.40174149504185092 -0.29681366012781812 0 -0.40690107601488551 -0.28490397733270861 0 -0.40322207619149192 -0.29288764445213411 0 -0.40618483967714292 -0.29638963380315841 0 -0.40174149504185092 -0.29681366012781812 0 -0.40322207619149192 -0.29288764445213411 0 -0.40618483967714292 -0.29638963380315841 0 -0.40174149504185092 -0.29681366012781812 0 -0.40618483967714292 -0.29638963380315841 0 -0.40322207619149192 -0.29288764445213411 0 -0.40618483967714292 -0.29638963380315841 0 -0.40690107601488551 -0.28490397733270861 0 -0.40322207619149192 -0.29288764445213411 0 -0.40123596036735593 -0.27818233727432817 0 -0.39420405367365152 -0.27853706101481662 0 -0.37710287173325818 -0.2711091198417086 0 -0.40073042569286338 -0.25955101442083811 0 -0.40123596036735593 -0.27818233727432817 0 -0.39420405367365152 -0.27853706101481662 0 -0.40073042569286338 -0.25955101442083811 0 -0.40123596036735593 -0.27818233727432817 0 -0.40073042569286338 -0.25955101442083811 0 -0.40123596036735593 -0.27818233727432817 0 -0.40073042569286338 -0.25955101442083811 0 -0.41341650638623911 -0.27076301679274262 0 -0.39597078832761667 -0.28551153658085893 0 -0.40123596036735593 -0.27818233727432817 0 -0.39420405367365152 -0.27853706101481662 0 -0.39420405367365152 -0.27853706101481662 0 -0.37710287173325818 -0.2711091198417086 0 -0.3770412393053626 -0.27536550612006683 0 -0.39420405367365152 -0.27853706101481662 0 -0.3770412393053626 -0.27536550612006683 0 -0.39420405367365152 -0.27853706101481662 0 -0.38483052758877101 -0.28123782127595193 0 -0.3770412393053626 -0.27536550612006683 0 -0.37710287173325818 -0.2711091198417086 0 -0.3770412393053626 -0.27536550612006683 0 -0.37710287173325818 -0.2711091198417086 0 -0.38543722149146659 -0.25821727905458303 0 -0.40073042569286338 -0.25955101442083811 0 -0.37710287173325818 -0.2711091198417086 0 -0.37747963509906429 -0.24508953120583671 0 -0.37710287173325818 -0.2711091198417086 0 -0.40073042569286338 -0.25955101442083811 0 -0.37710287173325818 -0.2711091198417086 0 -0.38543722149146659 -0.25821727905458303 0 -0.37747963509906429 -0.24508953120583671 0 -0.38543722149146659 -0.25821727905458303 0 -0.3938256931015453 -0.25037754026629511 0 -0.37747963509906429 -0.24508953120583671 0 -0.38543722149146659 -0.25821727905458303 0 -0.3938256931015453 -0.25037754026629511 0 -0.40073042569286338 -0.25955101442083811 0 -0.40073042569286338 -0.25955101442083811 0 -0.40282532782868952 -0.25224285689579767 0 -0.40022281387448849 -0.24084313907701979 0 -0.40073042569286338 -0.25955101442083811 0 -0.40022281387448849 -0.24084313907701979 0 -0.3938256931015453 -0.25037754026629511 0 -0.40073042569286338 -0.25955101442083811 0 -0.40022281387448849 -0.24084313907701979 0 -0.40073042569286338 -0.25955101442083811 0 -0.40282532782868952 -0.25224285689579767 0 -0.41385673751816382 -0.25312989710486528 0 -0.40073042569286338 -0.25955101442083811 0 -0.41385673751816382 -0.25312989710486528 0 -0.40073042569286338 -0.25955101442083811 0 -0.41385673751816382 -0.25312989710486528 0 -0.41341650638623911 -0.27076301679274262 0 -0.41385673751816382 -0.25312989710486528 0 -0.41341650638623911 -0.27076301679274262 0 -0.42312684460972783 -0.26331748455384929 0 -0.41385673751816382 -0.25312989710486528 0 -0.41679144862722167 -0.25169429778568547 0 -0.43445882011373449 -0.25478651907497341 0 -0.40282532782868952 -0.25224285689579767 0 -0.41385673751816382 -0.25312989710486528 0 -0.4086566941719203 -0.24778871483445111 0 -0.40282532782868952 -0.25224285689579767 0 -0.41385673751816382 -0.25312989710486528 0 -0.41385673751816382 -0.25312989710486528 0 -0.41679144862722167 -0.25169429778568547 0 -0.41627810448972868 -0.24641300060905449 0 -0.41385673751816382 -0.25312989710486528 0 -0.41679144862722167 -0.25169429778568547 0 -0.41684225135067149 -0.28376244362903152 0 -0.41341650638623911 -0.27076301679274262 0 -0.43077531442077321 -0.27459050524281542 0 -0.40690107601488551 -0.28490397733270861 0 -0.40123596036735593 -0.27818233727432817 0 -0.41341650638623911 -0.27076301679274262 0 -0.41684225135067149 -0.28376244362903152 0 -0.40690107601488551 -0.28490397733270861 0 -0.41341650638623911 -0.27076301679274262 0 -0.41341650638623911 -0.27076301679274262 0 -0.43077531442077321 -0.27459050524281542 0 -0.42312684460972783 -0.26331748455384929 0 -0.43077531442077321 -0.27459050524281542 0 -0.42312684460972783 -0.26331748455384929 0 -0.43445882011373449 -0.25478651907497341 0 -0.41385673751816382 -0.25312989710486528 0 -0.43445882011373449 -0.25478651907497341 0 -0.43077531442077321 -0.27459050524281542 0 -0.43445882011373449 -0.25478651907497341 0 -0.41385673751816382 -0.25312989710486528 0 -0.42312684460972783 -0.26331748455384929 0 -0.43445882011373449 -0.25478651907497341 0 -0.41679144862722167 -0.25169429778568547 0 -0.43445882011373449 -0.25478651907497341 0 -0.42335340856967768 -0.24893549408922019 0 -0.32580796388430833 -0.26195871891040218 0 -0.34139866608006603 -0.2687790352098644 0 -0.31202674084989918 -0.26335133138269068 0 -0.32580796388430833 -0.26195871891040218 0 -0.33345250408021371 -0.25331871279766999 0 -0.32023222063025569 -0.2489608815952247 0 -0.32580796388430833 -0.26195871891040218 0 -0.31664960680882542 -0.25714232151458272 0 -0.32023222063025569 -0.2489608815952247 0 -0.31664960680882542 -0.25714232151458272 0 -0.30853150187083839 -0.25429835417001312 0 -0.32023222063025569 -0.2489608815952247 0 -0.32580796388430833 -0.26195871891040218 0 -0.31664960680882542 -0.25714232151458272 0 -0.31202674084989918 -0.26335133138269068 0 -0.33223611708196649 -0.27626932861073827 0 -0.31972670239926188 -0.28454160199560091 0 -0.31187737399160442 -0.27618124236115132 0 -0.34139866608006603 -0.2687790352098644 0 -0.31202674084989918 -0.26335133138269068 0 -0.33223611708196649 -0.27626932861073827 0 -0.31202674084989918 -0.26335133138269068 0 -0.3062135479255173 -0.26372173898871692 0 -0.33223611708196649 -0.27626932861073827 0 -0.31187737399160442 -0.27618124236115132 0 -0.3062135479255173 -0.26372173898871692 0 -0.33260241140844943 -0.2743168067351805 0 -0.33223611708196649 -0.27626932861073827 0 -0.31202674084989918 -0.26335133138269068 0 -0.33223611708196649 -0.27626932861073827 0 -0.3062135479255173 -0.26372173898871692 0 -0.33260241140844943 -0.2743168067351805 0 -0.34139866608006603 -0.2687790352098644 0 -0.31202674084989918 -0.26335133138269068 0 -0.33223611708196649 -0.27626932861073827 0 -0.34139866608006603 -0.2687790352098644 0 -0.34951875912658742 -0.28460269103381453 0 -0.33223611708196649 -0.27626932861073827 0 -0.34951875912658742 -0.28460269103381453 0 -0.33260241140844943 -0.2743168067351805 0 -0.33223611708196649 -0.27626932861073827 0 -0.34139866608006603 -0.2687790352098644 0 -0.33260241140844943 -0.2743168067351805 0 -0.33223611708196649 -0.27626932861073827 0 -0.34139866608006603 -0.2687790352098644 0 -0.3363084638556994 -0.26041051377605268 0 -0.34457472137820933 -0.25758558818627408 0 -0.32580796388430833 -0.26195871891040218 0 -0.34139866608006603 -0.2687790352098644 0 -0.3363084638556994 -0.26041051377605268 0 -0.32580796388430833 -0.26195871891040218 0 -0.3363084638556994 -0.26041051377605268 0 -0.33345250408021371 -0.25331871279766999 0 -0.3363084638556994 -0.26041051377605268 0 -0.33345250408021371 -0.25331871279766999 0 -0.34457472137820933 -0.25758558818627408 0 -0.33345250408021371 -0.25331871279766999 0 -0.34457472137820933 -0.25758558818627408 0 -0.34395992200845399 -0.24382677409400949 0 -0.34139866608006603 -0.2687790352098644 0 -0.34457472137820933 -0.25758558818627408 0 -0.35733732661955131 -0.26288598862094092 0 -0.34457472137820933 -0.25758558818627408 0 -0.35872453044413888 -0.25078889886649508 0 -0.34395992200845399 -0.24382677409400949 0 -0.34457472137820933 -0.25758558818627408 0 -0.35733732661955131 -0.26288598862094092 0 -0.35872453044413888 -0.25078889886649508 0 -0.37710287173325818 -0.2711091198417086 0 -0.36828299104124951 -0.26081605551440462 0 -0.37747963509906429 -0.24508953120583671 0 -0.35872453044413888 -0.25078889886649508 0 -0.36828299104124951 -0.26081605551440462 0 -0.37747963509906429 -0.24508953120583671 0 -0.35733732661955131 -0.26288598862094092 0 -0.35872453044413888 -0.25078889886649508 0 -0.36828299104124951 -0.26081605551440462 0 -0.37077059131023282 -0.27420673903703829 0 -0.34951875912658742 -0.28460269103381453 0 -0.37710287173325818 -0.2711091198417086 0 -0.3770412393053626 -0.27536550612006683 0 -0.37077059131023282 -0.27420673903703829 0 -0.3770412393053626 -0.27536550612006683 0 -0.37077059131023282 -0.27420673903703829 0 -0.37710287173325818 -0.2711091198417086 0 -0.36828299104124951 -0.26081605551440462 0 -0.37077059131023282 -0.27420673903703829 0 -0.37710287173325818 -0.2711091198417086 0 -0.37077059131023282 -0.27420673903703829 0 -0.35733732661955131 -0.26288598862094092 0 -0.36828299104124951 -0.26081605551440462 0 -0.37077059131023282 -0.27420673903703829 0 -0.34139866608006603 -0.2687790352098644 0 -0.35733732661955131 -0.26288598862094092 0 -0.37077059131023282 -0.27420673903703829 0 -0.34139866608006603 -0.2687790352098644 0 -0.37077059131023282 -0.27420673903703829 0 -0.34951875912658742 -0.28460269103381453 0 -0.34139866608006603 -0.2687790352098644 0 -0.37077059131023282 -0.27420673903703829 0 -0.34951875912658742 -0.28460269103381453 0 -0.3581763596052473 -0.30097106086504849 0 -0.34010739644885768 -0.2892065328944351 0 -0.34951875912658742 -0.28460269103381453 0 -0.34010739644885768 -0.2892065328944351 0 -0.37671758341694961 -0.29771744858697219 0 -0.37077059131023282 -0.27420673903703829 0 -0.34951875912658742 -0.28460269103381453 0 -0.37671758341694961 -0.29771744858697219 0 -0.34951875912658742 -0.28460269103381453 0 -0.37671758341694961 -0.29771744858697219 0 -0.3770412393053626 -0.27536550612006683 0 -0.37077059131023282 -0.27420673903703829 0 -0.37671758341694961 -0.29771744858697219 0 -0.34951875912658742 -0.28460269103381453 0 -0.3581763596052473 -0.30097106086504849 0 -0.37669606201677502 -0.29920373422444158 0 -0.37671758341694961 -0.29771744858697219 0 -0.3581763596052473 -0.30097106086504849 0 -0.37641717267996733 -0.3184640617331177 0 -0.37669606201677502 -0.29920373422444158 0 -0.36799370156123501 -0.30592930732763762 0 -0.37641717267996733 -0.3184640617331177 0 -0.36799370156123501 -0.30592930732763762 0 -0.35803691493684492 -0.31060122461938489 0 -0.37669606201677502 -0.29920373422444158 0 -0.36799370156123501 -0.30592930732763762 0 -0.3581763596052473 -0.30097106086504849 0 -0.37669606201677502 -0.29920373422444158 0 -0.3581763596052473 -0.30097106086504849 0 -0.36799370156123501 -0.30592930732763762 0 -0.35803691493684492 -0.31060122461938489 0 -0.3581763596052473 -0.30097106086504849 0 -0.35803691493684492 -0.31060122461938489 0 -0.33965665719371979 -0.30273838750565862 0 -0.35803691493684492 -0.31060122461938489 0 -0.33965665719371979 -0.30273838750565862 0 -0.34514704515453298 -0.31300544250539297 0 -0.3581763596052473 -0.30097106086504849 0 -0.33965665719371979 -0.30273838750565862 0 -0.34010739644885768 -0.2892065328944351 0 -0.35803691493684492 -0.31060122461938489 0 -0.3581763596052473 -0.30097106086504849 0 -0.33965665719371979 -0.30273838750565862 0 -0.3581763596052473 -0.30097106086504849 0 -0.33965665719371979 -0.30273838750565862 0 -0.33676996251121621 -0.31158184422573892 0 -0.33965665719371979 -0.30273838750565862 0 -0.34514704515453298 -0.31300544250539297 0 -0.33676996251121621 -0.31158184422573892 0 -0.33965665719371979 -0.30273838750565862 0 -0.32704471803945162 -0.30394193902942662 0 -0.33676996251121621 -0.31158184422573892 0 -0.32594772137393307 -0.30978944971135602 0 -0.32704471803945162 -0.30394193902942662 0 -0.33965665719371979 -0.30273838750565862 0 -0.32704471803945162 -0.30394193902942662 0 -0.32819068517220462 -0.29783339261299951 0 -0.33965665719371979 -0.30273838750565862 0 -0.32704471803945162 -0.30394193902942662 0 -0.32819068517220462 -0.29783339261299951 0 -0.33965665719371979 -0.30273838750565862 0 -0.33223611708196649 -0.27626932861073827 0 -0.32819068517220462 -0.29783339261299951 0 -0.33223611708196649 -0.27626932861073827 0 -0.32819068517220462 -0.29783339261299951 0 -0.34010739644885768 -0.2892065328944351 0 -0.33223611708196649 -0.27626932861073827 0 -0.34951875912658742 -0.28460269103381453 0 -0.34010739644885768 -0.2892065328944351 0 -0.32819068517220462 -0.29783339261299951 0 -0.33965665719371979 -0.30273838750565862 0 -0.34010739644885768 -0.2892065328944351 0 -0.32819068517220462 -0.29783339261299951 0 -0.31972670239926188 -0.28454160199560091 0 -0.31332574866090718 -0.291474364566292 0 -0.32819068517220462 -0.29783339261299951 0 -0.31332574866090718 -0.291474364566292 0 -0.33223611708196649 -0.27626932861073827 0 -0.32819068517220462 -0.29783339261299951 0 -0.31972670239926188 -0.28454160199560091 0 -0.31972670239926188 -0.28454160199560091 0 -0.31332574866090718 -0.291474364566292 0 -0.30937392239009109 -0.28339120160471948 0 -0.31972670239926188 -0.28454160199560091 0 -0.30937392239009109 -0.28339120160471948 0 -0.31187737399160442 -0.27618124236115132 0 -0.31992409361072222 -0.30462145692723192 0 -0.32594772137393307 -0.30978944971135602 0 -0.31307430431717392 -0.31869978567557272 0 -0.31992409361072222 -0.30462145692723192 0 -0.32594772137393307 -0.30978944971135602 0 -0.32594772137393307 -0.30978944971135602 0 -0.32704471803945162 -0.30394193902942662 0 -0.31992409361072222 -0.30462145692723192 0 -0.32594772137393307 -0.30978944971135602 0 -0.32704471803945162 -0.30394193902942662 0 -0.32819068517220462 -0.29783339261299951 0 -0.31332574866090718 -0.291474364566292 0 -0.31992409361072222 -0.30462145692723192 0 -0.32819068517220462 -0.29783339261299951 0 -0.32704471803945162 -0.30394193902942662 0 -0.32819068517220462 -0.29783339261299951 0 -0.31992409361072222 -0.30462145692723192 0 -0.32704471803945162 -0.30394193902942662 0 -0.31992409361072222 -0.30462145692723192 0 -0.32704471803945162 -0.30394193902942662 0 -0.32594772137393307 -0.30978944971135602 0 -0.31307430431717392 -0.31869978567557272 0 -0.32184288384298337 -0.33167017375041419 0 -0.32594772137393307 -0.30978944971135602 0 -0.32184288384298337 -0.33167017375041419 0 -0.32184288384298337 -0.33167017375041419 0 -0.31773804631203251 -0.35355089778947202 0 -0.32184288384298337 -0.33167017375041419 0 -0.34475024534571441 -0.34586667392980902 0 -0.31773804631203251 -0.35355089778947202 0 -0.32184288384298337 -0.33167017375041419 0 -0.34612464597635118 -0.32710031367078812 0 -0.34475024534571441 -0.34586667392980902 0 -0.33676996251121621 -0.31158184422573892 0 -0.32594772137393307 -0.30978944971135602 0 -0.34612464597635118 -0.32710031367078812 0 -0.32594772137393307 -0.30978944971135602 0 -0.34612464597635118 -0.32710031367078812 0 -0.32594772137393307 -0.30978944971135602 0 -0.32184288384298337 -0.33167017375041419 0 -0.34612464597635118 -0.32710031367078812 0 -0.33676996251121621 -0.31158184422573892 0 -0.34514704515453298 -0.31300544250539297 0 -0.34612464597635118 -0.32710031367078812 0 -0.35803691493684492 -0.31060122461938489 0 -0.34514704515453298 -0.31300544250539297 0 -0.34612464597635118 -0.32710031367078812 0 -0.35803691493684492 -0.31060122461938489 0 -0.34612464597635118 -0.32710031367078812 0 -0.35600230731325749 -0.33324145173106873 0 -0.37641717267996733 -0.3184640617331177 0 -0.35803691493684492 -0.31060122461938489 0 -0.37641717267996733 -0.3184640617331177 0 -0.35803691493684492 -0.31060122461938489 0 -0.36719759625642318 -0.33008752154143739 0 -0.35803691493684492 -0.31060122461938489 0 -0.36719759625642318 -0.33008752154143739 0 -0.35600230731325749 -0.33324145173106873 0 -0.37607676276689278 -0.3419730509543204 0 -0.37641717267996733 -0.3184640617331177 0 -0.36719759625642318 -0.33008752154143739 0 -0.37607676276689278 -0.3419730509543204 0 -0.3688763256213185 -0.34309961767568647 0 -0.36719759625642318 -0.33008752154143739 0 -0.36719759625642318 -0.33008752154143739 0 -0.36118874601324108 -0.3436521492952741 0 -0.35600230731325749 -0.33324145173106873 0 -0.3688763256213185 -0.34309961767568647 0 -0.36719759625642318 -0.33008752154143739 0 -0.36118874601324108 -0.3436521492952741 0 -0.34612464597635118 -0.32710031367078812 0 -0.35600230731325749 -0.33324145173106873 0 -0.34475024534571441 -0.34586667392980902 0 -0.36118874601324108 -0.3436521492952741 0 -0.35600230731325749 -0.33324145173106873 0 -0.34475024534571441 -0.34586667392980902 0 -0.36118874601324108 -0.3436521492952741 0 -0.34475024534571441 -0.34586667392980902 0 -0.35925477447714671 -0.35134479444962452 0 -0.34475024534571441 -0.34586667392980902 0 -0.35480891830463612 -0.3592101017575729 0 -0.33937201587241012 -0.36587749477948078 0 -0.34475024534571441 -0.34586667392980902 0 -0.35480891830463612 -0.3592101017575729 0 -0.35925477447714671 -0.35134479444962452 0 -0.36118874601324108 -0.3436521492952741 0 -0.37225797237559449 -0.35115364910559932 0 -0.36118874601324108 -0.3436521492952741 0 -0.35925477447714671 -0.35134479444962452 0 -0.36985982957495511 -0.35171195823109852 0 -0.37568304780698558 -0.36916333065311507 0 -0.37593298752455201 -0.35190228771479481 0 -0.37225797237559449 -0.35115364910559932 0 -0.35480891830463612 -0.3592101017575729 0 -0.35925477447714671 -0.35134479444962452 0 -0.36985982957495511 -0.35171195823109852 0 -0.37607676276689278 -0.3419730509543204 0 -0.3688763256213185 -0.34309961767568647 0 -0.37225797237559449 -0.35115364910559932 0 -0.37607676276689278 -0.3419730509543204 0 -0.37225797237559449 -0.35115364910559932 0 -0.37607676276689278 -0.3419730509543204 0 -0.37390838074359528 -0.35076941925389299 0 -0.37225797237559449 -0.35115364910559932 0 -0.37593298752455201 -0.35190228771479481 0 -0.37390838074359528 -0.35076941925389299 0 -0.37225797237559449 -0.35115364910559932 0 -0.3688763256213185 -0.34309961767568647 0 -0.36118874601324108 -0.3436521492952741 0 -0.37225797237559449 -0.35115364910559932 0 -0.37593298752455201 -0.35190228771479481 0 -0.37390838074359528 -0.35076941925389299 0 -0.36118874601324108 -0.3436521492952741 0 -0.36985982957495511 -0.35171195823109852 0 -0.37225797237559449 -0.35115364910559932 0 -0.37595629511297179 -0.35029264644438168 0 -0.37390838074359528 -0.35076941925389299 0 -0.37390838074359528 -0.35076941925389299 0 -0.37225797237559449 -0.35115364910559932 0 -0.36985982957495511 -0.35171195823109852 0 -0.37225797237559449 -0.35115364910559932 0 -0.37568304780698558 -0.36916333065311507 0 -0.37225797237559449 -0.35115364910559932 0 -0.36100598543278789 -0.37820409176948921 0 -0.35480891830463612 -0.3592101017575729 0 -0.36985982957495511 -0.35171195823109852 0 -0.36100598543278789 -0.37820409176948921 0 -0.36985982957495511 -0.35171195823109852 0 -0.37225797237559449 -0.35115364910559932 0 -0.36100598543278789 -0.37820409176948921 0 -0.37225797237559449 -0.35115364910559932 0 -0.36100598543278789 -0.37820409176948921 0 -0.33937201587241012 -0.36587749477948078 0 -0.36100598543278789 -0.37820409176948921 0 -0.35480891830463612 -0.3592101017575729 0 -0.33937201587241012 -0.36587749477948078 0 -0.36100598543278789 -0.37820409176948921 0 -0.33937201587241012 -0.36587749477948078 0 -0.31773804631203251 -0.35355089778947202 0 -0.33937201587241012 -0.36587749477948078 0 -0.31773804631203251 -0.35355089778947202 0 -0.32803705280137402 -0.37447550275240871 0 -0.34475024534571441 -0.34586667392980902 0 -0.33937201587241012 -0.36587749477948078 0 -0.31773804631203251 -0.35355089778947202 0 -0.31773804631203251 -0.35355089778947202 0 -0.31381007312398762 -0.37448885129246268 0 -0.31773804631203251 -0.35355089778947202 0 -0.31381007312398762 -0.37448885129246268 0 -0.32803705280137402 -0.37447550275240871 0 -0.31381007312398762 -0.37448885129246268 0 -0.29871455833571747 -0.36148408621311728 0 -0.29196992941862432 -0.3825632544476108 0 -0.31773804631203251 -0.35355089778947202 0 -0.31381007312398762 -0.37448885129246268 0 -0.29871455833571747 -0.36148408621311728 0 -0.31773804631203251 -0.35355089778947202 0 -0.29871455833571747 -0.36148408621311728 0 -0.29282778547957722 -0.33935753649529382 0 -0.31773804631203251 -0.35355089778947202 0 -0.29282778547957722 -0.33935753649529382 0 -0.29871455833571747 -0.36148408621311728 0 -0.27675503022224163 -0.36681377825091099 0 -0.29282778547957722 -0.33935753649529382 0 -0.29871455833571747 -0.36148408621311728 0 -0.27675503022224163 -0.36681377825091099 0 -0.29196992941862432 -0.3825632544476108 0 -0.27675503022224163 -0.36681377825091099 0 -0.25757508569408222 -0.36424633604315798 0 -0.26546808025963542 -0.34847395767735678 0 -0.27675503022224163 -0.36681377825091099 0 -0.25757508569408222 -0.36424633604315798 0 -0.25812358553267323 -0.37605355791306738 0 -0.25757508569408222 -0.36424633604315798 0 -0.24839247009954951 -0.37292447016044328 0 -0.24532753696728959 -0.36501789644951049 0 -0.25757508569408222 -0.36424633604315798 0 -0.25812358553267323 -0.37605355791306738 0 -0.24839247009954951 -0.37292447016044328 0 -0.25757508569408222 -0.36424633604315798 0 -0.26546808025963542 -0.34847395767735678 0 -0.24650166737573331 -0.3569693529562265 0 -0.26546808025963542 -0.34847395767735678 0 -0.24650166737573331 -0.3569693529562265 0 -0.24881121389389799 -0.33838995723746451 0 -0.27675503022224163 -0.36681377825091099 0 -0.26546808025963542 -0.34847395767735678 0 -0.29282778547957722 -0.33935753649529382 0 -0.26791752464712137 -0.32516417520111718 0 -0.27544300416693679 -0.31995488319631832 0 -0.29282778547957722 -0.33935753649529382 0 -0.26546808025963542 -0.34847395767735678 0 -0.26791752464712137 -0.32516417520111718 0 -0.29282778547957722 -0.33935753649529382 0 -0.26791752464712137 -0.32516417520111718 0 -0.29282778547957722 -0.33935753649529382 0 -0.26791752464712137 -0.32516417520111718 0 -0.24881121389389799 -0.33838995723746451 0 -0.26546808025963542 -0.34847395767735678 0 -0.26791752464712137 -0.32516417520111718 0 -0.24881121389389799 -0.33838995723746451 0 -0.26791752464712137 -0.32516417520111718 0 -0.24881121389389799 -0.33838995723746451 0 -0.2441082332202735 -0.32380704628422963 0 -0.26791752464712137 -0.32516417520111718 0 -0.2444966906846206 -0.31181945912301329 0 -0.26791752464712137 -0.32516417520111718 0 -0.26963915832665503 -0.30942012505775762 0 -0.2444966906846206 -0.31181945912301329 0 -0.26791752464712137 -0.32516417520111718 0 -0.2441082332202735 -0.32380704628422963 0 -0.2444966906846206 -0.31181945912301329 0 -0.26791752464712137 -0.32516417520111718 0 -0.27544300416693679 -0.31995488319631832 0 -0.26963915832665503 -0.30942012505775762 0 -0.26791752464712137 -0.32516417520111718 0 -0.27544300416693679 -0.31995488319631832 0 -0.27544300416693679 -0.31995488319631832 0 -0.29403167998309421 -0.32125824908992018 0 -0.29478162596868879 -0.30702079099249591 0 -0.27544300416693679 -0.31995488319631832 0 -0.29403167998309421 -0.32125824908992018 0 -0.29282778547957722 -0.33935753649529382 0 -0.31307430431717392 -0.31869978567557272 0 -0.32184288384298337 -0.33167017375041419 0 -0.29282778547957722 -0.33935753649529382 0 -0.32184288384298337 -0.33167017375041419 0 -0.31773804631203251 -0.35355089778947202 0 -0.29282778547957722 -0.33935753649529382 0 -0.31307430431717392 -0.31869978567557272 0 -0.29403167998309421 -0.32125824908992018 0 -0.29282778547957722 -0.33935753649529382 0 -0.31307430431717392 -0.31869978567557272 0 -0.29403167998309421 -0.32125824908992018 0 -0.29478162596868879 -0.30702079099249591 0 -0.31992409361072222 -0.30462145692723192 0 -0.29478162596868879 -0.30702079099249591 0 -0.31992409361072222 -0.30462145692723192 0 -0.31307430431717392 -0.31869978567557272 0 -0.29478162596868879 -0.30702079099249591 0 -0.31992409361072222 -0.30462145692723192 0 -0.30687808727867438 -0.29770175581860719 0 -0.29478162596868879 -0.30702079099249591 0 -0.30687808727867438 -0.29770175581860719 0 -0.29813438661480679 -0.29530641477552327 0 -0.29478162596868879 -0.30702079099249591 0 -0.31992409361072222 -0.30462145692723192 0 -0.2984608121496099 -0.28511533651958437 0 -0.31992409361072222 -0.30462145692723192 0 -0.30687808727867438 -0.29770175581860719 0 -0.2984608121496099 -0.28511533651958437 0 -0.31332574866090718 -0.291474364566292 0 -0.31992409361072222 -0.30462145692723192 0 -0.2984608121496099 -0.28511533651958437 0 -0.31332574866090718 -0.291474364566292 0 -0.30937392239009109 -0.28339120160471948 0 -0.2984608121496099 -0.28511533651958437 0 -0.31332574866090718 -0.291474364566292 0 -0.2984608121496099 -0.28511533651958437 0 -0.30937392239009109 -0.28339120160471948 0 -0.2984608121496099 -0.28511533651958437 0 -0.30347897474907187 -0.279643462580969 0 -0.30687808727867438 -0.29770175581860719 0 -0.29951482580247829 -0.29240083595456018 0 -0.29813438661480679 -0.29530641477552327 0 -0.30687808727867438 -0.29770175581860719 0 -0.2984608121496099 -0.28511533651958437 0 -0.29951482580247829 -0.29240083595456018 0 -0.29951482580247829 -0.29240083595456018 0 -0.29813438661480679 -0.29530641477552327 0 -0.29499124589990039 -0.29073588210889412 0 -0.2984608121496099 -0.28511533651958437 0 -0.29951482580247829 -0.29240083595456018 0 -0.29499124589990039 -0.29073588210889412 0 -0.29499124589990039 -0.29073588210889412 0 -0.29148170063899659 -0.29460773718781319 0 -0.28586576089235322 -0.28577101837165192 0 -0.29813438661480679 -0.29530641477552327 0 -0.29499124589990039 -0.29073588210889412 0 -0.29148170063899659 -0.29460773718781319 0 -0.2984608121496099 -0.28511533651958437 0 -0.29499124589990039 -0.29073588210889412 0 -0.28586576089235322 -0.28577101837165192 0 -0.29148170063899659 -0.29460773718781319 0 -0.28586576089235322 -0.28577101837165192 0 -0.2798353156189245 -0.29508903771003908 0 -0.29148170063899659 -0.29460773718781319 0 -0.29478162596868879 -0.30702079099249591 0 -0.2798353156189245 -0.29508903771003908 0 -0.29478162596868879 -0.30702079099249591 0 -0.26963915832665503 -0.30942012505775762 0 -0.2798353156189245 -0.29508903771003908 0 -0.29478162596868879 -0.30702079099249591 0 -0.26963915832665503 -0.30942012505775762 0 -0.29813438661480679 -0.29530641477552327 0 -0.29148170063899659 -0.29460773718781319 0 -0.29478162596868879 -0.30702079099249591 0 -0.27544300416693679 -0.31995488319631832 0 -0.29478162596868879 -0.30702079099249591 0 -0.26963915832665503 -0.30942012505775762 0 -0.26963915832665503 -0.30942012505775762 0 -0.26057201890547982 -0.29344093798311832 0 -0.2798353156189245 -0.29508903771003908 0 -0.26963915832665503 -0.30942012505775762 0 -0.2444966906846206 -0.31181945912301329 0 -0.26963915832665503 -0.30942012505775762 0 -0.26057201890547982 -0.29344093798311832 0 -0.2444966906846206 -0.31181945912301329 0 -0.26057201890547982 -0.29344093798311832 0 -0.27108878797196961 -0.28331686931735522 0 -0.25298377122075039 -0.27518622721876451 0 -0.26057201890547982 -0.29344093798311832 0 -0.25298377122075039 -0.27518622721876451 0 -0.2435111179254994 -0.29490773243705071 0 -0.26057201890547982 -0.29344093798311832 0 -0.27108878797196961 -0.28331686931735522 0 -0.2798353156189245 -0.29508903771003908 0 -0.28586576089235322 -0.28577101837165192 0 -0.27108878797196961 -0.28331686931735522 0 -0.2798353156189245 -0.29508903771003908 0 -0.27108878797196961 -0.28331686931735522 0 -0.27618707322233982 -0.26709712530320262 0 -0.25298377122075039 -0.27518622721876451 0 -0.28586576089235322 -0.28577101837165192 0 -0.27108878797196961 -0.28331686931735522 0 -0.27618707322233982 -0.26709712530320262 0 -0.27618707322233982 -0.26709712530320262 0 -0.25431856302814809 -0.24833495949118861 0 -0.27618707322233982 -0.26709712530320262 0 -0.25298377122075039 -0.27518622721876451 0 -0.25431856302814809 -0.24833495949118861 0 -0.27618707322233982 -0.26709712530320262 0 -0.27309361240676189 -0.24179026653703889 0 -0.25431856302814809 -0.24833495949118861 0 -0.27618707322233982 -0.26709712530320262 0 -0.2907170577323625 -0.25177677077710309 0 -0.27309361240676189 -0.24179026653703889 0 -0.27618707322233982 -0.26709712530320262 0 -0.2907170577323625 -0.25177677077710309 0 -0.29477899871119112 -0.26293378760569941 0 -0.2984608121496099 -0.28511533651958437 0 -0.28586576089235322 -0.28577101837165192 0 -0.27618707322233982 -0.26709712530320262 0 -0.2984608121496099 -0.28511533651958437 0 -0.27618707322233982 -0.26709712530320262 0 -0.27618707322233982 -0.26709712530320262 0 -0.29477899871119112 -0.26293378760569941 0 -0.29948479845841441 -0.27338487519771032 0 -0.2984608121496099 -0.28511533651958437 0 -0.27618707322233982 -0.26709712530320262 0 -0.29948479845841441 -0.27338487519771032 0 -0.29477899871119112 -0.26293378760569941 0 -0.29948479845841441 -0.27338487519771032 0 -0.30156079933714469 -0.26765617134954151 0 -0.30156079933714469 -0.26765617134954151 0 -0.30403476516136241 -0.27459464834518948 0 -0.30588444940973558 -0.27063474712059482 0 -0.29948479845841441 -0.27338487519771032 0 -0.30156079933714469 -0.26765617134954151 0 -0.30403476516136241 -0.27459464834518948 0 -0.30156079933714469 -0.26765617134954151 0 -0.30588444940973558 -0.27063474712059482 0 -0.3062135479255173 -0.26372173898871692 0 -0.2984608121496099 -0.28511533651958437 0 -0.29948479845841441 -0.27338487519771032 0 -0.30347897474907187 -0.279643462580969 0 -0.29948479845841441 -0.27338487519771032 0 -0.30403476516136241 -0.27459464834518948 0 -0.30347897474907187 -0.279643462580969 0 -0.30937392239009109 -0.28339120160471948 0 -0.30347897474907187 -0.279643462580969 0 -0.31187737399160442 -0.27618124236115132 0 -0.30403476516136241 -0.27459464834518948 0 -0.30347897474907187 -0.279643462580969 0 -0.31187737399160442 -0.27618124236115132 0 -0.30403476516136241 -0.27459464834518948 0 -0.31187737399160442 -0.27618124236115132 0 -0.30588444940973558 -0.27063474712059482 0 -0.31187737399160442 -0.27618124236115132 0 -0.30588444940973558 -0.27063474712059482 0 -0.3062135479255173 -0.26372173898871692 0 -0.31664960680882542 -0.25714232151458272 0 -0.31202674084989918 -0.26335133138269068 0 -0.30853150187083839 -0.25429835417001312 0 -0.2907170577323625 -0.25177677077710309 0 -0.29477899871119112 -0.26293378760569941 0 -0.30853150187083839 -0.25429835417001312 0 -0.31202674084989918 -0.26335133138269068 0 -0.3062135479255173 -0.26372173898871692 0 -0.30853150187083839 -0.25429835417001312 0 -0.29477899871119112 -0.26293378760569941 0 -0.30156079933714469 -0.26765617134954151 0 -0.3062135479255173 -0.26372173898871692 0 -0.29477899871119112 -0.26293378760569941 0 -0.3062135479255173 -0.26372173898871692 0 -0.30853150187083839 -0.25429835417001312 0 -0.33709504481289931 -0.46474263175187808 0 -0.33075086723682939 -0.45093918684289991 0 -0.35302422329502631 -0.44785824460859458 0 -0.33709504481289931 -0.46474263175187808 0 -0.33075086723682939 -0.45093918684289991 0 -0.32054712240525829 -0.47546959342145068 0 -0.33075086723682939 -0.45093918684289991 0 -0.34095461206840061 -0.42640878026434909 0 -0.33075086723682939 -0.45093918684289991 0 -0.35302422329502631 -0.44785824460859458 0 -0.34095461206840061 -0.42640878026434909 0 -0.33075086723682939 -0.45093918684289991 0 -0.32054706720266329 -0.44859283512714471 0 -0.3206124180200437 -0.43193612962395289 0 -0.33075086723682939 -0.45093918684289991 0 -0.32054706720266329 -0.44859283512714471 0 -0.31571728338184601 -0.45752087103574601 0 -0.32054706720266329 -0.44859283512714471 0 -0.31571728338184601 -0.45752087103574601 0 -0.30706080135445341 -0.45057148265483188 0 -0.33075086723682939 -0.45093918684289991 0 -0.32054712240525829 -0.47546959342145068 0 -0.33075086723682939 -0.45093918684289991 0 -0.31571728338184601 -0.45752087103574601 0 -0.32054712240525829 -0.47546959342145068 0 -0.32054712240525829 -0.47546959342145068 0 -0.32750579650535672 -0.48798687004089669 0 -0.32933965142182292 -0.47777380670114528 0 -0.32054712240525829 -0.47546959342145068 0 -0.31034337757368669 -0.50000000000000133 0 -0.32750579650535672 -0.48798687004089669 0 -0.33387795429423722 -0.5 0 -0.31034337757368669 -0.50000000000000133 0 -0.32054712240525829 -0.47546959342145068 0 -0.32750579650535672 -0.48798687004089669 0 -0.31034337757368669 -0.50000000000000133 0 -0.32750579650535672 -0.48798687004089669 0 -0.34342087683177741 -0.48669095008188618 0 -0.33387795429423722 -0.5 0 -0.33709504481289931 -0.46474263175187808 0 -0.32933965142182292 -0.47777380670114528 0 -0.35181335970555933 -0.47167232718529989 0 -0.34342087683177741 -0.48669095008188618 0 -0.32933965142182292 -0.47777380670114528 0 -0.35181335970555933 -0.47167232718529989 0 -0.32750579650535672 -0.48798687004089669 0 -0.34342087683177741 -0.48669095008188618 0 -0.32933965142182292 -0.47777380670114528 0 -0.33709504481289931 -0.46474263175187808 0 -0.32054712240525829 -0.47546959342145068 0 -0.32933965142182292 -0.47777380670114528 0 -0.32933965142182292 -0.47777380670114528 0 -0.35181335970555933 -0.47167232718529989 0 -0.34342087683177741 -0.48669095008188618 0 -0.35181335970555933 -0.47167232718529989 0 -0.35979455825166368 -0.48519290092039941 0 -0.34342087683177741 -0.48669095008188618 0 -0.35741253101478748 -0.5 0 -0.35979455825166368 -0.48519290092039941 0 -0.34342087683177741 -0.48669095008188618 0 -0.33387795429423722 -0.5 0 -0.35741253101478748 -0.5 0 -0.38094710773533791 -0.49999999999999839 0 -0.35741253101478748 -0.5 0 -0.37240076261097882 -0.48974555046165519 0 -0.35741253101478748 -0.5 0 -0.35979455825166368 -0.48519290092039941 0 -0.37240076261097882 -0.48974555046165519 0 -0.35181335970555933 -0.47167232718529989 0 -0.35979455825166368 -0.48519290092039941 0 -0.37411677223754131 -0.47733161267270968 0 -0.35181335970555933 -0.47167232718529989 0 -0.37411677223754131 -0.47733161267270968 0 -0.37428706798929601 -0.46557084766945539 0 -0.35979455825166368 -0.48519290092039941 0 -0.37240076261097882 -0.48974555046165519 0 -0.37411677223754131 -0.47733161267270968 0 -0.37411677223754131 -0.47733161267270968 0 -0.37428706798929601 -0.46557084766945539 0 -0.35181335970555933 -0.47167232718529989 0 -0.37428706798929601 -0.46557084766945539 0 -0.35302422329502631 -0.44785824460859458 0 -0.35181335970555933 -0.47167232718529989 0 -0.37428706798929601 -0.46557084766945539 0 -0.33709504481289931 -0.46474263175187808 0 -0.35181335970555933 -0.47167232718529989 0 -0.35302422329502631 -0.44785824460859458 0 -0.37428706798929601 -0.46557084766945539 0 -0.35302422329502631 -0.44785824460859458 0 -0.37472313619600889 -0.43545561783144832 0 -0.37428706798929601 -0.46557084766945539 0 -0.37472313619600889 -0.43545561783144832 0 -0.35302422329502631 -0.44785824460859458 0 -0.37472313619600889 -0.43545561783144832 0 -0.36076670325611282 -0.42019275678090617 0 -0.37515920440272033 -0.40534038799344108 0 -0.37472313619600889 -0.43545561783144832 0 -0.36076670325611282 -0.42019275678090617 0 -0.37515920440272033 -0.40534038799344108 0 -0.36076670325611282 -0.42019275678090617 0 -0.35115835689997099 -0.40187837368579798 0 -0.37515920440272033 -0.40534038799344108 0 -0.37472313619600889 -0.43545561783144832 0 -0.36076670325611282 -0.42019275678090617 0 -0.35115835689997099 -0.40187837368579798 0 -0.34095461206840061 -0.42640878026434909 0 -0.34815033243380111 -0.40144447968524521 0 -0.35115835689997099 -0.40187837368579798 0 -0.34095461206840061 -0.42640878026434909 0 -0.35115835689997099 -0.40187837368579798 0 -0.34095461206840061 -0.42640878026434909 0 -0.35302422329502631 -0.44785824460859458 0 -0.36076670325611282 -0.42019275678090617 0 -0.34095461206840061 -0.42640878026434909 0 -0.37543310808941849 -0.38642437359143528 0 -0.36100598543278789 -0.37820409176948921 0 -0.35115835689997099 -0.40187837368579798 0 -0.37543310808941849 -0.38642437359143528 0 -0.37568304780698558 -0.36916333065311507 0 -0.36100598543278789 -0.37820409176948921 0 -0.37543310808941849 -0.38642437359143528 0 -0.36100598543278789 -0.37820409176948921 0 -0.37515920440272033 -0.40534038799344108 0 -0.37543310808941849 -0.38642437359143528 0 -0.35115835689997099 -0.40187837368579798 0 -0.37515920440272033 -0.40534038799344108 0 -0.35115835689997099 -0.40187837368579798 0 -0.35115835689997099 -0.40187837368579798 0 -0.34646966066369161 -0.38533898881774881 0 -0.34316085436749 -0.39382471367395527 0 -0.34815033243380111 -0.40144447968524521 0 -0.35115835689997099 -0.40187837368579798 0 -0.34316085436749 -0.39382471367395527 0 -0.34815033243380111 -0.40144447968524521 0 -0.35115835689997099 -0.40187837368579798 0 -0.33937201587241012 -0.36587749477948078 0 -0.36100598543278789 -0.37820409176948921 0 -0.34646966066369161 -0.38533898881774881 0 -0.36100598543278789 -0.37820409176948921 0 -0.35115835689997099 -0.40187837368579798 0 -0.36100598543278789 -0.37820409176948921 0 -0.35115835689997099 -0.40187837368579798 0 -0.34646966066369161 -0.38533898881774881 0 -0.33937201587241012 -0.36587749477948078 0 -0.32803705280137402 -0.37447550275240871 0 -0.34646966066369161 -0.38533898881774881 0 -0.32803705280137402 -0.37447550275240871 0 -0.34646966066369161 -0.38533898881774881 0 -0.32931529664348408 -0.38869437358142001 0 -0.34646966066369161 -0.38533898881774881 0 -0.32931529664348408 -0.38869437358142001 0 -0.34316085436749 -0.39382471367395527 0 -0.34815033243380111 -0.40144447968524521 0 -0.33486919938690762 -0.39884665705885908 0 -0.32944617452305069 -0.41182817437998842 0 -0.32931529664348408 -0.38869437358142001 0 -0.34316085436749 -0.39382471367395527 0 -0.33486919938690762 -0.39884665705885908 0 -0.32931529664348408 -0.38869437358142001 0 -0.33486919938690762 -0.39884665705885908 0 -0.32365381597648563 -0.39942827076698811 0 -0.34815033243380111 -0.40144447968524521 0 -0.34316085436749 -0.39382471367395527 0 -0.33486919938690762 -0.39884665705885908 0 -0.33486919938690762 -0.39884665705885908 0 -0.32365381597648563 -0.39942827076698811 0 -0.32944617452305069 -0.41182817437998842 0 -0.32931529664348408 -0.38869437358142001 0 -0.32365381597648563 -0.39942827076698811 0 -0.30988209993594379 -0.39542680479545339 0 -0.32365381597648563 -0.39942827076698811 0 -0.30595412674790001 -0.41636475829844438 0 -0.30988209993594379 -0.39542680479545339 0 -0.31381007312398762 -0.37448885129246268 0 -0.32931529664348408 -0.38869437358142001 0 -0.30988209993594379 -0.39542680479545339 0 -0.31381007312398762 -0.37448885129246268 0 -0.32803705280137402 -0.37447550275240871 0 -0.32931529664348408 -0.38869437358142001 0 -0.34095461206840061 -0.42640878026434909 0 -0.32944617452305069 -0.41182817437998842 0 -0.3206124180200437 -0.43193612962395289 0 -0.33075086723682939 -0.45093918684289991 0 -0.34095461206840061 -0.42640878026434909 0 -0.3206124180200437 -0.43193612962395289 0 -0.34815033243380111 -0.40144447968524521 0 -0.34095461206840061 -0.42640878026434909 0 -0.32944617452305069 -0.41182817437998842 0 -0.32944617452305069 -0.41182817437998842 0 -0.3206124180200437 -0.43193612962395289 0 -0.30595412674790001 -0.41636475829844438 0 -0.32365381597648563 -0.39942827076698811 0 -0.32944617452305069 -0.41182817437998842 0 -0.30595412674790001 -0.41636475829844438 0 -0.3206124180200437 -0.43193612962395289 0 -0.30595412674790001 -0.41636475829844438 0 -0.29602166034141808 -0.43748304283089118 0 -0.30595412674790001 -0.41636475829844438 0 -0.28680587137917263 -0.41476105187328532 0 -0.29502227998321778 -0.40112933436643161 0 -0.30595412674790001 -0.41636475829844438 0 -0.28680587137917263 -0.41476105187328532 0 -0.29602166034141808 -0.43748304283089118 0 -0.28680587137917263 -0.41476105187328532 0 -0.29602166034141808 -0.43748304283089118 0 -0.27149625348017281 -0.42637325053463759 0 -0.29602166034141808 -0.43748304283089118 0 -0.27149625348017281 -0.42637325053463759 0 -0.29602166034141808 -0.43748304283089118 0 -0.27149625348017281 -0.42637325053463759 0 -0.27906578537949278 -0.44687665772048962 0 -0.31381007312398762 -0.37448885129246268 0 -0.30988209993594379 -0.39542680479545339 0 -0.31381007312398762 -0.37448885129246268 0 -0.30988209993594379 -0.39542680479545339 0 -0.29196992941862432 -0.3825632544476108 0 -0.30595412674790001 -0.41636475829844438 0 -0.30988209993594379 -0.39542680479545339 0 -0.30595412674790001 -0.41636475829844438 0 -0.30988209993594379 -0.39542680479545339 0 -0.29502227998321778 -0.40112933436643161 0 -0.30988209993594379 -0.39542680479545339 0 -0.29502227998321778 -0.40112933436643161 0 -0.29196992941862432 -0.3825632544476108 0 -0.28680587137917263 -0.41476105187328532 0 -0.29502227998321778 -0.40112933436643161 0 -0.2806661672136338 -0.39648987600255969 0 -0.29502227998321778 -0.40112933436643161 0 -0.29196992941862432 -0.3825632544476108 0 -0.2806661672136338 -0.39648987600255969 0 -0.27675503022224163 -0.36681377825091099 0 -0.29196992941862432 -0.3825632544476108 0 -0.26924588117792803 -0.38334910629271668 0 -0.29196992941862432 -0.3825632544476108 0 -0.26924588117792803 -0.38334910629271668 0 -0.2806661672136338 -0.39648987600255969 0 -0.27675503022224163 -0.36681377825091099 0 -0.26924588117792803 -0.38334910629271668 0 -0.25812358553267323 -0.37605355791306738 0 -0.28680587137917263 -0.41476105187328532 0 -0.2806661672136338 -0.39648987600255969 0 -0.26326431180229581 -0.40282557300305732 0 -0.26924588117792803 -0.38334910629271668 0 -0.2806661672136338 -0.39648987600255969 0 -0.26326431180229581 -0.40282557300305732 0 -0.26326431180229581 -0.40282557300305732 0 -0.2504897110532438 -0.38524934403489181 0 -0.24394706363899241 -0.39877073912243299 0 -0.26326431180229581 -0.40282557300305732 0 -0.24697084661892749 -0.41526345823838401 0 -0.24394706363899241 -0.39877073912243299 0 -0.26924588117792803 -0.38334910629271668 0 -0.26326431180229581 -0.40282557300305732 0 -0.2504897110532438 -0.38524934403489181 0 -0.26924588117792803 -0.38334910629271668 0 -0.2504897110532438 -0.38524934403489181 0 -0.25812358553267323 -0.37605355791306738 0 -0.2504897110532438 -0.38524934403489181 0 -0.25812358553267323 -0.37605355791306738 0 -0.24839247009954951 -0.37292447016044328 0 -0.28680587137917263 -0.41476105187328532 0 -0.26326431180229581 -0.40282557300305732 0 -0.27149625348017281 -0.42637325053463759 0 -0.27149625348017281 -0.42637325053463759 0 -0.24697084661892749 -0.41526345823838401 0 -0.26326431180229581 -0.40282557300305732 0 -0.27149625348017281 -0.42637325053463759 0 -0.24697084661892749 -0.41526345823838401 0 -0.27149625348017281 -0.42637325053463759 0 -0.25687425522332558 -0.44642006451091643 0 -0.24697084661892749 -0.41526345823838401 0 -0.25687425522332558 -0.44642006451091643 0 -0.27607931301277078 -0.46657199895299017 0 -0.25409384940020791 -0.47271975939701871 0 -0.25687425522332558 -0.44642006451091643 0 -0.27607931301277078 -0.46657199895299017 0 -0.27906578537949278 -0.44687665772048962 0 -0.27149625348017281 -0.42637325053463759 0 -0.25687425522332558 -0.44642006451091643 0 -0.27906578537949278 -0.44687665772048962 0 -0.29602166034141808 -0.43748304283089118 0 -0.27906578537949278 -0.44687665772048962 0 -0.29968055871002541 -0.46203125713240301 0 -0.27607931301277078 -0.46657199895299017 0 -0.27906578537949278 -0.44687665772048962 0 -0.29968055871002541 -0.46203125713240301 0 -0.31571728338184601 -0.45752087103574601 0 -0.29968055871002541 -0.46203125713240301 0 -0.30706080135445341 -0.45057148265483188 0 -0.31571728338184601 -0.45752087103574601 0 -0.32054712240525829 -0.47546959342145068 0 -0.29968055871002541 -0.46203125713240301 0 -0.32054706720266329 -0.44859283512714471 0 -0.29602166034141808 -0.43748304283089118 0 -0.32054706720266329 -0.44859283512714471 0 -0.3206124180200437 -0.43193612962395289 0 -0.29602166034141808 -0.43748304283089118 0 -0.32054706720266329 -0.44859283512714471 0 -0.29602166034141808 -0.43748304283089118 0 -0.30706080135445341 -0.45057148265483188 0 -0.29602166034141808 -0.43748304283089118 0 -0.29968055871002541 -0.46203125713240301 0 -0.30706080135445341 -0.45057148265483188 0 -0.32054712240525829 -0.47546959342145068 0 -0.31034337757368669 -0.50000000000000133 0 -0.2941570887960146 -0.48201569375099518 0 -0.32054712240525829 -0.47546959342145068 0 -0.29968055871002541 -0.46203125713240301 0 -0.2941570887960146 -0.48201569375099518 0 -0.27607931301277078 -0.46657199895299017 0 -0.29968055871002541 -0.46203125713240301 0 -0.2941570887960146 -0.48201569375099518 0 -0.2941570887960146 -0.48201569375099518 0 -0.28248249767631262 -0.5 0 -0.27039562620846602 -0.48462576079096858 0 -0.31034337757368669 -0.50000000000000133 0 -0.2941570887960146 -0.48201569375099518 0 -0.28248249767631262 -0.5 0 -0.28248249767631262 -0.5 0 -0.27039562620846602 -0.48462576079096858 0 -0.25462161777893849 -0.5 0 -0.27607931301277078 -0.46657199895299017 0 -0.2941570887960146 -0.48201569375099518 0 -0.27039562620846602 -0.48462576079096858 0 -0.27607931301277078 -0.46657199895299017 0 -0.27039562620846602 -0.48462576079096858 0 -0.25409384940020791 -0.47271975939701871 0 -0.27039562620846602 -0.48462576079096858 0 -0.25409384940020791 -0.47271975939701871 0 -0.25462161777893849 -0.5 0 -0.25462161777893849 -0.5 0 -0.23155232774708009 -0.47932355884050398 0 -0.22676073788156451 -0.5 0 -0.25409384940020791 -0.47271975939701871 0 -0.25462161777893849 -0.5 0 -0.23155232774708009 -0.47932355884050398 0 -0.25409384940020791 -0.47271975939701871 0 -0.23155232774708009 -0.47932355884050398 0 -0.2350399564306665 -0.45937717328673289 0 -0.23155232774708009 -0.47932355884050398 0 -0.2350399564306665 -0.45937717328673289 0 -0.2080224731694312 -0.47403962225972662 0 -0.23155232774708009 -0.47932355884050398 0 -0.22676073788156451 -0.5 0 -0.2080224731694312 -0.47403962225972662 0 -0.25687425522332558 -0.44642006451091643 0 -0.2350399564306665 -0.45937717328673289 0 -0.23180750449586429 -0.4343742486430574 0 -0.25687425522332558 -0.44642006451091643 0 -0.25409384940020791 -0.47271975939701871 0 -0.2350399564306665 -0.45937717328673289 0 -0.2350399564306665 -0.45937717328673289 0 -0.21590660946663959 -0.44883644739355771 0 -0.2080224731694312 -0.47403962225972662 0 -0.2350399564306665 -0.45937717328673289 0 -0.21590660946663959 -0.44883644739355771 0 -0.23180750449586429 -0.4343742486430574 0 -0.21590660946663959 -0.44883644739355771 0 -0.1943898331460783 -0.4473597119794826 0 -0.20910912931781811 -0.42543372189632289 0 -0.21590660946663959 -0.44883644739355771 0 -0.1943898331460783 -0.4473597119794826 0 -0.2080224731694312 -0.47403962225972662 0 -0.1943898331460783 -0.4473597119794826 0 -0.2080224731694312 -0.47403962225972662 0 -0.17967053697433849 -0.46928570206264231 0 -0.22676073788156451 -0.5 0 -0.2080224731694312 -0.47403962225972662 0 -0.19889985798419041 -0.5 0 -0.2080224731694312 -0.47403962225972662 0 -0.1821948971586228 -0.48648437486529872 0 -0.17967053697433849 -0.46928570206264231 0 -0.2080224731694312 -0.47403962225972662 0 -0.19889985798419041 -0.5 0 -0.1821948971586228 -0.48648437486529872 0 -0.19889985798419041 -0.5 0 -0.1821948971586228 -0.48648437486529872 0 -0.17103897808681609 -0.49999999999999778 0 -0.1821948971586228 -0.48648437486529872 0 -0.17103897808681609 -0.49999999999999778 0 -0.16495124080259491 -0.49121169214579941 0 -0.17103897808681609 -0.49999999999999778 0 -0.16495124080259491 -0.49121169214579941 0 -0.17103897808681609 -0.49999999999999778 0 -0.16495124080259491 -0.49121169214579941 0 -0.15905149781887321 -0.49999999999999961 0 -0.16495124080259491 -0.49121169214579941 0 -0.15905149781887321 -0.49999999999999961 0 -0.1545750311736096 -0.49062041690426861 0 -0.16495124080259491 -0.49121169214579941 0 -0.15905149781887321 -0.49999999999999961 0 -0.16495124080259491 -0.49121169214579941 0 -0.16530166315622061 -0.47155300009798301 0 -0.17967053697433849 -0.46928570206264231 0 -0.16495124080259491 -0.49121169214579941 0 -0.16530166315622061 -0.47155300009798301 0 -0.15083103946930049 -0.47082765280793248 0 -0.16495124080259491 -0.49121169214579941 0 -0.1545750311736096 -0.49062041690426861 0 -0.15083103946930049 -0.47082765280793248 0 -0.16495124080259491 -0.49121169214579941 0 -0.15083103946930049 -0.47082765280793248 0 -0.16495124080259491 -0.49121169214579941 0 -0.17967053697433849 -0.46928570206264231 0 -0.1821948971586228 -0.48648437486529872 0 -0.16495124080259491 -0.49121169214579941 0 -0.17967053697433849 -0.46928570206264231 0 -0.1943898331460783 -0.4473597119794826 0 -0.17967053697433849 -0.46928570206264231 0 -0.1943898331460783 -0.4473597119794826 0 -0.17967053697433849 -0.46928570206264231 0 -0.1657538353786501 -0.45488695337555668 0 -0.1943898331460783 -0.4473597119794826 0 -0.1657538353786501 -0.45488695337555668 0 -0.1755027511393909 -0.43471579892562301 0 -0.1657538353786501 -0.45488695337555668 0 -0.15761868306950341 -0.43586407366366631 0 -0.1755027511393909 -0.43471579892562301 0 -0.16530166315622061 -0.47155300009798301 0 -0.1657538353786501 -0.45488695337555668 0 -0.15083103946930049 -0.47082765280793248 0 -0.16530166315622061 -0.47155300009798301 0 -0.17967053697433849 -0.46928570206264231 0 -0.1657538353786501 -0.45488695337555668 0 -0.13671083813600751 -0.45044361347006462 0 -0.15083103946930049 -0.47082765280793248 0 -0.13671083813600751 -0.45044361347006462 0 -0.13441782301728619 -0.47175980973682791 0 -0.15083103946930049 -0.47082765280793248 0 -0.1657538353786501 -0.45488695337555668 0 -0.13671083813600751 -0.45044361347006462 0 -0.15083103946930049 -0.47082765280793248 0 -0.13671083813600751 -0.45044361347006462 0 -0.13816776916695811 -0.432543871779144 0 -0.15761868306950341 -0.43586407366366631 0 -0.1657538353786501 -0.45488695337555668 0 -0.13671083813600751 -0.45044361347006462 0 -0.15761868306950341 -0.43586407366366631 0 -0.13671083813600751 -0.45044361347006462 0 -0.13816776916695811 -0.432543871779144 0 -0.1225906368027144 -0.43005957413219659 0 -0.13671083813600751 -0.45044361347006462 0 -0.1225906368027144 -0.43005957413219659 0 -0.13671083813600751 -0.45044361347006462 0 -0.13441782301728619 -0.47175980973682791 0 -0.1201929706126502 -0.46127799294672761 0 -0.13441782301728619 -0.47175980973682791 0 -0.12605423818426559 -0.48707922202292669 0 -0.14429533434837091 -0.48908967660720287 0 -0.13441782301728619 -0.47175980973682791 0 -0.12605423818426559 -0.48707922202292669 0 -0.1201929706126502 -0.46127799294672761 0 -0.1295391708778694 -0.5 0 -0.12605423818426559 -0.48707922202292669 0 -0.14429533434837091 -0.48908967660720287 0 -0.15905149781887321 -0.49999999999999961 0 -0.1295391708778694 -0.5 0 -0.14429533434837091 -0.48908967660720287 0 -0.15905149781887321 -0.49999999999999961 0 -0.14429533434837091 -0.48908967660720287 0 -0.1545750311736096 -0.49062041690426861 0 -0.14429533434837091 -0.48908967660720287 0 -0.1545750311736096 -0.49062041690426861 0 -0.15083103946930049 -0.47082765280793248 0 -0.13441782301728619 -0.47175980973682791 0 -0.14429533434837091 -0.48908967660720287 0 -0.15083103946930049 -0.47082765280793248 0 -0.15345949684661231 -0.4053237642064671 0 -0.15136585988972451 -0.39002590355483568 0 -0.13982663417143551 -0.39933000433158738 0 -0.15136585988972451 -0.39002590355483568 0 -0.1368738238800834 -0.3880397179408614 0 -0.13982663417143551 -0.39933000433158738 0 -0.15345949684661231 -0.4053237642064671 0 -0.13982663417143551 -0.39933000433158738 0 -0.1398029654186671 -0.41064466143528439 0 -0.15136585988972451 -0.39002590355483568 0 -0.1368738238800834 -0.3880397179408614 0 -0.13959568407155781 -0.37291875636350952 0 -0.15136585988972451 -0.39002590355483568 0 -0.15951650330528561 -0.37856285477961621 0 -0.13959568407155781 -0.37291875636350952 0 -0.1368738238800834 -0.3880397179408614 0 -0.12625141541498519 -0.38197991289387551 0 -0.13959568407155781 -0.37291875636350952 0 -0.1368738238800834 -0.3880397179408614 0 -0.12625141541498519 -0.38197991289387551 0 -0.1273295258527142 -0.39594401256049883 0 -0.1368738238800834 -0.3880397179408614 0 -0.1273295258527142 -0.39594401256049883 0 -0.13982663417143551 -0.39933000433158738 0 -0.13982663417143551 -0.39933000433158738 0 -0.1295768038857959 -0.40463739140698729 0 -0.1398029654186671 -0.41064466143528439 0 -0.1273295258527142 -0.39594401256049883 0 -0.13982663417143551 -0.39933000433158738 0 -0.1295768038857959 -0.40463739140698729 0 -0.1273295258527142 -0.39594401256049883 0 -0.1295768038857959 -0.40463739140698729 0 -0.1219584454402414 -0.40406961642135292 0 -0.1295768038857959 -0.40463739140698729 0 -0.1296119374269841 -0.41417592727859581 0 -0.1225700411049412 -0.40994677461386392 0 -0.1296119374269841 -0.41417592727859581 0 -0.12315425937001 -0.41747458531602638 0 -0.1225700411049412 -0.40994677461386392 0 -0.1296119374269841 -0.41417592727859581 0 -0.13713184062407599 -0.42036644340313623 0 -0.12908399078123631 -0.42243277819987513 0 -0.1296119374269841 -0.41417592727859581 0 -0.12908399078123631 -0.42243277819987513 0 -0.12315425937001 -0.41747458531602638 0 -0.1296119374269841 -0.41417592727859581 0 -0.13713184062407599 -0.42036644340313623 0 -0.1398029654186671 -0.41064466143528439 0 -0.1295768038857959 -0.40463739140698729 0 -0.1296119374269841 -0.41417592727859581 0 -0.1398029654186671 -0.41064466143528439 0 -0.12908399078123631 -0.42243277819987513 0 -0.13816776916695811 -0.432543871779144 0 -0.1225906368027144 -0.43005957413219659 0 -0.13713184062407599 -0.42036644340313623 0 -0.12908399078123631 -0.42243277819987513 0 -0.13816776916695811 -0.432543871779144 0 -0.13816776916695811 -0.432543871779144 0 -0.14921107955709881 -0.42003443798493328 0 -0.15761868306950341 -0.43586407366366631 0 -0.13713184062407599 -0.42036644340313623 0 -0.13816776916695811 -0.432543871779144 0 -0.14921107955709881 -0.42003443798493328 0 -0.15345949684661231 -0.4053237642064671 0 -0.1398029654186671 -0.41064466143528439 0 -0.14921107955709881 -0.42003443798493328 0 -0.13713184062407599 -0.42036644340313623 0 -0.1398029654186671 -0.41064466143528439 0 -0.14921107955709881 -0.42003443798493328 0 -0.15345949684661231 -0.4053237642064671 0 -0.14921107955709881 -0.42003443798493328 0 -0.17009787391258249 -0.41611158199907422 0 -0.14921107955709881 -0.42003443798493328 0 -0.17009787391258249 -0.41611158199907422 0 -0.15761868306950341 -0.43586407366366631 0 -0.17009787391258249 -0.41611158199907422 0 -0.15761868306950341 -0.43586407366366631 0 -0.1755027511393909 -0.43471579892562301 0 -0.1943898331460783 -0.4473597119794826 0 -0.1755027511393909 -0.43471579892562301 0 -0.18951413900105801 -0.42212105940109063 0 -0.17009787391258249 -0.41611158199907422 0 -0.1755027511393909 -0.43471579892562301 0 -0.18951413900105801 -0.42212105940109063 0 -0.17009787391258249 -0.41611158199907422 0 -0.18562609472684241 -0.40161550393767448 0 -0.18951413900105801 -0.42212105940109063 0 -0.18562609472684241 -0.40161550393767448 0 -0.16863204450281991 -0.39380366607865908 0 -0.18254917963999329 -0.38971973427100182 0 -0.17009787391258249 -0.41611158199907422 0 -0.18562609472684241 -0.40161550393767448 0 -0.16863204450281991 -0.39380366607865908 0 -0.18562609472684241 -0.40161550393767448 0 -0.18254917963999329 -0.38971973427100182 0 -0.19364364155811911 -0.391297223908462 0 -0.15345949684661231 -0.4053237642064671 0 -0.17009787391258249 -0.41611158199907422 0 -0.16863204450281991 -0.39380366607865908 0 -0.15345949684661231 -0.4053237642064671 0 -0.15136585988972451 -0.39002590355483568 0 -0.16863204450281991 -0.39380366607865908 0 -0.15951650330528561 -0.37856285477961621 0 -0.17625218554490921 -0.38180729220612769 0 -0.1663610822414904 -0.3702523776444529 0 -0.16863204450281991 -0.39380366607865908 0 -0.15951650330528561 -0.37856285477961621 0 -0.17625218554490921 -0.38180729220612769 0 -0.15136585988972451 -0.39002590355483568 0 -0.16863204450281991 -0.39380366607865908 0 -0.15951650330528561 -0.37856285477961621 0 -0.17625218554490921 -0.38180729220612769 0 -0.1663610822414904 -0.3702523776444529 0 -0.18579747934449059 -0.37379744869579251 0 -0.16863204450281991 -0.39380366607865908 0 -0.17625218554490921 -0.38180729220612769 0 -0.18254917963999329 -0.38971973427100182 0 -0.17625218554490921 -0.38180729220612769 0 -0.18254917963999329 -0.38971973427100182 0 -0.18859193186727599 -0.38007498522408562 0 -0.17625218554490921 -0.38180729220612769 0 -0.18859193186727599 -0.38007498522408562 0 -0.18579747934449059 -0.37379744869579251 0 -0.18859193186727599 -0.38007498522408562 0 -0.2014200033848125 -0.37119512976538899 0 -0.18859193186727599 -0.38007498522408562 0 -0.2014200033848125 -0.37119512976538899 0 -0.18579747934449059 -0.37379744869579251 0 -0.18859193186727599 -0.38007498522408562 0 -0.1989719328316337 -0.38216032023399737 0 -0.2014200033848125 -0.37119512976538899 0 -0.1989719328316337 -0.38216032023399737 0 -0.20694960464083431 -0.38128159833907621 0 -0.2014200033848125 -0.37119512976538899 0 -0.1989719328316337 -0.38216032023399737 0 -0.19364364155811911 -0.391297223908462 0 -0.20620014074293039 -0.39180645285032889 0 -0.18859193186727599 -0.38007498522408562 0 -0.1989719328316337 -0.38216032023399737 0 -0.19364364155811911 -0.391297223908462 0 -0.18254917963999329 -0.38971973427100182 0 -0.18859193186727599 -0.38007498522408562 0 -0.19364364155811911 -0.391297223908462 0 -0.18562609472684241 -0.40161550393767448 0 -0.19364364155811911 -0.391297223908462 0 -0.20208872018367391 -0.4070926974887904 0 -0.19364364155811911 -0.391297223908462 0 -0.20620014074293039 -0.39180645285032889 0 -0.20208872018367391 -0.4070926974887904 0 -0.20620014074293039 -0.39180645285032889 0 -0.21479853281951461 -0.38638530273916921 0 -0.22382842548955789 -0.4035077318131633 0 -0.20620014074293039 -0.39180645285032889 0 -0.20208872018367391 -0.4070926974887904 0 -0.22382842548955789 -0.4035077318131633 0 -0.21479853281951461 -0.38638530273916921 0 -0.20694960464083431 -0.38128159833907621 0 -0.21335741342528061 -0.3748607861064962 0 -0.21479853281951461 -0.38638530273916921 0 -0.22412886374227589 -0.38235217247817599 0 -0.21335741342528061 -0.3748607861064962 0 -0.20694960464083431 -0.38128159833907621 0 -0.2014200033848125 -0.37119512976538899 0 -0.21335741342528061 -0.3748607861064962 0 -0.20620014074293039 -0.39180645285032889 0 -0.21479853281951461 -0.38638530273916921 0 -0.20694960464083431 -0.38128159833907621 0 -0.1989719328316337 -0.38216032023399737 0 -0.20620014074293039 -0.39180645285032889 0 -0.20694960464083431 -0.38128159833907621 0 -0.1943898331460783 -0.4473597119794826 0 -0.20910912931781811 -0.42543372189632289 0 -0.1943898331460783 -0.4473597119794826 0 -0.18951413900105801 -0.42212105940109063 0 -0.20910912931781811 -0.42543372189632289 0 -0.18951413900105801 -0.42212105940109063 0 -0.20208872018367391 -0.4070926974887904 0 -0.20910912931781811 -0.42543372189632289 0 -0.18562609472684241 -0.40161550393767448 0 -0.18951413900105801 -0.42212105940109063 0 -0.20208872018367391 -0.4070926974887904 0 -0.20208872018367391 -0.4070926974887904 0 -0.20910912931781811 -0.42543372189632289 0 -0.22382842548955789 -0.4035077318131633 0 -0.20910912931781811 -0.42543372189632289 0 -0.22382842548955789 -0.4035077318131633 0 -0.21590660946663959 -0.44883644739355771 0 -0.20910912931781811 -0.42543372189632289 0 -0.23180750449586429 -0.4343742486430574 0 -0.20910912931781811 -0.42543372189632289 0 -0.23180750449586429 -0.4343742486430574 0 -0.22382842548955789 -0.4035077318131633 0 -0.23180750449586429 -0.4343742486430574 0 -0.24697084661892749 -0.41526345823838401 0 -0.22382842548955789 -0.4035077318131633 0 -0.25687425522332558 -0.44642006451091643 0 -0.23180750449586429 -0.4343742486430574 0 -0.24697084661892749 -0.41526345823838401 0 -0.22412886374227589 -0.38235217247817599 0 -0.2351820232309369 -0.38700758852266848 0 -0.22952037500089251 -0.37311519752493849 0 -0.22412886374227589 -0.38235217247817599 0 -0.22186900287429051 -0.37074082218821958 0 -0.21335741342528061 -0.3748607861064962 0 -0.22412886374227589 -0.38235217247817599 0 -0.22952037500089251 -0.37311519752493849 0 -0.22186900287429051 -0.37074082218821958 0 -0.22382842548955789 -0.4035077318131633 0 -0.24394706363899241 -0.39877073912243299 0 -0.2351820232309369 -0.38700758852266848 0 -0.21479853281951461 -0.38638530273916921 0 -0.22412886374227589 -0.38235217247817599 0 -0.22382842548955789 -0.4035077318131633 0 -0.22412886374227589 -0.38235217247817599 0 -0.22382842548955789 -0.4035077318131633 0 -0.2351820232309369 -0.38700758852266848 0 -0.24697084661892749 -0.41526345823838401 0 -0.22382842548955789 -0.4035077318131633 0 -0.24394706363899241 -0.39877073912243299 0 -0.2504897110532438 -0.38524934403489181 0 -0.24394706363899241 -0.39877073912243299 0 -0.2351820232309369 -0.38700758852266848 0 -0.2504897110532438 -0.38524934403489181 0 -0.2351820232309369 -0.38700758852266848 0 -0.24036284435674521 -0.37772398595485779 0 -0.2351820232309369 -0.38700758852266848 0 -0.24036284435674521 -0.37772398595485779 0 -0.22952037500089251 -0.37311519752493849 0 -0.2504897110532438 -0.38524934403489181 0 -0.24036284435674521 -0.37772398595485779 0 -0.24839247009954951 -0.37292447016044328 0 -0.24839247009954951 -0.37292447016044328 0 -0.24532753696728959 -0.36501789644951049 0 -0.23861636880082099 -0.36955921174380651 0 -0.24036284435674521 -0.37772398595485779 0 -0.24839247009954951 -0.37292447016044328 0 -0.23861636880082099 -0.36955921174380651 0 -0.25757508569408222 -0.36424633604315798 0 -0.24532753696728959 -0.36501789644951049 0 -0.24650166737573331 -0.3569693529562265 0 -0.24532753696728959 -0.36501789644951049 0 -0.24234943749700691 -0.36154613291017651 0 -0.24650166737573331 -0.3569693529562265 0 -0.24532753696728959 -0.36501789644951049 0 -0.24234943749700691 -0.36154613291017651 0 -0.23928568589256061 -0.36455139619594779 0 -0.24234943749700691 -0.36154613291017651 0 -0.23928568589256061 -0.36455139619594779 0 -0.23696933381926599 -0.3585493042599866 0 -0.24532753696728959 -0.36501789644951049 0 -0.23928568589256061 -0.36455139619594779 0 -0.23861636880082099 -0.36955921174380651 0 -0.23928568589256061 -0.36455139619594779 0 -0.23861636880082099 -0.36955921174380651 0 -0.23345080570298909 -0.36409891217005902 0 -0.23928568589256061 -0.36455139619594779 0 -0.23345080570298909 -0.36409891217005902 0 -0.23696933381926599 -0.3585493042599866 0 -0.24036284435674521 -0.37772398595485779 0 -0.23861636880082099 -0.36955921174380651 0 -0.22952037500089251 -0.37311519752493849 0 -0.23345080570298909 -0.36409891217005902 0 -0.22186900287429051 -0.37074082218821958 0 -0.21424807490234879 -0.36231527430669241 0 -0.22952037500089251 -0.37311519752493849 0 -0.23345080570298909 -0.36409891217005902 0 -0.22186900287429051 -0.37074082218821958 0 -0.23696933381926599 -0.3585493042599866 0 -0.21424807490234879 -0.36231527430669241 0 -0.23861636880082099 -0.36955921174380651 0 -0.22952037500089251 -0.37311519752493849 0 -0.23345080570298909 -0.36409891217005902 0 -0.23345080570298909 -0.36409891217005902 0 -0.23696933381926599 -0.3585493042599866 0 -0.21424807490234879 -0.36231527430669241 0 -0.22913587473404851 -0.35200963246311751 0 -0.2097464541822805 -0.33582260124732738 0 -0.22913587473404851 -0.35200963246311751 0 -0.23696933381926599 -0.3585493042599866 0 -0.21424807490234879 -0.36231527430669241 0 -0.22913587473404851 -0.35200963246311751 0 -0.21998707993494029 -0.33959044394559312 0 -0.22913587473404851 -0.35200963246311751 0 -0.21424807490234879 -0.36231527430669241 0 -0.22913587473404851 -0.35200963246311751 0 -0.23696933381926599 -0.3585493042599866 0 -0.22913587473404851 -0.35200963246311751 0 -0.24881121389389799 -0.33838995723746451 0 -0.22913587473404851 -0.35200963246311751 0 -0.23696933381926599 -0.3585493042599866 0 -0.24650166737573331 -0.3569693529562265 0 -0.22913587473404851 -0.35200963246311751 0 -0.24650166737573331 -0.3569693529562265 0 -0.24881121389389799 -0.33838995723746451 0 -0.23696933381926599 -0.3585493042599866 0 -0.24650166737573331 -0.3569693529562265 0 -0.24234943749700691 -0.36154613291017651 0 -0.23696933381926599 -0.3585493042599866 0 -0.24650166737573331 -0.3569693529562265 0 -0.22913587473404851 -0.35200963246311751 0 -0.24881121389389799 -0.33838995723746451 0 -0.2325545649384867 -0.33453283978227571 0 -0.24881121389389799 -0.33838995723746451 0 -0.2441082332202735 -0.32380704628422963 0 -0.2325545649384867 -0.33453283978227571 0 -0.23613058105125781 -0.31890710479075163 0 -0.2279063026952847 -0.3135077128279592 0 -0.2444966906846206 -0.31181945912301329 0 -0.2441082332202735 -0.32380704628422963 0 -0.23498207165859719 -0.32537142019391418 0 -0.23613058105125781 -0.31890710479075163 0 -0.2441082332202735 -0.32380704628422963 0 -0.23498207165859719 -0.32537142019391418 0 -0.2325545649384867 -0.33453283978227571 0 -0.2441082332202735 -0.32380704628422963 0 -0.23613058105125781 -0.31890710479075163 0 -0.2444966906846206 -0.31181945912301329 0 -0.2279063026952847 -0.3135077128279592 0 -0.2193464910840433 -0.31976030368968739 0 -0.21134622408423179 -0.310554889255794 0 -0.23613058105125781 -0.31890710479075163 0 -0.2279063026952847 -0.3135077128279592 0 -0.22829430606921119 -0.32293804105388452 0 -0.23498207165859719 -0.32537142019391418 0 -0.22829430606921119 -0.32293804105388452 0 -0.2325545649384867 -0.33453283978227571 0 -0.23498207165859719 -0.32537142019391418 0 -0.23613058105125781 -0.31890710479075163 0 -0.22829430606921119 -0.32293804105388452 0 -0.22829430606921119 -0.32293804105388452 0 -0.2193464910840433 -0.31976030368968739 0 -0.22209033975117781 -0.32887735541776358 0 -0.2279063026952847 -0.3135077128279592 0 -0.22829430606921119 -0.32293804105388452 0 -0.2193464910840433 -0.31976030368968739 0 -0.22913587473404851 -0.35200963246311751 0 -0.2325545649384867 -0.33453283978227571 0 -0.21998707993494029 -0.33959044394559312 0 -0.22913587473404851 -0.35200963246311751 0 -0.21998707993494029 -0.33959044394559312 0 -0.2097464541822805 -0.33582260124732738 0 -0.22829430606921119 -0.32293804105388452 0 -0.2325545649384867 -0.33453283978227571 0 -0.22209033975117781 -0.32887735541776358 0 -0.2325545649384867 -0.33453283978227571 0 -0.22209033975117781 -0.32887735541776358 0 -0.21998707993494029 -0.33959044394559312 0 -0.21998707993494029 -0.33959044394559312 0 -0.21026925672920721 -0.32756514861737779 0 -0.22209033975117781 -0.32887735541776358 0 -0.21998707993494029 -0.33959044394559312 0 -0.21026925672920721 -0.32756514861737779 0 -0.21998707993494029 -0.33959044394559312 0 -0.2097464541822805 -0.33582260124732738 0 -0.21026925672920721 -0.32756514861737779 0 -0.2097464541822805 -0.33582260124732738 0 -0.21026925672920721 -0.32756514861737779 0 -0.21026925672920721 -0.32756514861737779 0 -0.21134622408423179 -0.310554889255794 0 -0.19267178705524021 -0.30578920503631912 0 -0.21026925672920721 -0.32756514861737779 0 -0.21134622408423179 -0.310554889255794 0 -0.2097464541822805 -0.33582260124732738 0 -0.21026925672920721 -0.32756514861737779 0 -0.19254159852174429 -0.31996122112867409 0 -0.2193464910840433 -0.31976030368968739 0 -0.21026925672920721 -0.32756514861737779 0 -0.21134622408423179 -0.310554889255794 0 -0.2193464910840433 -0.31976030368968739 0 -0.22209033975117781 -0.32887735541776358 0 -0.21026925672920721 -0.32756514861737779 0 -0.2097464541822805 -0.33582260124732738 0 -0.1943588054861482 -0.32297640251143073 0 -0.19254159852174429 -0.31996122112867409 0 -0.21026925672920721 -0.32756514861737779 0 -0.19267178705524021 -0.30578920503631912 0 -0.21026925672920721 -0.32756514861737779 0 -0.19254159852174429 -0.31996122112867409 0 -0.19267178705524021 -0.30578920503631912 0 -0.2097464541822805 -0.33582260124732738 0 -0.19254159852174429 -0.31996122112867409 0 -0.1943588054861482 -0.32297640251143073 0 -0.18737083868624629 -0.33075534874643497 0 -0.18479650728396149 -0.32227615663527998 0 -0.1943588054861482 -0.32297640251143073 0 -0.19254159852174429 -0.31996122112867409 0 -0.1789711567900161 -0.3101302037755338 0 -0.2097464541822805 -0.33582260124732738 0 -0.19466829689393059 -0.33824472710720138 0 -0.19565175395430129 -0.3512554891803924 0 -0.2097464541822805 -0.33582260124732738 0 -0.1943588054861482 -0.32297640251143073 0 -0.19466829689393059 -0.33824472710720138 0 -0.2097464541822805 -0.33582260124732738 0 -0.1943588054861482 -0.32297640251143073 0 -0.1943588054861482 -0.32297640251143073 0 -0.19466829689393059 -0.33824472710720138 0 -0.18737083868624629 -0.33075534874643497 0 -0.19466829689393059 -0.33824472710720138 0 -0.18164424501215659 -0.34621916084723381 0 -0.18737083868624629 -0.33075534874643497 0 -0.19466829689393059 -0.33824472710720138 0 -0.19565175395430129 -0.3512554891803924 0 -0.18164424501215659 -0.34621916084723381 0 -0.20800359978069241 -0.36335027445133922 0 -0.18480326185087809 -0.36719565018674682 0 -0.19565175395430129 -0.3512554891803924 0 -0.20800359978069241 -0.36335027445133922 0 -0.18480326185087809 -0.36719565018674682 0 -0.2014200033848125 -0.37119512976538899 0 -0.18480326185087809 -0.36719565018674682 0 -0.18579747934449059 -0.37379744869579251 0 -0.2014200033848125 -0.37119512976538899 0 -0.20800359978069241 -0.36335027445133922 0 -0.18480326185087809 -0.36719565018674682 0 -0.2014200033848125 -0.37119512976538899 0 -0.20800359978069241 -0.36335027445133922 0 -0.20803809997708481 -0.36661394692190907 0 -0.20800359978069241 -0.36335027445133922 0 -0.20803809997708481 -0.36661394692190907 0 -0.21424807490234879 -0.36231527430669241 0 -0.20800359978069241 -0.36335027445133922 0 -0.20803809997708481 -0.36661394692190907 0 -0.2014200033848125 -0.37119512976538899 0 -0.20803809997708481 -0.36661394692190907 0 -0.21335741342528061 -0.3748607861064962 0 -0.2014200033848125 -0.37119512976538899 0 -0.20803809997708481 -0.36661394692190907 0 -0.20803809997708481 -0.36661394692190907 0 -0.21335741342528061 -0.3748607861064962 0 -0.21424807490234879 -0.36231527430669241 0 -0.22186900287429051 -0.37074082218821958 0 -0.21335741342528061 -0.3748607861064962 0 -0.21424807490234879 -0.36231527430669241 0 -0.20800359978069241 -0.36335027445133922 0 -0.21424807490234879 -0.36231527430669241 0 -0.20803809997708481 -0.36661394692190907 0 -0.21424807490234879 -0.36231527430669241 0 -0.2097464541822805 -0.33582260124732738 0 -0.19565175395430129 -0.3512554891803924 0 -0.20800359978069241 -0.36335027445133922 0 -0.2097464541822805 -0.33582260124732738 0 -0.20800359978069241 -0.36335027445133922 0 -0.2097464541822805 -0.33582260124732738 0 -0.20800359978069241 -0.36335027445133922 0 -0.21424807490234879 -0.36231527430669241 0 -0.22913587473404851 -0.35200963246311751 0 -0.2097464541822805 -0.33582260124732738 0 -0.21424807490234879 -0.36231527430669241 0 -0.2335542019388327 -0.26090262277066528 0 -0.21472073189145299 -0.25725591714607071 0 -0.22837296648480071 -0.23789375384220129 0 -0.2335542019388327 -0.26090262277066528 0 -0.21357196166535461 -0.27540027352014051 0 -0.21472073189145299 -0.25725591714607071 0 -0.25298377122075039 -0.27518622721876451 0 -0.2335542019388327 -0.26090262277066528 0 -0.25431856302814809 -0.24833495949118861 0 -0.25298377122075039 -0.27518622721876451 0 -0.2335542019388327 -0.26090262277066528 0 -0.23093648268818689 -0.28342115129973 0 -0.2335542019388327 -0.26090262277066528 0 -0.23093648268818689 -0.28342115129973 0 -0.21357196166535461 -0.27540027352014051 0 -0.23093648268818689 -0.28342115129973 0 -0.21242319143925911 -0.29354462989421048 0 -0.21357196166535461 -0.27540027352014051 0 -0.23093648268818689 -0.28342115129973 0 -0.2435111179254994 -0.29490773243705071 0 -0.2284599410619414 -0.30268204450860919 0 -0.23093648268818689 -0.28342115129973 0 -0.2284599410619414 -0.30268204450860919 0 -0.21242319143925911 -0.29354462989421048 0 -0.25298377122075039 -0.27518622721876451 0 -0.23093648268818689 -0.28342115129973 0 -0.2435111179254994 -0.29490773243705071 0 -0.2444966906846206 -0.31181945912301329 0 -0.2284599410619414 -0.30268204450860919 0 -0.2435111179254994 -0.29490773243705071 0 -0.2444966906846206 -0.31181945912301329 0 -0.2284599410619414 -0.30268204450860919 0 -0.26057201890547982 -0.29344093798311832 0 -0.2435111179254994 -0.29490773243705071 0 -0.2444966906846206 -0.31181945912301329 0 -0.2279063026952847 -0.3135077128279592 0 -0.2444966906846206 -0.31181945912301329 0 -0.2284599410619414 -0.30268204450860919 0 -0.2284599410619414 -0.30268204450860919 0 -0.21242319143925911 -0.29354462989421048 0 -0.2279063026952847 -0.3135077128279592 0 -0.2284599410619414 -0.30268204450860919 0 -0.21134622408423179 -0.310554889255794 0 -0.2284599410619414 -0.30268204450860919 0 -0.21134622408423179 -0.310554889255794 0 -0.21242319143925911 -0.29354462989421048 0 -0.21134622408423179 -0.310554889255794 0 -0.19267178705524021 -0.30578920503631912 0 -0.21242319143925911 -0.29354462989421048 0 -0.21134622408423179 -0.310554889255794 0 -0.21242319143925911 -0.29354462989421048 0 -0.19267178705524021 -0.30578920503631912 0 -0.19410774352861071 -0.2831088592208712 0 -0.21242319143925911 -0.29354462989421048 0 -0.19410774352861071 -0.2831088592208712 0 -0.21242319143925911 -0.29354462989421048 0 -0.21357196166535461 -0.27540027352014051 0 -0.19410774352861071 -0.2831088592208712 0 -0.21242319143925911 -0.29354462989421048 0 -0.21242319143925911 -0.29354462989421048 0 -0.21357196166535461 -0.27540027352014051 0 -0.21357196166535461 -0.27540027352014051 0 -0.21472073189145299 -0.25725591714607071 0 -0.19410774352861071 -0.2831088592208712 0 -0.21357196166535461 -0.27540027352014051 0 -0.1965391795889786 -0.26204425282134669 0 -0.19410774352861071 -0.2831088592208712 0 -0.1965391795889786 -0.26204425282134669 0 -0.17579229561796161 -0.27267308854753308 0 -0.1965391795889786 -0.26204425282134669 0 -0.20565562739327201 -0.24334207984173631 0 -0.18863044441395099 -0.24733650333174401 0 -0.1965391795889786 -0.26204425282134669 0 -0.18340152769721799 -0.25642831405215172 0 -0.18863044441395099 -0.24733650333174401 0 -0.1965391795889786 -0.26204425282134669 0 -0.21472073189145299 -0.25725591714607071 0 -0.20565562739327201 -0.24334207984173631 0 -0.21357196166535461 -0.27540027352014051 0 -0.1965391795889786 -0.26204425282134669 0 -0.21472073189145299 -0.25725591714607071 0 -0.15747684770731041 -0.26223731787419863 0 -0.16344648285301799 -0.25937253054906129 0 -0.17579229561796161 -0.27267308854753308 0 -0.1593809120407062 -0.25278805690175971 0 -0.16344648285301799 -0.25937253054906129 0 -0.1534429259631987 -0.25724555178864622 0 -0.1593809120407062 -0.25278805690175971 0 -0.16344648285301799 -0.25937253054906129 0 -0.16709258238786229 -0.25188408856254202 0 -0.1593809120407062 -0.25278805690175971 0 -0.16709258238786229 -0.25188408856254202 0 -0.1601832428566283 -0.24550858739866141 0 -0.15747684770731041 -0.26223731787419863 0 -0.16344648285301799 -0.25937253054906129 0 -0.1534429259631987 -0.25724555178864622 0 -0.16344648285301799 -0.25937253054906129 0 -0.1534429259631987 -0.25724555178864622 0 -0.16344648285301799 -0.25937253054906129 0 -0.17379217291466831 -0.25992581321180469 0 -0.17579229561796161 -0.27267308854753308 0 -0.16344648285301799 -0.25937253054906129 0 -0.16709258238786229 -0.25188408856254202 0 -0.17379217291466831 -0.25992581321180469 0 -0.16709258238786229 -0.25188408856254202 0 -0.17679077873490559 -0.25046109420941731 0 -0.17379217291466831 -0.25992581321180469 0 -0.1965391795889786 -0.26204425282134669 0 -0.18340152769721799 -0.25642831405215172 0 -0.17579229561796161 -0.27267308854753308 0 -0.17679077873490559 -0.25046109420941731 0 -0.18340152769721799 -0.25642831405215172 0 -0.17379217291466831 -0.25992581321180469 0 -0.18340152769721799 -0.25642831405215172 0 -0.17379217291466831 -0.25992581321180469 0 -0.17579229561796161 -0.27267308854753308 0 -0.17679077873490559 -0.25046109420941731 0 -0.18340152769721799 -0.25642831405215172 0 -0.18863044441395099 -0.24733650333174401 0 -0.19410774352861071 -0.2831088592208712 0 -0.17579229561796161 -0.27267308854753308 0 -0.17507431738127369 -0.28401326145526029 0 -0.19410774352861071 -0.2831088592208712 0 -0.17579229561796161 -0.27267308854753308 0 -0.15747684770731041 -0.26223731787419863 0 -0.17507431738127369 -0.28401326145526029 0 -0.15747684770731041 -0.26223731787419863 0 -0.17579229561796161 -0.27267308854753308 0 -0.15747684770731041 -0.26223731787419863 0 -0.17579229561796161 -0.27267308854753308 0 -0.17507431738127369 -0.28401326145526029 0 -0.15747684770731041 -0.26223731787419863 0 -0.1596399504195592 -0.27820623095404468 0 -0.17507431738127369 -0.28401326145526029 0 -0.1596399504195592 -0.27820623095404468 0 -0.1624028041075358 -0.29248408411088062 0 -0.1494793968803598 -0.28070198605355251 0 -0.1624028041075358 -0.29248408411088062 0 -0.15973767967650701 -0.30493196891575292 0 -0.15108397830665751 -0.29236825921418419 0 -0.1624028041075358 -0.29248408411088062 0 -0.17507431738127369 -0.28401326145526029 0 -0.17391538329452061 -0.29489800819007239 0 -0.1596399504195592 -0.27820623095404468 0 -0.1624028041075358 -0.29248408411088062 0 -0.17507431738127369 -0.28401326145526029 0 -0.19267178705524021 -0.30578920503631912 0 -0.19410774352861071 -0.2831088592208712 0 -0.17507431738127369 -0.28401326145526029 0 -0.19267178705524021 -0.30578920503631912 0 -0.17507431738127369 -0.28401326145526029 0 -0.17391538329452061 -0.29489800819007239 0 -0.19267178705524021 -0.30578920503631912 0 -0.17507431738127369 -0.28401326145526029 0 -0.17391538329452061 -0.29489800819007239 0 -0.17532621133471249 -0.30426618216820789 0 -0.19254159852174429 -0.31996122112867409 0 -0.19267178705524021 -0.30578920503631912 0 -0.17532621133471249 -0.30426618216820789 0 -0.19267178705524021 -0.30578920503631912 0 -0.17391538329452061 -0.29489800819007239 0 -0.17532621133471249 -0.30426618216820789 0 -0.19254159852174429 -0.31996122112867409 0 -0.17532621133471249 -0.30426618216820789 0 -0.1789711567900161 -0.3101302037755338 0 -0.19254159852174429 -0.31996122112867409 0 -0.17532621133471249 -0.30426618216820789 0 -0.17532621133471249 -0.30426618216820789 0 -0.15973767967650701 -0.30493196891575292 0 -0.16582550601247259 -0.31644195918285489 0 -0.1624028041075358 -0.29248408411088062 0 -0.17532621133471249 -0.30426618216820789 0 -0.15973767967650701 -0.30493196891575292 0 -0.1624028041075358 -0.29248408411088062 0 -0.17532621133471249 -0.30426618216820789 0 -0.1624028041075358 -0.29248408411088062 0 -0.17391538329452061 -0.29489800819007239 0 -0.17532621133471249 -0.30426618216820789 0 -0.144593184228827 -0.30237793828586917 0 -0.15261731536399281 -0.31699983390472031 0 -0.1327552185807534 -0.31482398186879779 0 -0.15973767967650701 -0.30493196891575292 0 -0.144593184228827 -0.30237793828586917 0 -0.15261731536399281 -0.31699983390472031 0 -0.15973767967650701 -0.30493196891575292 0 -0.144593184228827 -0.30237793828586917 0 -0.15108397830665751 -0.29236825921418419 0 -0.144593184228827 -0.30237793828586917 0 -0.1304175251842298 -0.30012492429455973 0 -0.1327552185807534 -0.31482398186879779 0 -0.1304175251842298 -0.30012492429455973 0 -0.1327552185807534 -0.31482398186879779 0 -0.11567190875339491 -0.3081878681979589 0 -0.1304175251842298 -0.30012492429455973 0 -0.13697378053928061 -0.28594316463020741 0 -0.11725087491461519 -0.29108504565108578 0 -0.144593184228827 -0.30237793828586917 0 -0.1304175251842298 -0.30012492429455973 0 -0.13697378053928061 -0.28594316463020741 0 -0.13697378053928061 -0.28594316463020741 0 -0.15108397830665751 -0.29236825921418419 0 -0.1494793968803598 -0.28070198605355251 0 -0.144593184228827 -0.30237793828586917 0 -0.13697378053928061 -0.28594316463020741 0 -0.15108397830665751 -0.29236825921418419 0 -0.1624028041075358 -0.29248408411088062 0 -0.15108397830665751 -0.29236825921418419 0 -0.1494793968803598 -0.28070198605355251 0 -0.1624028041075358 -0.29248408411088062 0 -0.1494793968803598 -0.28070198605355251 0 -0.15747684770731041 -0.26223731787419863 0 -0.1596399504195592 -0.27820623095404468 0 -0.1503927610565664 -0.27179087804580171 0 -0.1596399504195592 -0.27820623095404468 0 -0.1494793968803598 -0.28070198605355251 0 -0.1503927610565664 -0.27179087804580171 0 -0.15747684770731041 -0.26223731787419863 0 -0.1503927610565664 -0.27179087804580171 0 -0.1469785187108 -0.2635474229235048 0 -0.1503927610565664 -0.27179087804580171 0 -0.13966748117377659 -0.26847157538705668 0 -0.1469785187108 -0.2635474229235048 0 -0.1503927610565664 -0.27179087804580171 0 -0.14153524490660671 -0.2763029116229278 0 -0.13966748117377659 -0.26847157538705668 0 -0.1494793968803598 -0.28070198605355251 0 -0.1503927610565664 -0.27179087804580171 0 -0.14153524490660671 -0.2763029116229278 0 -0.13697378053928061 -0.28594316463020741 0 -0.1494793968803598 -0.28070198605355251 0 -0.14153524490660671 -0.2763029116229278 0 -0.13697378053928061 -0.28594316463020741 0 -0.14153524490660671 -0.2763029116229278 0 -0.13219795163187159 -0.27110871778552531 0 -0.13697378053928061 -0.28594316463020741 0 -0.1173011125765811 -0.2721428964285707 0 -0.13697378053928061 -0.28594316463020741 0 -0.13219795163187159 -0.27110871778552531 0 -0.1173011125765811 -0.2721428964285707 0 -0.13219795163187159 -0.27110871778552531 0 -0.1333337708168415 -0.26377523499205202 0 -0.12600056203783161 -0.26301541000095829 0 -0.13219795163187159 -0.27110871778552531 0 -0.12600056203783161 -0.26301541000095829 0 -0.1173011125765811 -0.2721428964285707 0 -0.13219795163187159 -0.27110871778552531 0 -0.13966748117377659 -0.26847157538705668 0 -0.1333337708168415 -0.26377523499205202 0 -0.14153524490660671 -0.2763029116229278 0 -0.13219795163187159 -0.27110871778552531 0 -0.13966748117377659 -0.26847157538705668 0 -0.13966748117377659 -0.26847157538705668 0 -0.13807993829988649 -0.25979154560904222 0 -0.1333337708168415 -0.26377523499205202 0 -0.13807993829988649 -0.25979154560904222 0 -0.1333337708168415 -0.26377523499205202 0 -0.13072292094084129 -0.25648892617767749 0 -0.12600056203783161 -0.26301541000095829 0 -0.13072292094084129 -0.25648892617767749 0 -0.1187556211832122 -0.25814451816493872 0 -0.1333337708168415 -0.26377523499205202 0 -0.12600056203783161 -0.26301541000095829 0 -0.13072292094084129 -0.25648892617767749 0 -0.13072292094084129 -0.25648892617767749 0 -0.13218950310710981 -0.25272660122947088 0 -0.1187556211832122 -0.25814451816493872 0 -0.13072292094084129 -0.25648892617767749 0 -0.13218950310710981 -0.25272660122947088 0 -0.13218950310710981 -0.25272660122947088 0 -0.1459019403517107 -0.25564217047089421 0 -0.13375162957080131 -0.24871916986845621 0 -0.13218950310710981 -0.25272660122947088 0 -0.1459019403517107 -0.25564217047089421 0 -0.13218950310710981 -0.25272660122947088 0 -0.13375162957080131 -0.24871916986845621 0 -0.1459019403517107 -0.25564217047089421 0 -0.13375162957080131 -0.24871916986845621 0 -0.13807993829988649 -0.25979154560904222 0 -0.13218950310710981 -0.25272660122947088 0 -0.1459019403517107 -0.25564217047089421 0 -0.13807993829988649 -0.25979154560904222 0 -0.13072292094084129 -0.25648892617767749 0 -0.13218950310710981 -0.25272660122947088 0 -0.1459019403517107 -0.25564217047089421 0 -0.1534429259631987 -0.25724555178864622 0 -0.1378886282313006 -0.2381062402767252 0 -0.13966748117377659 -0.26847157538705668 0 -0.13807993829988649 -0.25979154560904222 0 -0.1469785187108 -0.2635474229235048 0 -0.13807993829988649 -0.25979154560904222 0 -0.1459019403517107 -0.25564217047089421 0 -0.1469785187108 -0.2635474229235048 0 -0.15747684770731041 -0.26223731787419863 0 -0.1459019403517107 -0.25564217047089421 0 -0.1534429259631987 -0.25724555178864622 0 -0.15747684770731041 -0.26223731787419863 0 -0.1459019403517107 -0.25564217047089421 0 -0.1469785187108 -0.2635474229235048 0 -0.15747684770731041 -0.26223731787419863 0 -0.1459019403517107 -0.25564217047089421 0 -0.15747684770731041 -0.26223731787419863 0 -0.1534429259631987 -0.25724555178864622 0 -0.1593809120407062 -0.25278805690175971 0 -0.1534429259631987 -0.25724555178864622 0 -0.15289321433053751 -0.246830478479277 0 -0.1459019403517107 -0.25564217047089421 0 -0.1534429259631987 -0.25724555178864622 0 -0.17143624801538501 -0.35840063883308271 0 -0.1580141783998408 -0.34710035810185619 0 -0.15489216358121211 -0.36256913283011211 0 -0.17143624801538501 -0.35840063883308271 0 -0.1580141783998408 -0.34710035810185619 0 -0.18164424501215659 -0.34621916084723381 0 -0.17143624801538501 -0.35840063883308271 0 -0.1663610822414904 -0.3702523776444529 0 -0.15489216358121211 -0.36256913283011211 0 -0.15951650330528561 -0.37856285477961621 0 -0.1663610822414904 -0.3702523776444529 0 -0.15489216358121211 -0.36256913283011211 0 -0.17143624801538501 -0.35840063883308271 0 -0.1663610822414904 -0.3702523776444529 0 -0.18480326185087809 -0.36719565018674682 0 -0.1663610822414904 -0.3702523776444529 0 -0.18480326185087809 -0.36719565018674682 0 -0.1663610822414904 -0.3702523776444529 0 -0.18480326185087809 -0.36719565018674682 0 -0.18579747934449059 -0.37379744869579251 0 -0.18480326185087809 -0.36719565018674682 0 -0.18579747934449059 -0.37379744869579251 0 -0.18480326185087809 -0.36719565018674682 0 -0.18164424501215659 -0.34621916084723381 0 -0.19565175395430129 -0.3512554891803924 0 -0.18480326185087809 -0.36719565018674682 0 -0.18164424501215659 -0.34621916084723381 0 -0.17143624801538501 -0.35840063883308271 0 -0.18480326185087809 -0.36719565018674682 0 -0.18164424501215659 -0.34621916084723381 0 -0.18164424501215659 -0.34621916084723381 0 -0.17848522817343529 -0.32524267150772068 0 -0.1629610955137164 -0.33076913941787212 0 -0.18164424501215659 -0.34621916084723381 0 -0.17848522817343529 -0.32524267150772068 0 -0.18164424501215659 -0.34621916084723381 0 -0.18737083868624629 -0.33075534874643497 0 -0.17848522817343529 -0.32524267150772068 0 -0.17532621133471249 -0.30426618216820789 0 -0.17848522817343529 -0.32524267150772068 0 -0.17532621133471249 -0.30426618216820789 0 -0.1789711567900161 -0.3101302037755338 0 -0.17848522817343529 -0.32524267150772068 0 -0.17532621133471249 -0.30426618216820789 0 -0.17848522817343529 -0.32524267150772068 0 -0.16582550601247259 -0.31644195918285489 0 -0.1943588054861482 -0.32297640251143073 0 -0.1789711567900161 -0.3101302037755338 0 -0.18479650728396149 -0.32227615663527998 0 -0.1789711567900161 -0.3101302037755338 0 -0.18479650728396149 -0.32227615663527998 0 -0.17848522817343529 -0.32524267150772068 0 -0.1943588054861482 -0.32297640251143073 0 -0.1789711567900161 -0.3101302037755338 0 -0.18737083868624629 -0.33075534874643497 0 -0.18479650728396149 -0.32227615663527998 0 -0.17848522817343529 -0.32524267150772068 0 -0.17848522817343529 -0.32524267150772068 0 -0.16582550601247259 -0.31644195918285489 0 -0.1629610955137164 -0.33076913941787212 0 -0.16582550601247259 -0.31644195918285489 0 -0.1629610955137164 -0.33076913941787212 0 -0.15261731536399281 -0.31699983390472031 0 -0.15973767967650701 -0.30493196891575292 0 -0.16582550601247259 -0.31644195918285489 0 -0.15261731536399281 -0.31699983390472031 0 -0.1580141783998408 -0.34710035810185619 0 -0.18164424501215659 -0.34621916084723381 0 -0.1629610955137164 -0.33076913941787212 0 -0.1580141783998408 -0.34710035810185619 0 -0.1629610955137164 -0.33076913941787212 0 -0.14559484309128301 -0.3331209990743299 0 -0.14559484309128301 -0.3331209990743299 0 -0.15261731536399281 -0.31699983390472031 0 -0.1327552185807534 -0.31482398186879779 0 -0.1629610955137164 -0.33076913941787212 0 -0.14559484309128301 -0.3331209990743299 0 -0.15261731536399281 -0.31699983390472031 0 -0.14559484309128301 -0.3331209990743299 0 -0.1327552185807534 -0.31482398186879779 0 -0.12678352480283511 -0.3369129194106073 0 -0.14559484309128301 -0.3331209990743299 0 -0.12678352480283511 -0.3369129194106073 0 -0.14043772588655989 -0.35211976174212622 0 -0.12678352480283511 -0.3369129194106073 0 -0.14043772588655989 -0.35211976174212622 0 -0.1203130985899742 -0.35955571918490481 0 -0.1580141783998408 -0.34710035810185619 0 -0.14043772588655989 -0.35211976174212622 0 -0.15489216358121211 -0.36256913283011211 0 -0.1580141783998408 -0.34710035810185619 0 -0.14559484309128301 -0.3331209990743299 0 -0.14043772588655989 -0.35211976174212622 0 -0.14043772588655989 -0.35211976174212622 0 -0.15489216358121211 -0.36256913283011211 0 -0.13959568407155781 -0.37291875636350952 0 -0.15951650330528561 -0.37856285477961621 0 -0.15489216358121211 -0.36256913283011211 0 -0.13959568407155781 -0.37291875636350952 0 -0.12625141541498519 -0.38197991289387551 0 -0.13959568407155781 -0.37291875636350952 0 -0.1203130985899742 -0.35955571918490481 0 -0.14043772588655989 -0.35211976174212622 0 -0.13959568407155781 -0.37291875636350952 0 -0.1203130985899742 -0.35955571918490481 0 -0.1203130985899742 -0.35955571918490481 0 -0.11384267237711319 -0.38219851895920232 0 -0.1203130985899742 -0.35955571918490481 0 -0.10849363524981311 -0.36442991456039969 0 -0.11384267237711319 -0.38219851895920232 0 -0.12625141541498519 -0.38197991289387551 0 -0.1203130985899742 -0.35955571918490481 0 -0.11384267237711319 -0.38219851895920232 0 -0.10849363524981311 -0.36442991456039969 0 -0.096157591159299352 -0.35547454281719221 0 -0.10176491866177829 -0.38015793077534599 0 -0.096157591159299352 -0.35547454281719221 0 -0.10176491866177829 -0.38015793077534599 0 -0.096157591159299352 -0.35547454281719221 0 -0.10176491866177829 -0.38015793077534599 0 -0.085276019388031976 -0.37619188405436782 0 -0.096157591159299352 -0.35547454281719221 0 -0.10964553082547281 -0.34513317088572909 0 -0.090550263656820479 -0.33079115485903843 0 -0.10849363524981311 -0.36442991456039969 0 -0.096157591159299352 -0.35547454281719221 0 -0.10964553082547281 -0.34513317088572909 0 -0.1203130985899742 -0.35955571918490481 0 -0.10849363524981311 -0.36442991456039969 0 -0.10964553082547281 -0.34513317088572909 0 -0.12678352480283511 -0.3369129194106073 0 -0.1203130985899742 -0.35955571918490481 0 -0.10964553082547281 -0.34513317088572909 0 -0.12678352480283511 -0.3369129194106073 0 -0.1203130985899742 -0.35955571918490481 0 -0.12678352480283511 -0.3369129194106073 0 -0.10964553082547281 -0.34513317088572909 0 -0.1112875311940303 -0.32576775904759792 0 -0.1327552185807534 -0.31482398186879779 0 -0.12678352480283511 -0.3369129194106073 0 -0.1112875311940303 -0.32576775904759792 0 -0.1327552185807534 -0.31482398186879779 0 -0.1112875311940303 -0.32576775904759792 0 -0.11567190875339491 -0.3081878681979589 0 -0.1112875311940303 -0.32576775904759792 0 -0.1011365257202933 -0.31403431577096802 0 -0.11567190875339491 -0.3081878681979589 0 -0.1112875311940303 -0.32576775904759792 0 -0.1011365257202933 -0.31403431577096802 0 -0.090550263656820479 -0.33079115485903843 0 -0.10964553082547281 -0.34513317088572909 0 -0.1112875311940303 -0.32576775904759792 0 -0.090550263656820479 -0.33079115485903843 0 -0.096157591159299352 -0.35547454281719221 0 -0.090550263656820479 -0.33079115485903843 0 -0.096157591159299352 -0.35547454281719221 0 -0.090550263656820479 -0.33079115485903843 0 -0.073144777225565616 -0.33606175945158517 0 -0.090550263656820479 -0.33079115485903843 0 -0.084942936154341619 -0.30610776690088481 0 -0.090550263656820479 -0.33079115485903843 0 -0.073144777225565616 -0.33606175945158517 0 -0.084942936154341619 -0.30610776690088481 0 -0.1011365257202933 -0.31403431577096802 0 -0.090550263656820479 -0.33079115485903843 0 -0.084942936154341619 -0.30610776690088481 0 -0.073144777225565616 -0.33606175945158517 0 -0.084942936154341619 -0.30610776690088481 0 -0.060613113796085999 -0.32288269869712272 0 -0.073144777225565616 -0.33606175945158517 0 -0.076755031766953086 -0.35884624094615858 0 -0.063306301319701316 -0.35299520754669739 0 -0.076755031766953086 -0.35884624094615858 0 -0.063306301319701316 -0.35299520754669739 0 -0.065890469742167113 -0.37350781086095058 0 -0.076755031766953086 -0.35884624094615858 0 -0.065890469742167113 -0.37350781086095058 0 -0.085276019388031976 -0.37619188405436782 0 -0.096157591159299352 -0.35547454281719221 0 -0.076755031766953086 -0.35884624094615858 0 -0.085276019388031976 -0.37619188405436782 0 -0.096157591159299352 -0.35547454281719221 0 -0.073144777225565616 -0.33606175945158517 0 -0.076755031766953086 -0.35884624094615858 0 -0.097628444613881649 -0.25834262822693399 0 -0.1173011125765811 -0.2721428964285707 0 -0.097628444613881649 -0.25834262822693399 0 -0.1187556211832122 -0.25814451816493872 0 -0.1098930818979398 -0.24798588601512411 0 -0.13218950310710981 -0.25272660122947088 0 -0.1187556211832122 -0.25814451816493872 0 -0.1098930818979398 -0.24798588601512411 0 -0.097628444613881649 -0.25834262822693399 0 -0.1187556211832122 -0.25814451816493872 0 -0.1173011125765811 -0.2721428964285707 0 -0.13218950310710981 -0.25272660122947088 0 -0.1098930818979398 -0.24798588601512411 0 -0.12600056203783161 -0.26301541000095829 0 -0.1187556211832122 -0.25814451816493872 0 -0.1173011125765811 -0.2721428964285707 0 -0.097628444613881649 -0.25834262822693399 0 -0.1173011125765811 -0.2721428964285707 0 -0.090762408808148426 -0.27102181932101072 0 -0.1173011125765811 -0.2721428964285707 0 -0.096655829275762523 -0.28444542957314378 0 -0.090762408808148426 -0.27102181932101072 0 -0.096655829275762523 -0.28444542957314378 0 -0.10322998884287909 -0.29931702984935987 0 -0.084942936154341619 -0.30610776690088481 0 -0.096655829275762523 -0.28444542957314378 0 -0.11725087491461519 -0.29108504565108578 0 -0.10322998884287909 -0.29931702984935987 0 -0.13697378053928061 -0.28594316463020741 0 -0.1173011125765811 -0.2721428964285707 0 -0.11725087491461519 -0.29108504565108578 0 -0.1173011125765811 -0.2721428964285707 0 -0.096655829275762523 -0.28444542957314378 0 -0.11725087491461519 -0.29108504565108578 0 -0.11725087491461519 -0.29108504565108578 0 -0.11567190875339491 -0.3081878681979589 0 -0.10322998884287909 -0.29931702984935987 0 -0.1304175251842298 -0.30012492429455973 0 -0.11725087491461519 -0.29108504565108578 0 -0.11567190875339491 -0.3081878681979589 0 -0.1011365257202933 -0.31403431577096802 0 -0.10322998884287909 -0.29931702984935987 0 -0.084942936154341619 -0.30610776690088481 0 -0.1011365257202933 -0.31403431577096802 0 -0.11567190875339491 -0.3081878681979589 0 -0.10322998884287909 -0.29931702984935987 0 -0.084942936154341619 -0.30610776690088481 0 -0.066237696895848033 -0.30175990202967712 0 -0.078368201618682937 -0.28822753231137022 0 -0.084942936154341619 -0.30610776690088481 0 -0.066237696895848033 -0.30175990202967712 0 -0.060613113796085999 -0.32288269869712272 0 -0.066237696895848033 -0.30175990202967712 0 -0.078368201618682937 -0.28822753231137022 0 -0.057136779716869042 -0.28712205926022771 0 -0.078368201618682937 -0.28822753231137022 0 -0.072744725061100565 -0.27289296274949931 0 -0.057136779716869042 -0.28712205926022771 0 -0.096655829275762523 -0.28444542957314378 0 -0.084942936154341619 -0.30610776690088481 0 -0.078368201618682937 -0.28822753231137022 0 -0.096655829275762523 -0.28444542957314378 0 -0.078368201618682937 -0.28822753231137022 0 -0.090762408808148426 -0.27102181932101072 0 -0.078368201618682937 -0.28822753231137022 0 -0.090762408808148426 -0.27102181932101072 0 -0.072744725061100565 -0.27289296274949931 0 -0.090762408808148426 -0.27102181932101072 0 -0.072744725061100565 -0.27289296274949931 0 -0.081281336266817772 -0.26097832242812891 0 -0.072744725061100565 -0.27289296274949931 0 -0.067161912638977472 -0.25903173736147111 0 -0.055745381016590281 -0.2682223094504298 0 -0.072744725061100565 -0.27289296274949931 0 -0.067161912638977472 -0.25903173736147111 0 -0.081281336266817772 -0.26097832242812891 0 -0.067161912638977472 -0.25903173736147111 0 -0.081281336266817772 -0.26097832242812891 0 -0.077955776651182085 -0.24454236002529731 0 -0.067161912638977472 -0.25903173736147111 0 -0.056939497423126581 -0.24878681181634871 0 -0.077955776651182085 -0.24454236002529731 0 -0.097628444613881649 -0.25834262822693399 0 -0.081281336266817772 -0.26097832242812891 0 -0.077955776651182085 -0.24454236002529731 0 -0.097628444613881649 -0.25834262822693399 0 -0.090762408808148426 -0.27102181932101072 0 -0.081281336266817772 -0.26097832242812891 0 -0.097628444613881649 -0.25834262822693399 0 -0.077955776651182085 -0.24454236002529731 0 -0.025857267464119819 -0.25506418495113531 0 -0.050191684441297867 -0.2485850187836515 0 -0.034199021844566052 -0.25740496373097072 0 -0.056939497423126581 -0.24878681181634871 0 -0.034199021844566052 -0.25740496373097072 0 -0.041398382443623198 -0.25192549838374201 0 -0.056939497423126581 -0.24878681181634871 0 -0.041398382443623198 -0.25192549838374201 0 -0.025857267464119819 -0.25506418495113531 0 -0.050191684441297867 -0.2485850187836515 0 -0.034199021844566052 -0.25740496373097072 0 -0.048255079716108998 -0.25800015923011232 0 -0.056939497423126581 -0.24878681181634871 0 -0.034199021844566052 -0.25740496373097072 0 -0.041398382443623198 -0.25192549838374201 0 -0.025857267464119819 -0.25506418495113531 0 -0.041398382443623198 -0.25192549838374201 0 -0.025857267464119819 -0.25506418495113531 0 -0.034199021844566052 -0.25740496373097072 0 -0.037307574571523318 -0.26201401924185519 0 -0.024854767991187229 -0.26705994663832661 0 -0.037307574571523318 -0.26201401924185519 0 -0.048255079716108998 -0.25800015923011232 0 -0.046606779304586107 -0.26584835010199509 0 -0.034199021844566052 -0.25740496373097072 0 -0.037307574571523318 -0.26201401924185519 0 -0.048255079716108998 -0.25800015923011232 0 -0.05702546769870083 -0.25851025446459042 0 -0.048255079716108998 -0.25800015923011232 0 -0.056939497423126581 -0.24878681181634871 0 -0.041398382443623198 -0.25192549838374201 0 -0.056939497423126581 -0.24878681181634871 0 -0.067161912638977472 -0.25903173736147111 0 -0.05702546769870083 -0.25851025446459042 0 -0.056939497423126581 -0.24878681181634871 0 -0.067161912638977472 -0.25903173736147111 0 -0.05702546769870083 -0.25851025446459042 0 -0.055745381016590281 -0.2682223094504298 0 -0.05702546769870083 -0.25851025446459042 0 -0.048255079716108998 -0.25800015923011232 0 -0.055745381016590281 -0.2682223094504298 0 -0.048255079716108998 -0.25800015923011232 0 -0.055745381016590281 -0.2682223094504298 0 -0.046606779304586107 -0.26584835010199509 0 -0.055745381016590281 -0.2682223094504298 0 -0.045119081914121867 -0.27515691248558288 0 -0.046606779304586107 -0.26584835010199509 0 -0.055745381016590281 -0.2682223094504298 0 -0.045119081914121867 -0.27515691248558288 0 -0.057136779716869042 -0.28712205926022771 0 -0.072744725061100565 -0.27289296274949931 0 -0.055745381016590281 -0.2682223094504298 0 -0.057136779716869042 -0.28712205926022771 0 -0.037307574571523318 -0.26201401924185519 0 -0.034478529498429812 -0.28951379058442123 0 -0.037307574571523318 -0.26201401924185519 0 -0.034478529498429812 -0.28951379058442123 0 -0.024854767991187229 -0.26705994663832661 0 -0.037307574571523318 -0.26201401924185519 0 -0.045119081914121867 -0.27515691248558288 0 -0.034478529498429812 -0.28951379058442123 0 -0.037307574571523318 -0.26201401924185519 0 -0.045119081914121867 -0.27515691248558288 0 -0.046606779304586107 -0.26584835010199509 0 -0.045119081914121867 -0.27515691248558288 0 -0.034478529498429812 -0.28951379058442123 0 -0.057136779716869042 -0.28712205926022771 0 -0.034478529498429812 -0.28951379058442123 0 -0.057136779716869042 -0.28712205926022771 0 -0.05012745319326059 -0.30445945297878008 0 -0.066237696895848033 -0.30175990202967712 0 -0.05012745319326059 -0.30445945297878008 0 -0.060613113796085999 -0.32288269869712272 0 -0.066237696895848033 -0.30175990202967712 0 -0.057136779716869042 -0.28712205926022771 0 -0.05012745319326059 -0.30445945297878008 0 -0.034478529498429812 -0.28951379058442123 0 -0.05012745319326059 -0.30445945297878008 0 -0.031649484425336299 -0.31701356192698721 0 -0.034478529498429812 -0.28951379058442123 0 -0.031649484425336299 -0.31701356192698721 0 -0.034478529498429812 -0.28951379058442123 0 -0.020284114256294641 -0.29759304008048471 0 -0.031649484425336299 -0.31701356192698721 0 -0.020284114256294641 -0.29759304008048471 0 -0.01007927323019326 -0.3103345258507364 0 -0.031649484425336299 -0.31701356192698721 0 -0.020284114256294641 -0.29759304008048471 0 -0.01007927323019326 -0.3103345258507364 0 -0.0080748459131490501 -0.2914060437848453 0 -0.01007927323019326 -0.3103345258507364 0 -0.0080748459131490501 -0.2914060437848453 0 0.0017563221397047381 -0.2997067901486577 0 -0.020284114256294641 -0.29759304008048471 0 -0.0080748459131490501 -0.2914060437848453 0 -0.017138438214364771 -0.27969727825543328 0 -0.0080748459131490501 -0.2914060437848453 0 -0.002848760243290064 -0.27761611820401882 0 0.0066437179820165657 -0.2861171845936395 0 -0.0080748459131490501 -0.2914060437848453 0 -0.017138438214364771 -0.27969727825543328 0 -0.002848760243290064 -0.27761611820401882 0 -0.034478529498429812 -0.28951379058442123 0 -0.020284114256294641 -0.29759304008048471 0 -0.017138438214364771 -0.27969727825543328 0 -0.034478529498429812 -0.28951379058442123 0 -0.024854767991187229 -0.26705994663832661 0 -0.017138438214364771 -0.27969727825543328 0 -0.024854767991187229 -0.26705994663832661 0 -0.01588915841142927 -0.27169793716392882 0 -0.01145854626600548 -0.26602311564559261 0 -0.024854767991187229 -0.26705994663832661 0 -0.01588915841142927 -0.27169793716392882 0 -0.017138438214364771 -0.27969727825543328 0 -0.017138438214364771 -0.27969727825543328 0 -0.011833725783772399 -0.27375861231724341 0 -0.002848760243290064 -0.27761611820401882 0 -0.01145854626600548 -0.26602311564559261 0 0.01128192931255503 -0.27464126756021451 0 -0.002848760243290064 -0.27761611820401882 0 -0.01145854626600548 -0.26602311564559261 0 0.01128192931255503 -0.27464126756021451 0 -0.01588915841142927 -0.27169793716392882 0 -0.017138438214364771 -0.27969727825543328 0 -0.011833725783772399 -0.27375861231724341 0 -0.011833725783772399 -0.27375861231724341 0 -0.002848760243290064 -0.27761611820401882 0 -0.01145854626600548 -0.26602311564559261 0 -0.01588915841142927 -0.27169793716392882 0 -0.011833725783772399 -0.27375861231724341 0 -0.01145854626600548 -0.26602311564559261 0 -0.01269776775011346 -0.25850600500130039 0 -0.0051360078472848583 -0.25701396995817721 0 0.0057158633005241696 -0.26337829885565528 0 -0.01145854626600548 -0.26602311564559261 0 -0.01269776775011346 -0.25850600500130039 0 0.0057158633005241696 -0.26337829885565528 0 -0.01269776775011346 -0.25850600500130039 0 0.0057158633005241696 -0.26337829885565528 0 -0.0009620894167222515 -0.25496392916579452 0 -0.0051360078472848583 -0.25701396995817721 0 0.0057158633005241696 -0.26337829885565528 0 -0.0071971320314794382 -0.2528457057960789 0 -0.01082738352359053 -0.24876902592697839 0 -0.0029313858115674811 -0.24854412401401971 0 -0.0009620894167222515 -0.25496392916579452 0 -0.0071971320314794382 -0.2528457057960789 0 -0.0029313858115674811 -0.24854412401401971 0 -0.0009620894167222515 -0.25496392916579452 0 -0.0051360078472848583 -0.25701396995817721 0 -0.0071971320314794382 -0.2528457057960789 0 -0.0051360078472848583 -0.25701396995817721 0 -0.0071971320314794382 -0.2528457057960789 0 -0.0094143843739788544 -0.25459574361389747 0 -0.0071971320314794382 -0.2528457057960789 0 -0.0094143843739788544 -0.25459574361389747 0 -0.01082738352359053 -0.24876902592697839 0 -0.01269776775011346 -0.25850600500130039 0 -0.0094143843739788544 -0.25459574361389747 0 -0.01082738352359053 -0.24876902592697839 0 -0.01269776775011346 -0.25850600500130039 0 -0.0051360078472848583 -0.25701396995817721 0 -0.0094143843739788544 -0.25459574361389747 0 -0.01269776775011346 -0.25850600500130039 0 -0.025857267464119819 -0.25506418495113531 0 -0.034199021844566052 -0.25740496373097072 0 -0.01145854626600548 -0.26602311564559261 0 -0.025857267464119819 -0.25506418495113531 0 -0.01269776775011346 -0.25850600500130039 0 -0.025857267464119819 -0.25506418495113531 0 -0.02368513365757598 -0.23851275990414511 0 -0.034199021844566052 -0.25740496373097072 0 -0.024854767991187229 -0.26705994663832661 0 -0.01145854626600548 -0.26602311564559261 0 -0.034199021844566052 -0.25740496373097072 0 -0.01145854626600548 -0.26602311564559261 0 -0.01145854626600548 -0.26602311564559261 0 -0.01269776775011346 -0.25850600500130039 0 -0.025857267464119819 -0.25506418495113531 0 -0.046940286889098168 -0.35955036210978841 0 -0.050269733973634309 -0.3392354021108881 0 -0.02882043935224279 -0.34451333326955308 0 -0.046940286889098168 -0.35955036210978841 0 -0.02882043935224279 -0.34451333326955308 0 -0.026419717968229769 -0.36867473508972981 0 -0.046940286889098168 -0.35955036210978841 0 -0.026419717968229769 -0.36867473508972981 0 -0.046935058978613817 -0.3783756837809118 0 -0.065890469742167113 -0.37350781086095058 0 -0.046940286889098168 -0.35955036210978841 0 -0.046935058978613817 -0.3783756837809118 0 -0.063306301319701316 -0.35299520754669739 0 -0.065890469742167113 -0.37350781086095058 0 -0.046940286889098168 -0.35955036210978841 0 -0.063306301319701316 -0.35299520754669739 0 -0.046940286889098168 -0.35955036210978841 0 -0.050269733973634309 -0.3392354021108881 0 -0.073144777225565616 -0.33606175945158517 0 -0.063306301319701316 -0.35299520754669739 0 -0.050269733973634309 -0.3392354021108881 0 -0.073144777225565616 -0.33606175945158517 0 -0.050269733973634309 -0.3392354021108881 0 -0.060613113796085999 -0.32288269869712272 0 -0.050269733973634309 -0.3392354021108881 0 -0.060613113796085999 -0.32288269869712272 0 -0.031649484425336299 -0.31701356192698721 0 -0.05012745319326059 -0.30445945297878008 0 -0.060613113796085999 -0.32288269869712272 0 -0.031649484425336299 -0.31701356192698721 0 -0.050269733973634309 -0.3392354021108881 0 -0.031649484425336299 -0.31701356192698721 0 -0.02882043935224279 -0.34451333326955308 0 -0.031649484425336299 -0.31701356192698721 0 -0.02882043935224279 -0.34451333326955308 0 -0.031649484425336299 -0.31701356192698721 0 -0.0038616663111063101 -0.33241552487502413 0 -0.02882043935224279 -0.34451333326955308 0 -0.01007927323019326 -0.3103345258507364 0 -0.031649484425336299 -0.31701356192698721 0 -0.0038616663111063101 -0.33241552487502413 0 -0.01007927323019326 -0.3103345258507364 0 -0.0038616663111063101 -0.33241552487502413 0 0.0094652366165251054 -0.31053241408104548 0 -0.0038616663111063101 -0.33241552487502413 0 -0.0043130761299947744 -0.35643483176966217 0 -0.02882043935224279 -0.34451333326955308 0 -0.0043130761299947744 -0.35643483176966217 0 -0.02882043935224279 -0.34451333326955308 0 -0.026419717968229769 -0.36867473508972981 0 -0.0043130761299947744 -0.35643483176966217 0 -0.026419717968229769 -0.36867473508972981 0 -0.0064694903547723136 -0.38059021958606692 0 -0.0064694903547723136 -0.38059021958606692 0 -0.0080625817845775948 -0.40608726553411861 0 -0.026496984295852101 -0.39226102623928111 0 -0.0064694903547723136 -0.38059021958606692 0 -0.0080625817845775948 -0.40608726553411861 0 0.009690974369139977 -0.39295199195252922 0 -0.0080625817845775948 -0.40608726553411861 0 -0.026496984295852101 -0.39226102623928111 0 -0.029852467816379728 -0.41236872525256307 0 -0.026419717968229769 -0.36867473508972981 0 -0.0064694903547723136 -0.38059021958606692 0 -0.026496984295852101 -0.39226102623928111 0 -0.026496984295852101 -0.39226102623928111 0 -0.048213792324517578 -0.39768762776665978 0 -0.046935058978613817 -0.3783756837809118 0 -0.026419717968229769 -0.36867473508972981 0 -0.026496984295852101 -0.39226102623928111 0 -0.046935058978613817 -0.3783756837809118 0 -0.026496984295852101 -0.39226102623928111 0 -0.048213792324517578 -0.39768762776665978 0 -0.029852467816379728 -0.41236872525256307 0 -0.048213792324517578 -0.39768762776665978 0 -0.065379196062645584 -0.39052657147488062 0 -0.06528413140028641 -0.40548789039177052 0 -0.048213792324517578 -0.39768762776665978 0 -0.046935058978613817 -0.3783756837809118 0 -0.065379196062645584 -0.39052657147488062 0 -0.065890469742167113 -0.37350781086095058 0 -0.046935058978613817 -0.3783756837809118 0 -0.065379196062645584 -0.39052657147488062 0 -0.052630130657334448 -0.42871109396582502 0 -0.036803499053157718 -0.43392585985635063 0 -0.055908543568221357 -0.44353945242809251 0 -0.052630130657334448 -0.42871109396582502 0 -0.048282499091199083 -0.41684649723306111 0 -0.065713266975248902 -0.42040157794015642 0 -0.052630130657334448 -0.42871109396582502 0 -0.055908543568221357 -0.44353945242809251 0 -0.077753046024815156 -0.43509142098737241 0 -0.048282499091199083 -0.41684649723306111 0 -0.06528413140028641 -0.40548789039177052 0 -0.065713266975248902 -0.42040157794015642 0 -0.048213792324517578 -0.39768762776665978 0 -0.048282499091199083 -0.41684649723306111 0 -0.06528413140028641 -0.40548789039177052 0 -0.048213792324517578 -0.39768762776665978 0 -0.048282499091199083 -0.41684649723306111 0 -0.029852467816379728 -0.41236872525256307 0 -0.048282499091199083 -0.41684649723306111 0 -0.036803499053157718 -0.43392585985635063 0 -0.029852467816379728 -0.41236872525256307 0 -0.052630130657334448 -0.42871109396582502 0 -0.048282499091199083 -0.41684649723306111 0 -0.036803499053157718 -0.43392585985635063 0 -0.036803499053157718 -0.43392585985635063 0 -0.01686747062211669 -0.42668809062348251 0 -0.022482277956740859 -0.44034230556013138 0 -0.036803499053157718 -0.43392585985635063 0 -0.01686747062211669 -0.42668809062348251 0 -0.029852467816379728 -0.41236872525256307 0 -0.0080625817845775948 -0.40608726553411861 0 -0.01686747062211669 -0.42668809062348251 0 -0.029852467816379728 -0.41236872525256307 0 -0.0080625817845775948 -0.40608726553411861 0 -0.01686747062211669 -0.42668809062348251 0 0.01224976062295041 -0.42183763890738629 0 -0.01686747062211669 -0.42668809062348251 0 -0.008216644178786571 -0.4466179140804285 0 0.01224976062295041 -0.42183763890738629 0 -0.008216644178786571 -0.4466179140804285 0 -0.0021957942935651631 -0.46571035637089769 0 -0.016151777162071251 -0.46269316979172348 0 -0.0021957942935651631 -0.46571035637089769 0 -0.016151777162071251 -0.46269316979172348 0 -0.01292321871024151 -0.47600360382280887 0 -0.008216644178786571 -0.4466179140804285 0 -0.016151777162071251 -0.46269316979172348 0 -0.028753682251359231 -0.45370767630375852 0 -0.016151777162071251 -0.46269316979172348 0 -0.030722049445265721 -0.46513815794063051 0 -0.025757536927686689 -0.47561542944709773 0 -0.016151777162071251 -0.46269316979172348 0 -0.030722049445265721 -0.46513815794063051 0 -0.028753682251359231 -0.45370767630375852 0 -0.036803499053157718 -0.43392585985635063 0 -0.028753682251359231 -0.45370767630375852 0 -0.022482277956740859 -0.44034230556013138 0 -0.01686747062211669 -0.42668809062348251 0 -0.008216644178786571 -0.4466179140804285 0 -0.022482277956740859 -0.44034230556013138 0 -0.008216644178786571 -0.4466179140804285 0 -0.028753682251359231 -0.45370767630375852 0 -0.022482277956740859 -0.44034230556013138 0 -0.011489863113854141 -0.5 0 -0.010144146689038991 -0.48941639725935437 0 0.012735562036971701 -0.48508522326900949 0 -0.010144146689038991 -0.48941639725935437 0 -0.00065605929082254884 -0.47874224407546379 0 -0.01292321871024151 -0.47600360382280887 0 -0.010144146689038991 -0.48941639725935437 0 -0.01292321871024151 -0.47600360382280887 0 -0.022633997898264431 -0.48384402599231691 0 -0.0021957942935651631 -0.46571035637089769 0 -0.00065605929082254884 -0.47874224407546379 0 -0.01292321871024151 -0.47600360382280887 0 -0.016151777162071251 -0.46269316979172348 0 -0.01292321871024151 -0.47600360382280887 0 -0.025757536927686689 -0.47561542944709773 0 -0.025757536927686689 -0.47561542944709773 0 -0.022633997898264431 -0.48384402599231691 0 -0.032724513000240443 -0.48384135401243772 0 -0.01292321871024151 -0.47600360382280887 0 -0.025757536927686689 -0.47561542944709773 0 -0.022633997898264431 -0.48384402599231691 0 -0.011489863113854141 -0.5 0 -0.010144146689038991 -0.48941639725935437 0 -0.033023855415049652 -0.49374757124969931 0 -0.010144146689038991 -0.48941639725935437 0 -0.022633997898264431 -0.48384402599231691 0 -0.033023855415049652 -0.49374757124969931 0 -0.011489863113854141 -0.5 0 -0.041002190054857779 -0.5 0 -0.033023855415049652 -0.49374757124969931 0 -0.010144146689038991 -0.48941639725935437 0 -0.033023855415049652 -0.49374757124969931 0 -0.022633997898264431 -0.48384402599231691 0 -0.033023855415049652 -0.49374757124969931 0 -0.032724513000240443 -0.48384135401243772 0 -0.041002190054857779 -0.5 0 -0.040644419244316249 -0.48874723383863622 0 -0.055758353525359711 -0.48944453406372251 0 -0.041002190054857779 -0.5 0 -0.033023855415049652 -0.49374757124969931 0 -0.040644419244316249 -0.48874723383863622 0 -0.033023855415049652 -0.49374757124969931 0 -0.040644419244316249 -0.48874723383863622 0 -0.032724513000240443 -0.48384135401243772 0 -0.040644419244316249 -0.48874723383863622 0 -0.040713184226073652 -0.47670270986732172 0 -0.055758353525359711 -0.48944453406372251 0 -0.040644419244316249 -0.48874723383863622 0 -0.040713184226073652 -0.47670270986732172 0 -0.032724513000240443 -0.48384135401243772 0 -0.025757536927686689 -0.47561542944709773 0 -0.040713184226073652 -0.47670270986732172 0 -0.032724513000240443 -0.48384135401243772 0 -0.030722049445265721 -0.46513815794063051 0 -0.025757536927686689 -0.47561542944709773 0 -0.040713184226073652 -0.47670270986732172 0 -0.040713184226073652 -0.47670270986732172 0 -0.05604151524233808 -0.47085547185542692 0 -0.042137987481662489 -0.46199998676314519 0 -0.040713184226073652 -0.47670270986732172 0 -0.05604151524233808 -0.47085547185542692 0 -0.055758353525359711 -0.48944453406372251 0 -0.05604151524233808 -0.47085547185542692 0 -0.055758353525359711 -0.48944453406372251 0 -0.068357021366280857 -0.47830767763467641 0 -0.041002190054857779 -0.5 0 -0.055758353525359711 -0.48944453406372251 0 -0.070514516995861642 -0.5 0 -0.036803499053157718 -0.43392585985635063 0 -0.028753682251359231 -0.45370767630375852 0 -0.042591220718736618 -0.44931976272637059 0 -0.036803499053157718 -0.43392585985635063 0 -0.042591220718736618 -0.44931976272637059 0 -0.055908543568221357 -0.44353945242809251 0 -0.028753682251359231 -0.45370767630375852 0 -0.042591220718736618 -0.44931976272637059 0 -0.042137987481662489 -0.46199998676314519 0 -0.030722049445265721 -0.46513815794063051 0 -0.028753682251359231 -0.45370767630375852 0 -0.042137987481662489 -0.46199998676314519 0 -0.030722049445265721 -0.46513815794063051 0 -0.040713184226073652 -0.47670270986732172 0 -0.042137987481662489 -0.46199998676314519 0 -0.042591220718736618 -0.44931976272637059 0 -0.042137987481662489 -0.46199998676314519 0 -0.054601469153056192 -0.45704509188174619 0 -0.05604151524233808 -0.47085547185542692 0 -0.054601469153056192 -0.45704509188174619 0 -0.071896784036839162 -0.45711427830285839 0 -0.05604151524233808 -0.47085547185542692 0 -0.042137987481662489 -0.46199998676314519 0 -0.054601469153056192 -0.45704509188174619 0 -0.054601469153056192 -0.45704509188174619 0 -0.055908543568221357 -0.44353945242809251 0 -0.071896784036839162 -0.45711427830285839 0 -0.042591220718736618 -0.44931976272637059 0 -0.054601469153056192 -0.45704509188174619 0 -0.055908543568221357 -0.44353945242809251 0 -0.055908543568221357 -0.44353945242809251 0 -0.071896784036839162 -0.45711427830285839 0 -0.077753046024815156 -0.43509142098737241 0 -0.071896784036839162 -0.45711427830285839 0 -0.087573937031005744 -0.47412410395137422 0 -0.093954286744555499 -0.45179652052777369 0 -0.087573937031005744 -0.47412410395137422 0 -0.093954286744555499 -0.45179652052777369 0 -0.071896784036839162 -0.45711427830285839 0 -0.093954286744555499 -0.45179652052777369 0 -0.077753046024815156 -0.43509142098737241 0 -0.093954286744555499 -0.45179652052777369 0 -0.10033463645810529 -0.42946893710417328 0 -0.077753046024815156 -0.43509142098737241 0 -0.055758353525359711 -0.48944453406372251 0 -0.070514516995861642 -0.5 0 -0.068357021366280857 -0.47830767763467641 0 -0.05604151524233808 -0.47085547185542692 0 -0.071896784036839162 -0.45711427830285839 0 -0.068357021366280857 -0.47830767763467641 0 -0.071896784036839162 -0.45711427830285839 0 -0.068357021366280857 -0.47830767763467641 0 -0.087573937031005744 -0.47412410395137422 0 -0.070514516995861642 -0.5 0 -0.068357021366280857 -0.47830767763467641 0 -0.087573937031005744 -0.47412410395137422 0 -0.070514516995861642 -0.5 0 -0.087573937031005744 -0.47412410395137422 0 -0.10002684393686551 -0.5 0 -0.087573937031005744 -0.47412410395137422 0 -0.10002684393686551 -0.5 0 -0.10780494223314389 -0.47765854937150709 0 -0.087573937031005744 -0.47412410395137422 0 -0.10780494223314389 -0.47765854937150709 0 -0.1029954147344513 -0.46359439800738522 0 -0.12605423818426559 -0.48707922202292669 0 -0.10780494223314389 -0.47765854937150709 0 -0.1201929706126502 -0.46127799294672761 0 -0.12605423818426559 -0.48707922202292669 0 -0.1201929706126502 -0.46127799294672761 0 -0.12605423818426559 -0.48707922202292669 0 -0.10002684393686551 -0.5 0 -0.10780494223314389 -0.47765854937150709 0 -0.1295391708778694 -0.5 0 -0.12605423818426559 -0.48707922202292669 0 -0.10002684393686551 -0.5 0 -0.093954286744555499 -0.45179652052777369 0 -0.10033463645810529 -0.42946893710417328 0 -0.10636180231815941 -0.44832292249131772 0 -0.11433170304103479 -0.43547676387052858 0 -0.10033463645810529 -0.42946893710417328 0 -0.10636180231815941 -0.44832292249131772 0 -0.093954286744555499 -0.45179652052777369 0 -0.10033463645810529 -0.42946893710417328 0 -0.087573937031005744 -0.47412410395137422 0 -0.093954286744555499 -0.45179652052777369 0 -0.1029954147344513 -0.46359439800738522 0 -0.10636180231815941 -0.44832292249131772 0 -0.093954286744555499 -0.45179652052777369 0 -0.1029954147344513 -0.46359439800738522 0 -0.10780494223314389 -0.47765854937150709 0 -0.1029954147344513 -0.46359439800738522 0 -0.1201929706126502 -0.46127799294672761 0 -0.10636180231815941 -0.44832292249131772 0 -0.1029954147344513 -0.46359439800738522 0 -0.1201929706126502 -0.46127799294672761 0 -0.13671083813600751 -0.45044361347006462 0 -0.1201929706126502 -0.46127799294672761 0 -0.11433170304103479 -0.43547676387052858 0 -0.10636180231815941 -0.44832292249131772 0 -0.1201929706126502 -0.46127799294672761 0 -0.11433170304103479 -0.43547676387052858 0 -0.13671083813600751 -0.45044361347006462 0 -0.1225906368027144 -0.43005957413219659 0 -0.11433170304103479 -0.43547676387052858 0 -0.1201929706126502 -0.46127799294672761 0 -0.11433170304103479 -0.43547676387052858 0 -0.1225906368027144 -0.43005957413219659 0 -0.11433170304103479 -0.43547676387052858 0 -0.10847043546942051 -0.40967553479432928 0 -0.11433170304103479 -0.43547676387052858 0 -0.10847043546942051 -0.40967553479432928 0 -0.12908399078123631 -0.42243277819987513 0 -0.1225906368027144 -0.43005957413219659 0 -0.12315425937001 -0.41747458531602638 0 -0.11433170304103479 -0.43547676387052858 0 -0.10033463645810529 -0.42946893710417328 0 -0.10847043546942051 -0.40967553479432928 0 -0.10033463645810529 -0.42946893710417328 0 -0.094107383989168333 -0.41562629379671062 0 -0.1067149861716557 -0.40714135368057303 0 -0.10033463645810529 -0.42946893710417328 0 -0.1067149861716557 -0.40714135368057303 0 -0.10847043546942051 -0.40967553479432928 0 -0.10033463645810529 -0.42946893710417328 0 -0.1067149861716557 -0.40714135368057303 0 -0.094107383989168333 -0.41562629379671062 0 -0.1067149861716557 -0.40714135368057303 0 -0.093615658715422545 -0.40476526464288082 0 -0.10847043546942051 -0.40967553479432928 0 -0.1105756132387118 -0.40676785322215941 0 -0.1073722461642546 -0.40484131873350049 0 -0.10847043546942051 -0.40967553479432928 0 -0.1073722461642546 -0.40484131873350049 0 -0.1067149861716557 -0.40714135368057303 0 -0.10847043546942051 -0.40967553479432928 0 -0.1073722461642546 -0.40484131873350049 0 -0.1067149861716557 -0.40714135368057303 0 -0.10847043546942051 -0.40967553479432928 0 -0.1225906368027144 -0.43005957413219659 0 -0.1163272184937543 -0.41351727508190028 0 -0.12315425937001 -0.41747458531602638 0 -0.10847043546942051 -0.40967553479432928 0 -0.1125412123036873 -0.40894162881917728 0 -0.1163272184937543 -0.41351727508190028 0 -0.1125412123036873 -0.40894162881917728 0 -0.1105756132387118 -0.40676785322215941 0 -0.1147915820128618 -0.40580585217832088 0 -0.1225906368027144 -0.43005957413219659 0 -0.10847043546942051 -0.40967553479432928 0 -0.1163272184937543 -0.41351727508190028 0 -0.10847043546942051 -0.40967553479432928 0 -0.1125412123036873 -0.40894162881917728 0 -0.1105756132387118 -0.40676785322215941 0 -0.1225906368027144 -0.43005957413219659 0 -0.10847043546942051 -0.40967553479432928 0 -0.1125412123036873 -0.40894162881917728 0 -0.1163272184937543 -0.41351727508190028 0 -0.1147915820128618 -0.40580585217832088 0 -0.1225700411049412 -0.40994677461386392 0 -0.1219584454402414 -0.40406961642135292 0 -0.1147915820128618 -0.40580585217832088 0 -0.1163272184937543 -0.41351727508190028 0 -0.1225700411049412 -0.40994677461386392 0 -0.1147915820128618 -0.40580585217832088 0 -0.1163272184937543 -0.41351727508190028 0 -0.12315425937001 -0.41747458531602638 0 -0.1225700411049412 -0.40994677461386392 0 -0.1273295258527142 -0.39594401256049883 0 -0.1219584454402414 -0.40406961642135292 0 -0.1190781430676657 -0.39944145851713192 0 -0.11305295545189779 -0.39895005080087959 0 -0.11384267237711319 -0.38219851895920232 0 -0.1073722461642546 -0.40484131873350049 0 -0.1295768038857959 -0.40463739140698729 0 -0.1225700411049412 -0.40994677461386392 0 -0.1219584454402414 -0.40406961642135292 0 -0.1182582065806136 -0.392437760624607 0 -0.11305295545189779 -0.39895005080087959 0 -0.11384267237711319 -0.38219851895920232 0 -0.11384267237711319 -0.38219851895920232 0 -0.1073722461642546 -0.40484131873350049 0 -0.1219584454402414 -0.40406961642135292 0 -0.1190781430676657 -0.39944145851713192 0 -0.1147915820128618 -0.40580585217832088 0 -0.1273295258527142 -0.39594401256049883 0 -0.1190781430676657 -0.39944145851713192 0 -0.1182582065806136 -0.392437760624607 0 -0.1190781430676657 -0.39944145851713192 0 -0.1182582065806136 -0.392437760624607 0 -0.11305295545189779 -0.39895005080087959 0 -0.1105756132387118 -0.40676785322215941 0 -0.1114480992169309 -0.40409126873371493 0 -0.1073722461642546 -0.40484131873350049 0 -0.1105756132387118 -0.40676785322215941 0 -0.1114480992169309 -0.40409126873371493 0 -0.1147915820128618 -0.40580585217832088 0 -0.11305295545189779 -0.39895005080087959 0 -0.1114480992169309 -0.40409126873371493 0 -0.1147915820128618 -0.40580585217832088 0 -0.11305295545189779 -0.39895005080087959 0 -0.1114480992169309 -0.40409126873371493 0 -0.1073722461642546 -0.40484131873350049 0 -0.1190781430676657 -0.39944145851713192 0 -0.11305295545189779 -0.39895005080087959 0 -0.1147915820128618 -0.40580585217832088 0 -0.12625141541498519 -0.38197991289387551 0 -0.1182582065806136 -0.392437760624607 0 -0.11384267237711319 -0.38219851895920232 0 -0.12625141541498519 -0.38197991289387551 0 -0.1273295258527142 -0.39594401256049883 0 -0.1182582065806136 -0.392437760624607 0 -0.11384267237711319 -0.38219851895920232 0 -0.10176491866177829 -0.38015793077534599 0 -0.1073722461642546 -0.40484131873350049 0 -0.10176491866177829 -0.38015793077534599 0 -0.095995502779844255 -0.39166661886747001 0 -0.085276019388031976 -0.37619188405436782 0 -0.10849363524981311 -0.36442991456039969 0 -0.11384267237711319 -0.38219851895920232 0 -0.10176491866177829 -0.38015793077534599 0 -0.10176491866177829 -0.38015793077534599 0 -0.1073722461642546 -0.40484131873350049 0 -0.095995502779844255 -0.39166661886747001 0 -0.10176491866177829 -0.38015793077534599 0 -0.1073722461642546 -0.40484131873350049 0 -0.1067149861716557 -0.40714135368057303 0 -0.1073722461642546 -0.40484131873350049 0 -0.095995502779844255 -0.39166661886747001 0 -0.1067149861716557 -0.40714135368057303 0 -0.1073722461642546 -0.40484131873350049 0 -0.1067149861716557 -0.40714135368057303 0 -0.095995502779844255 -0.39166661886747001 0 -0.1067149861716557 -0.40714135368057303 0 -0.095995502779844255 -0.39166661886747001 0 -0.093615658715422545 -0.40476526464288082 0 -0.093615658715422545 -0.40476526464288082 0 -0.081664681120336771 -0.39582842074610342 0 -0.082451352827770552 -0.41163664718976212 0 -0.095995502779844255 -0.39166661886747001 0 -0.093615658715422545 -0.40476526464288082 0 -0.081664681120336771 -0.39582842074610342 0 -0.095995502779844255 -0.39166661886747001 0 -0.081664681120336771 -0.39582842074610342 0 -0.085276019388031976 -0.37619188405436782 0 -0.081664681120336771 -0.39582842074610342 0 -0.085276019388031976 -0.37619188405436782 0 -0.074552591578295357 -0.38401367178407558 0 -0.095995502779844255 -0.39166661886747001 0 -0.085276019388031976 -0.37619188405436782 0 -0.081664681120336771 -0.39582842074610342 0 -0.065379196062645584 -0.39052657147488062 0 -0.074552591578295357 -0.38401367178407558 0 -0.065890469742167113 -0.37350781086095058 0 -0.085276019388031976 -0.37619188405436782 0 -0.074552591578295357 -0.38401367178407558 0 -0.065890469742167113 -0.37350781086095058 0 -0.065379196062645584 -0.39052657147488062 0 -0.074552591578295357 -0.38401367178407558 0 -0.081664681120336771 -0.39582842074610342 0 -0.06528413140028641 -0.40548789039177052 0 -0.082451352827770552 -0.41163664718976212 0 -0.081664681120336771 -0.39582842074610342 0 -0.065379196062645584 -0.39052657147488062 0 -0.06528413140028641 -0.40548789039177052 0 -0.065713266975248902 -0.42040157794015642 0 -0.085028608260126398 -0.42320905853578622 0 -0.082451352827770552 -0.41163664718976212 0 -0.06528413140028641 -0.40548789039177052 0 -0.065713266975248902 -0.42040157794015642 0 -0.082451352827770552 -0.41163664718976212 0 -0.065713266975248902 -0.42040157794015642 0 -0.077753046024815156 -0.43509142098737241 0 -0.085028608260126398 -0.42320905853578622 0 -0.052630130657334448 -0.42871109396582502 0 -0.065713266975248902 -0.42040157794015642 0 -0.077753046024815156 -0.43509142098737241 0 -0.10033463645810529 -0.42946893710417328 0 -0.077753046024815156 -0.43509142098737241 0 -0.085028608260126398 -0.42320905853578622 0 -0.10033463645810529 -0.42946893710417328 0 -0.094107383989168333 -0.41562629379671062 0 -0.085028608260126398 -0.42320905853578622 0 -0.094107383989168333 -0.41562629379671062 0 -0.085028608260126398 -0.42320905853578622 0 -0.082451352827770552 -0.41163664718976212 0 -0.094107383989168333 -0.41562629379671062 0 -0.093615658715422545 -0.40476526464288082 0 -0.082451352827770552 -0.41163664718976212 0 -0.080832567710134945 -0.085265223789800185 0 -0.09573268077664969 -0.090624673380050064 0 -0.094924188455715333 -0.074372309221374736 0 -0.080832567710134945 -0.085265223789800185 0 -0.0944050220014645 -0.1050702242089397 0 -0.09573268077664969 -0.090624673380050064 0 -0.094924188455715333 -0.074372309221374736 0 -0.077079431972146645 -0.050953682142663811 0 -0.080832567710134945 -0.085265223789800185 0 -0.077460787511610923 -0.070469280456870842 0 -0.094924188455715333 -0.074372309221374736 0 -0.077460787511610923 -0.070469280456870842 0 -0.094924188455715333 -0.074372309221374736 0 -0.078535685693175539 -0.061573663464548622 0 -0.080832567710134945 -0.085265223789800185 0 -0.072736864716213656 -0.076885636419884412 0 -0.077460787511610923 -0.070469280456870842 0 -0.072736864716213656 -0.076885636419884412 0 -0.077460787511610923 -0.070469280456870842 0 -0.067174029152377468 -0.071022972744677337 0 -0.077460787511610923 -0.070469280456870842 0 -0.067174029152377468 -0.071022972744677337 0 -0.070308423821052124 -0.061023041189074957 0 -0.077460787511610923 -0.070469280456870842 0 -0.078535685693175539 -0.061573663464548622 0 -0.070308423821052124 -0.061023041189074957 0 -0.067174029152377468 -0.071022972744677337 0 -0.070308423821052124 -0.061023041189074957 0 -0.060830035872249492 -0.064558057335980773 0 -0.072736864716213656 -0.076885636419884412 0 -0.067174029152377468 -0.071022972744677337 0 -0.063732237529271596 -0.080733089011810297 0 -0.067174029152377468 -0.071022972744677337 0 -0.063732237529271596 -0.080733089011810297 0 -0.058000192015007383 -0.073011667883306972 0 -0.080832567710134945 -0.085265223789800185 0 -0.063732237529271596 -0.080733089011810297 0 -0.066023591375222151 -0.09957098179305135 0 -0.080832567710134945 -0.085265223789800185 0 -0.072736864716213656 -0.076885636419884412 0 -0.063732237529271596 -0.080733089011810297 0 -0.066023591375222151 -0.09957098179305135 0 -0.069466171350113709 -0.1135628440840601 0 -0.0944050220014645 -0.1050702242089397 0 -0.066023591375222151 -0.09957098179305135 0 -0.069466171350113709 -0.1135628440840601 0 -0.054384952187449757 -0.110609208962567 0 -0.077516787342341589 -0.1242022911324857 0 -0.069466171350113709 -0.1135628440840601 0 -0.059238207921678762 -0.13024384051707169 0 -0.077516787342341589 -0.1242022911324857 0 -0.093262550211769629 -0.1231040070079162 0 -0.0944050220014645 -0.1050702242089397 0 -0.077516787342341589 -0.1242022911324857 0 -0.069466171350113709 -0.1135628440840601 0 -0.0944050220014645 -0.1050702242089397 0 -0.066023591375222151 -0.09957098179305135 0 -0.0944050220014645 -0.1050702242089397 0 -0.080832567710134945 -0.085265223789800185 0 -0.066023591375222151 -0.09957098179305135 0 -0.0944050220014645 -0.1050702242089397 0 -0.0944050220014645 -0.1050702242089397 0 -0.1071147179002416 -0.1244919901550422 0 -0.11276894493928399 -0.097790936300085646 0 -0.0944050220014645 -0.1050702242089397 0 -0.11276894493928399 -0.097790936300085646 0 -0.09573268077664969 -0.090624673380050064 0 -0.093262550211769629 -0.1231040070079162 0 -0.0944050220014645 -0.1050702242089397 0 -0.1071147179002416 -0.1244919901550422 0 -0.1071147179002416 -0.1244919901550422 0 -0.11276894493928399 -0.097790936300085646 0 -0.1306137014228527 -0.1212095633787966 0 -0.11276894493928399 -0.097790936300085646 0 -0.1306137014228527 -0.1212095633787966 0 -0.112702195828283 -0.076339248342475546 0 -0.13438499311011279 -0.096174695905308166 0 -0.11276894493928399 -0.097790936300085646 0 -0.112702195828283 -0.076339248342475546 0 -0.13438499311011279 -0.096174695905308166 0 -0.11276894493928399 -0.097790936300085646 0 -0.094924188455715333 -0.074372309221374736 0 -0.112702195828283 -0.076339248342475546 0 -0.11276894493928399 -0.097790936300085646 0 -0.094924188455715333 -0.074372309221374736 0 -0.11276894493928399 -0.097790936300085646 0 -0.09573268077664969 -0.090624673380050064 0 -0.094924188455715333 -0.074372309221374736 0 -0.094924188455715333 -0.074372309221374736 0 -0.1026030192468113 -0.064894788769428779 0 -0.112702195828283 -0.076339248342475546 0 -0.094924188455715333 -0.074372309221374736 0 -0.1026030192468113 -0.064894788769428779 0 -0.090333769324138391 -0.059362086744932152 0 -0.1026030192468113 -0.064894788769428779 0 -0.112702195828283 -0.076339248342475546 0 -0.1158705629695205 -0.060236298698018297 0 -0.112702195828283 -0.076339248342475546 0 -0.1158705629695205 -0.060236298698018297 0 -0.13497135686491851 -0.078315161523928284 0 -0.1158705629695205 -0.060236298698018297 0 -0.1150956899200111 -0.045830426672337207 0 -0.1070798181065768 -0.041876824406217303 0 -0.1158705629695205 -0.060236298698018297 0 -0.1150956899200111 -0.045830426672337207 0 -0.12809376798702951 -0.047905065599393698 0 -0.1163329610324388 -0.034474533447810513 0 -0.12530131535501859 -0.034952786400489197 0 -0.12809376798702951 -0.047905065599393698 0 -0.11023593420079281 -0.033339602888773932 0 -0.1150956899200111 -0.045830426672337207 0 -0.12809376798702951 -0.047905065599393698 0 -0.11023593420079281 -0.033339602888773932 0 -0.1163329610324388 -0.034474533447810513 0 -0.12809376798702951 -0.047905065599393698 0 -0.11023593420079281 -0.033339602888773932 0 -0.12809376798702951 -0.047905065599393698 0 -0.1163329610324388 -0.034474533447810513 0 -0.1221370268088495 -0.025998648103035 0 -0.12530131535501859 -0.034952786400489197 0 -0.11023593420079281 -0.033339602888773932 0 -0.1150956899200111 -0.045830426672337207 0 -0.1070798181065768 -0.041876824406217303 0 -0.11023593420079281 -0.033339602888773932 0 -0.1163329610324388 -0.034474533447810513 0 -0.097427134368436918 -0.027820357899848831 0 -0.11023593420079281 -0.033339602888773932 0 -0.1070798181065768 -0.041876824406217303 0 -0.097427134368436918 -0.027820357899848831 0 -0.1070798181065768 -0.041876824406217303 0 -0.096769769074122519 -0.04215743587210824 0 -0.097427134368436918 -0.027820357899848831 0 -0.1158705629695205 -0.060236298698018297 0 -0.1070798181065768 -0.041876824406217303 0 -0.096769769074122519 -0.04215743587210824 0 -0.1026030192468113 -0.064894788769428779 0 -0.1158705629695205 -0.060236298698018297 0 -0.099264754381345577 -0.055060356505970513 0 -0.1158705629695205 -0.060236298698018297 0 -0.096769769074122519 -0.04215743587210824 0 -0.099264754381345577 -0.055060356505970513 0 -0.096769769074122519 -0.04215743587210824 0 -0.099264754381345577 -0.055060356505970513 0 -0.090746651292135133 -0.048651172445365112 0 -0.1158705629695205 -0.060236298698018297 0 -0.096769769074122519 -0.04215743587210824 0 -0.1026030192468113 -0.064894788769428779 0 -0.099264754381345577 -0.055060356505970513 0 -0.090333769324138391 -0.059362086744932152 0 -0.1029392013539359 -0.0085751277431150782 0 -0.12735709500343681 0.004015926865657337 0 -0.1236693299605585 -0.0137973575501921 0 -0.1110604598185659 -0.0207882196779367 0 -0.1029392013539359 -0.0085751277431150782 0 -0.1236693299605585 -0.0137973575501921 0 -0.1029392013539359 -0.0085751277431150782 0 -0.12735709500343681 0.004015926865657337 0 -0.1236693299605585 -0.0137973575501921 0 -0.1110604598185659 -0.0207882196779367 0 -0.1221370268088495 -0.025998648103035 0 -0.1163329610324388 -0.034474533447810513 0 -0.1221370268088495 -0.025998648103035 0 -0.11173939550707281 -0.027270439782157759 0 -0.1110604598185659 -0.0207882196779367 0 -0.1221370268088495 -0.025998648103035 0 -0.11173939550707281 -0.027270439782157759 0 -0.1163329610324388 -0.034474533447810513 0 -0.097427134368436918 -0.027820357899848831 0 -0.1110604598185659 -0.0207882196779367 0 -0.097427134368436918 -0.027820357899848831 0 -0.1029392013539359 -0.0085751277431150782 0 -0.1163329610324388 -0.034474533447810513 0 -0.11173939550707281 -0.027270439782157759 0 -0.097427134368436918 -0.027820357899848831 0 -0.1110604598185659 -0.0207882196779367 0 -0.11173939550707281 -0.027270439782157759 0 -0.097427134368436918 -0.027820357899848831 0 -0.1029392013539359 -0.0085751277431150782 0 -0.086097875964997059 -0.0058870606910941042 0 -0.078521307704434995 -0.021166182351887271 0 -0.1029392013539359 -0.0085751277431150782 0 -0.078521307704434995 -0.021166182351887271 0 -0.1029392013539359 -0.0085751277431150782 0 -0.086097875964997059 -0.0058870606910941042 0 -0.091682611010439896 0.0063963380850077774 0 -0.086097875964997059 -0.0058870606910941042 0 -0.073830544796709738 -0.0078542708917730738 0 -0.078933949510919491 0.00072378658541613432 0 -0.086097875964997059 -0.0058870606910941042 0 -0.078521307704434995 -0.021166182351887271 0 -0.073830544796709738 -0.0078542708917730738 0 -0.097427134368436918 -0.027820357899848831 0 -0.078521307704434995 -0.021166182351887271 0 -0.097427134368436918 -0.027820357899848831 0 -0.078521307704434995 -0.021166182351887271 0 -0.077668975178724509 -0.024078573046198169 0 -0.097427134368436918 -0.027820357899848831 0 -0.1029392013539359 -0.0085751277431150782 0 -0.078521307704434995 -0.021166182351887271 0 -0.078521307704434995 -0.021166182351887271 0 -0.055132092173872667 -0.033226800447327051 0 -0.05822397002114936 -0.01402224463886402 0 -0.078521307704434995 -0.021166182351887271 0 -0.055132092173872667 -0.033226800447327051 0 -0.077668975178724509 -0.024078573046198169 0 -0.075465350998538308 -0.032772608828030472 0 -0.055132092173872667 -0.033226800447327051 0 -0.078521307704434995 -0.021166182351887271 0 -0.077668975178724509 -0.024078573046198169 0 -0.055132092173872667 -0.033226800447327051 0 -0.078521307704434995 -0.021166182351887271 0 -0.05822397002114936 -0.01402224463886402 0 -0.078521307704434995 -0.021166182351887271 0 -0.073830544796709738 -0.0078542708917730738 0 -0.05822397002114936 -0.01402224463886402 0 -0.073830544796709738 -0.0078542708917730738 0 -0.05822397002114936 -0.01402224463886402 0 -0.068462160169621672 0.0025537029525893409 0 -0.073830544796709738 -0.0078542708917730738 0 -0.078933949510919491 0.00072378658541613432 0 -0.068462160169621672 0.0025537029525893409 0 -0.094924188455715333 -0.074372309221374736 0 -0.090333769324138391 -0.059362086744932152 0 -0.077079431972146645 -0.050953682142663811 0 -0.094924188455715333 -0.074372309221374736 0 -0.078535685693175539 -0.061573663464548622 0 -0.077079431972146645 -0.050953682142663811 0 -0.084868245962835154 -0.053326759561897898 0 -0.090333769324138391 -0.059362086744932152 0 -0.077079431972146645 -0.050953682142663811 0 -0.084868245962835154 -0.053326759561897898 0 -0.080876314157704687 -0.04955372347343575 0 -0.082849096915408454 -0.045583035938281863 0 -0.080876314157704687 -0.04955372347343575 0 -0.078708481780428496 -0.048351416250899462 0 -0.082849096915408454 -0.045583035938281863 0 -0.080876314157704687 -0.04955372347343575 0 -0.078708481780428496 -0.048351416250899462 0 -0.077079431972146645 -0.050953682142663811 0 -0.084868245962835154 -0.053326759561897898 0 -0.080876314157704687 -0.04955372347343575 0 -0.077079431972146645 -0.050953682142663811 0 -0.084868245962835154 -0.053326759561897898 0 -0.090746651292135133 -0.048651172445365112 0 -0.082849096915408454 -0.045583035938281863 0 -0.084868245962835154 -0.053326759561897898 0 -0.090333769324138391 -0.059362086744932152 0 -0.090746651292135133 -0.048651172445365112 0 -0.099264754381345577 -0.055060356505970513 0 -0.090333769324138391 -0.059362086744932152 0 -0.090746651292135133 -0.048651172445365112 0 -0.096769769074122519 -0.04215743587210824 0 -0.088481073739883592 -0.043344290748051233 0 -0.083558777677868248 -0.036985518736449702 0 -0.096769769074122519 -0.04215743587210824 0 -0.097427134368436918 -0.027820357899848831 0 -0.077668975178724509 -0.024078573046198169 0 -0.096769769074122519 -0.04215743587210824 0 -0.077668975178724509 -0.024078573046198169 0 -0.083558777677868248 -0.036985518736449702 0 -0.096769769074122519 -0.04215743587210824 0 -0.077668975178724509 -0.024078573046198169 0 -0.090746651292135133 -0.048651172445365112 0 -0.088481073739883592 -0.043344290748051233 0 -0.082849096915408454 -0.045583035938281863 0 -0.096769769074122519 -0.04215743587210824 0 -0.090746651292135133 -0.048651172445365112 0 -0.088481073739883592 -0.043344290748051233 0 -0.077668975178724509 -0.024078573046198169 0 -0.083558777677868248 -0.036985518736449702 0 -0.075465350998538308 -0.032772608828030472 0 -0.083558777677868248 -0.036985518736449702 0 -0.082849096915408454 -0.045583035938281863 0 -0.075062618692292638 -0.040325846155841297 0 -0.088481073739883592 -0.043344290748051233 0 -0.083558777677868248 -0.036985518736449702 0 -0.082849096915408454 -0.045583035938281863 0 -0.082849096915408454 -0.045583035938281863 0 -0.078067002861142085 -0.04575568247049161 0 -0.075062618692292638 -0.040325846155841297 0 -0.078708481780428496 -0.048351416250899462 0 -0.082849096915408454 -0.045583035938281863 0 -0.078067002861142085 -0.04575568247049161 0 -0.075647814056438792 -0.048762431536943832 0 -0.055132092173872667 -0.033226800447327051 0 -0.078067002861142085 -0.04575568247049161 0 -0.075062618692292638 -0.040325846155841297 0 -0.075647814056438792 -0.048762431536943832 0 -0.075062618692292638 -0.040325846155841297 0 -0.075465350998538308 -0.032772608828030472 0 -0.055132092173872667 -0.033226800447327051 0 -0.075647814056438792 -0.048762431536943832 0 -0.061428605263776047 -0.046553119166432878 0 -0.055132092173872667 -0.033226800447327051 0 -0.075062618692292638 -0.040325846155841297 0 -0.075647814056438792 -0.048762431536943832 0 -0.055132092173872667 -0.033226800447327051 0 -0.083558777677868248 -0.036985518736449702 0 -0.075062618692292638 -0.040325846155841297 0 -0.075465350998538308 -0.032772608828030472 0 -0.065722760200719738 -0.052253177456942877 0 -0.075647814056438792 -0.048762431536943832 0 -0.061428605263776047 -0.046553119166432878 0 -0.065722760200719738 -0.052253177456942877 0 -0.07269306068786438 -0.052406879740114577 0 -0.069833853901725543 -0.055329661047837618 0 -0.065722760200719738 -0.052253177456942877 0 -0.07269306068786438 -0.052406879740114577 0 -0.075647814056438792 -0.048762431536943832 0 -0.07269306068786438 -0.052406879740114577 0 -0.073703714626092445 -0.056102563442451223 0 -0.069833853901725543 -0.055329661047837618 0 -0.07269306068786438 -0.052406879740114577 0 -0.077079431972146645 -0.050953682142663811 0 -0.073703714626092445 -0.056102563442451223 0 -0.078708481780428496 -0.048351416250899462 0 -0.077079431972146645 -0.050953682142663811 0 -0.075647814056438792 -0.048762431536943832 0 -0.07269306068786438 -0.052406879740114577 0 -0.077079431972146645 -0.050953682142663811 0 -0.075647814056438792 -0.048762431536943832 0 -0.078708481780428496 -0.048351416250899462 0 -0.078067002861142085 -0.04575568247049161 0 -0.075647814056438792 -0.048762431536943832 0 -0.078535685693175539 -0.061573663464548622 0 -0.073703714626092445 -0.056102563442451223 0 -0.070308423821052124 -0.061023041189074957 0 -0.078535685693175539 -0.061573663464548622 0 -0.077079431972146645 -0.050953682142663811 0 -0.073703714626092445 -0.056102563442451223 0 -0.073703714626092445 -0.056102563442451223 0 -0.070308423821052124 -0.061023041189074957 0 -0.069833853901725543 -0.055329661047837618 0 -0.070308423821052124 -0.061023041189074957 0 -0.064391701294429504 -0.057679717025484439 0 -0.060830035872249492 -0.064558057335980773 0 -0.070308423821052124 -0.061023041189074957 0 -0.069833853901725543 -0.055329661047837618 0 -0.064391701294429504 -0.057679717025484439 0 -0.065722760200719738 -0.052253177456942877 0 -0.069833853901725543 -0.055329661047837618 0 -0.064391701294429504 -0.057679717025484439 0 -0.064391701294429504 -0.057679717025484439 0 -0.055978059279945473 -0.056388284161067823 0 -0.060830035872249492 -0.064558057335980773 0 -0.065722760200719738 -0.052253177456942877 0 -0.064391701294429504 -0.057679717025484439 0 -0.055978059279945473 -0.056388284161067823 0 -0.055978059279945473 -0.056388284161067823 0 -0.041230103293456458 -0.058058117591144771 0 -0.049479852383656611 -0.067543566470139038 0 -0.055978059279945473 -0.056388284161067823 0 -0.049741921456861897 -0.048697412542500033 0 -0.041230103293456458 -0.058058117591144771 0 -0.055978059279945473 -0.056388284161067823 0 -0.049741921456861897 -0.048697412542500033 0 -0.061428605263776047 -0.046553119166432878 0 -0.065722760200719738 -0.052253177456942877 0 -0.055978059279945473 -0.056388284161067823 0 -0.061428605263776047 -0.046553119166432878 0 -0.049741921456861897 -0.048697412542500033 0 -0.061428605263776047 -0.046553119166432878 0 -0.055132092173872667 -0.033226800447327051 0 -0.049741921456861897 -0.048697412542500033 0 -0.055132092173872667 -0.033226800447327051 0 -0.032367863380537598 -0.044965144957206583 0 -0.055132092173872667 -0.033226800447327051 0 -0.032367863380537598 -0.044965144957206583 0 -0.055132092173872667 -0.033226800447327051 0 -0.032367863380537598 -0.044965144957206583 0 -0.031233838643279398 -0.031193199633022049 0 -0.049741921456861897 -0.048697412542500033 0 -0.032367863380537598 -0.044965144957206583 0 -0.041230103293456458 -0.058058117591144771 0 -0.032367863380537598 -0.044965144957206583 0 -0.041230103293456458 -0.058058117591144771 0 -0.026902341230915561 -0.060374551747501753 0 -0.05822397002114936 -0.01402224463886402 0 -0.057836245250817257 0.0062936453779614283 0 -0.044352522143416888 0.0050416822031405977 0 -0.05822397002114936 -0.01402224463886402 0 -0.037926632337863607 -0.0068783069258408786 0 -0.05822397002114936 -0.01402224463886402 0 -0.068462160169621672 0.0025537029525893409 0 -0.057836245250817257 0.0062936453779614283 0 -0.055132092173872667 -0.033226800447327051 0 -0.05822397002114936 -0.01402224463886402 0 -0.036243114184870161 -0.018923029155399909 0 -0.055132092173872667 -0.033226800447327051 0 -0.036243114184870161 -0.018923029155399909 0 -0.031233838643279398 -0.031193199633022049 0 -0.055132092173872667 -0.033226800447327051 0 -0.036243114184870161 -0.018923029155399909 0 -0.05822397002114936 -0.01402224463886402 0 -0.036243114184870161 -0.018923029155399909 0 -0.037926632337863607 -0.0068783069258408786 0 -0.05822397002114936 -0.01402224463886402 0 -0.037926632337863607 -0.0068783069258408786 0 -0.044352522143416888 0.0050416822031405977 0 -0.036243114184870161 -0.018923029155399909 0 -0.037926632337863607 -0.0068783069258408786 0 -0.029121832422534862 -0.0067169982391169078 0 -0.037926632337863607 -0.0068783069258408786 0 -0.029539197120254941 -0.00051038393964639519 0 -0.029121832422534862 -0.0067169982391169078 0 -0.037926632337863607 -0.0068783069258408786 0 -0.029539197120254941 -0.00051038393964639519 0 -0.03614709390981162 0.0015378833132510439 0 -0.037926632337863607 -0.0068783069258408786 0 -0.03614709390981162 0.0015378833132510439 0 -0.044352522143416888 0.0050416822031405977 0 -0.036243114184870161 -0.018923029155399909 0 -0.017354136195868258 -0.0046192578634720229 0 -0.01819617019275287 -0.0061732580868559192 0 -0.036243114184870161 -0.018923029155399909 0 -0.017354136195868258 -0.0046192578634720229 0 -0.029121832422534862 -0.0067169982391169078 0 -0.036243114184870161 -0.018923029155399909 0 -0.01819617019275287 -0.0061732580868559192 0 -0.019637671972121611 -0.02148729346067638 0 -0.036243114184870161 -0.018923029155399909 0 -0.017354136195868258 -0.0046192578634720229 0 -0.017354136195868258 -0.0046192578634720229 0 -0.01819617019275287 -0.0061732580868559192 0 -0.013500839782477779 -0.0058155532537883976 0 -0.017354136195868258 -0.0046192578634720229 0 -0.01819617019275287 -0.0061732580868559192 0 -0.017354136195868258 -0.0046192578634720229 0 -0.024546082273817361 -0.00265401331122534 0 -0.02112675760807068 0.0030512678310729521 0 -0.024546082273817361 -0.00265401331122534 0 -0.029539197120254941 -0.00051038393964639519 0 -0.02112675760807068 0.0030512678310729521 0 -0.017354136195868258 -0.0046192578634720229 0 -0.024546082273817361 -0.00265401331122534 0 -0.029121832422534862 -0.0067169982391169078 0 -0.024546082273817361 -0.00265401331122534 0 -0.029539197120254941 -0.00051038393964639519 0 -0.029121832422534862 -0.0067169982391169078 0 -0.01819617019275287 -0.0061732580868559192 0 -0.019637671972121611 -0.02148729346067638 0 -0.011008321991883009 -0.01057962122923565 0 -0.036243114184870161 -0.018923029155399909 0 -0.019637671972121611 -0.02148729346067638 0 -0.031233838643279398 -0.031193199633022049 0 -0.019637671972121611 -0.02148729346067638 0 -0.031233838643279398 -0.031193199633022049 0 -0.016064986363794779 -0.036441041599790329 0 -0.0077215053668332834 -0.022860670268973711 0 -0.00118246574067416 -0.01324232368796026 0 0.0015263381015913891 -0.033415212413580753 0 -0.0077215053668332834 -0.022860670268973711 0 -0.016064986363794779 -0.036441041599790329 0 0.0015263381015913891 -0.033415212413580753 0 -0.019637671972121611 -0.02148729346067638 0 -0.0077215053668332834 -0.022860670268973711 0 -0.016064986363794779 -0.036441041599790329 0 -0.019637671972121611 -0.02148729346067638 0 -0.0077215053668332834 -0.022860670268973711 0 -0.011008321991883009 -0.01057962122923565 0 -0.011008321991883009 -0.01057962122923565 0 -0.00118246574067416 -0.01324232368796026 0 -0.0072764121498596901 -0.0036325873431357339 0 -0.0077215053668332834 -0.022860670268973711 0 -0.011008321991883009 -0.01057962122923565 0 -0.00118246574067416 -0.01324232368796026 0 -0.00118246574067416 -0.01324232368796026 0 -0.0072764121498596901 -0.0036325873431357339 0 0.0012074066645448821 -0.00065723147797176382 0 -0.0072764121498596901 -0.0036325873431357339 0 -0.013500839782477779 -0.0058155532537883976 0 -0.013607688627124061 -0.00178224205395049 0 -0.011008321991883009 -0.01057962122923565 0 -0.0072764121498596901 -0.0036325873431357339 0 -0.013500839782477779 -0.0058155532537883976 0 -0.01819617019275287 -0.0061732580868559192 0 -0.011008321991883009 -0.01057962122923565 0 -0.013500839782477779 -0.0058155532537883976 0 -0.017354136195868258 -0.0046192578634720229 0 -0.013500839782477779 -0.0058155532537883976 0 -0.013607688627124061 -0.00178224205395049 0 -0.017354136195868258 -0.0046192578634720229 0 -0.013607688627124061 -0.00178224205395049 0 -0.032367863380537598 -0.044965144957206583 0 -0.0096036345872028556 -0.056703489467087059 0 -0.032367863380537598 -0.044965144957206583 0 -0.026902341230915561 -0.060374551747501753 0 -0.0096036345872028556 -0.056703489467087059 0 -0.032367863380537598 -0.044965144957206583 0 -0.031233838643279398 -0.031193199633022049 0 -0.016064986363794779 -0.036441041599790329 0 -0.032367863380537598 -0.044965144957206583 0 -0.016064986363794779 -0.036441041599790329 0 -0.0096036345872028556 -0.056703489467087059 0 -0.0096036345872028556 -0.056703489467087059 0 0.0015263381015913891 -0.033415212413580753 0 -0.016064986363794779 -0.036441041599790329 0 -0.0096036345872028556 -0.056703489467087059 0 0.0015263381015913891 -0.033415212413580753 0 -0.0096036345872028556 -0.056703489467087059 0 0.0015263381015913891 -0.033415212413580753 0 0.007298405735321048 -0.051477207310420908 0 -0.0096036345872028556 -0.056703489467087059 0 0.0052181775422467033 -0.064346337314722044 0 -0.0096036345872028556 -0.056703489467087059 0 -0.0043762627118289626 -0.071729097412358583 0 0.0052181775422467033 -0.064346337314722044 0 -0.0043762627118289626 -0.071729097412358583 0 -0.0092607301227374331 -0.088572496961274561 0 -0.01646375475339092 -0.071057556949349329 0 -0.0096036345872028556 -0.056703489467087059 0 -0.01646375475339092 -0.071057556949349329 0 -0.0096036345872028556 -0.056703489467087059 0 -0.0043762627118289626 -0.071729097412358583 0 -0.01646375475339092 -0.071057556949349329 0 -0.0092607301227374331 -0.088572496961274561 0 -0.00044729776891663488 -0.1011528385718463 0 0.0042106568376920582 -0.081118225430045127 0 -0.0043762627118289626 -0.071729097412358583 0 -0.0092607301227374331 -0.088572496961274561 0 0.0042106568376920582 -0.081118225430045127 0 -0.0092607301227374331 -0.088572496961274561 0 -0.037642160748979789 -0.094071739377162955 0 -0.0092607301227374331 -0.088572496961274561 0 -0.023323874919582349 -0.085411624431610003 0 -0.01646375475339092 -0.071057556949349329 0 -0.0092607301227374331 -0.088572496961274561 0 -0.023323874919582349 -0.085411624431610003 0 -0.037642160748979789 -0.094071739377162955 0 -0.023323874919582349 -0.085411624431610003 0 -0.01646375475339092 -0.071057556949349329 0 -0.023323874919582349 -0.085411624431610003 0 -0.01646375475339092 -0.071057556949349329 0 -0.034846350139989962 -0.07108844977272101 0 -0.026902341230915561 -0.060374551747501753 0 -0.01646375475339092 -0.071057556949349329 0 -0.034846350139989962 -0.07108844977272101 0 -0.026902341230915561 -0.060374551747501753 0 -0.0096036345872028556 -0.056703489467087059 0 -0.01646375475339092 -0.071057556949349329 0 -0.041230103293456458 -0.058058117591144771 0 -0.026902341230915561 -0.060374551747501753 0 -0.034846350139989962 -0.07108844977272101 0 -0.041230103293456458 -0.058058117591144771 0 -0.034846350139989962 -0.07108844977272101 0 -0.049479852383656611 -0.067543566470139038 0 -0.034846350139989962 -0.07108844977272101 0 -0.048784805137481749 -0.081200653853927454 0 -0.049479852383656611 -0.067543566470139038 0 -0.023323874919582349 -0.085411624431610003 0 -0.034846350139989962 -0.07108844977272101 0 -0.036149297736508462 -0.082943116858855345 0 -0.023323874919582349 -0.085411624431610003 0 -0.036149297736508462 -0.082943116858855345 0 -0.037642160748979789 -0.094071739377162955 0 -0.036149297736508462 -0.082943116858855345 0 -0.048784805137481749 -0.081200653853927454 0 -0.037642160748979789 -0.094071739377162955 0 -0.034846350139989962 -0.07108844977272101 0 -0.036149297736508462 -0.082943116858855345 0 -0.048784805137481749 -0.081200653853927454 0 -0.063732237529271596 -0.080733089011810297 0 -0.066023591375222151 -0.09957098179305135 0 -0.048784805137481749 -0.081200653853927454 0 -0.066023591375222151 -0.09957098179305135 0 -0.048784805137481749 -0.081200653853927454 0 -0.037642160748979789 -0.094071739377162955 0 -0.063732237529271596 -0.080733089011810297 0 -0.048784805137481749 -0.081200653853927454 0 -0.058000192015007383 -0.073011667883306972 0 -0.055978059279945473 -0.056388284161067823 0 -0.060830035872249492 -0.064558057335980773 0 -0.049479852383656611 -0.067543566470139038 0 -0.058000192015007383 -0.073011667883306972 0 -0.060830035872249492 -0.064558057335980773 0 -0.049479852383656611 -0.067543566470139038 0 -0.067174029152377468 -0.071022972744677337 0 -0.058000192015007383 -0.073011667883306972 0 -0.060830035872249492 -0.064558057335980773 0 -0.048784805137481749 -0.081200653853927454 0 -0.058000192015007383 -0.073011667883306972 0 -0.049479852383656611 -0.067543566470139038 0 -0.069466171350113709 -0.1135628440840601 0 -0.054384952187449757 -0.110609208962567 0 -0.059238207921678762 -0.13024384051707169 0 -0.054384952187449757 -0.110609208962567 0 -0.059238207921678762 -0.13024384051707169 0 -0.032945469352336033 -0.1293562392835419 0 -0.066023591375222151 -0.09957098179305135 0 -0.054384952187449757 -0.110609208962567 0 -0.037642160748979789 -0.094071739377162955 0 -0.066023591375222151 -0.09957098179305135 0 -0.037642160748979789 -0.094071739377162955 0 -0.054384952187449757 -0.110609208962567 0 -0.037642160748979789 -0.094071739377162955 0 -0.035661083064217503 -0.11124856921529409 0 -0.054384952187449757 -0.110609208962567 0 -0.032945469352336033 -0.1293562392835419 0 -0.054384952187449757 -0.110609208962567 0 -0.035661083064217503 -0.11124856921529409 0 -0.032945469352336033 -0.1293562392835419 0 -0.01767174996810443 -0.1109570892379047 0 -0.012892303975098539 -0.12786221844410239 0 -0.032945469352336033 -0.1293562392835419 0 -0.035661083064217503 -0.11124856921529409 0 -0.01767174996810443 -0.1109570892379047 0 -0.032945469352336033 -0.1293562392835419 0 -0.0092607301227374331 -0.088572496961274561 0 -0.037642160748979789 -0.094071739377162955 0 -0.01767174996810443 -0.1109570892379047 0 -0.037642160748979789 -0.094071739377162955 0 -0.035661083064217503 -0.11124856921529409 0 -0.01767174996810443 -0.1109570892379047 0 -0.01767174996810443 -0.1109570892379047 0 -0.00044729776891663488 -0.1011528385718463 0 0.005085065621477718 -0.1151057880332567 0 -0.0092607301227374331 -0.088572496961274561 0 -0.01767174996810443 -0.1109570892379047 0 -0.00044729776891663488 -0.1011528385718463 0 -0.01767174996810443 -0.1109570892379047 0 -0.012892303975098539 -0.12786221844410239 0 0.005085065621477718 -0.1151057880332567 0 -0.012892303975098539 -0.12786221844410239 0 0.0027021066240326768 -0.1317064378292063 0 0.005085065621477718 -0.1151057880332567 0 -0.011505986517222349 -0.14810326960451681 0 -0.033736789854580403 -0.16402697950055581 0 -0.032945469352336033 -0.1293562392835419 0 -0.012892303975098539 -0.12786221844410239 0 -0.011505986517222349 -0.14810326960451681 0 0.0027021066240326768 -0.1317064378292063 0 -0.011505986517222349 -0.14810326960451681 0 -0.032945469352336033 -0.1293562392835419 0 -0.012892303975098539 -0.12786221844410239 0 -0.011505986517222349 -0.14810326960451681 0 -0.032945469352336033 -0.1293562392835419 0 -0.011505986517222349 -0.14810326960451681 0 0.009933496317892726 -0.16685029992549011 0 -0.011505986517222349 -0.14810326960451681 0 -0.0085976242789068957 -0.177408956520272 0 0.009933496317892726 -0.16685029992549011 0 -0.0085976242789068957 -0.177408956520272 0 -0.003739977245034012 -0.19168309442994089 0 -0.02712874487570623 -0.18796761311505439 0 -0.0085976242789068957 -0.177408956520272 0 -0.003739977245034012 -0.19168309442994089 0 0.0034571977838801569 -0.17702496179755631 0 -0.0085976242789068957 -0.177408956520272 0 -0.02712874487570623 -0.18796761311505439 0 -0.0085976242789068957 -0.177408956520272 0 -0.033736789854580403 -0.16402697950055581 0 -0.02712874487570623 -0.18796761311505439 0 -0.011505986517222349 -0.14810326960451681 0 -0.0085976242789068957 -0.177408956520272 0 -0.033736789854580403 -0.16402697950055581 0 -0.033736789854580403 -0.16402697950055581 0 -0.041678182321736049 -0.18065303021324261 0 -0.02712874487570623 -0.18796761311505439 0 -0.033736789854580403 -0.16402697950055581 0 -0.041678182321736049 -0.18065303021324261 0 -0.060187329084152079 -0.17209125852752319 0 -0.041678182321736049 -0.18065303021324261 0 -0.060187329084152079 -0.17209125852752319 0 -0.045659865472505487 -0.198526269709837 0 -0.060187329084152079 -0.17209125852752319 0 -0.045659865472505487 -0.198526269709837 0 -0.033736789854580403 -0.16402697950055581 0 -0.060187329084152079 -0.17209125852752319 0 -0.051699405537506939 -0.14899167338562519 0 -0.060187329084152079 -0.17209125852752319 0 -0.051699405537506939 -0.14899167338562519 0 -0.072389231474787458 -0.1492400490994332 0 -0.051699405537506939 -0.14899167338562519 0 -0.059238207921678762 -0.13024384051707169 0 -0.072389231474787458 -0.1492400490994332 0 -0.033736789854580403 -0.16402697950055581 0 -0.051699405537506939 -0.14899167338562519 0 -0.032945469352336033 -0.1293562392835419 0 -0.051699405537506939 -0.14899167338562519 0 -0.059238207921678762 -0.13024384051707169 0 -0.032945469352336033 -0.1293562392835419 0 -0.025857267464119819 -0.25506418495113531 0 -0.02368513365757598 -0.23851275990414511 0 -0.036167443228362108 -0.24337299090061551 0 -0.01269776775011346 -0.25850600500130039 0 -0.02368513365757598 -0.23851275990414511 0 -0.01269776775011346 -0.25850600500130039 0 -0.02368513365757598 -0.23851275990414511 0 -0.01082738352359053 -0.24876902592697839 0 -0.02368513365757598 -0.23851275990414511 0 -0.0067432183097289999 -0.239968376336817 0 -0.0090267388034834407 -0.23007068799598671 0 -0.02368513365757598 -0.23851275990414511 0 -0.01082738352359053 -0.24876902592697839 0 -0.0067432183097289999 -0.239968376336817 0 -0.01082738352359053 -0.24876902592697839 0 -0.0029313858115674811 -0.24854412401401971 0 -0.0067432183097289999 -0.239968376336817 0 -0.0029313858115674811 -0.24854412401401971 0 -0.0067432183097289999 -0.239968376336817 0 0.0026199421412959989 -0.2430643023623929 0 -0.0067432183097289999 -0.239968376336817 0 0.0026199421412959989 -0.2430643023623929 0 0.0017465435191736189 -0.23378549097037141 0 -0.0067432183097289999 -0.239968376336817 0 -0.0090267388034834407 -0.23007068799598671 0 0.0017465435191736189 -0.23378549097037141 0 -0.0090267388034834407 -0.23007068799598671 0 -0.00080535468136348092 -0.21995366459000901 0 -0.01839049427805331 -0.2195873775130934 0 -0.0090267388034834407 -0.23007068799598671 0 -0.00080535468136348092 -0.21995366459000901 0 0.0017465435191736189 -0.23378549097037141 0 -0.02368513365757598 -0.23851275990414511 0 -0.0090267388034834407 -0.23007068799598671 0 -0.01839049427805331 -0.2195873775130934 0 -0.02368513365757598 -0.23851275990414511 0 -0.01839049427805331 -0.2195873775130934 0 -0.034672499565036527 -0.2185195148069887 0 -0.02368513365757598 -0.23851275990414511 0 -0.034672499565036527 -0.2185195148069887 0 -0.01839049427805331 -0.2195873775130934 0 -0.027127261386640289 -0.20489204062456881 0 -0.034672499565036527 -0.2185195148069887 0 -0.01839049427805331 -0.2195873775130934 0 -0.027127261386640289 -0.20489204062456881 0 -0.01084996336714465 -0.20584666152463099 0 -0.00080535468136348092 -0.21995366459000901 0 -0.01839049427805331 -0.2195873775130934 0 -0.01084996336714465 -0.20584666152463099 0 -0.00080535468136348092 -0.21995366459000901 0 -0.01084996336714465 -0.20584666152463099 0 0.01016515501406726 -0.20926501301563591 0 -0.01084996336714465 -0.20584666152463099 0 -0.003739977245034012 -0.19168309442994089 0 0.01016515501406726 -0.20926501301563591 0 -0.01084996336714465 -0.20584666152463099 0 -0.003739977245034012 -0.19168309442994089 0 -0.02712874487570623 -0.18796761311505439 0 -0.027127261386640289 -0.20489204062456881 0 -0.01084996336714465 -0.20584666152463099 0 -0.02712874487570623 -0.18796761311505439 0 -0.041678182321736049 -0.18065303021324261 0 -0.02712874487570623 -0.18796761311505439 0 -0.045659865472505487 -0.198526269709837 0 -0.02712874487570623 -0.18796761311505439 0 -0.045659865472505487 -0.198526269709837 0 -0.027127261386640289 -0.20489204062456881 0 -0.02712874487570623 -0.18796761311505439 0 -0.045659865472505487 -0.198526269709837 0 -0.045659865472505487 -0.198526269709837 0 -0.067682806497079445 -0.21107449474949169 0 -0.062708331551170268 -0.19442045911658551 0 -0.060187329084152079 -0.17209125852752319 0 -0.045659865472505487 -0.198526269709837 0 -0.062708331551170268 -0.19442045911658551 0 -0.045659865472505487 -0.198526269709837 0 -0.067682806497079445 -0.21107449474949169 0 -0.045659865472505487 -0.198526269709837 0 -0.054546183461555722 -0.22015285450131489 0 -0.067682806497079445 -0.21107449474949169 0 -0.045659865472505487 -0.198526269709837 0 -0.034672499565036527 -0.2185195148069887 0 -0.054546183461555722 -0.22015285450131489 0 -0.045659865472505487 -0.198526269709837 0 -0.034672499565036527 -0.2185195148069887 0 -0.027127261386640289 -0.20489204062456881 0 -0.045659865472505487 -0.198526269709837 0 -0.034672499565036527 -0.2185195148069887 0 -0.034672499565036527 -0.2185195148069887 0 -0.044145410485190079 -0.23242073182379891 0 -0.054546183461555722 -0.22015285450131489 0 -0.02368513365757598 -0.23851275990414511 0 -0.034672499565036527 -0.2185195148069887 0 -0.044145410485190079 -0.23242073182379891 0 -0.044145410485190079 -0.23242073182379891 0 -0.054546183461555722 -0.22015285450131489 0 -0.061280333386656921 -0.23284462843810469 0 -0.061280333386656921 -0.23284462843810469 0 -0.050191684441297867 -0.2485850187836515 0 -0.071591358857016049 -0.2429226102204386 0 -0.050191684441297867 -0.2485850187836515 0 -0.071591358857016049 -0.2429226102204386 0 -0.056939497423126581 -0.24878681181634871 0 -0.050191684441297867 -0.2485850187836515 0 -0.071591358857016049 -0.2429226102204386 0 -0.044145410485190079 -0.23242073182379891 0 -0.061280333386656921 -0.23284462843810469 0 -0.050191684441297867 -0.2485850187836515 0 -0.041398382443623198 -0.25192549838374201 0 -0.056939497423126581 -0.24878681181634871 0 -0.050191684441297867 -0.2485850187836515 0 -0.044145410485190079 -0.23242073182379891 0 -0.050191684441297867 -0.2485850187836515 0 -0.036167443228362108 -0.24337299090061551 0 -0.02368513365757598 -0.23851275990414511 0 -0.044145410485190079 -0.23242073182379891 0 -0.036167443228362108 -0.24337299090061551 0 -0.025857267464119819 -0.25506418495113531 0 -0.050191684441297867 -0.2485850187836515 0 -0.036167443228362108 -0.24337299090061551 0 -0.097628444613881649 -0.25834262822693399 0 -0.087470553331264578 -0.24262075389877999 0 -0.077955776651182085 -0.24454236002529731 0 -0.087470553331264578 -0.24262075389877999 0 -0.087928467376508473 -0.23859976953689591 0 -0.1005617376665941 -0.23997685579502359 0 -0.087928467376508473 -0.23859976953689591 0 -0.07453604668454375 -0.2421434382925548 0 -0.07383618536286593 -0.22753148747966839 0 -0.087928467376508473 -0.23859976953689591 0 -0.07453604668454375 -0.2421434382925548 0 -0.087928467376508473 -0.23859976953689591 0 -0.077955776651182085 -0.24454236002529731 0 -0.07453604668454375 -0.2421434382925548 0 -0.087470553331264578 -0.24262075389877999 0 -0.087928467376508473 -0.23859976953689591 0 -0.077955776651182085 -0.24454236002529731 0 -0.087470553331264578 -0.24262075389877999 0 -0.077955776651182085 -0.24454236002529731 0 -0.056939497423126581 -0.24878681181634871 0 -0.077955776651182085 -0.24454236002529731 0 -0.071591358857016049 -0.2429226102204386 0 -0.056939497423126581 -0.24878681181634871 0 -0.077955776651182085 -0.24454236002529731 0 -0.077955776651182085 -0.24454236002529731 0 -0.071591358857016049 -0.2429226102204386 0 -0.07453604668454375 -0.2421434382925548 0 -0.077955776651182085 -0.24454236002529731 0 -0.07453604668454375 -0.2421434382925548 0 -0.071591358857016049 -0.2429226102204386 0 -0.07453604668454375 -0.2421434382925548 0 -0.056939497423126581 -0.24878681181634871 0 -0.071591358857016049 -0.2429226102204386 0 -0.061280333386656921 -0.23284462843810469 0 -0.071591358857016049 -0.2429226102204386 0 -0.07453604668454375 -0.2421434382925548 0 -0.061280333386656921 -0.23284462843810469 0 -0.07453604668454375 -0.2421434382925548 0 -0.07383618536286593 -0.22753148747966839 0 -0.089705747521653334 -0.22362271978914661 0 -0.067682806497079445 -0.21107449474949169 0 -0.054546183461555722 -0.22015285450131489 0 -0.061280333386656921 -0.23284462843810469 0 -0.07383618536286593 -0.22753148747966839 0 -0.054546183461555722 -0.22015285450131489 0 -0.07383618536286593 -0.22753148747966839 0 -0.067682806497079445 -0.21107449474949169 0 -0.061280333386656921 -0.23284462843810469 0 -0.07453604668454375 -0.2421434382925548 0 -0.07383618536286593 -0.22753148747966839 0 -0.087928467376508473 -0.23859976953689591 0 -0.07383618536286593 -0.22753148747966839 0 -0.089705747521653334 -0.22362271978914661 0 -0.087928467376508473 -0.23859976953689591 0 -0.089705747521653334 -0.22362271978914661 0 -0.1005617376665941 -0.23997685579502359 0 -0.089705747521653334 -0.22362271978914661 0 -0.067682806497079445 -0.21107449474949169 0 -0.089705747521653334 -0.22362271978914661 0 -0.084027466008495671 -0.20735524824550181 0 -0.09921486728828334 -0.20109800384388701 0 -0.089705747521653334 -0.22362271978914661 0 -0.084027466008495671 -0.20735524824550181 0 -0.067682806497079445 -0.21107449474949169 0 -0.084027466008495671 -0.20735524824550181 0 -0.067682806497079445 -0.21107449474949169 0 -0.079506442726966622 -0.19362577459948219 0 -0.067682806497079445 -0.21107449474949169 0 -0.062708331551170268 -0.19442045911658551 0 -0.079506442726966622 -0.19362577459948219 0 -0.079506442726966622 -0.19362577459948219 0 -0.09921486728828334 -0.20109800384388701 0 -0.089369030920126963 -0.1732707743578942 0 -0.084027466008495671 -0.20735524824550181 0 -0.079506442726966622 -0.19362577459948219 0 -0.09921486728828334 -0.20109800384388701 0 -0.09921486728828334 -0.20109800384388701 0 -0.1156293974943295 -0.1822747327150937 0 -0.1210853022939376 -0.205467400633562 0 -0.1156293974943295 -0.1822747327150937 0 -0.13505851963374399 -0.18906788910329131 0 -0.09921486728828334 -0.20109800384388701 0 -0.1210853022939376 -0.205467400633562 0 -0.1156293974943295 -0.1822747327150937 0 -0.1210853022939376 -0.205467400633562 0 -0.10755849924533691 -0.2178899443088799 0 -0.11989889803527461 -0.22145143588075511 0 -0.1210853022939376 -0.205467400633562 0 -0.11989889803527461 -0.22145143588075511 0 -0.13086176299679239 -0.21746526838305219 0 -0.089705747521653334 -0.22362271978914661 0 -0.09921486728828334 -0.20109800384388701 0 -0.10755849924533691 -0.2178899443088799 0 -0.09921486728828334 -0.20109800384388701 0 -0.1210853022939376 -0.205467400633562 0 -0.10755849924533691 -0.2178899443088799 0 -0.089705747521653334 -0.22362271978914661 0 -0.11172868854622731 -0.23617094482880149 0 -0.1005617376665941 -0.23997685579502359 0 -0.089705747521653334 -0.22362271978914661 0 -0.11172868854622731 -0.23617094482880149 0 -0.089705747521653334 -0.22362271978914661 0 -0.10755849924533691 -0.2178899443088799 0 -0.11172868854622731 -0.23617094482880149 0 -0.11989889803527461 -0.22145143588075511 0 -0.11172868854622731 -0.23617094482880149 0 -0.127825895831608 -0.22987551408160201 0 -0.10755849924533691 -0.2178899443088799 0 -0.11989889803527461 -0.22145143588075511 0 -0.11172868854622731 -0.23617094482880149 0 -0.13218950310710981 -0.25272660122947088 0 -0.1218823470606431 -0.24640061544388489 0 -0.1098930818979398 -0.24798588601512411 0 -0.11172868854622731 -0.23617094482880149 0 -0.13375162957080131 -0.24871916986845621 0 -0.11172868854622731 -0.23617094482880149 0 -0.1218823470606431 -0.24640061544388489 0 -0.13375162957080131 -0.24871916986845621 0 -0.11172868854622731 -0.23617094482880149 0 -0.13375162957080131 -0.24871916986845621 0 -0.127825895831608 -0.22987551408160201 0 -0.11172868854622731 -0.23617094482880149 0 -0.1218823470606431 -0.24640061544388489 0 -0.1098930818979398 -0.24798588601512411 0 -0.097628444613881649 -0.25834262822693399 0 -0.087470553331264578 -0.24262075389877999 0 -0.1098930818979398 -0.24798588601512411 0 -0.087470553331264578 -0.24262075389877999 0 -0.1098930818979398 -0.24798588601512411 0 -0.1005617376665941 -0.23997685579502359 0 -0.087470553331264578 -0.24262075389877999 0 -0.1098930818979398 -0.24798588601512411 0 -0.11172868854622731 -0.23617094482880149 0 -0.1098930818979398 -0.24798588601512411 0 -0.1005617376665941 -0.23997685579502359 0 -0.087470553331264578 -0.24262075389877999 0 -0.1005617376665941 -0.23997685579502359 0 -0.072389231474787458 -0.1492400490994332 0 -0.089369030920126963 -0.1732707743578942 0 -0.096011965921864201 -0.14265464397282879 0 -0.077516787342341589 -0.1242022911324857 0 -0.093262550211769629 -0.1231040070079162 0 -0.096011965921864201 -0.14265464397282879 0 -0.077516787342341589 -0.1242022911324857 0 -0.072389231474787458 -0.1492400490994332 0 -0.096011965921864201 -0.14265464397282879 0 -0.077516787342341589 -0.1242022911324857 0 -0.059238207921678762 -0.13024384051707169 0 -0.072389231474787458 -0.1492400490994332 0 -0.060187329084152079 -0.17209125852752319 0 -0.072389231474787458 -0.1492400490994332 0 -0.089369030920126963 -0.1732707743578942 0 -0.060187329084152079 -0.17209125852752319 0 -0.079506442726966622 -0.19362577459948219 0 -0.089369030920126963 -0.1732707743578942 0 -0.060187329084152079 -0.17209125852752319 0 -0.062708331551170268 -0.19442045911658551 0 -0.079506442726966622 -0.19362577459948219 0 -0.089369030920126963 -0.1732707743578942 0 -0.1107512355661594 -0.16096683979900789 0 -0.096011965921864201 -0.14265464397282879 0 -0.09921486728828334 -0.20109800384388701 0 -0.089369030920126963 -0.1732707743578942 0 -0.1156293974943295 -0.1822747327150937 0 -0.089369030920126963 -0.1732707743578942 0 -0.1156293974943295 -0.1822747327150937 0 -0.1107512355661594 -0.16096683979900789 0 -0.1156293974943295 -0.1822747327150937 0 -0.13204392770037571 -0.1634514615863005 0 -0.1156293974943295 -0.1822747327150937 0 -0.1107512355661594 -0.16096683979900789 0 -0.13204392770037571 -0.1634514615863005 0 -0.1107512355661594 -0.16096683979900789 0 -0.12070185579410091 -0.1431825863629223 0 -0.13204392770037571 -0.1634514615863005 0 -0.1107512355661594 -0.16096683979900789 0 -0.12070185579410091 -0.1431825863629223 0 -0.096011965921864201 -0.14265464397282879 0 -0.1071147179002416 -0.1244919901550422 0 -0.12070185579410091 -0.1431825863629223 0 -0.096011965921864201 -0.14265464397282879 0 -0.093262550211769629 -0.1231040070079162 0 -0.1071147179002416 -0.1244919901550422 0 -0.096011965921864201 -0.14265464397282879 0 -0.1071147179002416 -0.1244919901550422 0 -0.12070185579410091 -0.1431825863629223 0 -0.1306137014228527 -0.1212095633787966 0 -0.12070185579410091 -0.1431825863629223 0 -0.14845845790642179 -0.14462819045750719 0 -0.1306137014228527 -0.1212095633787966 0 -0.14845845790642179 -0.14462819045750719 0 -0.1306137014228527 -0.1212095633787966 0 -0.15036797716661271 -0.14243845987679379 0 -0.14845845790642179 -0.14462819045750719 0 -0.1306137014228527 -0.1212095633787966 0 -0.15406265534163929 -0.1294064941378926 0 -0.15036797716661271 -0.14243845987679379 0 -0.1306137014228527 -0.1212095633787966 0 -0.15406265534163929 -0.1294064941378926 0 -0.15036797716661271 -0.14243845987679379 0 -0.1564494690737798 -0.13971242061594299 0 -0.1543278084257422 -0.1453912472931165 0 -0.14845845790642179 -0.14462819045750719 0 -0.15894149653025619 -0.15184230729274609 0 -0.15519343748037609 -0.14309809199123349 0 -0.15036797716661271 -0.14243845987679379 0 -0.1564494690737798 -0.13971242061594299 0 -0.1543278084257422 -0.1453912472931165 0 -0.15519343748037609 -0.14309809199123349 0 -0.15036797716661271 -0.14243845987679379 0 -0.1543278084257422 -0.1453912472931165 0 -0.15036797716661271 -0.14243845987679379 0 -0.14845845790642179 -0.14462819045750719 0 -0.15036797716661271 -0.14243845987679379 0 -0.14845845790642179 -0.14462819045750719 0 -0.12070185579410091 -0.1431825863629223 0 -0.14845845790642179 -0.14462819045750719 0 -0.13204392770037571 -0.1634514615863005 0 -0.14845845790642179 -0.14462819045750719 0 -0.13204392770037571 -0.1634514615863005 0 -0.13204392770037571 -0.1634514615863005 0 -0.1475860696211248 -0.17640031700015249 0 -0.13505851963374399 -0.18906788910329131 0 -0.1156293974943295 -0.1822747327150937 0 -0.13204392770037571 -0.1634514615863005 0 -0.13505851963374399 -0.18906788910329131 0 -0.1475860696211248 -0.17640031700015249 0 -0.1655722477793394 -0.1670875310098065 0 -0.15496537504316019 -0.19429807729602311 0 -0.1475860696211248 -0.17640031700015249 0 -0.13505851963374399 -0.18906788910329131 0 -0.15496537504316019 -0.19429807729602311 0 -0.1475860696211248 -0.17640031700015249 0 -0.14862352044039201 -0.16347018067920821 0 -0.1655722477793394 -0.1670875310098065 0 -0.14845845790642179 -0.14462819045750719 0 -0.13204392770037571 -0.1634514615863005 0 -0.14862352044039201 -0.16347018067920821 0 -0.14845845790642179 -0.14462819045750719 0 -0.14862352044039201 -0.16347018067920821 0 -0.1655722477793394 -0.1670875310098065 0 -0.13204392770037571 -0.1634514615863005 0 -0.1475860696211248 -0.17640031700015249 0 -0.14862352044039201 -0.16347018067920821 0 -0.1655722477793394 -0.1670875310098065 0 -0.1716614177265566 -0.15146656102038991 0 -0.1655722477793394 -0.1670875310098065 0 -0.15894149653025619 -0.15184230729274609 0 -0.1716614177265566 -0.15146656102038991 0 -0.1655722477793394 -0.1670875310098065 0 -0.17557921295501691 -0.18022020591375351 0 -0.1689483943248192 -0.19264195369377959 0 -0.1655722477793394 -0.1670875310098065 0 -0.15496537504316019 -0.19429807729602311 0 -0.1689483943248192 -0.19264195369377959 0 -0.1655722477793394 -0.1670875310098065 0 -0.15496537504316019 -0.19429807729602311 0 -0.1655722477793394 -0.1670875310098065 0 -0.17557921295501691 -0.18022020591375351 0 -0.17557921295501691 -0.18022020591375351 0 -0.18239484980351819 -0.16464781923938721 0 -0.1907059301477185 -0.18468107337543721 0 -0.1655722477793394 -0.1670875310098065 0 -0.17557921295501691 -0.18022020591375351 0 -0.18239484980351819 -0.16464781923938721 0 -0.1655722477793394 -0.1670875310098065 0 -0.18239484980351819 -0.16464781923938721 0 -0.1716614177265566 -0.15146656102038991 0 -0.18239484980351819 -0.16464781923938721 0 -0.1716614177265566 -0.15146656102038991 0 -0.1894311146879058 -0.1465309504005988 0 -0.17775058767377289 -0.13584559103097291 0 -0.1716614177265566 -0.15146656102038991 0 -0.1894311146879058 -0.1465309504005988 0 -0.17775058767377289 -0.13584559103097291 0 -0.1716614177265566 -0.15146656102038991 0 -0.17775058767377289 -0.13584559103097291 0 -0.1894311146879058 -0.1465309504005988 0 -0.17775058767377289 -0.13584559103097291 0 -0.19823449762692411 -0.13229999761030051 0 -0.18534812722118199 -0.1163550958908785 0 -0.17775058767377289 -0.13584559103097291 0 -0.18534812722118199 -0.1163550958908785 0 -0.15406265534163929 -0.1294064941378926 0 -0.16394560233522651 -0.1386698702264933 0 -0.15606779039194271 -0.1160101434681408 0 -0.17775058767377289 -0.13584559103097291 0 -0.16394560233522651 -0.1386698702264933 0 -0.15606779039194271 -0.1160101434681408 0 -0.17775058767377289 -0.13584559103097291 0 -0.15606779039194271 -0.1160101434681408 0 -0.15406265534163929 -0.1294064941378926 0 -0.16394560233522651 -0.1386698702264933 0 -0.1564494690737798 -0.13971242061594299 0 -0.16394560233522651 -0.1386698702264933 0 -0.1564494690737798 -0.13971242061594299 0 -0.15962849525536979 -0.1448502401790808 0 -0.14845845790642179 -0.14462819045750719 0 -0.1655722477793394 -0.1670875310098065 0 -0.14845845790642179 -0.14462819045750719 0 -0.1655722477793394 -0.1670875310098065 0 -0.15894149653025619 -0.15184230729274609 0 -0.15519343748037609 -0.14309809199123349 0 -0.1564494690737798 -0.13971242061594299 0 -0.15962849525536979 -0.1448502401790808 0 -0.1543278084257422 -0.1453912472931165 0 -0.15519343748037609 -0.14309809199123349 0 -0.15962849525536979 -0.1448502401790808 0 -0.1543278084257422 -0.1453912472931165 0 -0.15962849525536979 -0.1448502401790808 0 -0.15894149653025619 -0.15184230729274609 0 -0.15962849525536979 -0.1448502401790808 0 -0.15894149653025619 -0.15184230729274609 0 -0.1716614177265566 -0.15146656102038991 0 -0.17775058767377289 -0.13584559103097291 0 -0.16394560233522651 -0.1386698702264933 0 -0.1716614177265566 -0.15146656102038991 0 -0.16394560233522651 -0.1386698702264933 0 -0.15962849525536979 -0.1448502401790808 0 -0.1716614177265566 -0.15146656102038991 0 -0.1534429259631987 -0.25724555178864622 0 -0.15289321433053751 -0.246830478479277 0 -0.1378886282313006 -0.2381062402767252 0 -0.1534429259631987 -0.25724555178864622 0 -0.1378886282313006 -0.2381062402767252 0 -0.15348527020851541 -0.23913552791147211 0 -0.1378886282313006 -0.2381062402767252 0 -0.15430752157141919 -0.22794821467022949 0 -0.15289321433053751 -0.246830478479277 0 -0.15348527020851541 -0.23913552791147211 0 -0.1601832428566283 -0.24550858739866141 0 -0.15289321433053751 -0.246830478479277 0 -0.15348527020851541 -0.23913552791147211 0 -0.1378886282313006 -0.2381062402767252 0 -0.1459019403517107 -0.25564217047089421 0 -0.13375162957080131 -0.24871916986845621 0 -0.1378886282313006 -0.2381062402767252 0 -0.13375162957080131 -0.24871916986845621 0 -0.1378886282313006 -0.2381062402767252 0 -0.127825895831608 -0.22987551408160201 0 -0.13375162957080131 -0.24871916986845621 0 -0.1378886282313006 -0.2381062402767252 0 -0.13218950310710981 -0.25272660122947088 0 -0.1218823470606431 -0.24640061544388489 0 -0.13375162957080131 -0.24871916986845621 0 -0.127825895831608 -0.22987551408160201 0 -0.14435850230698141 -0.22150862358223991 0 -0.13086176299679239 -0.21746526838305219 0 -0.1378886282313006 -0.2381062402767252 0 -0.127825895831608 -0.22987551408160201 0 -0.14435850230698141 -0.22150862358223991 0 -0.11989889803527461 -0.22145143588075511 0 -0.127825895831608 -0.22987551408160201 0 -0.13086176299679239 -0.21746526838305219 0 -0.1378886282313006 -0.2381062402767252 0 -0.14435850230698141 -0.22150862358223991 0 -0.14435850230698141 -0.22150862358223991 0 -0.15430752157141919 -0.22794821467022949 0 -0.16410544360365359 -0.21493654602220469 0 -0.1378886282313006 -0.2381062402767252 0 -0.14435850230698141 -0.22150862358223991 0 -0.15430752157141919 -0.22794821467022949 0 -0.14435850230698141 -0.22150862358223991 0 -0.15496537504316019 -0.19429807729602311 0 -0.14435850230698141 -0.22150862358223991 0 -0.1373527607074172 -0.20563907323320921 0 -0.15496537504316019 -0.19429807729602311 0 -0.14435850230698141 -0.22150862358223991 0 -0.15496537504316019 -0.19429807729602311 0 -0.16410544360365359 -0.21493654602220469 0 -0.14435850230698141 -0.22150862358223991 0 -0.1373527607074172 -0.20563907323320921 0 -0.13086176299679239 -0.21746526838305219 0 -0.1210853022939376 -0.205467400633562 0 -0.1373527607074172 -0.20563907323320921 0 -0.13086176299679239 -0.21746526838305219 0 -0.1210853022939376 -0.205467400633562 0 -0.1373527607074172 -0.20563907323320921 0 -0.13505851963374399 -0.18906788910329131 0 -0.1373527607074172 -0.20563907323320921 0 -0.13505851963374399 -0.18906788910329131 0 -0.15496537504316019 -0.19429807729602311 0 -0.1689483943248192 -0.19264195369377959 0 -0.17994482166635981 -0.2014366202218163 0 -0.16410544360365359 -0.21493654602220469 0 -0.15496537504316019 -0.19429807729602311 0 -0.1689483943248192 -0.19264195369377959 0 -0.16410544360365359 -0.21493654602220469 0 -0.17557921295501691 -0.18022020591375351 0 -0.1689483943248192 -0.19264195369377959 0 -0.17994482166635981 -0.2014366202218163 0 -0.17557921295501691 -0.18022020591375351 0 -0.17994482166635981 -0.2014366202218163 0 -0.1907059301477185 -0.18468107337543721 0 -0.17994482166635981 -0.2014366202218163 0 -0.1784102433228649 -0.21681777692650089 0 -0.16410544360365359 -0.21493654602220469 0 -0.17994482166635981 -0.2014366202218163 0 -0.18904495760185211 -0.20873870471059999 0 -0.19252771524915421 -0.19930647688205899 0 -0.17994482166635981 -0.2014366202218163 0 -0.1784102433228649 -0.21681777692650089 0 -0.18904495760185211 -0.20873870471059999 0 -0.1784102433228649 -0.21681777692650089 0 -0.19175951728552271 -0.21959172261586679 0 -0.18904495760185211 -0.20873870471059999 0 -0.15430752157141919 -0.22794821467022949 0 -0.16410544360365359 -0.21493654602220469 0 -0.16877954452522659 -0.2255120540677526 0 -0.15430752157141919 -0.22794821467022949 0 -0.16877954452522659 -0.2255120540677526 0 -0.16324537569009509 -0.2357306359809743 0 -0.15348527020851541 -0.23913552791147211 0 -0.15430752157141919 -0.22794821467022949 0 -0.16324537569009509 -0.2357306359809743 0 -0.16877954452522659 -0.2255120540677526 0 -0.17781387366555559 -0.23090770197000129 0 -0.16324537569009509 -0.2357306359809743 0 -0.1784102433228649 -0.21681777692650089 0 -0.16410544360365359 -0.21493654602220469 0 -0.16877954452522659 -0.2255120540677526 0 -0.1784102433228649 -0.21681777692650089 0 -0.16877954452522659 -0.2255120540677526 0 -0.17781387366555559 -0.23090770197000129 0 -0.1784102433228649 -0.21681777692650089 0 -0.17781387366555559 -0.23090770197000129 0 -0.19175951728552271 -0.21959172261586679 0 -0.17781387366555559 -0.23090770197000129 0 -0.1805311654956796 -0.2411950136452527 0 -0.19410287643929239 -0.23312434657521411 0 -0.17781387366555559 -0.23090770197000129 0 -0.1805311654956796 -0.2411950136452527 0 -0.16955513552828311 -0.24305067226283769 0 -0.17679077873490559 -0.25046109420941731 0 -0.1805311654956796 -0.2411950136452527 0 -0.18863044441395099 -0.24733650333174401 0 -0.17679077873490559 -0.25046109420941731 0 -0.1805311654956796 -0.2411950136452527 0 -0.16955513552828311 -0.24305067226283769 0 -0.16709258238786229 -0.25188408856254202 0 -0.17679077873490559 -0.25046109420941731 0 -0.16955513552828311 -0.24305067226283769 0 -0.16709258238786229 -0.25188408856254202 0 -0.16955513552828311 -0.24305067226283769 0 -0.1601832428566283 -0.24550858739866141 0 -0.17781387366555559 -0.23090770197000129 0 -0.16955513552828311 -0.24305067226283769 0 -0.16324537569009509 -0.2357306359809743 0 -0.16955513552828311 -0.24305067226283769 0 -0.16324537569009509 -0.2357306359809743 0 -0.1601832428566283 -0.24550858739866141 0 -0.15348527020851541 -0.23913552791147211 0 -0.16324537569009509 -0.2357306359809743 0 -0.1601832428566283 -0.24550858739866141 0 -0.1593809120407062 -0.25278805690175971 0 -0.15289321433053751 -0.246830478479277 0 -0.1601832428566283 -0.24550858739866141 0 -0.20565562739327201 -0.24334207984173631 0 -0.19410287643929239 -0.23312434657521411 0 -0.21201774175915139 -0.2290986139018284 0 -0.21472073189145299 -0.25725591714607071 0 -0.20565562739327201 -0.24334207984173631 0 -0.22837296648480071 -0.23789375384220129 0 -0.20565562739327201 -0.24334207984173631 0 -0.21201774175915139 -0.2290986139018284 0 -0.22837296648480071 -0.23789375384220129 0 -0.20565562739327201 -0.24334207984173631 0 -0.18863044441395099 -0.24733650333174401 0 -0.19410287643929239 -0.23312434657521411 0 -0.1805311654956796 -0.2411950136452527 0 -0.18863044441395099 -0.24733650333174401 0 -0.19410287643929239 -0.23312434657521411 0 -0.17781387366555559 -0.23090770197000129 0 -0.19410287643929239 -0.23312434657521411 0 -0.19175951728552271 -0.21959172261586679 0 -0.19410287643929239 -0.23312434657521411 0 -0.19175951728552271 -0.21959172261586679 0 -0.20443040571370949 -0.21985141578154491 0 -0.21201774175915139 -0.2290986139018284 0 -0.20443040571370949 -0.21985141578154491 0 -0.22630383013383959 -0.21240708539258099 0 -0.19410287643929239 -0.23312434657521411 0 -0.21201774175915139 -0.2290986139018284 0 -0.20443040571370949 -0.21985141578154491 0 -0.20157622681128409 -0.2075672839719423 0 -0.21557055542943429 -0.1904257004922347 0 -0.22630383013383959 -0.21240708539258099 0 -0.20157622681128409 -0.2075672839719423 0 -0.22630383013383959 -0.21240708539258099 0 -0.20443040571370949 -0.21985141578154491 0 -0.20157622681128409 -0.2075672839719423 0 -0.22630383013383959 -0.21240708539258099 0 -0.19175951728552271 -0.21959172261586679 0 -0.20443040571370949 -0.21985141578154491 0 -0.20157622681128409 -0.2075672839719423 0 -0.19175951728552271 -0.21959172261586679 0 -0.20157622681128409 -0.2075672839719423 0 -0.19175951728552271 -0.21959172261586679 0 -0.18904495760185211 -0.20873870471059999 0 -0.20157622681128409 -0.2075672839719423 0 -0.18904495760185211 -0.20873870471059999 0 -0.20157622681128409 -0.2075672839719423 0 -0.19252771524915421 -0.19930647688205899 0 -0.17994482166635981 -0.2014366202218163 0 -0.19252771524915421 -0.19930647688205899 0 -0.1907059301477185 -0.18468107337543721 0 -0.20157622681128409 -0.2075672839719423 0 -0.19252771524915421 -0.19930647688205899 0 -0.20187756758401409 -0.19506767240709361 0 -0.19252771524915421 -0.19930647688205899 0 -0.20187756758401409 -0.19506767240709361 0 -0.1907059301477185 -0.18468107337543721 0 -0.20157622681128409 -0.2075672839719423 0 -0.21557055542943429 -0.1904257004922347 0 -0.20187756758401409 -0.19506767240709361 0 -0.21557055542943429 -0.1904257004922347 0 -0.2038146335316797 -0.1820121315948606 0 -0.20157622681128409 -0.2075672839719423 0 -0.20187756758401409 -0.19506767240709361 0 -0.21557055542943429 -0.1904257004922347 0 -0.21557055542943429 -0.1904257004922347 0 -0.23533053747689989 -0.1962925907305976 0 -0.22630383013383959 -0.21240708539258099 0 -0.23533053747689989 -0.1962925907305976 0 -0.25103143345639523 -0.21724688681321891 0 -0.25418198431724581 -0.18809916394242601 0 -0.22630383013383959 -0.21240708539258099 0 -0.25103143345639523 -0.21724688681321891 0 -0.23533053747689989 -0.1962925907305976 0 -0.22630383013383959 -0.21240708539258099 0 -0.25103143345639523 -0.21724688681321891 0 -0.21201774175915139 -0.2290986139018284 0 -0.22630383013383959 -0.21240708539258099 0 -0.22837296648480071 -0.23789375384220129 0 -0.22630383013383959 -0.21240708539258099 0 -0.22837296648480071 -0.23789375384220129 0 -0.25103143345639523 -0.21724688681321891 0 -0.22837296648480071 -0.23789375384220129 0 -0.25431856302814809 -0.24833495949118861 0 -0.25103143345639523 -0.21724688681321891 0 -0.2335542019388327 -0.26090262277066528 0 -0.22837296648480071 -0.23789375384220129 0 -0.25431856302814809 -0.24833495949118861 0 -0.20708483324238849 -0.15128624944667929 0 -0.22647357207813959 -0.15205360930679629 0 -0.2195633859389316 -0.1340578990397249 0 -0.20708483324238849 -0.15128624944667929 0 -0.19823449762692411 -0.13229999761030051 0 -0.2195633859389316 -0.1340578990397249 0 -0.19823449762692411 -0.13229999761030051 0 -0.2195633859389316 -0.1340578990397249 0 -0.21022893699736381 -0.1097241998529486 0 -0.17775058767377289 -0.13584559103097291 0 -0.19823449762692411 -0.13229999761030051 0 -0.1894311146879058 -0.1465309504005988 0 -0.20708483324238849 -0.15128624944667929 0 -0.1894311146879058 -0.1465309504005988 0 -0.19351686899232889 -0.15854259719770419 0 -0.20708483324238849 -0.15128624944667929 0 -0.19823449762692411 -0.13229999761030051 0 -0.1894311146879058 -0.1465309504005988 0 -0.20708483324238849 -0.15128624944667929 0 -0.19351686899232889 -0.15854259719770419 0 -0.19880271024428661 -0.17007658736909009 0 -0.18239484980351819 -0.16464781923938721 0 -0.1894311146879058 -0.1465309504005988 0 -0.19351686899232889 -0.15854259719770419 0 -0.18239484980351819 -0.16464781923938721 0 -0.19351686899232889 -0.15854259719770419 0 -0.19880271024428661 -0.17007658736909009 0 -0.18239484980351819 -0.16464781923938721 0 -0.19880271024428661 -0.17007658736909009 0 -0.1907059301477185 -0.18468107337543721 0 -0.19880271024428661 -0.17007658736909009 0 -0.1907059301477185 -0.18468107337543721 0 -0.2038146335316797 -0.1820121315948606 0 -0.20187756758401409 -0.19506767240709361 0 -0.1907059301477185 -0.18468107337543721 0 -0.2038146335316797 -0.1820121315948606 0 -0.21557055542943429 -0.1904257004922347 0 -0.2038146335316797 -0.1820121315948606 0 -0.21355186476225221 -0.16985639920369799 0 -0.19880271024428661 -0.17007658736909009 0 -0.2038146335316797 -0.1820121315948606 0 -0.21355186476225221 -0.16985639920369799 0 -0.20708483324238849 -0.15128624944667929 0 -0.21355186476225221 -0.16985639920369799 0 -0.22647357207813959 -0.15205360930679629 0 -0.20708483324238849 -0.15128624944667929 0 -0.19880271024428661 -0.17007658736909009 0 -0.21355186476225221 -0.16985639920369799 0 -0.22956488404758479 -0.1732841170125273 0 -0.2435592126657353 -0.1561425335328199 0 -0.22647357207813959 -0.15205360930679629 0 -0.21355186476225221 -0.16985639920369799 0 -0.22956488404758479 -0.1732841170125273 0 -0.22647357207813959 -0.15205360930679629 0 -0.21557055542943429 -0.1904257004922347 0 -0.21355186476225221 -0.16985639920369799 0 -0.22956488404758479 -0.1732841170125273 0 -0.21557055542943429 -0.1904257004922347 0 -0.22956488404758479 -0.1732841170125273 0 -0.21557055542943429 -0.1904257004922347 0 -0.23533053747689989 -0.1962925907305976 0 -0.22956488404758479 -0.1732841170125273 0 -0.23533053747689989 -0.1962925907305976 0 -0.22956488404758479 -0.1732841170125273 0 -0.25418198431724581 -0.18809916394242601 0 -0.22956488404758479 -0.1732841170125273 0 -0.25418198431724581 -0.18809916394242601 0 -0.2565438833259911 -0.1687602707777138 0 -0.22956488404758479 -0.1732841170125273 0 -0.2435592126657353 -0.1561425335328199 0 -0.22956488404758479 -0.1732841170125273 0 -0.2435592126657353 -0.1561425335328199 0 -0.2565438833259911 -0.1687602707777138 0 -0.2435592126657353 -0.1561425335328199 0 -0.22647357207813959 -0.15205360930679629 0 -0.2432602079730701 -0.13485583854350039 0 -0.22647357207813959 -0.15205360930679629 0 -0.2195633859389316 -0.1340578990397249 0 -0.2432602079730701 -0.13485583854350039 0 -0.2195633859389316 -0.1340578990397249 0 -0.2432602079730701 -0.13485583854350039 0 -0.23065476516460279 -0.11957242830579699 0 -0.2432602079730701 -0.13485583854350039 0 -0.2499653418643101 -0.1102460646797562 0 -0.23065476516460279 -0.11957242830579699 0 -0.2499653418643101 -0.1102460646797562 0 -0.2308399038819596 -0.1034577205422559 0 -0.23065476516460279 -0.11957242830579699 0 -0.2308399038819596 -0.1034577205422559 0 -0.25308440776240432 -0.086371671251396109 0 -0.2499653418643101 -0.1102460646797562 0 -0.2308399038819596 -0.1034577205422559 0 -0.25308440776240432 -0.086371671251396109 0 -0.2308399038819596 -0.1034577205422559 0 -0.21022893699736381 -0.1097241998529486 0 -0.21520721362926831 -0.098298511723915558 0 -0.2308399038819596 -0.1034577205422559 0 -0.22013457808717909 -0.089221868029860679 0 -0.21520721362926831 -0.098298511723915558 0 -0.2308399038819596 -0.1034577205422559 0 -0.23065476516460279 -0.11957242830579699 0 -0.21022893699736381 -0.1097241998529486 0 -0.2195633859389316 -0.1340578990397249 0 -0.23065476516460279 -0.11957242830579699 0 -0.21022893699736381 -0.1097241998529486 0 -0.2335598957907816 -0.079883889973887123 0 -0.24475965461883589 -0.059498385283178377 0 -0.2582325144520296 -0.070050845257802419 0 -0.2335598957907816 -0.079883889973887123 0 -0.2582325144520296 -0.070050845257802419 0 -0.25308440776240432 -0.086371671251396109 0 -0.2308399038819596 -0.1034577205422559 0 -0.2335598957907816 -0.079883889973887123 0 -0.25308440776240432 -0.086371671251396109 0 -0.2308399038819596 -0.1034577205422559 0 -0.22013457808717909 -0.089221868029860679 0 -0.2335598957907816 -0.079883889973887123 0 -0.22013457808717909 -0.089221868029860679 0 -0.2335598957907816 -0.079883889973887123 0 -0.21963876375789801 -0.077814354495200549 0 -0.2335598957907816 -0.079883889973887123 0 -0.21595644614104051 -0.065738508165203102 0 -0.24475965461883589 -0.059498385283178377 0 -0.21595644614104051 -0.065738508165203102 0 -0.24475965461883589 -0.059498385283178377 0 -0.2335598957907816 -0.079883889973887123 0 -0.21963876375789801 -0.077814354495200549 0 -0.21595644614104051 -0.065738508165203102 0 -0.20438945881064449 -0.068244458930106389 0 -0.21100771399754009 -0.086966924160961745 0 -0.21595644614104051 -0.065738508165203102 0 -0.21100771399754009 -0.086966924160961745 0 -0.20438945881064449 -0.068244458930106389 0 -0.21595644614104051 -0.065738508165203102 0 -0.21100771399754009 -0.086966924160961745 0 -0.21963876375789801 -0.077814354495200549 0 -0.21595644614104051 -0.065738508165203102 0 -0.21100771399754009 -0.086966924160961745 0 -0.20438945881064449 -0.068244458930106389 0 -0.21595644614104051 -0.065738508165203102 0 -0.20438945881064449 -0.068244458930106389 0 -0.21595644614104051 -0.065738508165203102 0 -0.20711132549122371 -0.057203435059411119 0 -0.20438945881064449 -0.068244458930106389 0 -0.21100771399754009 -0.086966924160961745 0 -0.19851231957361129 -0.085310821531315487 0 -0.22013457808717909 -0.089221868029860679 0 -0.21963876375789801 -0.077814354495200549 0 -0.21100771399754009 -0.086966924160961745 0 -0.22013457808717909 -0.089221868029860679 0 -0.21100771399754009 -0.086966924160961745 0 -0.21520721362926831 -0.098298511723915558 0 -0.21100771399754009 -0.086966924160961745 0 -0.19851231957361129 -0.085310821531315487 0 -0.20550431009004061 -0.095676697317907802 0 -0.21100771399754009 -0.086966924160961745 0 -0.21520721362926831 -0.098298511723915558 0 -0.20550431009004061 -0.095676697317907802 0 -0.19851231957361129 -0.085310821531315487 0 -0.18118326058104209 -0.08825419183970401 0 -0.18409944718507371 -0.07264022497537044 0 -0.19851231957361129 -0.085310821531315487 0 -0.19294566676858971 -0.096864600750783431 0 -0.18118326058104209 -0.08825419183970401 0 -0.19851231957361129 -0.085310821531315487 0 -0.20550431009004061 -0.095676697317907802 0 -0.19294566676858971 -0.096864600750783431 0 -0.20438945881064449 -0.068244458930106389 0 -0.19851231957361129 -0.085310821531315487 0 -0.18409944718507371 -0.07264022497537044 0 -0.20438945881064449 -0.068244458930106389 0 -0.18409944718507371 -0.07264022497537044 0 -0.18769526278089041 -0.057829612445021099 0 -0.20438945881064449 -0.068244458930106389 0 -0.18409944718507371 -0.07264022497537044 0 -0.21022893699736381 -0.1097241998529486 0 -0.21520721362926831 -0.098298511723915558 0 -0.20550431009004061 -0.095676697317907802 0 -0.21022893699736381 -0.1097241998529486 0 -0.20550431009004061 -0.095676697317907802 0 -0.19294566676858971 -0.096864600750783431 0 -0.19294566676858971 -0.096864600750783431 0 -0.18534812722118199 -0.1163550958908785 0 -0.21022893699736381 -0.1097241998529486 0 -0.19294566676858971 -0.096864600750783431 0 -0.18534812722118199 -0.1163550958908785 0 -0.19823449762692411 -0.13229999761030051 0 -0.21022893699736381 -0.1097241998529486 0 -0.18534812722118199 -0.1163550958908785 0 -0.18534812722118199 -0.1163550958908785 0 -0.17423934197139679 -0.1017815859784342 0 -0.15606779039194271 -0.1160101434681408 0 -0.17775058767377289 -0.13584559103097291 0 -0.18534812722118199 -0.1163550958908785 0 -0.15606779039194271 -0.1160101434681408 0 -0.16057304666404501 -0.10079887419961479 0 -0.17423934197139679 -0.1017815859784342 0 -0.15606779039194271 -0.1160101434681408 0 -0.16057304666404501 -0.10079887419961479 0 -0.16746185343044401 -0.091445336260546128 0 -0.1570966781871318 -0.090327755750333361 0 -0.16057304666404501 -0.10079887419961479 0 -0.17423934197139679 -0.1017815859784342 0 -0.16746185343044401 -0.091445336260546128 0 -0.17423934197139679 -0.1017815859784342 0 -0.18118326058104209 -0.08825419183970401 0 -0.16746185343044401 -0.091445336260546128 0 -0.19294566676858971 -0.096864600750783431 0 -0.18534812722118199 -0.1163550958908785 0 -0.17423934197139679 -0.1017815859784342 0 -0.19294566676858971 -0.096864600750783431 0 -0.17423934197139679 -0.1017815859784342 0 -0.18118326058104209 -0.08825419183970401 0 -0.18118326058104209 -0.08825419183970401 0 -0.18409944718507371 -0.07264022497537044 0 -0.16915717098214109 -0.081397787743409861 0 -0.18118326058104209 -0.08825419183970401 0 -0.16746185343044401 -0.091445336260546128 0 -0.16915717098214109 -0.081397787743409861 0 -0.18409944718507371 -0.07264022497537044 0 -0.1702117591297739 -0.06777753321031553 0 -0.16380943555950259 -0.077035991020633382 0 -0.18409944718507371 -0.07264022497537044 0 -0.16380943555950259 -0.077035991020633382 0 -0.16915717098214109 -0.081397787743409861 0 -0.18409944718507371 -0.07264022497537044 0 -0.17187825396406881 -0.057945450019426657 0 -0.18769526278089041 -0.057829612445021099 0 -0.18409944718507371 -0.07264022497537044 0 -0.16380943555950259 -0.077035991020633382 0 -0.18409944718507371 -0.07264022497537044 0 -0.1702117591297739 -0.06777753321031553 0 -0.17187825396406881 -0.057945450019426657 0 -0.16380943555950259 -0.077035991020633382 0 -0.16105989981045041 -0.063488466825831633 0 -0.14595160177326619 -0.062470528310013429 0 -0.1702117591297739 -0.06777753321031553 0 -0.16105989981045041 -0.063488466825831633 0 -0.17187825396406881 -0.057945450019426657 0 -0.1702117591297739 -0.06777753321031553 0 -0.16380943555950259 -0.077035991020633382 0 -0.16105989981045041 -0.063488466825831633 0 -0.16380943555950259 -0.077035991020633382 0 -0.16109871639751261 -0.084134952385501949 0 -0.14796844382834351 -0.080467891152587012 0 -0.16746185343044401 -0.091445336260546128 0 -0.16915717098214109 -0.081397787743409861 0 -0.16109871639751261 -0.084134952385501949 0 -0.16380943555950259 -0.077035991020633382 0 -0.16915717098214109 -0.081397787743409861 0 -0.16109871639751261 -0.084134952385501949 0 -0.16380943555950259 -0.077035991020633382 0 -0.16915717098214109 -0.081397787743409861 0 -0.16746185343044401 -0.091445336260546128 0 -0.16109871639751261 -0.084134952385501949 0 -0.1570966781871318 -0.090327755750333361 0 -0.16380943555950259 -0.077035991020633382 0 -0.14796844382834351 -0.080467891152587012 0 -0.14796844382834351 -0.080467891152587012 0 -0.13497135686491851 -0.078315161523928284 0 -0.1484932433812913 -0.094043062253026791 0 -0.1570966781871318 -0.090327755750333361 0 -0.14796844382834351 -0.080467891152587012 0 -0.1484932433812913 -0.094043062253026791 0 -0.16109871639751261 -0.084134952385501949 0 -0.1570966781871318 -0.090327755750333361 0 -0.14796844382834351 -0.080467891152587012 0 -0.16380943555950259 -0.077035991020633382 0 -0.14796844382834351 -0.080467891152587012 0 -0.14595160177326619 -0.062470528310013429 0 -0.16380943555950259 -0.077035991020633382 0 -0.14595160177326619 -0.062470528310013429 0 -0.14796844382834351 -0.080467891152587012 0 -0.13497135686491851 -0.078315161523928284 0 -0.14595160177326619 -0.062470528310013429 0 -0.1158705629695205 -0.060236298698018297 0 -0.13497135686491851 -0.078315161523928284 0 -0.1158705629695205 -0.060236298698018297 0 -0.13497135686491851 -0.078315161523928284 0 -0.13122182239868371 -0.062231763532838429 0 -0.13497135686491851 -0.078315161523928284 0 -0.13122182239868371 -0.062231763532838429 0 -0.14595160177326619 -0.062470528310013429 0 -0.112702195828283 -0.076339248342475546 0 -0.13497135686491851 -0.078315161523928284 0 -0.13438499311011279 -0.096174695905308166 0 -0.13497135686491851 -0.078315161523928284 0 -0.13438499311011279 -0.096174695905308166 0 -0.1484932433812913 -0.094043062253026791 0 -0.11276894493928399 -0.097790936300085646 0 -0.13438499311011279 -0.096174695905308166 0 -0.1306137014228527 -0.1212095633787966 0 -0.13438499311011279 -0.096174695905308166 0 -0.1306137014228527 -0.1212095633787966 0 -0.15606779039194271 -0.1160101434681408 0 -0.15406265534163929 -0.1294064941378926 0 -0.1306137014228527 -0.1212095633787966 0 -0.15606779039194271 -0.1160101434681408 0 -0.13438499311011279 -0.096174695905308166 0 -0.15606779039194271 -0.1160101434681408 0 -0.1484932433812913 -0.094043062253026791 0 -0.16057304666404501 -0.10079887419961479 0 -0.15606779039194271 -0.1160101434681408 0 -0.1484932433812913 -0.094043062253026791 0 -0.13438499311011279 -0.096174695905308166 0 -0.15606779039194271 -0.1160101434681408 0 -0.16057304666404501 -0.10079887419961479 0 -0.1570966781871318 -0.090327755750333361 0 -0.1484932433812913 -0.094043062253026791 0 -0.14513665439653431 -0.02122229521611602 0 -0.15148395360685291 -0.031475856168514699 0 -0.16129500549156001 -0.024264335985147129 0 -0.14513665439653431 -0.02122229521611602 0 -0.1346415055917565 -0.031432898451717602 0 -0.15148395360685291 -0.031475856168514699 0 -0.14513665439653431 -0.02122229521611602 0 -0.15327979458335059 -0.01391829646419882 0 -0.16129500549156001 -0.024264335985147129 0 -0.1412848112475209 -0.008091449167619497 0 -0.15773416148281841 -0.0035868741371463562 0 -0.14801408494475049 0.0031182785745780331 0 -0.15327979458335059 -0.01391829646419882 0 -0.1412848112475209 -0.008091449167619497 0 -0.15773416148281841 -0.0035868741371463562 0 -0.14513665439653431 -0.02122229521611602 0 -0.15327979458335059 -0.01391829646419882 0 -0.1412848112475209 -0.008091449167619497 0 -0.1236693299605585 -0.0137973575501921 0 -0.1412848112475209 -0.008091449167619497 0 -0.12735709500343681 0.004015926865657337 0 -0.1412848112475209 -0.008091449167619497 0 -0.12735709500343681 0.004015926865657337 0 -0.14801408494475049 0.0031182785745780331 0 -0.1236693299605585 -0.0137973575501921 0 -0.1412848112475209 -0.008091449167619497 0 -0.13426109495296229 -0.02049569832685658 0 -0.1236693299605585 -0.0137973575501921 0 -0.1221370268088495 -0.025998648103035 0 -0.13426109495296229 -0.02049569832685658 0 -0.14513665439653431 -0.02122229521611602 0 -0.1412848112475209 -0.008091449167619497 0 -0.13426109495296229 -0.02049569832685658 0 -0.14513665439653431 -0.02122229521611602 0 -0.13426109495296229 -0.02049569832685658 0 -0.1346415055917565 -0.031432898451717602 0 -0.1221370268088495 -0.025998648103035 0 -0.12530131535501859 -0.034952786400489197 0 -0.1346415055917565 -0.031432898451717602 0 -0.1221370268088495 -0.025998648103035 0 -0.13426109495296229 -0.02049569832685658 0 -0.1346415055917565 -0.031432898451717602 0 -0.12530131535501859 -0.034952786400489197 0 -0.1346415055917565 -0.031432898451717602 0 -0.12809376798702951 -0.047905065599393698 0 -0.1346415055917565 -0.031432898451717602 0 -0.12809376798702951 -0.047905065599393698 0 -0.14629371500633531 -0.042796653234188263 0 -0.12809376798702951 -0.047905065599393698 0 -0.14595160177326619 -0.062470528310013429 0 -0.12809376798702951 -0.047905065599393698 0 -0.14595160177326619 -0.062470528310013429 0 -0.14629371500633531 -0.042796653234188263 0 -0.13122182239868371 -0.062231763532838429 0 -0.12809376798702951 -0.047905065599393698 0 -0.14595160177326619 -0.062470528310013429 0 -0.1158705629695205 -0.060236298698018297 0 -0.13122182239868371 -0.062231763532838429 0 -0.12809376798702951 -0.047905065599393698 0 -0.14595160177326619 -0.062470528310013429 0 -0.14629371500633531 -0.042796653234188263 0 -0.15696853651444401 -0.052603520026387289 0 -0.16105989981045041 -0.063488466825831633 0 -0.14595160177326619 -0.062470528310013429 0 -0.15696853651444401 -0.052603520026387289 0 -0.15148395360685291 -0.031475856168514699 0 -0.14629371500633531 -0.042796653234188263 0 -0.16402488563849801 -0.041062174760887443 0 -0.1346415055917565 -0.031432898451717602 0 -0.15148395360685291 -0.031475856168514699 0 -0.14629371500633531 -0.042796653234188263 0 -0.14629371500633531 -0.042796653234188263 0 -0.16402488563849801 -0.041062174760887443 0 -0.15696853651444401 -0.052603520026387289 0 -0.15148395360685291 -0.031475856168514699 0 -0.16402488563849801 -0.041062174760887443 0 -0.16129500549156001 -0.024264335985147129 0 -0.16402488563849801 -0.041062174760887443 0 -0.17409393016306191 -0.030370879776367592 0 -0.16129500549156001 -0.024264335985147129 0 -0.16402488563849801 -0.041062174760887443 0 -0.15696853651444401 -0.052603520026387289 0 -0.17187825396406881 -0.057945450019426657 0 -0.16105989981045041 -0.063488466825831633 0 -0.15696853651444401 -0.052603520026387289 0 -0.17187825396406881 -0.057945450019426657 0 -0.16402488563849801 -0.041062174760887443 0 -0.17187825396406881 -0.057945450019426657 0 -0.18133558272394029 -0.043618149437272283 0 -0.17187825396406881 -0.057945450019426657 0 -0.18133558272394029 -0.043618149437272283 0 -0.18769526278089041 -0.057829612445021099 0 -0.18133558272394029 -0.043618149437272283 0 -0.17409393016306191 -0.030370879776367592 0 -0.18915768363079971 -0.025155098795753519 0 -0.16402488563849801 -0.041062174760887443 0 -0.18133558272394029 -0.043618149437272283 0 -0.17409393016306191 -0.030370879776367592 0 -0.17409393016306191 -0.030370879776367592 0 -0.17549551533112251 -0.014893414490097231 0 -0.18915768363079971 -0.025155098795753519 0 -0.16129500549156001 -0.024264335985147129 0 -0.16350931143073591 -0.01273440345064396 0 -0.17549551533112251 -0.014893414490097231 0 -0.17409393016306191 -0.030370879776367592 0 -0.16129500549156001 -0.024264335985147129 0 -0.17549551533112251 -0.014893414490097231 0 -0.15327979458335059 -0.01391829646419882 0 -0.16129500549156001 -0.024264335985147129 0 -0.16350931143073591 -0.01273440345064396 0 -0.15773416148281841 -0.0035868741371463562 0 -0.16716832075785379 -0.0032078365625175 0 -0.1619193683370386 0.0066468078375689294 0 -0.15773416148281841 -0.0035868741371463562 0 -0.16350931143073591 -0.01273440345064396 0 -0.16716832075785379 -0.0032078365625175 0 -0.15327979458335059 -0.01391829646419882 0 -0.15773416148281841 -0.0035868741371463562 0 -0.16350931143073591 -0.01273440345064396 0 -0.16350931143073591 -0.01273440345064396 0 -0.16716832075785379 -0.0032078365625175 0 -0.17549551533112251 -0.014893414490097231 0 -0.17549551533112251 -0.014893414490097231 0 -0.18154179604087481 -0.0036104187285780349 0 -0.18915768363079971 -0.025155098795753519 0 -0.18154179604087481 -0.0036104187285780349 0 -0.18915768363079971 -0.025155098795753519 0 -0.17549551533112251 -0.014893414490097231 0 -0.17584419881677341 0.0071523107965592754 0 -0.17549551533112251 -0.014893414490097231 0 -0.18154179604087481 -0.0036104187285780349 0 -0.17584419881677341 0.0071523107965592754 0 -0.16716832075785379 -0.0032078365625175 0 -0.17549551533112251 -0.014893414490097231 0 -0.17584419881677341 0.0071523107965592754 0 -0.18154179604087481 -0.0036104187285780349 0 -0.19066530249761049 -0.0041303576494283751 0 -0.18915768363079971 -0.025155098795753519 0 -0.18154179604087481 -0.0036104187285780349 0 -0.19066530249761049 -0.0041303576494283751 0 -0.18717715497560061 0.0062623078557712403 0 -0.19066530249761049 -0.0041303576494283751 0 -0.1989264366345522 -0.0080023544535597537 0 -0.18915768363079971 -0.025155098795753519 0 -0.19066530249761049 -0.0041303576494283751 0 -0.1989264366345522 -0.0080023544535597537 0 -0.1965234412062255 0.0098537758749781944 0 -0.1989264366345522 -0.0080023544535597537 0 -0.2007918169376324 -0.0191738513677071 0 -0.20680177871376751 -0.0119671669755851 0 -0.18915768363079971 -0.025155098795753519 0 -0.2007918169376324 -0.0191738513677071 0 -0.21013076049929519 -0.028334228638799381 0 -0.1989264366345522 -0.0080023544535597537 0 -0.18915768363079971 -0.025155098795753519 0 -0.2007918169376324 -0.0191738513677071 0 -0.2007918169376324 -0.0191738513677071 0 -0.21013076049929519 -0.028334228638799381 0 -0.20680177871376751 -0.0119671669755851 0 -0.21013076049929519 -0.028334228638799381 0 -0.21702438745170211 -0.0043907958627755336 0 -0.21921501925093501 -0.017985606360015789 0 -0.21013076049929519 -0.028334228638799381 0 -0.21702438745170211 -0.0043907958627755336 0 -0.21013076049929519 -0.028334228638799381 0 -0.22271521407306469 -0.037269361340154371 0 -0.21921501925093501 -0.017985606360015789 0 -0.21013076049929519 -0.028334228638799381 0 -0.21702438745170211 -0.0043907958627755336 0 -0.20680177871376751 -0.0119671669755851 0 -0.1989264366345522 -0.0080023544535597537 0 -0.20680177871376751 -0.0119671669755851 0 -0.20713549204565579 6.5395444916274768e-05 0 -0.21702438745170211 -0.0043907958627755336 0 -0.20680177871376751 -0.0119671669755851 0 -0.20713549204565579 6.5395444916274768e-05 0 -0.20438945881064449 -0.068244458930106389 0 -0.1967735712207245 -0.046699778862929052 0 -0.20438945881064449 -0.068244458930106389 0 -0.18769526278089041 -0.057829612445021099 0 -0.1967735712207245 -0.046699778862929052 0 -0.20438945881064449 -0.068244458930106389 0 -0.1967735712207245 -0.046699778862929052 0 -0.20711132549122371 -0.057203435059411119 0 -0.18133558272394029 -0.043618149437272283 0 -0.18769526278089041 -0.057829612445021099 0 -0.1967735712207245 -0.046699778862929052 0 -0.18133558272394029 -0.043618149437272283 0 -0.18915768363079971 -0.025155098795753519 0 -0.1967735712207245 -0.046699778862929052 0 -0.18915768363079971 -0.025155098795753519 0 -0.1967735712207245 -0.046699778862929052 0 -0.18915768363079971 -0.025155098795753519 0 -0.21013076049929519 -0.028334228638799381 0 -0.1967735712207245 -0.046699778862929052 0 -0.21013076049929519 -0.028334228638799381 0 -0.21132582579248671 -0.048130994279405613 0 -0.22271521407306469 -0.037269361340154371 0 -0.21013076049929519 -0.028334228638799381 0 -0.1967735712207245 -0.046699778862929052 0 -0.21132582579248671 -0.048130994279405613 0 -0.21595644614104051 -0.065738508165203102 0 -0.21132582579248671 -0.048130994279405613 0 -0.22271521407306469 -0.037269361340154371 0 -0.21595644614104051 -0.065738508165203102 0 -0.21132582579248671 -0.048130994279405613 0 -0.20711132549122371 -0.057203435059411119 0 -0.1967735712207245 -0.046699778862929052 0 -0.21132582579248671 -0.048130994279405613 0 -0.20711132549122371 -0.057203435059411119 0 -0.21595644614104051 -0.065738508165203102 0 -0.2284172135094342 -0.053659916570315727 0 -0.24475965461883589 -0.059498385283178377 0 -0.21595644614104051 -0.065738508165203102 0 -0.2284172135094342 -0.053659916570315727 0 -0.22271521407306469 -0.037269361340154371 0 -0.21595644614104051 -0.065738508165203102 0 -0.22271521407306469 -0.037269361340154371 0 -0.2284172135094342 -0.053659916570315727 0 -0.22271521407306469 -0.037269361340154371 0 -0.23903543051913109 -0.043198085603962481 0 -0.22271521407306469 -0.037269361340154371 0 -0.23903543051913109 -0.043198085603962481 0 -0.24161885061771041 -0.026720350447010301 0 -0.23903543051913109 -0.043198085603962481 0 -0.24161885061771041 -0.026720350447010301 0 -0.25766621977661042 -0.038842414379153638 0 -0.23903543051913109 -0.043198085603962481 0 -0.24475965461883589 -0.059498385283178377 0 -0.25766621977661042 -0.038842414379153638 0 -0.2284172135094342 -0.053659916570315727 0 -0.23903543051913109 -0.043198085603962481 0 -0.24475965461883589 -0.059498385283178377 0 -0.22947398200509031 -0.0088002145151058891 0 -0.22867745033346079 0.0038692188645070222 0 -0.2401015516947359 0.00075261550232862703 0 -0.21702438745170211 -0.0043907958627755336 0 -0.22947398200509031 -0.0088002145151058891 0 -0.22867745033346079 0.0038692188645070222 0 -0.21702438745170211 -0.0043907958627755336 0 -0.22947398200509031 -0.0088002145151058891 0 -0.21921501925093501 -0.017985606360015789 0 -0.22271521407306469 -0.037269361340154371 0 -0.22947398200509031 -0.0088002145151058891 0 -0.21921501925093501 -0.017985606360015789 0 -0.22271521407306469 -0.037269361340154371 0 -0.22947398200509031 -0.0088002145151058891 0 -0.22271521407306469 -0.037269361340154371 0 -0.22947398200509031 -0.0088002145151058891 0 -0.24161885061771041 -0.026720350447010301 0 -0.22947398200509031 -0.0088002145151058891 0 -0.24161885061771041 -0.026720350447010301 0 -0.2437457614006571 -0.011962382738850049 0 -0.24161885061771041 -0.026720350447010301 0 -0.2437457614006571 -0.011962382738850049 0 -0.2598032925822476 -0.0188915667982569 0 -0.22947398200509031 -0.0088002145151058891 0 -0.2437457614006571 -0.011962382738850049 0 -0.2401015516947359 0.00075261550232862703 0 -0.2437457614006571 -0.011962382738850049 0 -0.25267499080189931 -0.0034516002120552492 0 -0.2401015516947359 0.00075261550232862703 0 -0.25267499080189931 -0.0034516002120552492 0 -0.2598032925822476 -0.0188915667982569 0 -0.26909988492935111 -0.0018655285383734981 0 -0.2437457614006571 -0.011962382738850049 0 -0.25267499080189931 -0.0034516002120552492 0 -0.2598032925822476 -0.0188915667982569 0 -0.2598032925822476 -0.0188915667982569 0 -0.27267419604841259 -0.026924212746328481 0 -0.25766621977661042 -0.038842414379153638 0 -0.24161885061771041 -0.026720350447010301 0 -0.2598032925822476 -0.0188915667982569 0 -0.25766621977661042 -0.038842414379153638 0 -0.2598032925822476 -0.0188915667982569 0 -0.27267419604841259 -0.026924212746328481 0 -0.27804425228895369 -0.016131696666228459 0 -0.27267419604841259 -0.026924212746328481 0 -0.27804425228895369 -0.016131696666228459 0 -0.28378415359151371 -0.031280105512012511 0 -0.27804425228895369 -0.016131696666228459 0 -0.26909988492935111 -0.0018655285383734981 0 -0.2917254884257266 -0.0017566381736345419 0 -0.2598032925822476 -0.0188915667982569 0 -0.27804425228895369 -0.016131696666228459 0 -0.26909988492935111 -0.0018655285383734981 0 -0.27804425228895369 -0.016131696666228459 0 -0.2917254884257266 -0.0017566381736345419 0 -0.2928870998243559 -0.020527937726781 0 -0.27804425228895369 -0.016131696666228459 0 -0.2928870998243559 -0.020527937726781 0 -0.28378415359151371 -0.031280105512012511 0 -0.2928870998243559 -0.020527937726781 0 -0.29943422057661201 -0.032203920876667472 0 -0.28378415359151371 -0.031280105512012511 0 -0.2928870998243559 -0.020527937726781 0 -0.31144738423897378 -0.02126732740536201 0 -0.29943422057661201 -0.032203920876667472 0 -0.31144738423897378 -0.02126732740536201 0 -0.31110423911055801 -0.035316851109560482 0 -0.29943422057661201 -0.032203920876667472 0 -0.2917254884257266 -0.0017566381736345419 0 -0.31144738423897378 -0.02126732740536201 0 -0.31177688145040278 0.0050359958776742568 0 -0.2917254884257266 -0.0017566381736345419 0 -0.2928870998243559 -0.020527937726781 0 -0.31144738423897378 -0.02126732740536201 0 -0.2917254884257266 -0.0017566381736345419 0 -0.31144738423897378 -0.02126732740536201 0 -0.30323190850646392 -0.052883144282766713 0 -0.3023660715744253 -0.047018139519123002 0 -0.29757341552329353 -0.05219957266967655 0 -0.29931176789370939 -0.061629941742321552 0 -0.30659897303184058 -0.057135789817405573 0 -0.30728911182784302 -0.064893595009923935 0 -0.30323190850646392 -0.052883144282766713 0 -0.29931176789370939 -0.061629941742321552 0 -0.30659897303184058 -0.057135789817405573 0 -0.30323190850646392 -0.052883144282766713 0 -0.29757341552329353 -0.05219957266967655 0 -0.29931176789370939 -0.061629941742321552 0 -0.30659897303184058 -0.057135789817405573 0 -0.30728911182784302 -0.064893595009923935 0 -0.31405483352543062 -0.056831087900065053 0 -0.30323190850646392 -0.052883144282766713 0 -0.3023660715744253 -0.047018139519123002 0 -0.31025625293594222 -0.050033124508212908 0 -0.30659897303184058 -0.057135789817405573 0 -0.31025625293594222 -0.050033124508212908 0 -0.31405483352543062 -0.056831087900065053 0 -0.30323190850646392 -0.052883144282766713 0 -0.30659897303184058 -0.057135789817405573 0 -0.31025625293594222 -0.050033124508212908 0 -0.3023660715744253 -0.047018139519123002 0 -0.31110423911055801 -0.035316851109560482 0 -0.29943422057661201 -0.032203920876667472 0 -0.3023660715744253 -0.047018139519123002 0 -0.29943422057661201 -0.032203920876667472 0 -0.29166722635019171 -0.038853801873014321 0 -0.29943422057661201 -0.032203920876667472 0 -0.29166722635019171 -0.038853801873014321 0 -0.28378415359151371 -0.031280105512012511 0 -0.3023660715744253 -0.047018139519123002 0 -0.29166722635019171 -0.038853801873014321 0 -0.28390051605192418 -0.042754285685484159 0 -0.29166722635019171 -0.038853801873014321 0 -0.28378415359151371 -0.031280105512012511 0 -0.28390051605192418 -0.042754285685484159 0 -0.3023660715744253 -0.047018139519123002 0 -0.28390051605192418 -0.042754285685484159 0 -0.27356286309663053 -0.053258262401150697 0 -0.3023660715744253 -0.047018139519123002 0 -0.27356286309663053 -0.053258262401150697 0 -0.29757341552329353 -0.05219957266967655 0 -0.27356286309663053 -0.053258262401150697 0 -0.27532891164284878 -0.069285621960536392 0 -0.29757341552329353 -0.05219957266967655 0 -0.27532891164284878 -0.069285621960536392 0 -0.3023660715744253 -0.047018139519123002 0 -0.29757341552329353 -0.05219957266967655 0 -0.27356286309663053 -0.053258262401150697 0 -0.29757341552329353 -0.05219957266967655 0 -0.29931176789370939 -0.061629941742321552 0 -0.27532891164284878 -0.069285621960536392 0 -0.27267419604841259 -0.026924212746328481 0 -0.27375437843427658 -0.039043607324579933 0 -0.25766621977661042 -0.038842414379153638 0 -0.27356286309663053 -0.053258262401150697 0 -0.27375437843427658 -0.039043607324579933 0 -0.25766621977661042 -0.038842414379153638 0 -0.28378415359151371 -0.031280105512012511 0 -0.28390051605192418 -0.042754285685484159 0 -0.27375437843427658 -0.039043607324579933 0 -0.27267419604841259 -0.026924212746328481 0 -0.28378415359151371 -0.031280105512012511 0 -0.27375437843427658 -0.039043607324579933 0 -0.28390051605192418 -0.042754285685484159 0 -0.27356286309663053 -0.053258262401150697 0 -0.27375437843427658 -0.039043607324579933 0 -0.24475965461883589 -0.059498385283178377 0 -0.27356286309663053 -0.053258262401150697 0 -0.2582325144520296 -0.070050845257802419 0 -0.24475965461883589 -0.059498385283178377 0 -0.27356286309663053 -0.053258262401150697 0 -0.24475965461883589 -0.059498385283178377 0 -0.27356286309663053 -0.053258262401150697 0 -0.25766621977661042 -0.038842414379153638 0 -0.2582325144520296 -0.070050845257802419 0 -0.25308440776240432 -0.086371671251396109 0 -0.27532891164284878 -0.069285621960536392 0 -0.25308440776240432 -0.086371671251396109 0 -0.27532891164284878 -0.069285621960536392 0 -0.25308440776240432 -0.086371671251396109 0 -0.27361062541114611 -0.085405998149086934 0 -0.26907394573302829 -0.10103393024372311 0 -0.27361062541114611 -0.085405998149086934 0 -0.26907394573302829 -0.10103393024372311 0 -0.28494676303449051 -0.09097811142482605 0 -0.25308440776240432 -0.086371671251396109 0 -0.27361062541114611 -0.085405998149086934 0 -0.27532891164284878 -0.069285621960536392 0 -0.27356286309663053 -0.053258262401150697 0 -0.2582325144520296 -0.070050845257802419 0 -0.27532891164284878 -0.069285621960536392 0 -0.27361062541114611 -0.085405998149086934 0 -0.27532891164284878 -0.069285621960536392 0 -0.28561909888295839 -0.079360655864953042 0 -0.2432602079730701 -0.13485583854350039 0 -0.2499653418643101 -0.1102460646797562 0 -0.26490928006600228 -0.12397715003998409 0 -0.2499653418643101 -0.1102460646797562 0 -0.26490928006600228 -0.12397715003998409 0 -0.26907394573302829 -0.10103393024372311 0 -0.2499653418643101 -0.1102460646797562 0 -0.25308440776240432 -0.086371671251396109 0 -0.26907394573302829 -0.10103393024372311 0 -0.26907394573302829 -0.10103393024372311 0 -0.28789548083438649 -0.11161882002010511 0 -0.28494676303449051 -0.09097811142482605 0 -0.26490928006600228 -0.12397715003998409 0 -0.28789548083438649 -0.11161882002010511 0 -0.28428672055728371 -0.13281235115180859 0 -0.26490928006600228 -0.12397715003998409 0 -0.26907394573302829 -0.10103393024372311 0 -0.28789548083438649 -0.11161882002010511 0 -0.28789548083438649 -0.11161882002010511 0 -0.28428672055728371 -0.13281235115180859 0 -0.30877835781368662 -0.12931532841693749 0 -0.28789548083438649 -0.11161882002010511 0 -0.29765529442092259 -0.094840601490837839 0 -0.28494676303449051 -0.09097811142482605 0 -0.30761934067920371 -0.1042503242997595 0 -0.29765529442092259 -0.094840601490837839 0 -0.30832877355579341 -0.086934752854072747 0 -0.30761934067920371 -0.1042503242997595 0 -0.30832877355579341 -0.086934752854072747 0 -0.31968159473222052 -0.091584555267719248 0 -0.28789548083438649 -0.11161882002010511 0 -0.30761934067920371 -0.1042503242997595 0 -0.29765529442092259 -0.094840601490837839 0 -0.28789548083438649 -0.11161882002010511 0 -0.30761934067920371 -0.1042503242997595 0 -0.30877835781368662 -0.12931532841693749 0 -0.29931176789370939 -0.061629941742321552 0 -0.27532891164284878 -0.069285621960536392 0 -0.29568251685582603 -0.071589435967753134 0 -0.27532891164284878 -0.069285621960536392 0 -0.29568251685582603 -0.071589435967753134 0 -0.28561909888295839 -0.079360655864953042 0 -0.29568251685582603 -0.071589435967753134 0 -0.28561909888295839 -0.079360655864953042 0 -0.29849490204505058 -0.081938345925378783 0 -0.27361062541114611 -0.085405998149086934 0 -0.28561909888295839 -0.079360655864953042 0 -0.28494676303449051 -0.09097811142482605 0 -0.29765529442092259 -0.094840601490837839 0 -0.28494676303449051 -0.09097811142482605 0 -0.29849490204505058 -0.081938345925378783 0 -0.28561909888295839 -0.079360655864953042 0 -0.28494676303449051 -0.09097811142482605 0 -0.29849490204505058 -0.081938345925378783 0 -0.29849490204505058 -0.081938345925378783 0 -0.30832877355579341 -0.086934752854072747 0 -0.3066986514807607 -0.074546990101646726 0 -0.29765529442092259 -0.094840601490837839 0 -0.29849490204505058 -0.081938345925378783 0 -0.30832877355579341 -0.086934752854072747 0 -0.30832877355579341 -0.086934752854072747 0 -0.3066986514807607 -0.074546990101646726 0 -0.31636087034116728 -0.076704125898778439 0 -0.3066986514807607 -0.074546990101646726 0 -0.31411021802290889 -0.069356746280106005 0 -0.31636087034116728 -0.076704125898778439 0 -0.29568251685582603 -0.071589435967753134 0 -0.29849490204505058 -0.081938345925378783 0 -0.3066986514807607 -0.074546990101646726 0 -0.29568251685582603 -0.071589435967753134 0 -0.3066986514807607 -0.074546990101646726 0 -0.30728911182784302 -0.064893595009923935 0 -0.29931176789370939 -0.061629941742321552 0 -0.29568251685582603 -0.071589435967753134 0 -0.30728911182784302 -0.064893595009923935 0 -0.3066986514807607 -0.074546990101646726 0 -0.30728911182784302 -0.064893595009923935 0 -0.31411021802290889 -0.069356746280106005 0 -0.30728911182784302 -0.064893595009923935 0 -0.31630436981946819 -0.062936971351065629 0 -0.31411021802290889 -0.069356746280106005 0 -0.31630436981946819 -0.062936971351065629 0 -0.31411021802290889 -0.069356746280106005 0 -0.32389808664530562 -0.067702049039115322 0 -0.31630436981946819 -0.062936971351065629 0 -0.32389808664530562 -0.067702049039115322 0 -0.32481687078849097 -0.058022226865728103 0 -0.32389808664530562 -0.067702049039115322 0 -0.3259684841043719 -0.075020057435826168 0 -0.31636087034116728 -0.076704125898778439 0 -0.31411021802290889 -0.069356746280106005 0 -0.32389808664530562 -0.067702049039115322 0 -0.31636087034116728 -0.076704125898778439 0 -0.30832877355579341 -0.086934752854072747 0 -0.32608803180755441 -0.084321365842938284 0 -0.30832877355579341 -0.086934752854072747 0 -0.31968159473222052 -0.091584555267719248 0 -0.32608803180755441 -0.084321365842938284 0 -0.30832877355579341 -0.086934752854072747 0 -0.31636087034116728 -0.076704125898778439 0 -0.32608803180755441 -0.084321365842938284 0 -0.31968159473222052 -0.091584555267719248 0 -0.32608803180755441 -0.084321365842938284 0 -0.3259684841043719 -0.075020057435826168 0 -0.31636087034116728 -0.076704125898778439 0 -0.32608803180755441 -0.084321365842938284 0 -0.31968159473222052 -0.091584555267719248 0 -0.32608803180755441 -0.084321365842938284 0 -0.34030971713070318 -0.087052614945596102 0 -0.32608803180755441 -0.084321365842938284 0 -0.34030971713070318 -0.087052614945596102 0 -0.34745734249292459 -0.081176736816750444 0 -0.32608803180755441 -0.084321365842938284 0 -0.33752694762346008 -0.07135268896247253 0 -0.34745734249292459 -0.081176736816750444 0 -0.32608803180755441 -0.084321365842938284 0 -0.34745734249292459 -0.081176736816750444 0 -0.33752694762346008 -0.07135268896247253 0 -0.3489658634393657 -0.058384012082006782 0 -0.33645864726091979 -0.05858208772264157 0 -0.33752694762346008 -0.07135268896247253 0 -0.3489658634393657 -0.058384012082006782 0 -0.32389808664530562 -0.067702049039115322 0 -0.33752694762346008 -0.07135268896247253 0 -0.33645864726091979 -0.05858208772264157 0 -0.3259684841043719 -0.075020057435826168 0 -0.32608803180755441 -0.084321365842938284 0 -0.33752694762346008 -0.07135268896247253 0 -0.32608803180755441 -0.084321365842938284 0 -0.33752694762346008 -0.07135268896247253 0 -0.32389808664530562 -0.067702049039115322 0 -0.3259684841043719 -0.075020057435826168 0 -0.33752694762346008 -0.07135268896247253 0 -0.32454403747219479 -0.1081839716812668 0 -0.30877835781368662 -0.12931532841693749 0 -0.30761934067920371 -0.1042503242997595 0 -0.32454403747219479 -0.1081839716812668 0 -0.30877835781368662 -0.12931532841693749 0 -0.32454403747219479 -0.1081839716812668 0 -0.33570809008837621 -0.11845594114356341 0 -0.30877835781368662 -0.12931532841693749 0 -0.30761934067920371 -0.1042503242997595 0 -0.31968159473222052 -0.091584555267719248 0 -0.32454403747219479 -0.1081839716812668 0 -0.34030971713070318 -0.087052614945596102 0 -0.32454403747219479 -0.1081839716812668 0 -0.34278855512837281 -0.1049294584887832 0 -0.31968159473222052 -0.091584555267719248 0 -0.34030971713070318 -0.087052614945596102 0 -0.32454403747219479 -0.1081839716812668 0 -0.34030971713070318 -0.087052614945596102 0 -0.32454403747219479 -0.1081839716812668 0 -0.32454403747219479 -0.1081839716812668 0 -0.34278855512837281 -0.1049294584887832 0 -0.33570809008837621 -0.11845594114356341 0 -0.33570809008837621 -0.11845594114356341 0 -0.35404294059136687 -0.1217835462641018 0 -0.33688620478323589 -0.13358080389391511 0 -0.34278855512837281 -0.1049294584887832 0 -0.35404294059136687 -0.1217835462641018 0 -0.35932798989652742 -0.1047455147758234 0 -0.34278855512837281 -0.1049294584887832 0 -0.33570809008837621 -0.11845594114356341 0 -0.35404294059136687 -0.1217835462641018 0 -0.34278855512837281 -0.1049294584887832 0 -0.35932798989652742 -0.1047455147758234 0 -0.35079718399447979 -0.093651592615473511 0 -0.34030971713070318 -0.087052614945596102 0 -0.34278855512837281 -0.1049294584887832 0 -0.35079718399447979 -0.093651592615473511 0 -0.35932798989652742 -0.1047455147758234 0 -0.35079718399447979 -0.093651592615473511 0 -0.36132419909701757 -0.091459041133748031 0 -0.35932798989652742 -0.1047455147758234 0 -0.37367929427193591 -0.1014825750548952 0 -0.37212838853434238 -0.11808059788504249 0 -0.35932798989652742 -0.1047455147758234 0 -0.37367929427193591 -0.1014825750548952 0 -0.36132419909701757 -0.091459041133748031 0 -0.35404294059136687 -0.1217835462641018 0 -0.37212838853434238 -0.11808059788504249 0 -0.37028068739271691 -0.13083580994494901 0 -0.35404294059136687 -0.1217835462641018 0 -0.35932798989652742 -0.1047455147758234 0 -0.37212838853434238 -0.11808059788504249 0 -0.35069420168351129 -0.07223638641294812 0 -0.34745734249292459 -0.081176736816750444 0 -0.36882665317829499 -0.078032107790563188 0 -0.36882665317829499 -0.078032107790563188 0 -0.3489658634393657 -0.058384012082006782 0 -0.35069420168351129 -0.07223638641294812 0 -0.36882665317829499 -0.078032107790563188 0 -0.3489658634393657 -0.058384012082006782 0 -0.33752694762346008 -0.07135268896247253 0 -0.35069420168351129 -0.07223638641294812 0 -0.3489658634393657 -0.058384012082006782 0 -0.33752694762346008 -0.07135268896247253 0 -0.35069420168351129 -0.07223638641294812 0 -0.34745734249292459 -0.081176736816750444 0 -0.34745734249292459 -0.081176736816750444 0 -0.36882665317829499 -0.078032107790563188 0 -0.34745734249292459 -0.081176736816750444 0 -0.36132419909701757 -0.091459041133748031 0 -0.36882665317829499 -0.078032107790563188 0 -0.34030971713070318 -0.087052614945596102 0 -0.34745734249292459 -0.081176736816750444 0 -0.35079718399447979 -0.093651592615473511 0 -0.34745734249292459 -0.081176736816750444 0 -0.35079718399447979 -0.093651592615473511 0 -0.36132419909701757 -0.091459041133748031 0 -0.37367929427193591 -0.1014825750548952 0 -0.36132419909701757 -0.091459041133748031 0 -0.36882665317829499 -0.078032107790563188 0 -0.36882665317829499 -0.078032107790563188 0 -0.36862349457690058 -0.057461967220355487 0 -0.3489658634393657 -0.058384012082006782 0 -0.36882665317829499 -0.078032107790563188 0 -0.36862349457690058 -0.057461967220355487 0 -0.37947166312044489 -0.067272628224985004 0 -0.36862349457690058 -0.057461967220355487 0 -0.3489658634393657 -0.058384012082006782 0 -0.36066681755822472 -0.045118253717945672 0 -0.36862349457690058 -0.057461967220355487 0 -0.37355784227175309 -0.045246792894939887 0 -0.3815482533063424 -0.052412606119804542 0 -0.36862349457690058 -0.057461967220355487 0 -0.36066681755822472 -0.045118253717945672 0 -0.37355784227175309 -0.045246792894939887 0 -0.3489658634393657 -0.058384012082006782 0 -0.36066681755822472 -0.045118253717945672 0 -0.3489658634393657 -0.058384012082006782 0 -0.34511111307690212 -0.046137334811030092 0 -0.36066681755822472 -0.045118253717945672 0 -0.35304062521722218 -0.036039659744318157 0 -0.3553139768507978 -0.023567241021099371 0 -0.33371347875736079 -0.040226824134751989 0 -0.34511111307690212 -0.046137334811030092 0 -0.35304062521722218 -0.036039659744318157 0 -0.33371347875736079 -0.040226824134751989 0 -0.34511111307690212 -0.046137334811030092 0 -0.35304062521722218 -0.036039659744318157 0 -0.36066681755822472 -0.045118253717945672 0 -0.36066681755822472 -0.045118253717945672 0 -0.37236777167708351 -0.031852495353884333 0 -0.35304062521722218 -0.036039659744318157 0 -0.37236777167708351 -0.031852495353884333 0 -0.35304062521722218 -0.036039659744318157 0 -0.36066681755822472 -0.045118253717945672 0 -0.37236777167708351 -0.031852495353884333 0 -0.36066681755822472 -0.045118253717945672 0 -0.37355784227175309 -0.045246792894939887 0 -0.37236777167708351 -0.031852495353884333 0 -0.37236777167708351 -0.031852495353884333 0 -0.3739022591900184 -0.02415390189740213 0 -0.36770044175442279 -0.02036669541201027 0 -0.37236777167708351 -0.031852495353884333 0 -0.36770044175442279 -0.02036669541201027 0 -0.3553139768507978 -0.023567241021099371 0 -0.36770044175442279 -0.02036669541201027 0 -0.35847393927256738 -0.010652033510738681 0 -0.38297625517291389 -0.017448943304264108 0 -0.35304062521722218 -0.036039659744318157 0 -0.37236777167708351 -0.031852495353884333 0 -0.3553139768507978 -0.023567241021099371 0 -0.3739022591900184 -0.02415390189740213 0 -0.36770044175442279 -0.02036669541201027 0 -0.38297625517291389 -0.017448943304264108 0 -0.36770044175442279 -0.02036669541201027 0 -0.35847393927256738 -0.010652033510738681 0 -0.3553139768507978 -0.023567241021099371 0 -0.35847393927256738 -0.010652033510738681 0 -0.38297625517291389 -0.017448943304264108 0 -0.37278444596104371 -0.0079457960458173115 0 -0.35847393927256738 -0.010652033510738681 0 -0.38297625517291389 -0.017448943304264108 0 -0.37474494217865062 -0.0022388935110706832 0 -0.37278444596104371 -0.0079457960458173115 0 -0.36307869926690151 -0.00068504054922277494 0 -0.37278444596104371 -0.0079457960458173115 0 -0.36307869926690151 -0.00068504054922277494 0 -0.35847393927256738 -0.010652033510738681 0 -0.36307869926690151 -0.00068504054922277494 0 -0.34718119132474479 -0.01384164818341615 0 -0.36064890389212972 0.0125435277679194 0 -0.36307869926690151 -0.00068504054922277494 0 -0.35847393927256738 -0.010652033510738681 0 -0.34718119132474479 -0.01384164818341615 0 -0.34718119132474479 -0.01384164818341615 0 -0.36064890389212972 0.0125435277679194 0 -0.34718119132474479 -0.01384164818341615 0 -0.3553139768507978 -0.023567241021099371 0 -0.33371347875736079 -0.040226824134751989 0 -0.35847393927256738 -0.010652033510738681 0 -0.34718119132474479 -0.01384164818341615 0 -0.3553139768507978 -0.023567241021099371 0 -0.34718119132474479 -0.01384164818341615 0 -0.33035884889608558 -0.02420969997450095 0 -0.33371347875736079 -0.040226824134751989 0 -0.34718119132474479 -0.01384164818341615 0 -0.33371347875736079 -0.040226824134751989 0 -0.34718119132474479 -0.01384164818341615 0 -0.32828291010712762 -0.0049346835118845543 0 -0.34055428987364128 0.0059527955302196532 0 -0.34718119132474479 -0.01384164818341615 0 -0.33035884889608558 -0.02420969997450095 0 -0.32828291010712762 -0.0049346835118845543 0 -0.31144738423897378 -0.02126732740536201 0 -0.32828291010712762 -0.0049346835118845543 0 -0.31177688145040278 0.0050359958776742568 0 -0.31144738423897378 -0.02126732740536201 0 -0.33116928005221918 -0.040778016637091109 0 -0.31144738423897378 -0.02126732740536201 0 -0.33035884889608558 -0.02420969997450095 0 -0.32828291010712762 -0.0049346835118845543 0 -0.31144738423897378 -0.02126732740536201 0 -0.33035884889608558 -0.02420969997450095 0 -0.33116928005221918 -0.040778016637091109 0 -0.3023660715744253 -0.047018139519123002 0 -0.31110423911055801 -0.035316851109560482 0 -0.33116928005221918 -0.040778016637091109 0 -0.3023660715744253 -0.047018139519123002 0 -0.31025625293594222 -0.050033124508212908 0 -0.33116928005221918 -0.040778016637091109 0 -0.3023660715744253 -0.047018139519123002 0 -0.33116928005221918 -0.040778016637091109 0 -0.31144738423897378 -0.02126732740536201 0 -0.31110423911055801 -0.035316851109560482 0 -0.33116928005221918 -0.040778016637091109 0 -0.31025625293594222 -0.050033124508212908 0 -0.31770057673851387 -0.05020147555903863 0 -0.33116928005221918 -0.040778016637091109 0 -0.31025625293594222 -0.050033124508212908 0 -0.31770057673851387 -0.05020147555903863 0 -0.31405483352543062 -0.056831087900065053 0 -0.31770057673851387 -0.05020147555903863 0 -0.31405483352543062 -0.056831087900065053 0 -0.31936567051967829 -0.054711673150449433 0 -0.31630436981946819 -0.062936971351065629 0 -0.31936567051967829 -0.054711673150449433 0 -0.32481687078849097 -0.058022226865728103 0 -0.30728911182784302 -0.064893595009923935 0 -0.31630436981946819 -0.062936971351065629 0 -0.31405483352543062 -0.056831087900065053 0 -0.31630436981946819 -0.062936971351065629 0 -0.31405483352543062 -0.056831087900065053 0 -0.31936567051967829 -0.054711673150449433 0 -0.31770057673851387 -0.05020147555903863 0 -0.32448711316898249 -0.050622394842538963 0 -0.33116928005221918 -0.040778016637091109 0 -0.31936567051967829 -0.054711673150449433 0 -0.32481687078849097 -0.058022226865728103 0 -0.32448711316898249 -0.050622394842538963 0 -0.31770057673851387 -0.05020147555903863 0 -0.31936567051967829 -0.054711673150449433 0 -0.32448711316898249 -0.050622394842538963 0 -0.32481687078849097 -0.058022226865728103 0 -0.32770904195502032 -0.053173566283506987 0 -0.32448711316898249 -0.050622394842538963 0 -0.32770904195502032 -0.053173566283506987 0 -0.32448711316898249 -0.050622394842538963 0 -0.32972533979495861 -0.048040159006195682 0 -0.3489658634393657 -0.058384012082006782 0 -0.34511111307690212 -0.046137334811030092 0 -0.3326728772282519 -0.042265511425067279 0 -0.32972533979495861 -0.048040159006195682 0 -0.33645864726091979 -0.05858208772264157 0 -0.3326728772282519 -0.042265511425067279 0 -0.3489658634393657 -0.058384012082006782 0 -0.3326728772282519 -0.042265511425067279 0 -0.32770904195502032 -0.053173566283506987 0 -0.32972533979495861 -0.048040159006195682 0 -0.33645864726091979 -0.05858208772264157 0 -0.3489658634393657 -0.058384012082006782 0 -0.33645864726091979 -0.05858208772264157 0 -0.3326728772282519 -0.042265511425067279 0 -0.32389808664530562 -0.067702049039115322 0 -0.32481687078849097 -0.058022226865728103 0 -0.33645864726091979 -0.05858208772264157 0 -0.32481687078849097 -0.058022226865728103 0 -0.32770904195502032 -0.053173566283506987 0 -0.33645864726091979 -0.05858208772264157 0 -0.34511111307690212 -0.046137334811030092 0 -0.33371347875736079 -0.040226824134751989 0 -0.3326728772282519 -0.042265511425067279 0 -0.33035884889608558 -0.02420969997450095 0 -0.33116928005221918 -0.040778016637091109 0 -0.33371347875736079 -0.040226824134751989 0 -0.35304062521722218 -0.036039659744318157 0 -0.33371347875736079 -0.040226824134751989 0 -0.32448711316898249 -0.050622394842538963 0 -0.32972533979495861 -0.048040159006195682 0 -0.33116928005221918 -0.040778016637091109 0 -0.33116928005221918 -0.040778016637091109 0 -0.3326728772282519 -0.042265511425067279 0 -0.32972533979495861 -0.048040159006195682 0 -0.3326728772282519 -0.042265511425067279 0 -0.32972533979495861 -0.048040159006195682 0 -0.33116928005221918 -0.040778016637091109 0 -0.3326728772282519 -0.042265511425067279 0 -0.33116928005221918 -0.040778016637091109 0 -0.33371347875736079 -0.040226824134751989 0 -0.33116928005221918 -0.040778016637091109 0 -0.33371347875736079 -0.040226824134751989 0 -0.3326728772282519 -0.042265511425067279 0 -0.33371347875736079 -0.040226824134751989 0 -0.3326728772282519 -0.042265511425067279 0 -0.2907170577323625 -0.25177677077710309 0 -0.30853150187083839 -0.25429835417001312 0 -0.30748271917561598 -0.2431056607245809 0 -0.30748271917561598 -0.2431056607245809 0 -0.3004866401015065 -0.2269264896544945 0 -0.32066485276457768 -0.2334308190911655 0 -0.2907170577323625 -0.25177677077710309 0 -0.30748271917561598 -0.2431056607245809 0 -0.3004866401015065 -0.2269264896544945 0 -0.30853150187083839 -0.25429835417001312 0 -0.30748271917561598 -0.2431056607245809 0 -0.32023222063025569 -0.2489608815952247 0 -0.3004866401015065 -0.2269264896544945 0 -0.27575903677895092 -0.22208668823385669 0 -0.3004866401015065 -0.2269264896544945 0 -0.27309361240676189 -0.24179026653703889 0 -0.27575903677895092 -0.22208668823385669 0 -0.3004866401015065 -0.2269264896544945 0 -0.27575903677895092 -0.22208668823385669 0 -0.29482007196541532 -0.2089319155152673 0 -0.2907170577323625 -0.25177677077710309 0 -0.3004866401015065 -0.2269264896544945 0 -0.27309361240676189 -0.24179026653703889 0 -0.27309361240676189 -0.24179026653703889 0 -0.25431856302814809 -0.24833495949118861 0 -0.25103143345639523 -0.21724688681321891 0 -0.27575903677895092 -0.22208668823385669 0 -0.25103143345639523 -0.21724688681321891 0 -0.27309361240676189 -0.24179026653703889 0 -0.27575903677895092 -0.22208668823385669 0 -0.25103143345639523 -0.21724688681321891 0 -0.27575903677895092 -0.22208668823385669 0 -0.25103143345639523 -0.21724688681321891 0 -0.27708552823660842 -0.19790031786117671 0 -0.25103143345639523 -0.21724688681321891 0 -0.25418198431724581 -0.18809916394242601 0 -0.27708552823660842 -0.19790031786117671 0 -0.27708552823660842 -0.19790031786117671 0 -0.29482007196541532 -0.2089319155152673 0 -0.30195969341908391 -0.19078830755985379 0 -0.29482007196541532 -0.2089319155152673 0 -0.30195969341908391 -0.19078830755985379 0 -0.32674672588845421 -0.2120308859258328 0 -0.3004866401015065 -0.2269264896544945 0 -0.29482007196541532 -0.2089319155152673 0 -0.32674672588845421 -0.2120308859258328 0 -0.27575903677895092 -0.22208668823385669 0 -0.27708552823660842 -0.19790031786117671 0 -0.29482007196541532 -0.2089319155152673 0 -0.30195969341908391 -0.19078830755985379 0 -0.30674796742087651 -0.1684647150882764 0 -0.32123008678095788 -0.18729232698745699 0 -0.30674796742087651 -0.1684647150882764 0 -0.2930126781551784 -0.15044668515260809 0 -0.3206808779707625 -0.15110047818677941 0 -0.27724699849667023 -0.17157804188827869 0 -0.2930126781551784 -0.15044668515260809 0 -0.30674796742087651 -0.1684647150882764 0 -0.27724699849667023 -0.17157804188827869 0 -0.2930126781551784 -0.15044668515260809 0 -0.27708552823660842 -0.19790031786117671 0 -0.30195969341908391 -0.19078830755985379 0 -0.27724699849667023 -0.17157804188827869 0 -0.30195969341908391 -0.19078830755985379 0 -0.30674796742087651 -0.1684647150882764 0 -0.27724699849667023 -0.17157804188827869 0 -0.25418198431724581 -0.18809916394242601 0 -0.27708552823660842 -0.19790031786117671 0 -0.27724699849667023 -0.17157804188827869 0 -0.25418198431724581 -0.18809916394242601 0 -0.2565438833259911 -0.1687602707777138 0 -0.27724699849667023 -0.17157804188827869 0 -0.2435592126657353 -0.1561425335328199 0 -0.2565438833259911 -0.1687602707777138 0 -0.26683780591716472 -0.14870377212940841 0 -0.27724699849667023 -0.17157804188827869 0 -0.26683780591716472 -0.14870377212940841 0 -0.2930126781551784 -0.15044668515260809 0 -0.2565438833259911 -0.1687602707777138 0 -0.27724699849667023 -0.17157804188827869 0 -0.26683780591716472 -0.14870377212940841 0 -0.2435592126657353 -0.1561425335328199 0 -0.2432602079730701 -0.13485583854350039 0 -0.26683780591716472 -0.14870377212940841 0 -0.2432602079730701 -0.13485583854350039 0 -0.26490928006600228 -0.12397715003998409 0 -0.26683780591716472 -0.14870377212940841 0 -0.26490928006600228 -0.12397715003998409 0 -0.26683780591716472 -0.14870377212940841 0 -0.28428672055728371 -0.13281235115180859 0 -0.28428672055728371 -0.13281235115180859 0 -0.2930126781551784 -0.15044668515260809 0 -0.30877835781368662 -0.12931532841693749 0 -0.26683780591716472 -0.14870377212940841 0 -0.28428672055728371 -0.13281235115180859 0 -0.2930126781551784 -0.15044668515260809 0 -0.2930126781551784 -0.15044668515260809 0 -0.30877835781368662 -0.12931532841693749 0 -0.3206808779707625 -0.15110047818677941 0 -0.2930126781551784 -0.15044668515260809 0 -0.30877835781368662 -0.12931532841693749 0 -0.33570809008837621 -0.11845594114356341 0 -0.30877835781368662 -0.12931532841693749 0 -0.33688620478323589 -0.13358080389391511 0 -0.30877835781368662 -0.12931532841693749 0 -0.3206808779707625 -0.15110047818677941 0 -0.33688620478323589 -0.13358080389391511 0 -0.3206808779707625 -0.15110047818677941 0 -0.33688620478323589 -0.13358080389391511 0 -0.34399943231138669 -0.15408109000358611 0 -0.33688620478323589 -0.13358080389391511 0 -0.35929992868189681 -0.1386942596847188 0 -0.35404294059136687 -0.1217835462641018 0 -0.33688620478323589 -0.13358080389391511 0 -0.35929992868189681 -0.1386942596847188 0 -0.35404294059136687 -0.1217835462641018 0 -0.35929992868189681 -0.1386942596847188 0 -0.37028068739271691 -0.13083580994494901 0 -0.35929992868189681 -0.1386942596847188 0 -0.37028068739271691 -0.13083580994494901 0 -0.3804539816512269 -0.14482329966991631 0 -0.35929992868189681 -0.1386942596847188 0 -0.3804539816512269 -0.14482329966991631 0 -0.35929992868189681 -0.1386942596847188 0 -0.3655172116091886 -0.15688196674787641 0 -0.3804539816512269 -0.14482329966991631 0 -0.3655172116091886 -0.15688196674787641 0 -0.3804539816512269 -0.14482329966991631 0 -0.3655172116091886 -0.15688196674787641 0 -0.37839901512320262 -0.15996290040625341 0 -0.3804539816512269 -0.14482329966991631 0 -0.33688620478323589 -0.13358080389391511 0 -0.35929992868189681 -0.1386942596847188 0 -0.34399943231138669 -0.15408109000358611 0 -0.35929992868189681 -0.1386942596847188 0 -0.34399943231138669 -0.15408109000358611 0 -0.3655172116091886 -0.15688196674787641 0 -0.34399943231138669 -0.15408109000358611 0 -0.35323542112630057 -0.1671812377988513 0 -0.3655172116091886 -0.15688196674787641 0 -0.3655172116091886 -0.15688196674787641 0 -0.37378547386561772 -0.17392500984250869 0 -0.37839901512320262 -0.15996290040625341 0 -0.35323542112630057 -0.1671812377988513 0 -0.3655172116091886 -0.15688196674787641 0 -0.37378547386561772 -0.17392500984250869 0 -0.37378547386561772 -0.17392500984250869 0 -0.35240556330307887 -0.18479875362473361 0 -0.36895563931783232 -0.19259611207654981 0 -0.35323542112630057 -0.1671812377988513 0 -0.37378547386561772 -0.17392500984250869 0 -0.35240556330307887 -0.18479875362473361 0 -0.35323542112630057 -0.1671812377988513 0 -0.35240556330307887 -0.18479875362473361 0 -0.33400288196205857 -0.17193246321376471 0 -0.35240556330307887 -0.18479875362473361 0 -0.33400288196205857 -0.17193246321376471 0 -0.33669316521431608 -0.19324526314955739 0 -0.33400288196205857 -0.17193246321376471 0 -0.32123008678095788 -0.18729232698745699 0 -0.33669316521431608 -0.19324526314955739 0 -0.3206808779707625 -0.15110047818677941 0 -0.34399943231138669 -0.15408109000358611 0 -0.33400288196205857 -0.17193246321376471 0 -0.34399943231138669 -0.15408109000358611 0 -0.35323542112630057 -0.1671812377988513 0 -0.33400288196205857 -0.17193246321376471 0 -0.30674796742087651 -0.1684647150882764 0 -0.3206808779707625 -0.15110047818677941 0 -0.33400288196205857 -0.17193246321376471 0 -0.30674796742087651 -0.1684647150882764 0 -0.33400288196205857 -0.17193246321376471 0 -0.32123008678095788 -0.18729232698745699 0 -0.30195969341908391 -0.19078830755985379 0 -0.32123008678095788 -0.18729232698745699 0 -0.32674672588845421 -0.2120308859258328 0 -0.32674672588845421 -0.2120308859258328 0 -0.35024140450074381 -0.20994798342056251 0 -0.32674672588845421 -0.2120308859258328 0 -0.33669316521431608 -0.19324526314955739 0 -0.35024140450074381 -0.20994798342056251 0 -0.32674672588845421 -0.2120308859258328 0 -0.35024140450074381 -0.20994798342056251 0 -0.3377174746324717 -0.2284461722996495 0 -0.32123008678095788 -0.18729232698745699 0 -0.32674672588845421 -0.2120308859258328 0 -0.33669316521431608 -0.19324526314955739 0 -0.35240556330307887 -0.18479875362473361 0 -0.36895563931783232 -0.19259611207654981 0 -0.35024140450074381 -0.20994798342056251 0 -0.35240556330307887 -0.18479875362473361 0 -0.33669316521431608 -0.19324526314955739 0 -0.35024140450074381 -0.20994798342056251 0 -0.36895563931783232 -0.19259611207654981 0 -0.37373608311303341 -0.20786508091529229 0 -0.35024140450074381 -0.20994798342056251 0 -0.37373608311303341 -0.20786508091529229 0 -0.35024140450074381 -0.20994798342056251 0 -0.37373608311303341 -0.20786508091529229 0 -0.35024140450074381 -0.20994798342056251 0 -0.36602803805366552 -0.21914337572849349 0 -0.37373608311303341 -0.20786508091529229 0 -0.36602803805366552 -0.21914337572849349 0 -0.37785639846487218 -0.21906994256996459 0 -0.35024140450074381 -0.20994798342056251 0 -0.357966965356528 -0.23170644806675769 0 -0.3377174746324717 -0.2284461722996495 0 -0.35024140450074381 -0.20994798342056251 0 -0.357966965356528 -0.23170644806675769 0 -0.36602803805366552 -0.21914337572849349 0 -0.357966965356528 -0.23170644806675769 0 -0.36602803805366552 -0.21914337572849349 0 -0.36983275924353248 -0.22875232439276311 0 -0.36602803805366552 -0.21914337572849349 0 -0.36983275924353248 -0.22875232439276311 0 -0.37785639846487218 -0.21906994256996459 0 -0.357966965356528 -0.23170644806675769 0 -0.36983275924353248 -0.22875232439276311 0 -0.37747963509906429 -0.24508953120583671 0 -0.35872453044413888 -0.25078889886649508 0 -0.357966965356528 -0.23170644806675769 0 -0.37747963509906429 -0.24508953120583671 0 -0.357966965356528 -0.23170644806675769 0 -0.34395992200845399 -0.24382677409400949 0 -0.3377174746324717 -0.2284461722996495 0 -0.35872453044413888 -0.25078889886649508 0 -0.357966965356528 -0.23170644806675769 0 -0.34395992200845399 -0.24382677409400949 0 -0.33345250408021371 -0.25331871279766999 0 -0.34395992200845399 -0.24382677409400949 0 -0.33132333615916232 -0.2411148243472106 0 -0.33345250408021371 -0.25331871279766999 0 -0.33132333615916232 -0.2411148243472106 0 -0.32023222063025569 -0.2489608815952247 0 -0.34395992200845399 -0.24382677409400949 0 -0.33132333615916232 -0.2411148243472106 0 -0.3377174746324717 -0.2284461722996495 0 -0.32674672588845421 -0.2120308859258328 0 -0.3377174746324717 -0.2284461722996495 0 -0.32066485276457768 -0.2334308190911655 0 -0.33132333615916232 -0.2411148243472106 0 -0.3377174746324717 -0.2284461722996495 0 -0.32066485276457768 -0.2334308190911655 0 -0.3004866401015065 -0.2269264896544945 0 -0.32674672588845421 -0.2120308859258328 0 -0.32066485276457768 -0.2334308190911655 0 -0.30748271917561598 -0.2431056607245809 0 -0.32066485276457768 -0.2334308190911655 0 -0.32023222063025569 -0.2489608815952247 0 -0.33132333615916232 -0.2411148243472106 0 -0.32066485276457768 -0.2334308190911655 0 -0.32023222063025569 -0.2489608815952247 0 -0.43445882011373449 -0.25478651907497341 0 -0.43806130733353449 -0.23541812032183559 0 -0.43445882011373449 -0.25478651907497341 0 -0.4258852610480256 -0.24284815888716721 0 -0.43806130733353449 -0.23541812032183559 0 -0.4258852610480256 -0.24284815888716721 0 -0.42538833238501789 -0.2333934851751748 0 -0.41698539980062188 -0.23875950084572559 0 -0.43445882011373449 -0.25478651907497341 0 -0.4258852610480256 -0.24284815888716721 0 -0.42335340856967768 -0.24893549408922019 0 -0.4258852610480256 -0.24284815888716721 0 -0.42538833238501789 -0.2333934851751748 0 -0.43806130733353449 -0.23541812032183559 0 -0.43091611572645672 -0.22699763907763329 0 -0.42538833238501789 -0.2333934851751748 0 -0.43806130733353449 -0.23541812032183559 0 -0.43091611572645672 -0.22699763907763329 0 -0.44166379455333399 -0.21604972156869759 0 -0.43806130733353449 -0.23541812032183559 0 -0.43091611572645672 -0.22699763907763329 0 -0.43133498143110582 -0.21921018883561361 0 -0.44166379455333399 -0.21604972156869759 0 -0.43133498143110582 -0.21921018883561361 0 -0.4232485836513401 -0.22477446532261011 0 -0.4232102070061276 -0.21869015764887889 0 -0.43091611572645672 -0.22699763907763329 0 -0.43133498143110582 -0.21921018883561361 0 -0.4232485836513401 -0.22477446532261011 0 -0.43091611572645672 -0.22699763907763329 0 -0.4232485836513401 -0.22477446532261011 0 -0.42538833238501789 -0.2333934851751748 0 -0.4232485836513401 -0.22477446532261011 0 -0.42538833238501789 -0.2333934851751748 0 -0.41731365953457839 -0.2310953018814938 0 -0.4232485836513401 -0.22477446532261011 0 -0.41731365953457839 -0.2310953018814938 0 -0.4121948509493269 -0.2247325638453028 0 -0.41731365953457839 -0.2310953018814938 0 -0.4080561583250083 -0.23272886934204159 0 -0.41698539980062188 -0.23875950084572559 0 -0.4232485836513401 -0.22477446532261011 0 -0.4121948509493269 -0.2247325638453028 0 -0.41685681033243982 -0.21746512418924929 0 -0.4232485836513401 -0.22477446532261011 0 -0.41685681033243982 -0.21746512418924929 0 -0.4232102070061276 -0.21869015764887889 0 -0.4121948509493269 -0.2247325638453028 0 -0.4080561583250083 -0.23272886934204159 0 -0.39971520205611372 -0.2221352637332015 0 -0.4121948509493269 -0.2247325638453028 0 -0.40807454407470489 -0.21592977391801271 0 -0.41685681033243982 -0.21746512418924929 0 -0.4121948509493269 -0.2247325638453028 0 -0.39971520205611372 -0.2221352637332015 0 -0.40807454407470489 -0.21592977391801271 0 -0.41731365953457839 -0.2310953018814938 0 -0.4121948509493269 -0.2247325638453028 0 -0.4080561583250083 -0.23272886934204159 0 -0.4080561583250083 -0.23272886934204159 0 -0.40983148527785651 -0.24118391776602099 0 -0.41698539980062188 -0.23875950084572559 0 -0.42538833238501789 -0.2333934851751748 0 -0.41731365953457839 -0.2310953018814938 0 -0.41698539980062188 -0.23875950084572559 0 -0.40983148527785651 -0.24118391776602099 0 -0.41698539980062188 -0.23875950084572559 0 -0.41627810448972868 -0.24641300060905449 0 -0.4258852610480256 -0.24284815888716721 0 -0.42335340856967768 -0.24893549408922019 0 -0.41627810448972868 -0.24641300060905449 0 -0.4258852610480256 -0.24284815888716721 0 -0.41698539980062188 -0.23875950084572559 0 -0.41627810448972868 -0.24641300060905449 0 -0.41679144862722167 -0.25169429778568547 0 -0.42335340856967768 -0.24893549408922019 0 -0.41627810448972868 -0.24641300060905449 0 -0.41385673751816382 -0.25312989710486528 0 -0.41627810448972868 -0.24641300060905449 0 -0.4086566941719203 -0.24778871483445111 0 -0.40983148527785651 -0.24118391776602099 0 -0.41627810448972868 -0.24641300060905449 0 -0.4086566941719203 -0.24778871483445111 0 -0.40282532782868952 -0.25224285689579767 0 -0.4086566941719203 -0.24778871483445111 0 -0.40022281387448849 -0.24084313907701979 0 -0.40983148527785651 -0.24118391776602099 0 -0.4086566941719203 -0.24778871483445111 0 -0.40022281387448849 -0.24084313907701979 0 -0.4080561583250083 -0.23272886934204159 0 -0.40983148527785651 -0.24118391776602099 0 -0.40022281387448849 -0.24084313907701979 0 -0.40022281387448849 -0.24084313907701979 0 -0.3903832871219331 -0.2411545733314838 0 -0.38772777019650018 -0.2315142496456449 0 -0.3938256931015453 -0.25037754026629511 0 -0.40022281387448849 -0.24084313907701979 0 -0.3903832871219331 -0.2411545733314838 0 -0.3938256931015453 -0.25037754026629511 0 -0.3903832871219331 -0.2411545733314838 0 -0.37747963509906429 -0.24508953120583671 0 -0.3903832871219331 -0.2411545733314838 0 -0.37747963509906429 -0.24508953120583671 0 -0.38772777019650018 -0.2315142496456449 0 -0.37747963509906429 -0.24508953120583671 0 -0.37785639846487218 -0.21906994256996459 0 -0.37747963509906429 -0.24508953120583671 0 -0.37785639846487218 -0.21906994256996459 0 -0.38772777019650018 -0.2315142496456449 0 -0.36983275924353248 -0.22875232439276311 0 -0.37747963509906429 -0.24508953120583671 0 -0.37785639846487218 -0.21906994256996459 0 -0.37785639846487218 -0.21906994256996459 0 -0.38772777019650018 -0.2315142496456449 0 -0.38790285805175961 -0.2167146319195192 0 -0.4080561583250083 -0.23272886934204159 0 -0.40022281387448849 -0.24084313907701979 0 -0.39971520205611372 -0.2221352637332015 0 -0.40022281387448849 -0.24084313907701979 0 -0.39971520205611372 -0.2221352637332015 0 -0.38772777019650018 -0.2315142496456449 0 -0.39971520205611372 -0.2221352637332015 0 -0.38790285805175961 -0.2167146319195192 0 -0.40022281387448849 -0.24084313907701979 0 -0.38772777019650018 -0.2315142496456449 0 -0.39971520205611372 -0.2221352637332015 0 -0.39971520205611372 -0.2221352637332015 0 -0.39723076172532301 -0.205782178410022 0 -0.40807454407470489 -0.21592977391801271 0 -0.39971520205611372 -0.2221352637332015 0 -0.39723076172532301 -0.205782178410022 0 -0.38790285805175961 -0.2167146319195192 0 -0.39723076172532301 -0.205782178410022 0 -0.41303892827123678 -0.21093405469715851 0 -0.40807454407470489 -0.21592977391801271 0 -0.37373608311303341 -0.20786508091529229 0 -0.39723076172532301 -0.205782178410022 0 -0.38370630256805799 -0.1971119561512929 0 -0.37373608311303341 -0.20786508091529229 0 -0.39723076172532301 -0.205782178410022 0 -0.38790285805175961 -0.2167146319195192 0 -0.37373608311303341 -0.20786508091529229 0 -0.39723076172532301 -0.205782178410022 0 -0.37373608311303341 -0.20786508091529229 0 -0.37785639846487218 -0.21906994256996459 0 -0.38790285805175961 -0.2167146319195192 0 -0.36895563931783232 -0.19259611207654981 0 -0.38370630256805799 -0.1971119561512929 0 -0.3831693110633177 -0.1873742460103984 0 -0.36895563931783232 -0.19259611207654981 0 -0.37373608311303341 -0.20786508091529229 0 -0.38370630256805799 -0.1971119561512929 0 -0.38370630256805799 -0.1971119561512929 0 -0.39543971762078378 -0.19194216334420211 0 -0.3831693110633177 -0.1873742460103984 0 -0.39723076172532301 -0.205782178410022 0 -0.38370630256805799 -0.1971119561512929 0 -0.39543971762078378 -0.19194216334420211 0 -0.39723076172532301 -0.205782178410022 0 -0.39543971762078378 -0.19194216334420211 0 -0.40534117689708921 -0.19634387975323889 0 -0.39543971762078378 -0.19194216334420211 0 -0.40534117689708921 -0.19634387975323889 0 -0.40730162077548249 -0.18407395049314179 0 -0.39723076172532301 -0.205782178410022 0 -0.40534117689708921 -0.19634387975323889 0 -0.42072544033761272 -0.20369927590475301 0 -0.42032122747045741 -0.1927313373696285 0 -0.42072544033761272 -0.20369927590475301 0 -0.40730162077548249 -0.18407395049314179 0 -0.42072544033761272 -0.20369927590475301 0 -0.40730162077548249 -0.18407395049314179 0 -0.40534117689708921 -0.19634387975323889 0 -0.42072544033761272 -0.20369927590475301 0 -0.40730162077548249 -0.18407395049314179 0 -0.39723076172532301 -0.205782178410022 0 -0.41303892827123678 -0.21093405469715851 0 -0.42072544033761272 -0.20369927590475301 0 -0.39723076172532301 -0.205782178410022 0 -0.42072544033761272 -0.20369927590475301 0 -0.41303892827123678 -0.21093405469715851 0 -0.40807454407470489 -0.21592977391801271 0 -0.41685681033243982 -0.21746512418924929 0 -0.41303892827123678 -0.21093405469715851 0 -0.41685681033243982 -0.21746512418924929 0 -0.42140045260962489 -0.21331085224804261 0 -0.41685681033243982 -0.21746512418924929 0 -0.42140045260962489 -0.21331085224804261 0 -0.4232102070061276 -0.21869015764887889 0 -0.41303892827123678 -0.21093405469715851 0 -0.42140045260962489 -0.21331085224804261 0 -0.42072544033761272 -0.20369927590475301 0 -0.42512182626149492 -0.2033095177213731 0 -0.43378961613155448 -0.20908682079381441 0 -0.44184138868315109 -0.20247798044170351 0 -0.42072544033761272 -0.20369927590475301 0 -0.42512182626149492 -0.2033095177213731 0 -0.43133498143110582 -0.21921018883561361 0 -0.42072544033761272 -0.20369927590475301 0 -0.42512182626149492 -0.2033095177213731 0 -0.43133498143110582 -0.21921018883561361 0 -0.42512182626149492 -0.2033095177213731 0 -0.43378961613155448 -0.20908682079381441 0 -0.43133498143110582 -0.21921018883561361 0 -0.42140045260962489 -0.21331085224804261 0 -0.4232102070061276 -0.21869015764887889 0 -0.43133498143110582 -0.21921018883561361 0 -0.42072544033761272 -0.20369927590475301 0 -0.43133498143110582 -0.21921018883561361 0 -0.42140045260962489 -0.21331085224804261 0 -0.42072544033761272 -0.20369927590475301 0 -0.43133498143110582 -0.21921018883561361 0 -0.43378961613155448 -0.20908682079381441 0 -0.44166379455333399 -0.21604972156869759 0 -0.42032122747045741 -0.1927313373696285 0 -0.44184138868315109 -0.20247798044170351 0 -0.42032122747045741 -0.1927313373696285 0 -0.43099962817645188 -0.18319011649723049 0 -0.43833565968517207 -0.19112957676178299 0 -0.42032122747045741 -0.1927313373696285 0 -0.42512182626149492 -0.2033095177213731 0 -0.44184138868315109 -0.20247798044170351 0 -0.42032122747045741 -0.1927313373696285 0 -0.43833565968517207 -0.19112957676178299 0 -0.44184138868315109 -0.20247798044170351 0 -0.42032122747045741 -0.1927313373696285 0 -0.42072544033761272 -0.20369927590475301 0 -0.42512182626149492 -0.2033095177213731 0 -0.42549584187692119 -0.17333418479170171 0 -0.43099962817645188 -0.18319011649723049 0 -0.41834400919125792 -0.18158621355319651 0 -0.42032122747045741 -0.1927313373696285 0 -0.43099962817645188 -0.18319011649723049 0 -0.41834400919125792 -0.18158621355319651 0 -0.43099962817645188 -0.18319011649723049 0 -0.43495901877196291 -0.17485617288990979 0 -0.44455133712372419 -0.18300714728765441 0 -0.42549584187692119 -0.17333418479170171 0 -0.43099962817645188 -0.18319011649723049 0 -0.43495901877196291 -0.17485617288990979 0 -0.42549584187692119 -0.17333418479170171 0 -0.43495901877196291 -0.17485617288990979 0 -0.43155613508544272 -0.1669321437644439 0 -0.43495901877196291 -0.17485617288990979 0 -0.43155613508544272 -0.1669321437644439 0 -0.44219215159727421 -0.16781727210851849 0 -0.43155613508544272 -0.1669321437644439 0 -0.43166640735559808 -0.1552039120346444 0 -0.44219215159727421 -0.16781727210851849 0 -0.43155613508544272 -0.1669321437644439 0 -0.4214232379976206 -0.16216052115063159 0 -0.43166640735559808 -0.1552039120346444 0 -0.42549584187692119 -0.17333418479170171 0 -0.43155613508544272 -0.1669321437644439 0 -0.4214232379976206 -0.16216052115063159 0 -0.42549584187692119 -0.17333418479170171 0 -0.4214232379976206 -0.16216052115063159 0 -0.41110577652129249 -0.1670682470007229 0 -0.4214232379976206 -0.16216052115063159 0 -0.41110577652129249 -0.1670682470007229 0 -0.40669002996807779 -0.1495058137550834 0 -0.41110577652129249 -0.1670682470007229 0 -0.41834400919125792 -0.18158621355319651 0 -0.40730162077548249 -0.18407395049314179 0 -0.42549584187692119 -0.17333418479170171 0 -0.41110577652129249 -0.1670682470007229 0 -0.41834400919125792 -0.18158621355319651 0 -0.42032122747045741 -0.1927313373696285 0 -0.41834400919125792 -0.18158621355319651 0 -0.40730162077548249 -0.18407395049314179 0 -0.39543971762078378 -0.19194216334420211 0 -0.40730162077548249 -0.18407395049314179 0 -0.39267839793348491 -0.17927693187167279 0 -0.40730162077548249 -0.18407395049314179 0 -0.39267839793348491 -0.17927693187167279 0 -0.39387780121335469 -0.16444862508152899 0 -0.40730162077548249 -0.18407395049314179 0 -0.39387780121335469 -0.16444862508152899 0 -0.37378547386561772 -0.17392500984250869 0 -0.36895563931783232 -0.19259611207654981 0 -0.3831693110633177 -0.1873742460103984 0 -0.37378547386561772 -0.17392500984250869 0 -0.39267839793348491 -0.17927693187167279 0 -0.3831693110633177 -0.1873742460103984 0 -0.37378547386561772 -0.17392500984250869 0 -0.39267839793348491 -0.17927693187167279 0 -0.39387780121335469 -0.16444862508152899 0 -0.39543971762078378 -0.19194216334420211 0 -0.39267839793348491 -0.17927693187167279 0 -0.3831693110633177 -0.1873742460103984 0 -0.37378547386561772 -0.17392500984250869 0 -0.37839901512320262 -0.15996290040625341 0 -0.39387780121335469 -0.16444862508152899 0 -0.37839901512320262 -0.15996290040625341 0 -0.39387780121335469 -0.16444862508152899 0 -0.3804539816512269 -0.14482329966991631 0 -0.41110577652129249 -0.1670682470007229 0 -0.39387780121335469 -0.16444862508152899 0 -0.40669002996807779 -0.1495058137550834 0 -0.41110577652129249 -0.1670682470007229 0 -0.40730162077548249 -0.18407395049314179 0 -0.39387780121335469 -0.16444862508152899 0 -0.39387780121335469 -0.16444862508152899 0 -0.3804539816512269 -0.14482329966991631 0 -0.40669002996807779 -0.1495058137550834 0 -0.3804539816512269 -0.14482329966991631 0 -0.39647179587780151 -0.13189450107720049 0 -0.40669002996807779 -0.1495058137550834 0 -0.3804539816512269 -0.14482329966991631 0 -0.40669002996807779 -0.1495058137550834 0 -0.39387780121335469 -0.16444862508152899 0 -0.3804539816512269 -0.14482329966991631 0 -0.3804539816512269 -0.14482329966991631 0 -0.38278168804071749 -0.12940228238898679 0 -0.39647179587780151 -0.13189450107720049 0 -0.3804539816512269 -0.14482329966991631 0 -0.39647179587780151 -0.13189450107720049 0 -0.37212838853434238 -0.11808059788504249 0 -0.37028068739271691 -0.13083580994494901 0 -0.38278168804071749 -0.12940228238898679 0 -0.37028068739271691 -0.13083580994494901 0 -0.3804539816512269 -0.14482329966991631 0 -0.38278168804071749 -0.12940228238898679 0 -0.38278168804071749 -0.12940228238898679 0 -0.39647179587780151 -0.13189450107720049 0 -0.39044023874876249 -0.11757149150947201 0 -0.39647179587780151 -0.13189450107720049 0 -0.40828286160401828 -0.1310364195873514 0 -0.40669002996807779 -0.1495058137550834 0 -0.39647179587780151 -0.13189450107720049 0 -0.40828286160401828 -0.1310364195873514 0 -0.41122993917504558 -0.1199812866788818 0 -0.39647179587780151 -0.13189450107720049 0 -0.41122993917504558 -0.1199812866788818 0 -0.40828286160401828 -0.1310364195873514 0 -0.41930562378398423 -0.12797048681614909 0 -0.41122993917504558 -0.1199812866788818 0 -0.41930562378398423 -0.12797048681614909 0 -0.41533589961201212 -0.13938201891822019 0 -0.4273858072007774 -0.14414008567558009 0 -0.40828286160401828 -0.1310364195873514 0 -0.41533589961201212 -0.13938201891822019 0 -0.40669002996807779 -0.1495058137550834 0 -0.40828286160401828 -0.1310364195873514 0 -0.41930562378398423 -0.12797048681614909 0 -0.41533589961201212 -0.13938201891822019 0 -0.40669002996807779 -0.1495058137550834 0 -0.43166640735559808 -0.1552039120346444 0 -0.4214232379976206 -0.16216052115063159 0 -0.40669002996807779 -0.1495058137550834 0 -0.43166640735559808 -0.1552039120346444 0 -0.41533589961201212 -0.13938201891822019 0 -0.40669002996807779 -0.1495058137550834 0 -0.4273858072007774 -0.14414008567558009 0 -0.40669002996807779 -0.1495058137550834 0 -0.4273858072007774 -0.14414008567558009 0 -0.43166640735559808 -0.1552039120346444 0 -0.43166640735559808 -0.1552039120346444 0 -0.43525592456887258 -0.14374997194848471 0 -0.44410307239699631 -0.15282998285397989 0 -0.4273858072007774 -0.14414008567558009 0 -0.43166640735559808 -0.1552039120346444 0 -0.43525592456887258 -0.14374997194848471 0 -0.41930562378398423 -0.12797048681614909 0 -0.43525592456887258 -0.14374997194848471 0 -0.41930562378398423 -0.12797048681614909 0 -0.4273858072007774 -0.14414008567558009 0 -0.43525592456887258 -0.14374997194848471 0 -0.41930562378398423 -0.12797048681614909 0 -0.4273858072007774 -0.14414008567558009 0 -0.41930562378398423 -0.12797048681614909 0 -0.43525592456887258 -0.14374997194848471 0 -0.43389101300267191 -0.13422730327376839 0 -0.41930562378398423 -0.12797048681614909 0 -0.43389101300267191 -0.13422730327376839 0 -0.4149348530849476 -0.1169905694289516 0 -0.43389101300267191 -0.13422730327376839 0 -0.4149348530849476 -0.1169905694289516 0 -0.43389101300267191 -0.13422730327376839 0 -0.43160182387889101 -0.1187955019330571 0 -0.44085253015216358 -0.1237950587173612 0 -0.43389101300267191 -0.13422730327376839 0 -0.44872577578551592 -0.13320174295465559 0 -0.452847172920396 -0.1514640371185853 0 -0.44872577578551592 -0.13320174295465559 0 -0.45896755277767909 -0.12575633132281341 0 -0.45000974795797011 -0.119430952696417 0 -0.44872577578551592 -0.13320174295465559 0 -0.45000974795797011 -0.119430952696417 0 -0.44085253015216358 -0.1237950587173612 0 -0.43389101300267191 -0.13422730327376839 0 -0.44872577578551592 -0.13320174295465559 0 -0.44085253015216358 -0.1237950587173612 0 -0.43525592456887258 -0.14374997194848471 0 -0.43389101300267191 -0.13422730327376839 0 -0.452847172920396 -0.1514640371185853 0 -0.43525592456887258 -0.14374997194848471 0 -0.44410307239699631 -0.15282998285397989 0 -0.452847172920396 -0.1514640371185853 0 -0.44872577578551592 -0.13320174295465559 0 -0.452847172920396 -0.1514640371185853 0 -0.456386085566235 -0.14096643446963419 0 -0.43389101300267191 -0.13422730327376839 0 -0.452847172920396 -0.1514640371185853 0 -0.44410307239699631 -0.15282998285397989 0 -0.452847172920396 -0.1514640371185853 0 -0.45664278474311831 -0.16090201031420531 0 -0.452847172920396 -0.1514640371185853 0 -0.456386085566235 -0.14096643446963419 0 -0.46738274896045578 -0.15003021006820461 0 -0.452847172920396 -0.1514640371185853 0 -0.46738274896045578 -0.15003021006820461 0 -0.45664278474311831 -0.16090201031420531 0 -0.456386085566235 -0.14096643446963419 0 -0.46738274896045578 -0.15003021006820461 0 -0.47200539146090159 -0.13839174763128981 0 -0.456386085566235 -0.14096643446963419 0 -0.47200539146090159 -0.13839174763128981 0 -0.47750202174635031 -0.1215216316744509 0 -0.456386085566235 -0.14096643446963419 0 -0.45896755277767909 -0.12575633132281341 0 -0.47750202174635031 -0.1215216316744509 0 -0.456386085566235 -0.14096643446963419 0 -0.47750202174635031 -0.1215216316744509 0 -0.44872577578551592 -0.13320174295465559 0 -0.456386085566235 -0.14096643446963419 0 -0.45896755277767909 -0.12575633132281341 0 -0.47200539146090159 -0.13839174763128981 0 -0.48675070957056549 -0.14104871431286931 0 -0.47750202174635031 -0.1215216316744509 0 -0.50000000000000011 -0.12648838757554831 0 -0.48675070957056549 -0.14104871431286931 0 -0.5 -0.15043640832747529 0 -0.50000000000000011 -0.12648838757554831 0 -0.48675070957056549 -0.14104871431286931 0 -0.47750202174635031 -0.1215216316744509 0 -0.48675070957056549 -0.14104871431286931 0 -0.5 -0.15043640832747529 0 -0.48062174440056549 -0.15969986187448909 0 -0.46738274896045578 -0.15003021006820461 0 -0.47200539146090159 -0.13839174763128981 0 -0.48675070957056549 -0.14104871431286931 0 -0.48675070957056549 -0.14104871431286931 0 -0.48062174440056549 -0.15969986187448909 0 -0.46738274896045578 -0.15003021006820461 0 -0.48675070957056549 -0.14104871431286931 0 -0.48062174440056549 -0.15969986187448909 0 -0.48062174440056549 -0.15969986187448909 0 -0.46548313673471758 -0.16971310035941381 0 -0.46753260370971428 -0.1600862956540782 0 -0.46738274896045578 -0.15003021006820461 0 -0.48062174440056549 -0.15969986187448909 0 -0.46753260370971428 -0.1600862956540782 0 -0.48062174440056549 -0.15969986187448909 0 -0.47449277923056221 -0.17835100943610771 0 -0.46548313673471758 -0.16971310035941381 0 -0.48062174440056549 -0.15969986187448909 0 -0.47449277923056221 -0.17835100943610771 0 -0.5 -0.15043640832747529 0 -0.48062174440056549 -0.15969986187448909 0 -0.49999999999999828 -0.17438442907940241 0 -0.48062174440056549 -0.15969986187448909 0 -0.49999999999999828 -0.17438442907940241 0 -0.47449277923056221 -0.17835100943610771 0 -0.49999999999999828 -0.17438442907940241 0 -0.47449277923056221 -0.17835100943610771 0 -0.49999999999999828 -0.17438442907940241 0 -0.47449277923056221 -0.17835100943610771 0 -0.48549376880548989 -0.19132810400505559 0 -0.47449277923056221 -0.17835100943610771 0 -0.46892716456320649 -0.19528781647494389 0 -0.47449277923056221 -0.17835100943610771 0 -0.45952205817714309 -0.18067907836188021 0 -0.46892716456320649 -0.19528781647494389 0 -0.45952205817714309 -0.18067907836188021 0 -0.46548313673471758 -0.16971310035941381 0 -0.45289664290439807 -0.17180374819378549 0 -0.47449277923056221 -0.17835100943610771 0 -0.45952205817714309 -0.18067907836188021 0 -0.47449277923056221 -0.17835100943610771 0 -0.45952205817714309 -0.18067907836188021 0 -0.46548313673471758 -0.16971310035941381 0 -0.46548313673471758 -0.16971310035941381 0 -0.46753260370971428 -0.1600862956540782 0 -0.45664278474311831 -0.16090201031420531 0 -0.46738274896045578 -0.15003021006820461 0 -0.46753260370971428 -0.1600862956540782 0 -0.45664278474311831 -0.16090201031420531 0 -0.46548313673471758 -0.16971310035941381 0 -0.45664278474311831 -0.16090201031420531 0 -0.45289664290439807 -0.17180374819378549 0 -0.45664278474311831 -0.16090201031420531 0 -0.45289664290439807 -0.17180374819378549 0 -0.44219215159727421 -0.16781727210851849 0 -0.43166640735559808 -0.1552039120346444 0 -0.45664278474311831 -0.16090201031420531 0 -0.44219215159727421 -0.16781727210851849 0 -0.43166640735559808 -0.1552039120346444 0 -0.45664278474311831 -0.16090201031420531 0 -0.43166640735559808 -0.1552039120346444 0 -0.44410307239699631 -0.15282998285397989 0 -0.45664278474311831 -0.16090201031420531 0 -0.43495901877196291 -0.17485617288990979 0 -0.44219215159727421 -0.16781727210851849 0 -0.44455133712372419 -0.18300714728765441 0 -0.43099962817645188 -0.18319011649723049 0 -0.44455133712372419 -0.18300714728765441 0 -0.43833565968517207 -0.19112957676178299 0 -0.45952205817714309 -0.18067907836188021 0 -0.44455133712372419 -0.18300714728765441 0 -0.45396471697207569 -0.194241302212698 0 -0.45952205817714309 -0.18067907836188021 0 -0.44455133712372419 -0.18300714728765441 0 -0.45952205817714309 -0.18067907836188021 0 -0.45289664290439807 -0.17180374819378549 0 -0.44455133712372419 -0.18300714728765441 0 -0.45289664290439807 -0.17180374819378549 0 -0.44219215159727421 -0.16781727210851849 0 -0.44455133712372419 -0.18300714728765441 0 -0.44455133712372419 -0.18300714728765441 0 -0.43833565968517207 -0.19112957676178299 0 -0.45396471697207569 -0.194241302212698 0 -0.43833565968517207 -0.19112957676178299 0 -0.44184138868315109 -0.20247798044170351 0 -0.45396471697207569 -0.194241302212698 0 -0.44184138868315109 -0.20247798044170351 0 -0.46336154989584488 -0.2122246235137781 0 -0.45396471697207569 -0.194241302212698 0 -0.44184138868315109 -0.20247798044170351 0 -0.46336154989584488 -0.2122246235137781 0 -0.45338394269579491 -0.2190794284651259 0 -0.43378961613155448 -0.20908682079381441 0 -0.44184138868315109 -0.20247798044170351 0 -0.44166379455333399 -0.21604972156869759 0 -0.44184138868315109 -0.20247798044170351 0 -0.44166379455333399 -0.21604972156869759 0 -0.45338394269579491 -0.2190794284651259 0 -0.44184138868315109 -0.20247798044170351 0 -0.46336154989584488 -0.2122246235137781 0 -0.46336154989584488 -0.2122246235137781 0 -0.46892716456320649 -0.19528781647494389 0 -0.46336154989584488 -0.2122246235137781 0 -0.45396471697207569 -0.194241302212698 0 -0.46892716456320649 -0.19528781647494389 0 -0.45952205817714309 -0.18067907836188021 0 -0.45396471697207569 -0.194241302212698 0 -0.46892716456320649 -0.19528781647494389 0 -0.47449277923056221 -0.17835100943610771 0 -0.46892716456320649 -0.19528781647494389 0 -0.48549376880548989 -0.19132810400505559 0 -0.46892716456320649 -0.19528781647494389 0 -0.48549376880548989 -0.19132810400505559 0 -0.47978640147694102 -0.20418872613165631 0 -0.5 -0.20182215567114031 0 -0.48549376880548989 -0.19132810400505559 0 -0.47978640147694102 -0.20418872613165631 0 -0.49999999999999828 -0.17438442907940241 0 -0.5 -0.20182215567114031 0 -0.48549376880548989 -0.19132810400505559 0 -0.5 -0.20182215567114031 0 -0.48114952412016337 -0.22028093099336349 0 -0.49893749834448198 -0.22833723847294871 0 -0.5 -0.20182215567114031 0 -0.47978640147694102 -0.20418872613165631 0 -0.48114952412016337 -0.22028093099336349 0 -0.46336154989584488 -0.2122246235137781 0 -0.48114952412016337 -0.22028093099336349 0 -0.46336154989584488 -0.2122246235137781 0 -0.47978640147694102 -0.20418872613165631 0 -0.48114952412016337 -0.22028093099336349 0 -0.46336154989584488 -0.2122246235137781 0 -0.46892716456320649 -0.19528781647494389 0 -0.47978640147694102 -0.20418872613165631 0 -0.46336154989584488 -0.2122246235137781 0 -0.48114952412016337 -0.22028093099336349 0 -0.46857810181099829 -0.22486784275082261 0 -0.48114952412016337 -0.22028093099336349 0 -0.48798868478634799 -0.231470988200419 0 -0.47142395938804471 -0.23802335247430181 0 -0.48114952412016337 -0.22028093099336349 0 -0.47142395938804471 -0.23802335247430181 0 -0.46857810181099829 -0.22486784275082261 0 -0.48114952412016337 -0.22028093099336349 0 -0.48798868478634799 -0.231470988200419 0 -0.49893749834448198 -0.22833723847294871 0 -0.48114952412016337 -0.22028093099336349 0 -0.49893749834448198 -0.22833723847294871 0 -0.48798868478634799 -0.231470988200419 0 -0.49893749834448198 -0.22833723847294871 0 -0.4875835208682564 -0.24248539692068891 0 -0.5 -0.25669760885461612 0 -0.49893749834448198 -0.22833723847294871 0 -0.4875835208682564 -0.24248539692068891 0 -0.48798868478634799 -0.231470988200419 0 -0.4875835208682564 -0.24248539692068891 0 -0.47142395938804471 -0.23802335247430181 0 -0.47878778985378329 -0.25835102983948688 0 -0.4875835208682564 -0.24248539692068891 0 -0.47142395938804471 -0.23802335247430181 0 -0.45662330498375908 -0.25656877445722759 0 -0.47142395938804471 -0.23802335247430181 0 -0.45034617445999431 -0.24335722649563979 0 -0.47142395938804471 -0.23802335247430181 0 -0.45735065046854989 -0.23051648340969341 0 -0.45034617445999431 -0.24335722649563979 0 -0.46336154989584488 -0.2122246235137781 0 -0.46857810181099829 -0.22486784275082261 0 -0.45735065046854989 -0.23051648340969341 0 -0.46336154989584488 -0.2122246235137781 0 -0.45735065046854989 -0.23051648340969341 0 -0.47142395938804471 -0.23802335247430181 0 -0.46857810181099829 -0.22486784275082261 0 -0.45735065046854989 -0.23051648340969341 0 -0.46336154989584488 -0.2122246235137781 0 -0.45338394269579491 -0.2190794284651259 0 -0.45735065046854989 -0.23051648340969341 0 -0.45338394269579491 -0.2190794284651259 0 -0.45735065046854989 -0.23051648340969341 0 -0.43806130733353449 -0.23541812032183559 0 -0.44166379455333399 -0.21604972156869759 0 -0.43806130733353449 -0.23541812032183559 0 -0.44166379455333399 -0.21604972156869759 0 -0.45338394269579491 -0.2190794284651259 0 -0.43806130733353449 -0.23541812032183559 0 -0.45735065046854989 -0.23051648340969341 0 -0.45034617445999431 -0.24335722649563979 0 -0.43806130733353449 -0.23541812032183559 0 -0.43445882011373449 -0.25478651907497341 0 -0.45034617445999431 -0.24335722649563979 0 -0.43806130733353449 -0.23541812032183559 0 -0.41324955929443102 -0.038374170610562031 0 -0.41005136228565903 -0.05540387285823338 0 -0.42435348212729052 -0.04457483879584373 0 -0.41324955929443102 -0.038374170610562031 0 -0.41005136228565903 -0.05540387285823338 0 -0.39900851660089293 -0.046429079601448257 0 -0.41324955929443102 -0.038374170610562031 0 -0.40747857107326091 -0.02424585309778798 0 -0.40045416304880688 -0.034240371911693122 0 -0.41005136228565903 -0.05540387285823338 0 -0.4246600563061857 -0.059067830999859447 0 -0.41422906440869389 -0.068128229862373102 0 -0.41005136228565903 -0.05540387285823338 0 -0.4246600563061857 -0.059067830999859447 0 -0.42435348212729052 -0.04457483879584373 0 -0.4246600563061857 -0.059067830999859447 0 -0.42435348212729052 -0.04457483879584373 0 -0.43957367317472601 -0.045089571971719818 0 -0.4246600563061857 -0.059067830999859447 0 -0.43957367317472601 -0.045089571971719818 0 -0.44544580640037118 -0.056213229689383748 0 -0.41324955929443102 -0.038374170610562031 0 -0.42435348212729052 -0.04457483879584373 0 -0.42981912379901888 -0.030443092666165631 0 -0.42435348212729052 -0.04457483879584373 0 -0.42981912379901888 -0.030443092666165631 0 -0.43957367317472601 -0.045089571971719818 0 -0.41302196833726168 -0.01226972299954816 0 -0.4392085005598273 -0.024676348383282701 0 -0.42659341977192161 -0.010103830507352861 0 -0.41302196833726168 -0.01226972299954816 0 -0.4392085005598273 -0.024676348383282701 0 -0.42981912379901888 -0.030443092666165631 0 -0.41673372021425997 -0.022240754673565791 0 -0.4392085005598273 -0.024676348383282701 0 -0.41302196833726168 -0.01226972299954816 0 -0.41673372021425997 -0.022240754673565791 0 -0.4392085005598273 -0.024676348383282701 0 -0.43741768347029059 -0.01288367903972009 0 -0.42659341977192161 -0.010103830507352861 0 -0.4392085005598273 -0.024676348383282701 0 -0.4441818909265971 -0.00998157505946092 0 -0.42578104856505677 0.0031949168855625672 0 -0.43741768347029059 -0.01288367903972009 0 -0.4441818909265971 -0.00998157505946092 0 -0.42578104856505677 0.0031949168855625672 0 -0.43741768347029059 -0.01288367903972009 0 -0.42659341977192161 -0.010103830507352861 0 -0.42578104856505677 0.0031949168855625672 0 -0.43741768347029059 -0.01288367903972009 0 -0.42578104856505677 0.0031949168855625672 0 -0.42659341977192161 -0.010103830507352861 0 -0.41753789792717189 -0.0038843189997757009 0 -0.42578104856505677 0.0031949168855625672 0 -0.42659341977192161 -0.010103830507352861 0 -0.41753789792717189 -0.0038843189997757009 0 -0.41302196833726168 -0.01226972299954816 0 -0.41753789792717189 -0.0038843189997757009 0 -0.41302196833726168 -0.01226972299954816 0 -0.40771050441737638 -0.0035262849216432719 0 -0.41753789792717189 -0.0038843189997757009 0 -0.40771050441737638 -0.0035262849216432719 0 -0.41105156913745711 0.0034129409419674369 0 -0.42981912379901888 -0.030443092666165631 0 -0.40747857107326091 -0.02424585309778798 0 -0.41324955929443102 -0.038374170610562031 0 -0.42981912379901888 -0.030443092666165631 0 -0.40747857107326091 -0.02424585309778798 0 -0.42981912379901888 -0.030443092666165631 0 -0.41673372021425997 -0.022240754673565791 0 -0.40747857107326091 -0.02424585309778798 0 -0.41302196833726168 -0.01226972299954816 0 -0.41673372021425997 -0.022240754673565791 0 -0.40747857107326091 -0.02424585309778798 0 -0.41673372021425997 -0.022240754673565791 0 -0.40747857107326091 -0.02424585309778798 0 -0.40747857107326091 -0.02424585309778798 0 -0.38992317137517202 -0.02804917422583518 0 -0.40747857107326091 -0.02424585309778798 0 -0.38992317137517202 -0.02804917422583518 0 -0.38297625517291389 -0.017448943304264108 0 -0.40747857107326091 -0.02424585309778798 0 -0.38992317137517202 -0.02804917422583518 0 -0.40045416304880688 -0.034240371911693122 0 -0.40747857107326091 -0.02424585309778798 0 -0.39567459441968961 -0.012635194689989219 0 -0.38297625517291389 -0.017448943304264108 0 -0.40747857107326091 -0.02424585309778798 0 -0.38297625517291389 -0.017448943304264108 0 -0.41302196833726168 -0.01226972299954816 0 -0.40747857107326091 -0.02424585309778798 0 -0.39567459441968961 -0.012635194689989219 0 -0.41302196833726168 -0.01226972299954816 0 -0.40771050441737638 -0.0035262849216432719 0 -0.38683543611469601 0.0001369023841863784 0 -0.41302196833726168 -0.01226972299954816 0 -0.39567459441968961 -0.012635194689989219 0 -0.38683543611469601 0.0001369023841863784 0 -0.41302196833726168 -0.01226972299954816 0 -0.38683543611469601 0.0001369023841863784 0 -0.40771050441737638 -0.0035262849216432719 0 -0.38683543611469601 0.0001369023841863784 0 -0.40226596945639398 0.0014711925349297271 0 -0.39567459441968961 -0.012635194689989219 0 -0.38502252263107412 -0.0084426060797158468 0 -0.38683543611469601 0.0001369023841863784 0 -0.39567459441968961 -0.012635194689989219 0 -0.38502252263107412 -0.0084426060797158468 0 -0.38297625517291389 -0.017448943304264108 0 -0.38502252263107412 -0.0084426060797158468 0 -0.38009964520605882 -0.0090403485437739461 0 -0.38297625517291389 -0.017448943304264108 0 -0.37278444596104371 -0.0079457960458173115 0 -0.38009964520605882 -0.0090403485437739461 0 -0.38297625517291389 -0.017448943304264108 0 -0.37474494217865062 -0.0022388935110706832 0 -0.38502252263107412 -0.0084426060797158468 0 -0.38683543611469601 0.0001369023841863784 0 -0.37474494217865062 -0.0022388935110706832 0 -0.38502252263107412 -0.0084426060797158468 0 -0.38009964520605882 -0.0090403485437739461 0 -0.37474494217865062 -0.0022388935110706832 0 -0.37278444596104371 -0.0079457960458173115 0 -0.38009964520605882 -0.0090403485437739461 0 -0.37236777167708351 -0.031852495353884333 0 -0.38992317137517202 -0.02804917422583518 0 -0.37990921189048049 -0.023302515363219579 0 -0.37236777167708351 -0.031852495353884333 0 -0.38992317137517202 -0.02804917422583518 0 -0.38992317137517202 -0.02804917422583518 0 -0.38297625517291389 -0.017448943304264108 0 -0.37990921189048049 -0.023302515363219579 0 -0.3739022591900184 -0.02415390189740213 0 -0.38297625517291389 -0.017448943304264108 0 -0.37990921189048049 -0.023302515363219579 0 -0.37236777167708351 -0.031852495353884333 0 -0.3739022591900184 -0.02415390189740213 0 -0.37990921189048049 -0.023302515363219579 0 -0.37236777167708351 -0.031852495353884333 0 -0.37990921189048049 -0.023302515363219579 0 -0.38458287424021398 -0.039388642062709187 0 -0.39900851660089293 -0.046429079601448257 0 -0.3815482533063424 -0.052412606119804542 0 -0.37355784227175309 -0.045246792894939887 0 -0.37236777167708351 -0.031852495353884333 0 -0.38458287424021398 -0.039388642062709187 0 -0.37236777167708351 -0.031852495353884333 0 -0.38992317137517202 -0.02804917422583518 0 -0.38458287424021398 -0.039388642062709187 0 -0.37355784227175309 -0.045246792894939887 0 -0.38458287424021398 -0.039388642062709187 0 -0.3815482533063424 -0.052412606119804542 0 -0.38458287424021398 -0.039388642062709187 0 -0.39900851660089293 -0.046429079601448257 0 -0.40045416304880688 -0.034240371911693122 0 -0.38992317137517202 -0.02804917422583518 0 -0.38458287424021398 -0.039388642062709187 0 -0.40045416304880688 -0.034240371911693122 0 -0.41324955929443102 -0.038374170610562031 0 -0.39900851660089293 -0.046429079601448257 0 -0.40045416304880688 -0.034240371911693122 0 -0.39900851660089293 -0.046429079601448257 0 -0.39626447370361728 -0.06091275685647668 0 -0.3815482533063424 -0.052412606119804542 0 -0.41005136228565903 -0.05540387285823338 0 -0.39626447370361728 -0.06091275685647668 0 -0.40517181862379281 -0.066558370858305557 0 -0.41005136228565903 -0.05540387285823338 0 -0.39900851660089293 -0.046429079601448257 0 -0.39626447370361728 -0.06091275685647668 0 -0.36862349457690058 -0.057461967220355487 0 -0.3815482533063424 -0.052412606119804542 0 -0.37947166312044489 -0.067272628224985004 0 -0.3815482533063424 -0.052412606119804542 0 -0.37947166312044489 -0.067272628224985004 0 -0.39260231949431601 -0.074533368335879327 0 -0.36882665317829499 -0.078032107790563188 0 -0.39260231949431601 -0.074533368335879327 0 -0.39626447370361728 -0.06091275685647668 0 -0.3815482533063424 -0.052412606119804542 0 -0.39260231949431601 -0.074533368335879327 0 -0.3815482533063424 -0.052412606119804542 0 -0.39260231949431601 -0.074533368335879327 0 -0.36882665317829499 -0.078032107790563188 0 -0.37947166312044489 -0.067272628224985004 0 -0.39260231949431601 -0.074533368335879327 0 -0.36882665317829499 -0.078032107790563188 0 -0.39260231949431601 -0.074533368335879327 0 -0.39002829617667018 -0.099006697234722524 0 -0.36882665317829499 -0.078032107790563188 0 -0.39002829617667018 -0.099006697234722524 0 -0.37367929427193591 -0.1014825750548952 0 -0.36882665317829499 -0.078032107790563188 0 -0.39002829617667018 -0.099006697234722524 0 -0.39260231949431601 -0.074533368335879327 0 -0.39002829617667018 -0.099006697234722524 0 -0.39510370691593599 -0.098958215311000047 0 -0.39260231949431601 -0.074533368335879327 0 -0.40274583300482147 -0.094831984843681591 0 -0.39260231949431601 -0.074533368335879327 0 -0.39510370691593599 -0.098958215311000047 0 -0.40274583300482147 -0.094831984843681591 0 -0.40361170428446441 -0.083317353290434007 0 -0.39260231949431601 -0.074533368335879327 0 -0.40274583300482147 -0.094831984843681591 0 -0.40361170428446441 -0.083317353290434007 0 -0.39867569396630093 -0.073639632925658519 0 -0.40696916935602839 -0.074517235882718885 0 -0.39867569396630093 -0.073639632925658519 0 -0.40517181862379281 -0.066558370858305557 0 -0.40696916935602839 -0.074517235882718885 0 -0.39626447370361728 -0.06091275685647668 0 -0.39867569396630093 -0.073639632925658519 0 -0.40517181862379281 -0.066558370858305557 0 -0.39626447370361728 -0.06091275685647668 0 -0.39867569396630093 -0.073639632925658519 0 -0.39260231949431601 -0.074533368335879327 0 -0.40361170428446441 -0.083317353290434007 0 -0.39867569396630093 -0.073639632925658519 0 -0.39260231949431601 -0.074533368335879327 0 -0.39867569396630093 -0.073639632925658519 0 -0.39260231949431601 -0.074533368335879327 0 -0.37212838853434238 -0.11808059788504249 0 -0.38278168804071749 -0.12940228238898679 0 -0.39044023874876249 -0.11757149150947201 0 -0.37367929427193591 -0.1014825750548952 0 -0.37212838853434238 -0.11808059788504249 0 -0.39044023874876249 -0.11757149150947201 0 -0.37367929427193591 -0.1014825750548952 0 -0.39044023874876249 -0.11757149150947201 0 -0.39002829617667018 -0.099006697234722524 0 -0.39510370691593599 -0.098958215311000047 0 -0.40274583300482147 -0.094831984843681591 0 -0.41288934651532883 -0.11513060135148299 0 -0.39002829617667018 -0.099006697234722524 0 -0.39510370691593599 -0.098958215311000047 0 -0.41122993917504558 -0.1199812866788818 0 -0.39510370691593599 -0.098958215311000047 0 -0.41288934651532883 -0.11513060135148299 0 -0.39647179587780151 -0.13189450107720049 0 -0.39044023874876249 -0.11757149150947201 0 -0.41122993917504558 -0.1199812866788818 0 -0.39002829617667018 -0.099006697234722524 0 -0.41122993917504558 -0.1199812866788818 0 -0.39044023874876249 -0.11757149150947201 0 -0.39002829617667018 -0.099006697234722524 0 -0.41122993917504558 -0.1199812866788818 0 -0.39510370691593599 -0.098958215311000047 0 -0.41122993917504558 -0.1199812866788818 0 -0.41288934651532883 -0.11513060135148299 0 -0.41930562378398423 -0.12797048681614909 0 -0.41122993917504558 -0.1199812866788818 0 -0.4149348530849476 -0.1169905694289516 0 -0.41930562378398423 -0.12797048681614909 0 -0.41122993917504558 -0.1199812866788818 0 -0.41930562378398423 -0.12797048681614909 0 -0.4149348530849476 -0.1169905694289516 0 -0.41122993917504558 -0.1199812866788818 0 -0.41288934651532883 -0.11513060135148299 0 -0.4149348530849476 -0.1169905694289516 0 -0.41122993917504558 -0.1199812866788818 0 -0.4149348530849476 -0.1169905694289516 0 -0.41288934651532883 -0.11513060135148299 0 -0.4149348530849476 -0.1169905694289516 0 -0.41288934651532883 -0.11513060135148299 0 -0.4149348530849476 -0.1169905694289516 0 -0.41458672172207622 -0.10427776634057311 0 -0.40274583300482147 -0.094831984843681591 0 -0.41288934651532883 -0.11513060135148299 0 -0.4149348530849476 -0.1169905694289516 0 -0.41458672172207622 -0.10427776634057311 0 -0.43059848591229039 -0.1043464168163742 0 -0.40274583300482147 -0.094831984843681591 0 -0.41288934651532883 -0.11513060135148299 0 -0.41458672172207622 -0.10427776634057311 0 -0.41458672172207622 -0.10427776634057311 0 -0.41348552386521947 -0.090840815536544176 0 -0.43025813067654672 -0.08737754853092726 0 -0.40274583300482147 -0.094831984843681591 0 -0.41458672172207622 -0.10427776634057311 0 -0.41348552386521947 -0.090840815536544176 0 -0.43059848591229039 -0.1043464168163742 0 -0.43025813067654672 -0.08737754853092726 0 -0.44626211873963212 -0.091702264203795431 0 -0.41458672172207622 -0.10427776634057311 0 -0.43059848591229039 -0.1043464168163742 0 -0.43025813067654672 -0.08737754853092726 0 -0.41458672172207622 -0.10427776634057311 0 -0.43025813067654672 -0.08737754853092726 0 -0.4149348530849476 -0.1169905694289516 0 -0.43059848591229039 -0.1043464168163742 0 -0.43160182387889101 -0.1187955019330571 0 -0.4149348530849476 -0.1169905694289516 0 -0.43059848591229039 -0.1043464168163742 0 -0.43389101300267191 -0.13422730327376839 0 -0.4149348530849476 -0.1169905694289516 0 -0.43160182387889101 -0.1187955019330571 0 -0.43059848591229039 -0.1043464168163742 0 -0.43160182387889101 -0.1187955019330571 0 -0.44003429013576911 -0.11331979272890801 0 -0.43160182387889101 -0.1187955019330571 0 -0.44085253015216358 -0.1237950587173612 0 -0.44003429013576911 -0.11331979272890801 0 -0.41422906440869389 -0.068128229862373102 0 -0.41539885585273961 -0.080089681603359497 0 -0.42594434486026628 -0.073522222089585226 0 -0.4246600563061857 -0.059067830999859447 0 -0.41422906440869389 -0.068128229862373102 0 -0.42594434486026628 -0.073522222089585226 0 -0.41005136228565903 -0.05540387285823338 0 -0.40517181862379281 -0.066558370858305557 0 -0.41422906440869389 -0.068128229862373102 0 -0.40517181862379281 -0.066558370858305557 0 -0.41422906440869389 -0.068128229862373102 0 -0.40696916935602839 -0.074517235882718885 0 -0.41422906440869389 -0.068128229862373102 0 -0.40696916935602839 -0.074517235882718885 0 -0.41539885585273961 -0.080089681603359497 0 -0.41348552386521947 -0.090840815536544176 0 -0.41539885585273961 -0.080089681603359497 0 -0.43025813067654672 -0.08737754853092726 0 -0.40361170428446441 -0.083317353290434007 0 -0.41348552386521947 -0.090840815536544176 0 -0.41539885585273961 -0.080089681603359497 0 -0.40361170428446441 -0.083317353290434007 0 -0.40696916935602839 -0.074517235882718885 0 -0.41539885585273961 -0.080089681603359497 0 -0.40361170428446441 -0.083317353290434007 0 -0.40274583300482147 -0.094831984843681591 0 -0.41348552386521947 -0.090840815536544176 0 -0.41539885585273961 -0.080089681603359497 0 -0.43025813067654672 -0.08737754853092726 0 -0.42594434486026628 -0.073522222089585226 0 -0.4246600563061857 -0.059067830999859447 0 -0.44592953963101739 -0.07047733072128165 0 -0.43025813067654672 -0.08737754853092726 0 -0.42594434486026628 -0.073522222089585226 0 -0.44592953963101739 -0.07047733072128165 0 -0.4246600563061857 -0.059067830999859447 0 -0.42594434486026628 -0.073522222089585226 0 -0.44592953963101739 -0.07047733072128165 0 -0.44592953963101739 -0.07047733072128165 0 -0.45893666683642192 -0.056450303318209168 0 -0.44592953963101739 -0.07047733072128165 0 -0.44626211873963212 -0.091702264203795431 0 -0.46192575156697407 -0.079058111591217034 0 -0.43025813067654672 -0.08737754853092726 0 -0.44592953963101739 -0.07047733072128165 0 -0.43025813067654672 -0.08737754853092726 0 -0.44592953963101739 -0.07047733072128165 0 -0.44626211873963212 -0.091702264203795431 0 -0.44626211873963212 -0.091702264203795431 0 -0.46631049206888459 -0.091444160656324658 0 -0.46192575156697407 -0.079058111591217034 0 -0.44626211873963212 -0.091702264203795431 0 -0.46192575156697407 -0.079058111591217034 0 -0.46631049206888459 -0.091444160656324658 0 -0.46192575156697407 -0.079058111591217034 0 -0.47702460168979111 -0.087157524427869615 0 -0.44592953963101739 -0.07047733072128165 0 -0.46192575156697407 -0.079058111591217034 0 -0.45893666683642192 -0.056450303318209168 0 -0.46192575156697407 -0.079058111591217034 0 -0.47491389520024407 -0.068573693827893439 0 -0.45893666683642192 -0.056450303318209168 0 -0.46192575156697407 -0.079058111591217034 0 -0.47491389520024407 -0.068573693827893439 0 -0.44592953963101739 -0.07047733072128165 0 -0.46192575156697407 -0.079058111591217034 0 -0.45000974795797011 -0.119430952696417 0 -0.44085253015216358 -0.1237950587173612 0 -0.44003429013576911 -0.11331979272890801 0 -0.45000974795797011 -0.119430952696417 0 -0.44003429013576911 -0.11331979272890801 0 -0.44926481423485548 -0.10476542824413421 0 -0.43059848591229039 -0.1043464168163742 0 -0.44626211873963212 -0.091702264203795431 0 -0.43059848591229039 -0.1043464168163742 0 -0.44626211873963212 -0.091702264203795431 0 -0.44926481423485548 -0.10476542824413421 0 -0.43059848591229039 -0.1043464168163742 0 -0.44003429013576911 -0.11331979272890801 0 -0.44926481423485548 -0.10476542824413421 0 -0.44626211873963212 -0.091702264203795431 0 -0.44926481423485548 -0.10476542824413421 0 -0.46153012095291662 -0.1019472767233552 0 -0.44626211873963212 -0.091702264203795431 0 -0.46631049206888459 -0.091444160656324658 0 -0.46153012095291662 -0.1019472767233552 0 -0.46631049206888459 -0.091444160656324658 0 -0.46153012095291662 -0.1019472767233552 0 -0.4710589232177344 -0.098453604121520433 0 -0.46153012095291662 -0.1019472767233552 0 -0.46221413283232399 -0.11366089481890911 0 -0.47430793409480421 -0.10627177682285049 0 -0.44926481423485548 -0.10476542824413421 0 -0.46153012095291662 -0.1019472767233552 0 -0.46221413283232399 -0.11366089481890911 0 -0.45896755277767909 -0.12575633132281341 0 -0.46221413283232399 -0.11366089481890911 0 -0.47750202174635031 -0.1215216316744509 0 -0.45000974795797011 -0.119430952696417 0 -0.44926481423485548 -0.10476542824413421 0 -0.46221413283232399 -0.11366089481890911 0 -0.45896755277767909 -0.12575633132281341 0 -0.45000974795797011 -0.119430952696417 0 -0.46221413283232399 -0.11366089481890911 0 -0.47750202174635031 -0.1215216316744509 0 -0.47430793409480421 -0.10627177682285049 0 -0.48673501487359588 -0.1010237797652184 0 -0.46221413283232399 -0.11366089481890911 0 -0.47750202174635031 -0.1215216316744509 0 -0.47430793409480421 -0.10627177682285049 0 -0.47430793409480421 -0.10627177682285049 0 -0.47745372589702628 -0.099742000537211661 0 -0.48673501487359588 -0.1010237797652184 0 -0.46153012095291662 -0.1019472767233552 0 -0.47430793409480421 -0.10627177682285049 0 -0.4710589232177344 -0.098453604121520433 0 -0.46631049206888459 -0.091444160656324658 0 -0.4710589232177344 -0.098453604121520433 0 -0.47771303140197108 -0.093218841439257433 0 -0.47430793409480421 -0.10627177682285049 0 -0.4710589232177344 -0.098453604121520433 0 -0.47745372589702628 -0.099742000537211661 0 -0.4710589232177344 -0.098453604121520433 0 -0.47745372589702628 -0.099742000537211661 0 -0.47771303140197108 -0.093218841439257433 0 -0.47745372589702628 -0.099742000537211661 0 -0.48673501487359588 -0.1010237797652184 0 -0.47771303140197108 -0.093218841439257433 0 -0.48673501487359588 -0.1010237797652184 0 -0.47771303140197108 -0.093218841439257433 0 -0.47702460168979111 -0.087157524427869615 0 -0.47750202174635031 -0.1215216316744509 0 -0.48673501487359588 -0.1010237797652184 0 -0.4986179579264654 -0.1020768288792674 0 -0.48673501487359588 -0.1010237797652184 0 -0.49842317329231273 -0.098636270432611556 0 -0.47702460168979111 -0.087157524427869615 0 -0.48673501487359588 -0.1010237797652184 0 -0.49842317329231273 -0.098636270432611556 0 -0.4986179579264654 -0.1020768288792674 0 -0.49999999999999939 -0.099482120969144883 0 -0.49842317329231273 -0.098636270432611556 0 -0.4986179579264654 -0.1020768288792674 0 -0.49842317329231273 -0.098636270432611556 0 -0.4986179579264654 -0.1020768288792674 0 -0.49999999999999939 -0.099482120969144883 0 -0.49842317329231273 -0.098636270432611556 0 -0.50000000000000011 -0.12648838757554831 0 -0.47750202174635031 -0.1215216316744509 0 -0.4986179579264654 -0.1020768288792674 0 -0.47750202174635031 -0.1215216316744509 0 -0.4986179579264654 -0.1020768288792674 0 -0.47491389520024407 -0.068573693827893439 0 -0.47702460168979111 -0.087157524427869615 0 -0.4847984782487687 -0.075944598732494498 0 -0.47491389520024407 -0.068573693827893439 0 -0.47702460168979111 -0.087157524427869615 0 -0.47967839073812912 -0.064727650616396362 0 -0.4847984782487687 -0.075944598732494498 0 -0.48794163871831331 -0.064119883023254248 0 -0.47967839073812912 -0.064727650616396362 0 -0.47491389520024407 -0.068573693827893439 0 -0.4847984782487687 -0.075944598732494498 0 -0.47967839073812912 -0.064727650616396362 0 -0.47491389520024407 -0.068573693827893439 0 -0.46192575156697407 -0.079058111591217034 0 -0.47702460168979111 -0.087157524427869615 0 -0.46192575156697407 -0.079058111591217034 0 -0.47491389520024407 -0.068573693827893439 0 -0.47702460168979111 -0.087157524427869615 0 -0.46631049206888459 -0.091444160656324658 0 -0.47771303140197108 -0.093218841439257433 0 -0.47702460168979111 -0.087157524427869615 0 -0.47771303140197108 -0.093218841439257433 0 -0.47702460168979111 -0.087157524427869615 0 -0.49842317329231273 -0.098636270432611556 0 -0.49712708577170861 -0.075742961183477536 0 -0.4847984782487687 -0.075944598732494498 0 -0.49999999999999939 -0.099482120969144883 0 -0.49842317329231273 -0.098636270432611556 0 -0.5 -0.078030389970551228 0 -0.49842317329231273 -0.098636270432611556 0 -0.49712708577170861 -0.075742961183477536 0 -0.49842317329231273 -0.098636270432611556 0 -0.5 -0.078030389970551228 0 -0.49712708577170861 -0.075742961183477536 0 -0.49842317329231273 -0.098636270432611556 0 -0.47702460168979111 -0.087157524427869615 0 -0.4847984782487687 -0.075944598732494498 0 -0.49842317329231273 -0.098636270432611556 0 -0.47702460168979111 -0.087157524427869615 0 -0.5 -0.078030389970551228 0 -0.49712708577170861 -0.075742961183477536 0 -0.49999999999999928 -0.056578658971957581 0 -0.49712708577170861 -0.075742961183477536 0 -0.49583099825110311 -0.052849651934343489 0 -0.49712708577170861 -0.075742961183477536 0 -0.48794163871831331 -0.064119883023254248 0 -0.49583099825110311 -0.052849651934343489 0 -0.49712708577170861 -0.075742961183477536 0 -0.4847984782487687 -0.075944598732494498 0 -0.48794163871831331 -0.064119883023254248 0 -0.49712708577170861 -0.075742961183477536 0 -0.49999999999999928 -0.056578658971957581 0 -0.49583099825110311 -0.052849651934343489 0 -0.49583099825110311 -0.052849651934343489 0 -0.47748890114140963 -0.036443372127734748 0 -0.48227324058185622 -0.051334552649559453 0 -0.49999999999999928 -0.056578658971957581 0 -0.49583099825110311 -0.052849651934343489 0 -0.49999999999999928 -0.056578658971957581 0 -0.50000000000000144 -0.053559852644015388 0 -0.49583099825110311 -0.052849651934343489 0 -0.48794163871831331 -0.064119883023254248 0 -0.49583099825110311 -0.052849651934343489 0 -0.48227324058185622 -0.051334552649559453 0 -0.50000000000000144 -0.053559852644015388 0 -0.49583099825110311 -0.052849651934343489 0 -0.48598145264485831 -0.02728491224803695 0 -0.49583099825110311 -0.052849651934343489 0 -0.47748890114140963 -0.036443372127734748 0 -0.48598145264485831 -0.02728491224803695 0 -0.50000000000000144 -0.053559852644015388 0 -0.48598145264485831 -0.02728491224803695 0 -0.50000000000000144 -0.053559852644015388 0 -0.48598145264485831 -0.02728491224803695 0 -0.5 -0.025161366008633609 0 -0.49583099825110311 -0.052849651934343489 0 -0.47748890114140963 -0.036443372127734748 0 -0.47748890114140963 -0.036443372127734748 0 -0.48598145264485831 -0.02728491224803695 0 -0.47748890114140963 -0.036443372127734748 0 -0.47194379404182718 -0.042423275915137587 0 -0.48227324058185622 -0.051334552649559453 0 -0.47748890114140963 -0.036443372127734748 0 -0.47194379404182718 -0.042423275915137587 0 -0.47748890114140963 -0.036443372127734748 0 -0.47194379404182718 -0.042423275915137587 0 -0.47056077858213702 -0.03024644074295027 0 -0.47194379404182718 -0.042423275915137587 0 -0.46539503278239303 -0.037082973767017267 0 -0.47056077858213702 -0.03024644074295027 0 -0.47194379404182718 -0.042423275915137587 0 -0.47056077858213702 -0.03024644074295027 0 -0.47748890114140963 -0.036443372127734748 0 -0.47056077858213702 -0.03024644074295027 0 -0.47748890114140963 -0.036443372127734748 0 -0.47056077858213702 -0.03024644074295027 0 -0.47745882259212458 -0.028728106929589409 0 -0.47967839073812912 -0.064727650616396362 0 -0.47491389520024407 -0.068573693827893439 0 -0.47194379404182718 -0.042423275915137587 0 -0.47967839073812912 -0.064727650616396362 0 -0.47194379404182718 -0.042423275915137587 0 -0.48227324058185622 -0.051334552649559453 0 -0.47491389520024407 -0.068573693827893439 0 -0.47194379404182718 -0.042423275915137587 0 -0.47967839073812912 -0.064727650616396362 0 -0.48794163871831331 -0.064119883023254248 0 -0.48227324058185622 -0.051334552649559453 0 -0.47491389520024407 -0.068573693827893439 0 -0.47194379404182718 -0.042423275915137587 0 -0.45893666683642192 -0.056450303318209168 0 -0.45893666683642192 -0.056450303318209168 0 -0.45743491846808387 -0.04563500224908737 0 -0.44544580640037118 -0.056213229689383748 0 -0.47194379404182718 -0.042423275915137587 0 -0.45893666683642192 -0.056450303318209168 0 -0.45743491846808387 -0.04563500224908737 0 -0.47194379404182718 -0.042423275915137587 0 -0.45893666683642192 -0.056450303318209168 0 -0.46539503278239303 -0.037082973767017267 0 -0.44890774518284438 -0.02927164544362729 0 -0.46539503278239303 -0.037082973767017267 0 -0.45215967652477718 -0.036640332234541717 0 -0.44890774518284438 -0.02927164544362729 0 -0.46539503278239303 -0.037082973767017267 0 -0.44890774518284438 -0.02927164544362729 0 -0.46189821575704781 -0.02986243911986371 0 -0.47194379404182718 -0.042423275915137587 0 -0.46539503278239303 -0.037082973767017267 0 -0.45743491846808387 -0.04563500224908737 0 -0.46539503278239303 -0.037082973767017267 0 -0.46189821575704781 -0.02986243911986371 0 -0.47056077858213702 -0.03024644074295027 0 -0.46539503278239303 -0.037082973767017267 0 -0.45743491846808387 -0.04563500224908737 0 -0.45215967652477718 -0.036640332234541717 0 -0.42981912379901888 -0.030443092666165631 0 -0.45215967652477718 -0.036640332234541717 0 -0.45743491846808387 -0.04563500224908737 0 -0.45215967652477718 -0.036640332234541717 0 -0.43957367317472601 -0.045089571971719818 0 -0.42981912379901888 -0.030443092666165631 0 -0.45215967652477718 -0.036640332234541717 0 -0.43957367317472601 -0.045089571971719818 0 -0.45743491846808387 -0.04563500224908737 0 -0.43957367317472601 -0.045089571971719818 0 -0.44544580640037118 -0.056213229689383748 0 -0.4246600563061857 -0.059067830999859447 0 -0.44592953963101739 -0.07047733072128165 0 -0.44544580640037118 -0.056213229689383748 0 -0.44592953963101739 -0.07047733072128165 0 -0.45893666683642192 -0.056450303318209168 0 -0.44544580640037118 -0.056213229689383748 0 -0.4441818909265971 -0.00998157505946092 0 -0.45588653083934588 0.00041698580085632909 0 -0.44737850259376799 0.0077656591989471307 0 -0.4441818909265971 -0.00998157505946092 0 -0.4570262928383732 -0.018140378997512391 0 -0.45633913854906122 -0.0094275687658610888 0 -0.4441818909265971 -0.00998157505946092 0 -0.45633913854906122 -0.0094275687658610888 0 -0.45588653083934588 0.00041698580085632909 0 -0.43741768347029059 -0.01288367903972009 0 -0.4441818909265971 -0.00998157505946092 0 -0.44890774518284438 -0.02927164544362729 0 -0.42981912379901888 -0.030443092666165631 0 -0.45215967652477718 -0.036640332234541717 0 -0.4392085005598273 -0.024676348383282701 0 -0.4441818909265971 -0.00998157505946092 0 -0.44890774518284438 -0.02927164544362729 0 -0.46258273328813732 -0.023158067004484729 0 -0.43741768347029059 -0.01288367903972009 0 -0.44890774518284438 -0.02927164544362729 0 -0.43741768347029059 -0.01288367903972009 0 -0.4392085005598273 -0.024676348383282701 0 -0.44890774518284438 -0.02927164544362729 0 -0.4392085005598273 -0.024676348383282701 0 -0.44890774518284438 -0.02927164544362729 0 -0.45215967652477718 -0.036640332234541717 0 -0.4392085005598273 -0.024676348383282701 0 -0.44890774518284438 -0.02927164544362729 0 -0.4441818909265971 -0.00998157505946092 0 -0.46258273328813732 -0.023158067004484729 0 -0.46258273328813732 -0.023158067004484729 0 -0.46826183959192841 -0.01000530680732737 0 -0.47056077858213702 -0.03024644074295027 0 -0.4441818909265971 -0.00998157505946092 0 -0.4570262928383732 -0.018140378997512391 0 -0.46258273328813732 -0.023158067004484729 0 -0.4570262928383732 -0.018140378997512391 0 -0.46258273328813732 -0.023158067004484729 0 -0.44890774518284438 -0.02927164544362729 0 -0.46189821575704781 -0.02986243911986371 0 -0.46258273328813732 -0.023158067004484729 0 -0.46258273328813732 -0.023158067004484729 0 -0.47056077858213702 -0.03024644074295027 0 -0.46189821575704781 -0.02986243911986371 0 -0.46258273328813732 -0.023158067004484729 0 -0.47056077858213702 -0.03024644074295027 0 -0.4570262928383732 -0.018140378997512391 0 -0.46258273328813732 -0.023158067004484729 0 -0.46826183959192841 -0.01000530680732737 0 -0.4570262928383732 -0.018140378997512391 0 -0.46826183959192841 -0.01000530680732737 0 -0.45633913854906122 -0.0094275687658610888 0 -0.46826183959192841 -0.01000530680732737 0 -0.45633913854906122 -0.0094275687658610888 0 -0.45588653083934588 0.00041698580085632909 0 -0.46826183959192841 -0.01000530680732737 0 -0.47597217662329228 -0.0085245425598697612 0 -0.4659629006017233 0.010235827128295859 0 -0.46826183959192841 -0.01000530680732737 0 -0.47597217662329228 -0.0085245425598697612 0 -0.47580415800009379 -0.02093770259963601 0 -0.47597217662329228 -0.0085245425598697612 0 -0.48922725890134677 -0.010453537226696331 0 -0.48082517856277007 0.001845263919603602 0 -0.47597217662329228 -0.0085245425598697612 0 -0.47580415800009379 -0.02093770259963601 0 -0.48598145264485831 -0.02728491224803695 0 -0.47597217662329228 -0.0085245425598697612 0 -0.48598145264485831 -0.02728491224803695 0 -0.46826183959192841 -0.01000530680732737 0 -0.47056077858213702 -0.03024644074295027 0 -0.47580415800009379 -0.02093770259963601 0 -0.47597217662329228 -0.0085245425598697612 0 -0.48598145264485831 -0.02728491224803695 0 -0.4893389393206713 -0.02366416211133009 0 -0.46826183959192841 -0.01000530680732737 0 -0.47056077858213702 -0.03024644074295027 0 -0.47056077858213702 -0.03024644074295027 0 -0.47580415800009379 -0.02093770259963601 0 -0.47745882259212458 -0.028728106929589409 0 -0.47580415800009379 -0.02093770259963601 0 -0.47745882259212458 -0.028728106929589409 0 -0.48598145264485831 -0.02728491224803695 0 -0.47748890114140963 -0.036443372127734748 0 -0.47745882259212458 -0.028728106929589409 0 -0.48598145264485831 -0.02728491224803695 0 -0.48598145264485831 -0.02728491224803695 0 -0.4893389393206713 -0.02366416211133009 0 -0.5 -0.025161366008633609 0 -0.48598145264485831 -0.02728491224803695 0 -0.4893389393206713 -0.02366416211133009 0 -0.4893389393206713 -0.02366416211133009 0 -0.5 -0.025161366008633609 0 -0.48922725890134677 -0.010453537226696331 0 -0.48922725890134677 -0.010453537226696331 0 -0.5 0.0032371206267481911 0 -0.48082517856277007 0.001845263919603602 0 -0.5 -0.025161366008633609 0 -0.48922725890134677 -0.010453537226696331 0 -0.5 0.0032371206267481911 0 -0.47597217662329228 -0.0085245425598697612 0 -0.4893389393206713 -0.02366416211133009 0 -0.48922725890134677 -0.010453537226696331 0 -0.5 0.0032371206267481911 0 -0.48596576445654982 0.01457961489688041 0 -0.48082517856277007 0.001845263919603602 0 -0.48596576445654982 0.01457961489688041 0 -0.47541999506787802 0.025418180444172121 0 -0.5 0.031635607262129987 0 -0.5 0.0032371206267481911 0 -0.48596576445654982 0.01457961489688041 0 -0.5 0.031635607262129987 0 -0.48596576445654982 0.01457961489688041 0 -0.47541999506787802 0.025418180444172121 0 -0.47401658579892991 0.013489912392399149 0 -0.47541999506787802 0.025418180444172121 0 -0.46963945276383978 0.01793989872667965 0 -0.47401658579892991 0.013489912392399149 0 -0.47597217662329228 -0.0085245425598697612 0 -0.48082517856277007 0.001845263919603602 0 -0.4659629006017233 0.010235827128295859 0 -0.47401658579892991 0.013489912392399149 0 -0.48082517856277007 0.001845263919603602 0 -0.4659629006017233 0.010235827128295859 0 -0.46963945276383978 0.01793989872667965 0 -0.47401658579892991 0.013489912392399149 0 -0.4659629006017233 0.010235827128295859 0 -0.47597217662329228 -0.0085245425598697612 0 -0.4659629006017233 0.010235827128295859 0 -0.48596576445654982 0.01457961489688041 0 -0.47401658579892991 0.013489912392399149 0 -0.48082517856277007 0.001845263919603602 0 -0.5 0.060034093897511798 0 -0.47816362815030861 0.043832779932641487 0 -0.48068047186290208 0.063626500276227002 0 -0.47541999506787802 0.025418180444172121 0 -0.5 0.031635607262129987 0 -0.47816362815030861 0.043832779932641487 0 -0.5 0.060034093897511798 0 -0.5 0.031635607262129987 0 -0.47816362815030861 0.043832779932641487 0 -0.47541999506787802 0.025418180444172121 0 -0.47816362815030861 0.043832779932641487 0 -0.46442391639916691 0.036471327701905212 0 -0.47816362815030861 0.043832779932641487 0 -0.46119618507356652 0.049359273152949731 0 -0.48068047186290208 0.063626500276227002 0 -0.46119618507356652 0.049359273152949731 0 -0.46103932749027238 0.064238871702306077 0 -0.48068047186290208 0.063626500276227002 0 -0.46119618507356652 0.049359273152949731 0 -0.44286953411296898 0.045255716157198693 0 -0.46103932749027238 0.064238871702306077 0 -0.47816362815030861 0.043832779932641487 0 -0.46119618507356652 0.049359273152949731 0 -0.46442391639916691 0.036471327701905212 0 -0.46119618507356652 0.049359273152949731 0 -0.46442391639916691 0.036471327701905212 0 -0.45082509298125129 0.038608595210277222 0 -0.46442391639916691 0.036471327701905212 0 -0.45082509298125129 0.038608595210277222 0 -0.4583939967914884 0.024422211169287101 0 -0.45082509298125129 0.038608595210277222 0 -0.4583939967914884 0.024422211169287101 0 -0.46119618507356652 0.049359273152949731 0 -0.45082509298125129 0.038608595210277222 0 -0.44286953411296898 0.045255716157198693 0 -0.45082509298125129 0.038608595210277222 0 -0.4405409619944019 0.035432846457562263 0 -0.4458839614772655 0.023387518650519249 0 -0.45082509298125129 0.038608595210277222 0 -0.4405409619944019 0.035432846457562263 0 -0.44286953411296898 0.045255716157198693 0 -0.4405409619944019 0.035432846457562263 0 -0.44286953411296898 0.045255716157198693 0 -0.43229092530358848 0.04451632412921195 0 -0.44286953411296898 0.045255716157198693 0 -0.44282721760043869 0.062046251170956107 0 -0.46103932749027238 0.064238871702306077 0 -0.44286953411296898 0.045255716157198693 0 -0.44282721760043869 0.062046251170956107 0 -0.43188097302969042 0.056955122555226501 0 -0.44286953411296898 0.045255716157198693 0 -0.46103932749027238 0.064238871702306077 0 -0.46826183959192841 -0.01000530680732737 0 -0.45588653083934588 0.00041698580085632909 0 -0.4659629006017233 0.010235827128295859 0 -0.46826183959192841 -0.01000530680732737 0 -0.4659629006017233 0.010235827128295859 0 -0.45609316173783881 0.014082317838893479 0 -0.45588653083934588 0.00041698580085632909 0 -0.4659629006017233 0.010235827128295859 0 -0.46963945276383978 0.01793989872667965 0 -0.4659629006017233 0.010235827128295859 0 -0.4583939967914884 0.024422211169287101 0 -0.4659629006017233 0.010235827128295859 0 -0.4583939967914884 0.024422211169287101 0 -0.47541999506787802 0.025418180444172121 0 -0.46963945276383978 0.01793989872667965 0 -0.4583939967914884 0.024422211169287101 0 -0.47541999506787802 0.025418180444172121 0 -0.46442391639916691 0.036471327701905212 0 -0.4583939967914884 0.024422211169287101 0 -0.45609316173783881 0.014082317838893479 0 -0.4659629006017233 0.010235827128295859 0 -0.4583939967914884 0.024422211169287101 0 -0.45609316173783881 0.014082317838893479 0 -0.4583939967914884 0.024422211169287101 0 -0.4458839614772655 0.023387518650519249 0 -0.45082509298125129 0.038608595210277222 0 -0.4583939967914884 0.024422211169287101 0 -0.4458839614772655 0.023387518650519249 0 -0.4405409619944019 0.035432846457562263 0 -0.4458839614772655 0.023387518650519249 0 -0.43566193494816191 0.02574822372494872 0 -0.4458839614772655 0.023387518650519249 0 -0.4359559447540089 0.01018896392150693 0 -0.43566193494816191 0.02574822372494872 0 -0.4441818909265971 -0.00998157505946092 0 -0.44737850259376799 0.0077656591989471307 0 -0.4359559447540089 0.01018896392150693 0 -0.4458839614772655 0.023387518650519249 0 -0.44737850259376799 0.0077656591989471307 0 -0.4359559447540089 0.01018896392150693 0 -0.45609316173783881 0.014082317838893479 0 -0.4458839614772655 0.023387518650519249 0 -0.44737850259376799 0.0077656591989471307 0 -0.45609316173783881 0.014082317838893479 0 -0.45588653083934588 0.00041698580085632909 0 -0.44737850259376799 0.0077656591989471307 0 -0.4441818909265971 -0.00998157505946092 0 -0.4359559447540089 0.01018896392150693 0 -0.42578104856505677 0.0031949168855625672 0 -0.42578104856505677 0.0031949168855625672 0 -0.41622595309658328 0.016397403714119251 0 -0.42870406893849561 0.019163111370922251 0 -0.4359559447540089 0.01018896392150693 0 -0.42578104856505677 0.0031949168855625672 0 -0.42870406893849561 0.019163111370922251 0 -0.41753789792717189 -0.0038843189997757009 0 -0.42578104856505677 0.0031949168855625672 0 -0.41105156913745711 0.0034129409419674369 0 -0.42578104856505677 0.0031949168855625672 0 -0.40852807671777941 0.0155494406680463 0 -0.41622595309658328 0.016397403714119251 0 -0.42578104856505677 0.0031949168855625672 0 -0.40852807671777941 0.0155494406680463 0 -0.41105156913745711 0.0034129409419674369 0 -0.42578104856505677 0.0031949168855625672 0 -0.40852807671777941 0.0155494406680463 0 -0.42578104856505677 0.0031949168855625672 0 -0.41622595309658328 0.016397403714119251 0 -0.40852807671777941 0.0155494406680463 0 -0.41105156913745711 0.0034129409419674369 0 -0.40262572535869262 0.0089097845909437267 0 -0.40771050441737638 -0.0035262849216432719 0 -0.41105156913745711 0.0034129409419674369 0 -0.40226596945639398 0.0014711925349297271 0 -0.40667085762811028 0.029599890542676258 0 -0.41622595309658328 0.016397403714119251 0 -0.42870406893849561 0.019163111370922251 0 -0.40667085762811028 0.029599890542676258 0 -0.42870406893849561 0.019163111370922251 0 -0.40667085762811028 0.029599890542676258 0 -0.41990433555607742 0.03061685230769556 0 -0.42870406893849561 0.019163111370922251 0 -0.40852807671777941 0.0155494406680463 0 -0.40667085762811028 0.029599890542676258 0 -0.41622595309658328 0.016397403714119251 0 -0.40667085762811028 0.029599890542676258 0 -0.41622595309658328 0.016397403714119251 0 -0.41990433555607742 0.03061685230769556 0 -0.4284463216954002 0.029357354603554459 0 -0.42870406893849561 0.019163111370922251 0 -0.4359559447540089 0.01018896392150693 0 -0.42870406893849561 0.019163111370922251 0 -0.43566193494816191 0.02574822372494872 0 -0.4284463216954002 0.029357354603554459 0 -0.42870406893849561 0.019163111370922251 0 -0.43566193494816191 0.02574822372494872 0 -0.4284463216954002 0.029357354603554459 0 -0.43566193494816191 0.02574822372494872 0 -0.43264023121812112 0.033917661463996759 0 -0.4405409619944019 0.035432846457562263 0 -0.43264023121812112 0.033917661463996759 0 -0.43229092530358848 0.04451632412921195 0 -0.43264023121812112 0.033917661463996759 0 -0.43229092530358848 0.04451632412921195 0 -0.42532103781614489 0.037340924150209003 0 -0.4405409619944019 0.035432846457562263 0 -0.43566193494816191 0.02574822372494872 0 -0.43264023121812112 0.033917661463996759 0 -0.43229092530358848 0.04451632412921195 0 -0.42532103781614489 0.037340924150209003 0 -0.42042490988599091 0.046091327469671317 0 -0.4284463216954002 0.029357354603554459 0 -0.43264023121812112 0.033917661463996759 0 -0.42532103781614489 0.037340924150209003 0 -0.41990433555607742 0.03061685230769556 0 -0.4284463216954002 0.029357354603554459 0 -0.42532103781614489 0.037340924150209003 0 -0.43229092530358848 0.04451632412921195 0 -0.43188097302969042 0.056955122555226501 0 -0.42585725303016408 0.051510102087770737 0 -0.44286953411296898 0.045255716157198693 0 -0.43229092530358848 0.04451632412921195 0 -0.43188097302969042 0.056955122555226501 0 -0.43229092530358848 0.04451632412921195 0 -0.42585725303016408 0.051510102087770737 0 -0.42042490988599091 0.046091327469671317 0 -0.43188097302969042 0.056955122555226501 0 -0.41883220390138681 0.058477634196973202 0 -0.43131469147834472 0.070632617455275076 0 -0.43188097302969042 0.056955122555226501 0 -0.42585725303016408 0.051510102087770737 0 -0.41883220390138681 0.058477634196973202 0 -0.41883220390138681 0.058477634196973202 0 -0.40840220717331749 0.048304634434869917 0 -0.39985653820026013 0.060860810446949978 0 -0.42585725303016408 0.051510102087770737 0 -0.41883220390138681 0.058477634196973202 0 -0.42042490988599091 0.046091327469671317 0 -0.41883220390138681 0.058477634196973202 0 -0.40840220717331749 0.048304634434869917 0 -0.42042490988599091 0.046091327469671317 0 -0.41990433555607742 0.03061685230769556 0 -0.42532103781614489 0.037340924150209003 0 -0.4122967326089878 0.037821593301397609 0 -0.42532103781614489 0.037340924150209003 0 -0.42042490988599091 0.046091327469671317 0 -0.4122967326089878 0.037821593301397609 0 -0.40840220717331749 0.048304634434869917 0 -0.4122967326089878 0.037821593301397609 0 -0.40579981868685489 0.041495006097714962 0 -0.40840220717331749 0.048304634434869917 0 -0.42042490988599091 0.046091327469671317 0 -0.4122967326089878 0.037821593301397609 0 -0.4122967326089878 0.037821593301397609 0 -0.40278544391907911 0.034968452634622761 0 -0.40579981868685489 0.041495006097714962 0 -0.40667085762811028 0.029599890542676258 0 -0.4122967326089878 0.037821593301397609 0 -0.40278544391907911 0.034968452634622761 0 -0.40667085762811028 0.029599890542676258 0 -0.41990433555607742 0.03061685230769556 0 -0.4122967326089878 0.037821593301397609 0 -0.40667085762811028 0.029599890542676258 0 -0.40278544391907911 0.034968452634622761 0 -0.40667085762811028 0.029599890542676258 0 -0.38856614517843069 0.038175802748282091 0 -0.40667085762811028 0.029599890542676258 0 -0.38856614517843069 0.038175802748282091 0 -0.39127510487050182 0.027903964450529759 0 -0.40667085762811028 0.029599890542676258 0 -0.40278544391907911 0.034968452634622761 0 -0.38856614517843069 0.038175802748282091 0 -0.40278544391907911 0.034968452634622761 0 -0.40579981868685489 0.041495006097714962 0 -0.3977250587697031 0.045015474274426849 0 -0.40840220717331749 0.048304634434869917 0 -0.40579981868685489 0.041495006097714962 0 -0.3977250587697031 0.045015474274426849 0 -0.40278544391907911 0.034968452634622761 0 -0.3977250587697031 0.045015474274426849 0 -0.38856614517843069 0.038175802748282091 0 -0.40840220717331749 0.048304634434869917 0 -0.3977250587697031 0.045015474274426849 0 -0.39985653820026013 0.060860810446949978 0 -0.3977250587697031 0.045015474274426849 0 -0.39985653820026013 0.060860810446949978 0 -0.38472691017257071 0.052921849058569698 0 -0.39985653820026013 0.060860810446949978 0 -0.38472691017257071 0.052921849058569698 0 -0.38510762700538009 0.066428587654483159 0 -0.38472691017257071 0.052921849058569698 0 -0.37046143272875132 0.04675171495388801 0 -0.37000681959492809 0.05831264468359916 0 -0.38472691017257071 0.052921849058569698 0 -0.38510762700538009 0.066428587654483159 0 -0.37000681959492809 0.05831264468359916 0 -0.38856614517843069 0.038175802748282091 0 -0.37871402691879819 0.03757115751491092 0 -0.37046143272875132 0.04675171495388801 0 -0.38856614517843069 0.038175802748282091 0 -0.37046143272875132 0.04675171495388801 0 -0.38472691017257071 0.052921849058569698 0 -0.38856614517843069 0.038175802748282091 0 -0.37046143272875132 0.04675171495388801 0 -0.38856614517843069 0.038175802748282091 0 -0.38315308642314733 0.033917821982192238 0 -0.39127510487050182 0.027903964450529759 0 -0.38856614517843069 0.038175802748282091 0 -0.38315308642314733 0.033917821982192238 0 -0.37871402691879819 0.03757115751491092 0 -0.3977250587697031 0.045015474274426849 0 -0.38472691017257071 0.052921849058569698 0 -0.38856614517843069 0.038175802748282091 0 -0.37871402691879819 0.03757115751491092 0 -0.3764786745208083 0.032098692741998169 0 -0.37046143272875132 0.04675171495388801 0 -0.38315308642314733 0.033917821982192238 0 -0.3764786745208083 0.032098692741998169 0 -0.38155727091044611 0.028316364585127811 0 -0.38315308642314733 0.033917821982192238 0 -0.37871402691879819 0.03757115751491092 0 -0.3764786745208083 0.032098692741998169 0 -0.3764786745208083 0.032098692741998169 0 -0.38155727091044611 0.028316364585127811 0 -0.37960108001976323 0.022263106047543741 0 -0.37960108001976323 0.022263106047543741 0 -0.37998819155715241 0.0057865511937031933 0 -0.37123175334181557 0.027162262264614271 0 -0.3764786745208083 0.032098692741998169 0 -0.37960108001976323 0.022263106047543741 0 -0.37123175334181557 0.027162262264614271 0 -0.38155727091044611 0.028316364585127811 0 -0.38533699425949169 0.022674384769296389 0 -0.37960108001976323 0.022263106047543741 0 -0.38155727091044611 0.028316364585127811 0 -0.38533699425949169 0.022674384769296389 0 -0.39127510487050182 0.027903964450529759 0 -0.38315308642314733 0.033917821982192238 0 -0.38155727091044611 0.028316364585127811 0 -0.39127510487050182 0.027903964450529759 0 -0.39054146691731162 0.018060194648231769 0 -0.38533699425949169 0.022674384769296389 0 -0.39127510487050182 0.027903964450529759 0 -0.38533699425949169 0.022674384769296389 0 -0.3837100485794358 0.01682829411504885 0 -0.37960108001976323 0.022263106047543741 0 -0.39054146691731162 0.018060194648231769 0 -0.38533699425949169 0.022674384769296389 0 -0.3837100485794358 0.01682829411504885 0 -0.3837100485794358 0.01682829411504885 0 -0.37960108001976323 0.022263106047543741 0 -0.37998819155715241 0.0057865511937031933 0 -0.37998819155715241 0.0057865511937031933 0 -0.38683543611469601 0.0001369023841863784 0 -0.36064890389212972 0.0125435277679194 0 -0.37998819155715241 0.0057865511937031933 0 -0.38683543611469601 0.0001369023841863784 0 -0.38901012294298121 0.0062908016400105649 0 -0.38683543611469601 0.0001369023841863784 0 -0.38901012294298121 0.0062908016400105649 0 -0.39501457079486157 0.0055715078560810288 0 -0.37998819155715241 0.0057865511937031933 0 -0.38901012294298121 0.0062908016400105649 0 -0.38744744785130802 0.01185902438546781 0 -0.3837100485794358 0.01682829411504885 0 -0.37998819155715241 0.0057865511937031933 0 -0.38744744785130802 0.01185902438546781 0 -0.38901012294298121 0.0062908016400105649 0 -0.38744744785130802 0.01185902438546781 0 -0.39422738021243581 0.01127211946813913 0 -0.39054146691731162 0.018060194648231769 0 -0.3837100485794358 0.01682829411504885 0 -0.38744744785130802 0.01185902438546781 0 -0.39054146691731162 0.018060194648231769 0 -0.39422738021243581 0.01127211946813913 0 -0.39743955081534421 0.016339100765178138 0 -0.39054146691731162 0.018060194648231769 0 -0.38744744785130802 0.01185902438546781 0 -0.39422738021243581 0.01127211946813913 0 -0.39422738021243581 0.01127211946813913 0 -0.39501457079486157 0.0055715078560810288 0 -0.40262572535869262 0.0089097845909437267 0 -0.39422738021243581 0.01127211946813913 0 -0.40262572535869262 0.0089097845909437267 0 -0.39743955081534421 0.016339100765178138 0 -0.38683543611469601 0.0001369023841863784 0 -0.39501457079486157 0.0055715078560810288 0 -0.40226596945639398 0.0014711925349297271 0 -0.38901012294298121 0.0062908016400105649 0 -0.39422738021243581 0.01127211946813913 0 -0.39501457079486157 0.0055715078560810288 0 -0.41105156913745711 0.0034129409419674369 0 -0.40226596945639398 0.0014711925349297271 0 -0.40262572535869262 0.0089097845909437267 0 -0.39501457079486157 0.0055715078560810288 0 -0.40226596945639398 0.0014711925349297271 0 -0.40262572535869262 0.0089097845909437267 0 -0.40852807671777941 0.0155494406680463 0 -0.40262572535869262 0.0089097845909437267 0 -0.39743955081534421 0.016339100765178138 0 -0.40852807671777941 0.0155494406680463 0 -0.39127510487050182 0.027903964450529759 0 -0.40852807671777941 0.0155494406680463 0 -0.40667085762811028 0.029599890542676258 0 -0.39127510487050182 0.027903964450529759 0 -0.40852807671777941 0.0155494406680463 0 -0.39127510487050182 0.027903964450529759 0 -0.39743955081534421 0.016339100765178138 0 -0.39054146691731162 0.018060194648231769 0 -0.39127510487050182 0.027903964450529759 0 -0.39743955081534421 0.016339100765178138 0 -0.39792088922733271 0.1160922105611595 0 -0.40104213778508202 0.092866093853817611 0 -0.41467909406405851 0.1139188519362445 0 -0.39792088922733271 0.1160922105611595 0 -0.3782625711058698 0.101617738696854 0 -0.40104213778508202 0.092866093853817611 0 -0.3782625711058698 0.101617738696854 0 -0.38372255811484618 0.13025780258704611 0 -0.3782625711058698 0.101617738696854 0 -0.38372255811484618 0.13025780258704611 0 -0.36747352968705388 0.12273486311700831 0 -0.39792088922733271 0.1160922105611595 0 -0.3782625711058698 0.101617738696854 0 -0.38372255811484618 0.13025780258704611 0 -0.39792088922733271 0.1160922105611595 0 -0.3782625711058698 0.101617738696854 0 -0.3782625711058698 0.101617738696854 0 -0.40104213778508202 0.092866093853817611 0 -0.37470600383380392 0.082961959162170973 0 -0.39520328107527708 0.075997639864115257 0 -0.40104213778508202 0.092866093853817611 0 -0.37470600383380392 0.082961959162170973 0 -0.3782625711058698 0.101617738696854 0 -0.37470600383380392 0.082961959162170973 0 -0.40104213778508202 0.092866093853817611 0 -0.37470600383380392 0.082961959162170973 0 -0.38510762700538009 0.066428587654483159 0 -0.37000681959492809 0.05831264468359916 0 -0.37470600383380392 0.082961959162170973 0 -0.38510762700538009 0.066428587654483159 0 -0.39520328107527708 0.075997639864115257 0 -0.37470600383380392 0.082961959162170973 0 -0.39985653820026013 0.060860810446949978 0 -0.39520328107527708 0.075997639864115257 0 -0.41322693425173768 0.074694678089132868 0 -0.39985653820026013 0.060860810446949978 0 -0.38510762700538009 0.066428587654483159 0 -0.39520328107527708 0.075997639864115257 0 -0.39520328107527708 0.075997639864115257 0 -0.40104213778508202 0.092866093853817611 0 -0.41322693425173768 0.074694678089132868 0 -0.40104213778508202 0.092866093853817611 0 -0.41322693425173768 0.074694678089132868 0 -0.42957324029363853 0.085693113452461764 0 -0.41883220390138681 0.058477634196973202 0 -0.41322693425173768 0.074694678089132868 0 -0.43131469147834472 0.070632617455275076 0 -0.41883220390138681 0.058477634196973202 0 -0.39985653820026013 0.060860810446949978 0 -0.41322693425173768 0.074694678089132868 0 -0.43131469147834472 0.070632617455275076 0 -0.42957324029363853 0.085693113452461764 0 -0.4470315618909167 0.073148927984774167 0 -0.41322693425173768 0.074694678089132868 0 -0.43131469147834472 0.070632617455275076 0 -0.42957324029363853 0.085693113452461764 0 -0.44282721760043869 0.062046251170956107 0 -0.43188097302969042 0.056955122555226501 0 -0.43131469147834472 0.070632617455275076 0 -0.42957324029363853 0.085693113452461764 0 -0.42737827173636012 0.1027702285454639 0 -0.44343173260412461 0.097571970950778963 0 -0.40104213778508202 0.092866093853817611 0 -0.42737827173636012 0.1027702285454639 0 -0.41467909406405851 0.1139188519362445 0 -0.40104213778508202 0.092866093853817611 0 -0.42737827173636012 0.1027702285454639 0 -0.40104213778508202 0.092866093853817611 0 -0.42957324029363853 0.085693113452461764 0 -0.42737827173636012 0.1027702285454639 0 -0.39792088922733271 0.1160922105611595 0 -0.41467909406405851 0.1139188519362445 0 -0.417579207348795 0.13056668242546571 0 -0.39792088922733271 0.1160922105611595 0 -0.417579207348795 0.13056668242546571 0 -0.41467909406405851 0.1139188519362445 0 -0.42608096723388439 0.1205091241492761 0 -0.417579207348795 0.13056668242546571 0 -0.42737827173636012 0.1027702285454639 0 -0.41467909406405851 0.1139188519362445 0 -0.42608096723388439 0.1205091241492761 0 -0.42737827173636012 0.1027702285454639 0 -0.42608096723388439 0.1205091241492761 0 -0.43826405507869293 0.1195835460605416 0 -0.42608096723388439 0.1205091241492761 0 -0.43826405507869293 0.1195835460605416 0 -0.43293323699752101 0.1317554923945817 0 -0.43826405507869293 0.1195835460605416 0 -0.45371440568763749 0.1126743632371118 0 -0.44901593584904892 0.12912088192892021 0 -0.42737827173636012 0.1027702285454639 0 -0.43826405507869293 0.1195835460605416 0 -0.45371440568763749 0.1126743632371118 0 -0.4523882543875366 0.10983005993361 0 -0.45371440568763749 0.1126743632371118 0 -0.42737827173636012 0.1027702285454639 0 -0.4523882543875366 0.10983005993361 0 -0.44343173260412461 0.097571970950778963 0 -0.42737827173636012 0.1027702285454639 0 -0.4523882543875366 0.10983005993361 0 -0.45371440568763749 0.1126743632371118 0 -0.42737827173636012 0.1027702285454639 0 -0.45371440568763749 0.1126743632371118 0 -0.44343173260412461 0.097571970950778963 0 -0.45084974973894648 0.096020795281878568 0 -0.45306155814551219 0.1028275296158008 0 -0.44343173260412461 0.097571970950778963 0 -0.45084974973894648 0.096020795281878568 0 -0.44733932132275389 0.088290098875458828 0 -0.4523882543875366 0.10983005993361 0 -0.44343173260412461 0.097571970950778963 0 -0.45306155814551219 0.1028275296158008 0 -0.4523882543875366 0.10983005993361 0 -0.45306155814551219 0.1028275296158008 0 -0.45661100561120399 0.109540819014999 0 -0.45306155814551219 0.1028275296158008 0 -0.46084618436187341 0.10490351706993729 0 -0.45661100561120399 0.109540819014999 0 -0.45306155814551219 0.1028275296158008 0 -0.46084618436187341 0.10490351706993729 0 -0.45799439118323759 0.099220837031069903 0 -0.46084618436187341 0.10490351706993729 0 -0.4635407771028337 0.1124237257980706 0 -0.45661100561120399 0.109540819014999 0 -0.45799439118323759 0.099220837031069903 0 -0.46723244863383712 0.097971273043108306 0 -0.45594156200913483 0.091684632610025046 0 -0.45084974973894648 0.096020795281878568 0 -0.45799439118323759 0.099220837031069903 0 -0.45594156200913483 0.091684632610025046 0 -0.45084974973894648 0.096020795281878568 0 -0.45306155814551219 0.1028275296158008 0 -0.45799439118323759 0.099220837031069903 0 -0.46084618436187341 0.10490351706993729 0 -0.45799439118323759 0.099220837031069903 0 -0.46723244863383712 0.097971273043108306 0 -0.46084618436187341 0.10490351706993729 0 -0.46723244863383712 0.097971273043108306 0 -0.46686982756835349 0.1074114054382402 0 -0.46084618436187341 0.10490351706993729 0 -0.46686982756835349 0.1074114054382402 0 -0.4635407771028337 0.1124237257980706 0 -0.45371440568763749 0.1126743632371118 0 -0.46425598871103851 0.13528374379222011 0 -0.4635407771028337 0.1124237257980706 0 -0.45674497769142258 0.1138140594952527 0 -0.46958882025875243 0.12035793204680111 0 -0.46686982756835349 0.1074114054382402 0 -0.4635407771028337 0.1124237257980706 0 -0.47044075898603932 0.11380610730348489 0 -0.4635407771028337 0.1124237257980706 0 -0.46958882025875243 0.12035793204680111 0 -0.47044075898603932 0.11380610730348489 0 -0.45674497769142258 0.1138140594952527 0 -0.45371440568763749 0.1126743632371118 0 -0.46425598871103851 0.13528374379222011 0 -0.45674497769142258 0.1138140594952527 0 -0.46958882025875243 0.12035793204680111 0 -0.46425598871103851 0.13528374379222011 0 -0.4523882543875366 0.10983005993361 0 -0.45661100561120399 0.109540819014999 0 -0.45371440568763749 0.1126743632371118 0 -0.45674497769142258 0.1138140594952527 0 -0.45661100561120399 0.109540819014999 0 -0.45371440568763749 0.1126743632371118 0 -0.45674497769142258 0.1138140594952527 0 -0.45371440568763749 0.1126743632371118 0 -0.4635407771028337 0.1124237257980706 0 -0.45674497769142258 0.1138140594952527 0 -0.45661100561120399 0.109540819014999 0 -0.44282721760043869 0.062046251170956107 0 -0.4470315618909167 0.073148927984774167 0 -0.46103932749027238 0.064238871702306077 0 -0.44282721760043869 0.062046251170956107 0 -0.43131469147834472 0.070632617455275076 0 -0.4470315618909167 0.073148927984774167 0 -0.42957324029363853 0.085693113452461764 0 -0.44343173260412461 0.097571970950778963 0 -0.44733932132275389 0.088290098875458828 0 -0.42957324029363853 0.085693113452461764 0 -0.4470315618909167 0.073148927984774167 0 -0.44733932132275389 0.088290098875458828 0 -0.4470315618909167 0.073148927984774167 0 -0.44733932132275389 0.088290098875458828 0 -0.46047789149500767 0.082617330138573752 0 -0.45084974973894648 0.096020795281878568 0 -0.44733932132275389 0.088290098875458828 0 -0.45594156200913483 0.091684632610025046 0 -0.44733932132275389 0.088290098875458828 0 -0.45594156200913483 0.091684632610025046 0 -0.46047789149500767 0.082617330138573752 0 -0.46723244863383712 0.097971273043108306 0 -0.45594156200913483 0.091684632610025046 0 -0.46047789149500767 0.082617330138573752 0 -0.46047789149500767 0.082617330138573752 0 -0.46103932749027238 0.064238871702306077 0 -0.47920912086757578 0.083222027247413538 0 -0.4470315618909167 0.073148927984774167 0 -0.46047789149500767 0.082617330138573752 0 -0.46103932749027238 0.064238871702306077 0 -0.46103932749027238 0.064238871702306077 0 -0.48068047186290208 0.063626500276227002 0 -0.47920912086757578 0.083222027247413538 0 -0.46103932749027238 0.064238871702306077 0 -0.47920912086757578 0.083222027247413538 0 -0.46723244863383712 0.097971273043108306 0 -0.46047789149500767 0.082617330138573752 0 -0.47920912086757578 0.083222027247413538 0 -0.48068047186290208 0.063626500276227002 0 -0.47920912086757578 0.083222027247413538 0 -0.5 0.088432580532893601 0 -0.47920912086757578 0.083222027247413538 0 -0.49737891424487929 0.102205182792521 0 -0.47920912086757578 0.083222027247413538 0 -0.5 0.088432580532893601 0 -0.49737891424487929 0.102205182792521 0 -0.5 0.060034093897511798 0 -0.48068047186290208 0.063626500276227002 0 -0.5 0.088432580532893601 0 -0.47827810320487629 0.116675775998883 0 -0.48837893466537508 0.1117690854599766 0 -0.4842723158563047 0.1301441798928954 0 -0.47827810320487629 0.116675775998883 0 -0.47512549980118862 0.10796659812409699 0 -0.48837893466537508 0.1117690854599766 0 -0.47827810320487629 0.116675775998883 0 -0.46958882025875243 0.12035793204680111 0 -0.4842723158563047 0.1301441798928954 0 -0.47827810320487629 0.116675775998883 0 -0.47044075898603932 0.11380610730348489 0 -0.47512549980118862 0.10796659812409699 0 -0.46686982756835349 0.1074114054382402 0 -0.47044075898603932 0.11380610730348489 0 -0.47512549980118862 0.10796659812409699 0 -0.47827810320487629 0.116675775998883 0 -0.46958882025875243 0.12035793204680111 0 -0.47044075898603932 0.11380610730348489 0 -0.46723244863383712 0.097971273043108306 0 -0.47512549980118862 0.10796659812409699 0 -0.48162445158666772 0.1005823670901454 0 -0.46723244863383712 0.097971273043108306 0 -0.47920912086757578 0.083222027247413538 0 -0.48162445158666772 0.1005823670901454 0 -0.46723244863383712 0.097971273043108306 0 -0.46686982756835349 0.1074114054382402 0 -0.47512549980118862 0.10796659812409699 0 -0.47512549980118862 0.10796659812409699 0 -0.48162445158666772 0.1005823670901454 0 -0.48837893466537508 0.1117690854599766 0 -0.48162445158666772 0.1005823670901454 0 -0.49737891424487929 0.102205182792521 0 -0.48837893466537508 0.1117690854599766 0 -0.47920912086757578 0.083222027247413538 0 -0.48162445158666772 0.1005823670901454 0 -0.49737891424487929 0.102205182792521 0 -0.5 0.088432580532893601 0 -0.49737891424487929 0.102205182792521 0 -0.5 0.1168310671682755 0 -0.49737891424487929 0.102205182792521 0 -0.5 0.1168310671682755 0 -0.48837893466537508 0.1117690854599766 0 -0.5 0.1168310671682755 0 -0.48837893466537508 0.1117690854599766 0 -0.4842723158563047 0.1301441798928954 0 -0.5 0.1168310671682755 0 -0.4842723158563047 0.1301441798928954 0 -0.5 0.14522955380365729 0 -0.46958882025875243 0.12035793204680111 0 -0.4842723158563047 0.1301441798928954 0 -0.46425598871103851 0.13528374379222011 0 -0.4842723158563047 0.1301441798928954 0 -0.47479757173443998 0.15789312434732811 0 -0.46425598871103851 0.13528374379222011 0 -0.47479757173443998 0.15789312434732811 0 -0.46425598871103851 0.13528374379222011 0 -0.4842723158563047 0.1301441798928954 0 -0.5 0.14522955380365729 0 -0.47479757173443998 0.15789312434732811 0 -0.5 0.14522955380365729 0 -0.49999999999999972 0.17362804043903909 0 -0.47479757173443998 0.15789312434732811 0 -0.49999999999999972 0.17362804043903909 0 -0.47479757173443998 0.15789312434732811 0 -0.49999999999999972 0.17362804043903909 0 -0.49200992699072321 0.1743962810239672 0 -0.47479757173443998 0.15789312434732811 0 -0.48341269367675271 0.17637066895233999 0 -0.49170634683837577 0.1941587336203292 0 -0.49368671912131301 0.1828531969182482 0 -0.49999999999999972 0.17362804043903909 0 -0.5 0.19278741936367841 0 -0.49368671912131301 0.1828531969182482 0 -0.48341269367675271 0.17637066895233999 0 -0.49170634683837577 0.1941587336203292 0 -0.49368671912131301 0.1828531969182482 0 -0.49999999999999972 0.17362804043903909 0 -0.49200992699072321 0.1743962810239672 0 -0.49200992699072321 0.1743962810239672 0 -0.48341269367675271 0.17637066895233999 0 -0.49368671912131301 0.1828531969182482 0 -0.49200992699072321 0.1743962810239672 0 -0.48341269367675271 0.17637066895233999 0 -0.48341269367675271 0.17637066895233999 0 -0.45591042926964898 0.18268667049205081 0 -0.47274380268756999 0.19288508587190861 0 -0.48341269367675271 0.17637066895233999 0 -0.45591042926964898 0.18268667049205081 0 -0.49200992699072321 0.1743962810239672 0 -0.48341269367675271 0.17637066895233999 0 -0.47479757173443998 0.15789312434732811 0 -0.48341269367675271 0.17637066895233999 0 -0.47479757173443998 0.15789312434732811 0 -0.48341269367675271 0.17637066895233999 0 -0.47479757173443998 0.15789312434732811 0 -0.45723956394668003 0.16387676974864759 0 -0.48341269367675271 0.17637066895233999 0 -0.45723956394668003 0.16387676974864759 0 -0.45591042926964898 0.18268667049205081 0 -0.45591042926964898 0.18268667049205081 0 -0.43992511097516529 0.17411109905454999 0 -0.4284081648625454 0.1890026720317621 0 -0.45591042926964898 0.18268667049205081 0 -0.4284081648625454 0.1890026720317621 0 -0.45723956394668003 0.16387676974864759 0 -0.45591042926964898 0.18268667049205081 0 -0.43992511097516529 0.17411109905454999 0 -0.45723956394668003 0.16387676974864759 0 -0.43992511097516529 0.17411109905454999 0 -0.43892522612619872 0.15930650560997939 0 -0.43892522612619872 0.15930650560997939 0 -0.43796764784210812 0.14528805014891141 0 -0.45386540436598038 0.14482430837095511 0 -0.45723956394668003 0.16387676974864759 0 -0.43892522612619872 0.15930650560997939 0 -0.45386540436598038 0.14482430837095511 0 -0.45386540436598038 0.14482430837095511 0 -0.43293323699752101 0.1317554923945817 0 -0.43826405507869293 0.1195835460605416 0 -0.44901593584904892 0.12912088192892021 0 -0.43293323699752101 0.1317554923945817 0 -0.43796764784210812 0.14528805014891141 0 -0.45386540436598038 0.14482430837095511 0 -0.43293323699752101 0.1317554923945817 0 -0.44901593584904892 0.12912088192892021 0 -0.45386540436598038 0.14482430837095511 0 -0.43293323699752101 0.1317554923945817 0 -0.45371440568763749 0.1126743632371118 0 -0.44901593584904892 0.12912088192892021 0 -0.46425598871103851 0.13528374379222011 0 -0.44901593584904892 0.12912088192892021 0 -0.46425598871103851 0.13528374379222011 0 -0.45386540436598038 0.14482430837095511 0 -0.47479757173443998 0.15789312434732811 0 -0.45723956394668003 0.16387676974864759 0 -0.45386540436598038 0.14482430837095511 0 -0.47479757173443998 0.15789312434732811 0 -0.46425598871103851 0.13528374379222011 0 -0.45386540436598038 0.14482430837095511 0 -0.47479757173443998 0.15789312434732811 0 -0.45386540436598038 0.14482430837095511 0 -0.48226153920099157 0.23766317590200001 0 -0.47864167104372218 0.246590621409366 0 -0.48932095354102823 0.25454658797793611 0 -0.47315400564016008 0.2364435414805684 0 -0.47864167104372218 0.246590621409366 0 -0.46938038244821267 0.25133041049185839 0 -0.47315400564016008 0.2364435414805684 0 -0.48226153920099157 0.23766317590200001 0 -0.47864167104372218 0.246590621409366 0 -0.49106398183666961 0.22759324404760359 0 -0.48932095354102823 0.25454658797793611 0 -0.5 0.23810140997737081 0 -0.49106398183666961 0.22759324404760359 0 -0.48932095354102823 0.25454658797793611 0 -0.48226153920099157 0.23766317590200001 0 -0.49106398183666961 0.22759324404760359 0 -0.48932095354102823 0.25454658797793611 0 -0.5 0.23810140997737081 0 -0.49106398183666961 0.22759324404760359 0 -0.50000000000000022 0.21194679828831781 0 -0.49106398183666961 0.22759324404760359 0 -0.47912708394337772 0.2231418845945258 0 -0.48726644121087642 0.21298690825741631 0 -0.48226153920099157 0.23766317590200001 0 -0.49106398183666961 0.22759324404760359 0 -0.47912708394337772 0.2231418845945258 0 -0.47315400564016008 0.2364435414805684 0 -0.48226153920099157 0.23766317590200001 0 -0.47912708394337772 0.2231418845945258 0 -0.47315400564016008 0.2364435414805684 0 -0.47912708394337772 0.2231418845945258 0 -0.46764368341616458 0.22415830119077751 0 -0.47912708394337772 0.2231418845945258 0 -0.47360767850491831 0.20951316246361981 0 -0.46764368341616458 0.22415830119077751 0 -0.47360767850491831 0.20951316246361981 0 -0.48726644121087642 0.21298690825741631 0 -0.49170634683837577 0.1941587336203292 0 -0.47912708394337772 0.2231418845945258 0 -0.47360767850491831 0.20951316246361981 0 -0.48726644121087642 0.21298690825741631 0 -0.49106398183666961 0.22759324404760359 0 -0.50000000000000022 0.21194679828831781 0 -0.48726644121087642 0.21298690825741631 0 -0.50000000000000022 0.21194679828831781 0 -0.48726644121087642 0.21298690825741631 0 -0.49170634683837577 0.1941587336203292 0 -0.50000000000000022 0.21194679828831781 0 -0.49170634683837577 0.1941587336203292 0 -0.50000000000000022 0.21194679828831781 0 -0.5 0.19278741936367841 0 -0.49170634683837577 0.1941587336203292 0 -0.49368671912131301 0.1828531969182482 0 -0.5 0.19278741936367841 0 -0.49170634683837577 0.1941587336203292 0 -0.48341269367675271 0.17637066895233999 0 -0.49170634683837577 0.1941587336203292 0 -0.47274380268756999 0.19288508587190861 0 -0.47360767850491831 0.20951316246361981 0 -0.49170634683837577 0.1941587336203292 0 -0.47274380268756999 0.19288508587190861 0 -0.47360767850491831 0.20951316246361981 0 -0.47274380268756999 0.19288508587190861 0 -0.45820261548712909 0.20353130823034371 0 -0.45591042926964898 0.18268667049205081 0 -0.47274380268756999 0.19288508587190861 0 -0.45820261548712909 0.20353130823034371 0 -0.45591042926964898 0.18268667049205081 0 -0.43516662619925378 0.20614333559983469 0 -0.4284081648625454 0.1890026720317621 0 -0.45591042926964898 0.18268667049205081 0 -0.45820261548712909 0.20353130823034371 0 -0.43516662619925378 0.20614333559983469 0 -0.44192508753596349 0.22328399916790689 0 -0.43516662619925378 0.20614333559983469 0 -0.45032248765871591 0.2151961798839368 0 -0.44192508753596349 0.22328399916790689 0 -0.43516662619925378 0.20614333559983469 0 -0.45032248765871591 0.2151961798839368 0 -0.45820261548712909 0.20353130823034371 0 -0.43516662619925378 0.20614333559983469 0 -0.45032248765871591 0.2151961798839368 0 -0.46109406183397039 0.21551848415653921 0 -0.45620465585954723 0.2251951411450015 0 -0.45032248765871591 0.2151961798839368 0 -0.45820261548712909 0.20353130823034371 0 -0.46109406183397039 0.21551848415653921 0 -0.47360767850491831 0.20951316246361981 0 -0.45820261548712909 0.20353130823034371 0 -0.46109406183397039 0.21551848415653921 0 -0.47360767850491831 0.20951316246361981 0 -0.46109406183397039 0.21551848415653921 0 -0.46764368341616458 0.22415830119077751 0 -0.47315400564016008 0.2364435414805684 0 -0.46764368341616458 0.22415830119077751 0 -0.45925329591452863 0.2407771106774913 0 -0.46764368341616458 0.22415830119077751 0 -0.45620465585954723 0.2251951411450015 0 -0.45925329591452863 0.2407771106774913 0 -0.46109406183397039 0.21551848415653921 0 -0.46764368341616458 0.22415830119077751 0 -0.45620465585954723 0.2251951411450015 0 -0.45032248765871591 0.2151961798839368 0 -0.45620465585954723 0.2251951411450015 0 -0.44192508753596349 0.22328399916790689 0 -0.44192508753596349 0.22328399916790689 0 -0.44062222049055039 0.24203477259657111 0 -0.43146145522804691 0.2313120115293863 0 -0.45620465585954723 0.2251951411450015 0 -0.44062222049055039 0.24203477259657111 0 -0.45620465585954723 0.2251951411450015 0 -0.44192508753596349 0.22328399916790689 0 -0.44062222049055039 0.24203477259657111 0 -0.44062222049055039 0.24203477259657111 0 -0.45046339488490522 0.249057113070103 0 -0.44442574262614493 0.25832327296872359 0 -0.44062222049055039 0.24203477259657111 0 -0.45046339488490522 0.249057113070103 0 -0.45925329591452863 0.2407771106774913 0 -0.45620465585954723 0.2251951411450015 0 -0.44062222049055039 0.24203477259657111 0 -0.45925329591452863 0.2407771106774913 0 -0.45046339488490522 0.249057113070103 0 -0.45925329591452863 0.2407771106774913 0 -0.45807104112411212 0.25534721177055669 0 -0.45925329591452863 0.2407771106774913 0 -0.46938038244821267 0.25133041049185839 0 -0.45807104112411212 0.25534721177055669 0 -0.47315400564016008 0.2364435414805684 0 -0.45925329591452863 0.2407771106774913 0 -0.46938038244821267 0.25133041049185839 0 -0.4198454647722451 0.23985190764030939 0 -0.40081965837488509 0.24074316727492401 0 -0.40585136056822319 0.25674789398696107 0 -0.4198454647722451 0.23985190764030939 0 -0.405480724964072 0.22581663549259839 0 -0.40081965837488509 0.24074316727492401 0 -0.44062222049055039 0.24203477259657111 0 -0.4198454647722451 0.23985190764030939 0 -0.42503978512155383 0.25887440404814072 0 -0.44062222049055039 0.24203477259657111 0 -0.4198454647722451 0.23985190764030939 0 -0.43146145522804691 0.2313120115293863 0 -0.4198454647722451 0.23985190764030939 0 -0.43146145522804691 0.2313120115293863 0 -0.42370673975344808 0.22056464269113771 0 -0.44192508753596349 0.22328399916790689 0 -0.43146145522804691 0.2313120115293863 0 -0.42370673975344808 0.22056464269113771 0 -0.4198454647722451 0.23985190764030939 0 -0.42370673975344808 0.22056464269113771 0 -0.405480724964072 0.22581663549259839 0 -0.42370673975344808 0.22056464269113771 0 -0.40708390191205951 0.20882890034131879 0 -0.405480724964072 0.22581663549259839 0 -0.42370673975344808 0.22056464269113771 0 -0.40708390191205951 0.20882890034131879 0 -0.42107335870595469 0.2022269477122331 0 -0.44192508753596349 0.22328399916790689 0 -0.42370673975344808 0.22056464269113771 0 -0.43516662619925378 0.20614333559983469 0 -0.42370673975344808 0.22056464269113771 0 -0.43516662619925378 0.20614333559983469 0 -0.42107335870595469 0.2022269477122331 0 -0.43516662619925378 0.20614333559983469 0 -0.4284081648625454 0.1890026720317621 0 -0.42107335870595469 0.2022269477122331 0 -0.43516662619925378 0.20614333559983469 0 -0.4284081648625454 0.1890026720317621 0 -0.4284081648625454 0.1890026720317621 0 -0.40915969581062839 0.19342315750049971 0 -0.4284081648625454 0.1890026720317621 0 -0.42107335870595469 0.2022269477122331 0 -0.40915969581062839 0.19342315750049971 0 -0.40708390191205951 0.20882890034131879 0 -0.42107335870595469 0.2022269477122331 0 -0.40915969581062839 0.19342315750049971 0 -0.40708390191205951 0.20882890034131879 0 -0.40915969581062839 0.19342315750049971 0 -0.38991122675871148 0.19784364296923759 0 -0.40915969581062839 0.19342315750049971 0 -0.38991122675871148 0.19784364296923759 0 -0.40915969581062839 0.19342315750049971 0 -0.38991122675871148 0.19784364296923759 0 -0.39569501158598158 0.17813944679546001 0 -0.39158905321283283 0.2136173787495643 0 -0.38435338999826391 0.22831720607051781 0 -0.36414166766971379 0.2074649771098355 0 -0.38991122675871148 0.19784364296923759 0 -0.39158905321283283 0.2136173787495643 0 -0.36414166766971379 0.2074649771098355 0 -0.40708390191205951 0.20882890034131879 0 -0.39158905321283283 0.2136173787495643 0 -0.405480724964072 0.22581663549259839 0 -0.40708390191205951 0.20882890034131879 0 -0.38991122675871148 0.19784364296923759 0 -0.39158905321283283 0.2136173787495643 0 -0.405480724964072 0.22581663549259839 0 -0.38435338999826391 0.22831720607051781 0 -0.40081965837488509 0.24074316727492401 0 -0.39158905321283283 0.2136173787495643 0 -0.405480724964072 0.22581663549259839 0 -0.38435338999826391 0.22831720607051781 0 -0.37619177155740557 0.24036243622333081 0 -0.38790582398472923 0.24962922847932231 0 -0.36318679658289171 0.25196182354824148 0 -0.38435338999826391 0.22831720607051781 0 -0.37619177155740557 0.24036243622333081 0 -0.38790582398472923 0.24962922847932231 0 -0.38435338999826391 0.22831720607051781 0 -0.38790582398472923 0.24962922847932231 0 -0.40081965837488509 0.24074316727492401 0 -0.38790582398472923 0.24962922847932231 0 -0.40081965837488509 0.24074316727492401 0 -0.40585136056822319 0.25674789398696107 0 -0.40926453963391513 0.14045102348790381 0 -0.42614672387873248 0.14526589422012931 0 -0.41883635224822963 0.16472684775983329 0 -0.40926453963391513 0.14045102348790381 0 -0.41883635224822963 0.16472684775983329 0 -0.40926453963391513 0.14045102348790381 0 -0.41883635224822963 0.16472684775983329 0 -0.40029434983296169 0.15790366282291429 0 -0.40926453963391513 0.14045102348790381 0 -0.417579207348795 0.13056668242546571 0 -0.40026410281127539 0.13237877311027449 0 -0.40926453963391513 0.14045102348790381 0 -0.417579207348795 0.13056668242546571 0 -0.42614672387873248 0.14526589422012931 0 -0.417579207348795 0.13056668242546571 0 -0.43293323699752101 0.1317554923945817 0 -0.42614672387873248 0.14526589422012931 0 -0.42608096723388439 0.1205091241492761 0 -0.417579207348795 0.13056668242546571 0 -0.43293323699752101 0.1317554923945817 0 -0.43796764784210812 0.14528805014891141 0 -0.43293323699752101 0.1317554923945817 0 -0.42614672387873248 0.14526589422012931 0 -0.43892522612619872 0.15930650560997939 0 -0.43796764784210812 0.14528805014891141 0 -0.42614672387873248 0.14526589422012931 0 -0.43892522612619872 0.15930650560997939 0 -0.42614672387873248 0.14526589422012931 0 -0.41883635224822963 0.16472684775983329 0 -0.43992511097516529 0.17411109905454999 0 -0.43892522612619872 0.15930650560997939 0 -0.41883635224822963 0.16472684775983329 0 -0.4284081648625454 0.1890026720317621 0 -0.41883635224822963 0.16472684775983329 0 -0.43992511097516529 0.17411109905454999 0 -0.4284081648625454 0.1890026720317621 0 -0.41883635224822963 0.16472684775983329 0 -0.40915969581062839 0.19342315750049971 0 -0.41883635224822963 0.16472684775983329 0 -0.39569501158598158 0.17813944679546001 0 -0.4284081648625454 0.1890026720317621 0 -0.40915969581062839 0.19342315750049971 0 -0.41883635224822963 0.16472684775983329 0 -0.40029434983296169 0.15790366282291429 0 -0.39569501158598158 0.17813944679546001 0 -0.38484252596519369 0.16167484958157691 0 -0.41883635224822963 0.16472684775983329 0 -0.40029434983296169 0.15790366282291429 0 -0.39569501158598158 0.17813944679546001 0 -0.39569501158598158 0.17813944679546001 0 -0.38484252596519369 0.16167484958157691 0 -0.36525228834216061 0.17922160577889321 0 -0.38991122675871148 0.19784364296923759 0 -0.39569501158598158 0.17813944679546001 0 -0.36525228834216061 0.17922160577889321 0 -0.39283331973148827 0.14452614648979731 0 -0.38372255811484618 0.13025780258704611 0 -0.36636290901460722 0.1509782344479508 0 -0.38484252596519369 0.16167484958157691 0 -0.39283331973148827 0.14452614648979731 0 -0.36636290901460722 0.1509782344479508 0 -0.40029434983296169 0.15790366282291429 0 -0.38484252596519369 0.16167484958157691 0 -0.39283331973148827 0.14452614648979731 0 -0.40926453963391513 0.14045102348790381 0 -0.40029434983296169 0.15790366282291429 0 -0.39283331973148827 0.14452614648979731 0 -0.39283331973148827 0.14452614648979731 0 -0.40026410281127539 0.13237877311027449 0 -0.38372255811484618 0.13025780258704611 0 -0.39792088922733271 0.1160922105611595 0 -0.417579207348795 0.13056668242546571 0 -0.40026410281127539 0.13237877311027449 0 -0.39792088922733271 0.1160922105611595 0 -0.40026410281127539 0.13237877311027449 0 -0.38372255811484618 0.13025780258704611 0 -0.40926453963391513 0.14045102348790381 0 -0.39283331973148827 0.14452614648979731 0 -0.40026410281127539 0.13237877311027449 0 -0.38372255811484618 0.13025780258704611 0 -0.36636290901460722 0.1509782344479508 0 -0.36747352968705388 0.12273486311700831 0 -0.36636290901460722 0.1509782344479508 0 -0.36747352968705388 0.12273486311700831 0 -0.35528769071996391 0.12689780186549679 0 -0.36636290901460722 0.1509782344479508 0 -0.36747352968705388 0.12273486311700831 0 -0.35528769071996391 0.12689780186549679 0 -0.33512599087492562 0.1447950320020088 0 -0.35528769071996391 0.12689780186549679 0 -0.35168351666373848 0.14314256241625531 0 -0.33512599087492562 0.1447950320020088 0 -0.35528769071996391 0.12689780186549679 0 -0.33512599087492562 0.1447950320020088 0 -0.34115039425197219 0.12498493974687711 0 -0.35528769071996391 0.12689780186549679 0 -0.35168351666373848 0.14314256241625531 0 -0.36636290901460722 0.1509782344479508 0 -0.35168351666373848 0.14314256241625531 0 -0.36636290901460722 0.1509782344479508 0 -0.34333519974196419 0.16612441953572921 0 -0.38484252596519369 0.16167484958157691 0 -0.36636290901460722 0.1509782344479508 0 -0.36525228834216061 0.17922160577889321 0 -0.36636290901460722 0.1509782344479508 0 -0.36525228834216061 0.17922160577889321 0 -0.36525228834216061 0.17922160577889321 0 -0.34333519974196419 0.16612441953572921 0 -0.34654591437965571 0.19533490523866279 0 -0.36636290901460722 0.1509782344479508 0 -0.36525228834216061 0.17922160577889321 0 -0.34333519974196419 0.16612441953572921 0 -0.34333519974196419 0.16612441953572921 0 -0.31496429102988749 0.16269226213852109 0 -0.33512599087492562 0.1447950320020088 0 -0.34333519974196419 0.16612441953572921 0 -0.34654591437965571 0.19533490523866279 0 -0.32412519241006588 0.1878495682783011 0 -0.31496429102988749 0.16269226213852109 0 -0.32412519241006588 0.1878495682783011 0 -0.34333519974196419 0.16612441953572921 0 -0.31496429102988749 0.16269226213852109 0 -0.32412519241006588 0.1878495682783011 0 -0.31303823693556859 0.17707572181323081 0 -0.31496429102988749 0.16269226213852109 0 -0.32412519241006588 0.1878495682783011 0 -0.31303823693556859 0.17707572181323081 0 -0.32412519241006588 0.1878495682783011 0 -0.3108046026399135 0.18379038091696129 0 -0.31496429102988749 0.16269226213852109 0 -0.31353256245119709 0.1587605055712967 0 -0.31354631638020197 0.13395604467094269 0 -0.33512599087492562 0.1447950320020088 0 -0.3122891553291075 0.14635758184588041 0 -0.31353256245119709 0.1587605055712967 0 -0.33512599087492562 0.1447950320020088 0 -0.3122891553291075 0.14635758184588041 0 -0.31496429102988749 0.16269226213852109 0 -0.31353256245119709 0.1587605055712967 0 -0.33512599087492562 0.1447950320020088 0 -0.31496429102988749 0.16269226213852109 0 -0.33512599087492562 0.1447950320020088 0 -0.31354631638020197 0.13395604467094269 0 -0.32917568526667751 0.12578156900391591 0 -0.33512599087492562 0.1447950320020088 0 -0.31354631638020197 0.13395604467094269 0 -0.32917568526667751 0.12578156900391591 0 -0.32114709127587232 0.11611322513389059 0 -0.32917568526667751 0.12578156900391591 0 -0.33512599087492562 0.1447950320020088 0 -0.34115039425197219 0.12498493974687711 0 -0.35168351666373848 0.14314256241625531 0 -0.34333519974196419 0.16612441953572921 0 -0.33512599087492562 0.1447950320020088 0 -0.36303104699726713 0.23570834844077809 0 -0.34244699517042121 0.23816418055786151 0 -0.36318679658289171 0.25196182354824148 0 -0.34244699517042121 0.23816418055786151 0 -0.36318679658289171 0.25196182354824148 0 -0.33952374355129727 0.25899057541505788 0 -0.37619177155740557 0.24036243622333081 0 -0.36303104699726713 0.23570834844077809 0 -0.36318679658289171 0.25196182354824148 0 -0.38435338999826391 0.22831720607051781 0 -0.37619177155740557 0.24036243622333081 0 -0.36303104699726713 0.23570834844077809 0 -0.38435338999826391 0.22831720607051781 0 -0.36303104699726713 0.23570834844077809 0 -0.36414166766971379 0.2074649771098355 0 -0.36303104699726713 0.23570834844077809 0 -0.36414166766971379 0.2074649771098355 0 -0.36303104699726713 0.23570834844077809 0 -0.35084793517488477 0.2210857468323085 0 -0.34244699517042121 0.23816418055786151 0 -0.36303104699726713 0.23570834844077809 0 -0.35084793517488477 0.2210857468323085 0 -0.36414166766971379 0.2074649771098355 0 -0.35084793517488477 0.2210857468323085 0 -0.36414166766971379 0.2074649771098355 0 -0.34654591437965571 0.19533490523866279 0 -0.36525228834216061 0.17922160577889321 0 -0.36414166766971379 0.2074649771098355 0 -0.38991122675871148 0.19784364296923759 0 -0.36525228834216061 0.17922160577889321 0 -0.36414166766971379 0.2074649771098355 0 -0.36525228834216061 0.17922160577889321 0 -0.36414166766971379 0.2074649771098355 0 -0.34654591437965571 0.19533490523866279 0 -0.32412519241006588 0.1878495682783011 0 -0.33328609379024349 0.2130068744180813 0 -0.34654591437965571 0.19533490523866279 0 -0.32412519241006588 0.1878495682783011 0 -0.33328609379024349 0.2130068744180813 0 -0.32412519241006588 0.1878495682783011 0 -0.33328609379024349 0.2130068744180813 0 -0.31080006153106382 0.20197173666100501 0 -0.32412519241006588 0.1878495682783011 0 -0.31080006153106382 0.20197173666100501 0 -0.3108046026399135 0.18379038091696129 0 -0.33328609379024349 0.2130068744180813 0 -0.31873218963182409 0.22654972870499029 0 -0.31080006153106382 0.20197173666100501 0 -0.35084793517488477 0.2210857468323085 0 -0.34654591437965571 0.19533490523866279 0 -0.33328609379024349 0.2130068744180813 0 -0.35084793517488477 0.2210857468323085 0 -0.33328609379024349 0.2130068744180813 0 -0.34244699517042121 0.23816418055786151 0 -0.33328609379024349 0.2130068744180813 0 -0.34244699517042121 0.23816418055786151 0 -0.33328609379024349 0.2130068744180813 0 -0.31873218963182409 0.22654972870499029 0 -0.34244699517042121 0.23816418055786151 0 -0.31873218963182409 0.22654972870499029 0 -0.32200613725511351 0.24850726385495631 0 -0.34244699517042121 0.23816418055786151 0 -0.31873218963182409 0.22654972870499029 0 -0.32200613725511351 0.24850726385495631 0 -0.30672251365844311 0.23743048015470111 0 -0.32200613725511351 0.24850726385495631 0 -0.34244699517042121 0.23816418055786151 0 -0.33952374355129727 0.25899057541505788 0 -0.29125564533142001 0.24067530578368901 0 -0.30672251365844311 0.23743048015470111 0 -0.30640548876467488 0.25787073169030861 0 -0.32200613725511351 0.24850726385495631 0 -0.30672251365844311 0.23743048015470111 0 -0.30640548876467488 0.25787073169030861 0 -0.29125564533142001 0.24067530578368901 0 -0.30672251365844311 0.23743048015470111 0 -0.29521310730918271 0.21354937073956171 0 -0.31873218963182409 0.22654972870499029 0 -0.30672251365844311 0.23743048015470111 0 -0.29521310730918271 0.21354937073956171 0 -0.29125564533142001 0.24067530578368901 0 -0.29521310730918271 0.21354937073956171 0 -0.29125564533142001 0.24067530578368901 0 -0.29521310730918271 0.21354937073956171 0 -0.27258595833473342 0.22149207507906341 0 -0.29521310730918271 0.21354937073956171 0 -0.28878760701375322 0.1984352968903606 0 -0.27490594785389072 0.20112241201531189 0 -0.31873218963182409 0.22654972870499029 0 -0.29521310730918271 0.21354937073956171 0 -0.31080006153106382 0.20197173666100501 0 -0.29521310730918271 0.21354937073956171 0 -0.29917056928694541 0.1864234356954344 0 -0.29521310730918271 0.21354937073956171 0 -0.31080006153106382 0.20197173666100501 0 -0.29917056928694541 0.1864234356954344 0 -0.31080006153106382 0.20197173666100501 0 -0.3108046026399135 0.18379038091696129 0 -0.29917056928694541 0.1864234356954344 0 -0.28878760701375322 0.1984352968903606 0 -0.29917056928694541 0.1864234356954344 0 -0.28955343229492791 0.1852490896997587 0 -0.29521310730918271 0.21354937073956171 0 -0.28878760701375322 0.1984352968903606 0 -0.29917056928694541 0.1864234356954344 0 -0.28878760701375322 0.1984352968903606 0 -0.27938784373491388 0.18917199981814359 0 -0.28955343229492791 0.1852490896997587 0 -0.27938784373491388 0.18917199981814359 0 -0.27490594785389072 0.20112241201531189 0 -0.26439180367967152 0.18225540552070321 0 -0.28878760701375322 0.1984352968903606 0 -0.27938784373491388 0.18917199981814359 0 -0.27490594785389072 0.20112241201531189 0 -0.27490594785389072 0.20112241201531189 0 -0.25370102580463139 0.2052288024824625 0 -0.26439180367967152 0.18225540552070321 0 -0.25370102580463139 0.2052288024824625 0 -0.26439180367967152 0.18225540552070321 0 -0.23359887481107691 0.1809086922627815 0 -0.27490594785389072 0.20112241201531189 0 -0.25370102580463139 0.2052288024824625 0 -0.27258595833473342 0.22149207507906341 0 -0.29521310730918271 0.21354937073956171 0 -0.27490594785389072 0.20112241201531189 0 -0.27258595833473342 0.22149207507906341 0 -0.29125564533142001 0.24067530578368901 0 -0.27258595833473342 0.22149207507906341 0 -0.26834113505385238 0.23837358332174549 0 -0.27258595833473342 0.22149207507906341 0 -0.25272375818517617 0.22994970808158929 0 -0.26834113505385238 0.23837358332174549 0 -0.25370102580463139 0.2052288024824625 0 -0.27258595833473342 0.22149207507906341 0 -0.25272375818517617 0.22994970808158929 0 -0.25272375818517617 0.22994970808158929 0 -0.25621817608628389 0.2460965770837312 0 -0.26834113505385238 0.23837358332174549 0 -0.25621817608628389 0.2460965770837312 0 -0.26834113505385238 0.23837358332174549 0 -0.26892213733164849 0.25365425058065472 0 -0.29125564533142001 0.24067530578368901 0 -0.26834113505385238 0.23837358332174549 0 -0.26892213733164849 0.25365425058065472 0 -0.29370567785695612 0.15770531643225719 0 -0.28412418886142132 0.16518528890623771 0 -0.28065913062351988 0.14575155473079041 0 -0.30159211447790629 0.14759241864651959 0 -0.29370567785695612 0.15770531643225719 0 -0.28065913062351988 0.14575155473079041 0 -0.29682817834931757 0.13068013418198679 0 -0.30159211447790629 0.14759241864651959 0 -0.28065913062351988 0.14575155473079041 0 -0.29682817834931757 0.13068013418198679 0 -0.28065913062351988 0.14575155473079041 0 -0.28285123447775751 0.1183560919224374 0 -0.31354631638020197 0.13395604467094269 0 -0.29682817834931757 0.13068013418198679 0 -0.30159211447790629 0.14759241864651959 0 -0.31354631638020197 0.13395604467094269 0 -0.3122891553291075 0.14635758184588041 0 -0.30159211447790629 0.14759241864651959 0 -0.31353256245119709 0.1587605055712967 0 -0.3122891553291075 0.14635758184588041 0 -0.30159211447790629 0.14759241864651959 0 -0.31496429102988749 0.16269226213852109 0 -0.31353256245119709 0.1587605055712967 0 -0.30488677357152572 0.1641353808659653 0 -0.30159211447790629 0.14759241864651959 0 -0.30488677357152572 0.1641353808659653 0 -0.29370567785695612 0.15770531643225719 0 -0.31353256245119709 0.1587605055712967 0 -0.30159211447790629 0.14759241864651959 0 -0.30488677357152572 0.1641353808659653 0 -0.31496429102988749 0.16269226213852109 0 -0.30225886166240762 0.17397067591913981 0 -0.31303823693556859 0.17707572181323081 0 -0.31496429102988749 0.16269226213852109 0 -0.30225886166240762 0.17397067591913981 0 -0.31496429102988749 0.16269226213852109 0 -0.30488677357152572 0.1641353808659653 0 -0.30225886166240762 0.17397067591913981 0 -0.30488677357152572 0.1641353808659653 0 -0.30225886166240762 0.17397067591913981 0 -0.29597535979189887 0.1670989905046398 0 -0.30488677357152572 0.1641353808659653 0 -0.29370567785695612 0.15770531643225719 0 -0.29597535979189887 0.1670989905046398 0 -0.31303823693556859 0.17707572181323081 0 -0.3108046026399135 0.18379038091696129 0 -0.30225886166240762 0.17397067591913981 0 -0.30225886166240762 0.17397067591913981 0 -0.29917056928694541 0.1864234356954344 0 -0.28955343229492791 0.1852490896997587 0 -0.3108046026399135 0.18379038091696129 0 -0.30225886166240762 0.17397067591913981 0 -0.29917056928694541 0.1864234356954344 0 -0.30225886166240762 0.17397067591913981 0 -0.28955343229492791 0.1852490896997587 0 -0.30225886166240762 0.17397067591913981 0 -0.28955343229492791 0.1852490896997587 0 -0.29024545837739651 0.173916500811098 0 -0.28955343229492791 0.1852490896997587 0 -0.29024545837739651 0.173916500811098 0 -0.27889874324695868 0.17762520371433099 0 -0.29024545837739651 0.173916500811098 0 -0.28412418886142132 0.16518528890623771 0 -0.27889874324695868 0.17762520371433099 0 -0.27938784373491388 0.18917199981814359 0 -0.28955343229492791 0.1852490896997587 0 -0.27889874324695868 0.17762520371433099 0 -0.29370567785695612 0.15770531643225719 0 -0.29597535979189887 0.1670989905046398 0 -0.28412418886142132 0.16518528890623771 0 -0.30225886166240762 0.17397067591913981 0 -0.29024545837739651 0.173916500811098 0 -0.29597535979189887 0.1670989905046398 0 -0.29024545837739651 0.173916500811098 0 -0.29597535979189887 0.1670989905046398 0 -0.28412418886142132 0.16518528890623771 0 -0.28412418886142132 0.16518528890623771 0 -0.26844272787379447 0.16268744982768751 0 -0.27889874324695868 0.17762520371433099 0 -0.28412418886142132 0.16518528890623771 0 -0.26844272787379447 0.16268744982768751 0 -0.28065913062351988 0.14575155473079041 0 -0.26844272787379447 0.16268744982768751 0 -0.27889874324695868 0.17762520371433099 0 -0.26439180367967152 0.18225540552070321 0 -0.27938784373491388 0.18917199981814359 0 -0.27889874324695868 0.17762520371433099 0 -0.26439180367967152 0.18225540552070321 0 -0.26844272787379447 0.16268744982768751 0 -0.26439180367967152 0.18225540552070321 0 -0.247018622616726 0.15992587597476091 0 -0.26844272787379447 0.16268744982768751 0 -0.25846103874104392 0.14702121199507179 0 -0.247018622616726 0.15992587597476091 0 -0.26844272787379447 0.16268744982768751 0 -0.25846103874104392 0.14702121199507179 0 -0.28065913062351988 0.14575155473079041 0 -0.25846103874104392 0.14702121199507179 0 -0.28065913062351988 0.14575155473079041 0 -0.25922316449870308 0.12628093809151891 0 -0.28065913062351988 0.14575155473079041 0 -0.25922316449870308 0.12628093809151891 0 -0.28285123447775751 0.1183560919224374 0 -0.25846103874104392 0.14702121199507179 0 -0.25922316449870308 0.12628093809151891 0 -0.2369615480924761 0.1404602413506009 0 -0.25922316449870308 0.12628093809151891 0 -0.25136603029008331 0.1103208693098497 0 -0.26687835675477128 0.1014348965859585 0 -0.25136603029008331 0.1103208693098497 0 -0.26687835675477128 0.1014348965859585 0 -0.24377998071086901 0.096378574065869249 0 -0.26687835675477128 0.1014348965859585 0 -0.28737892951993471 0.098967158637655914 0 -0.27569457229827071 0.081243623470509244 0 -0.26687835675477128 0.1014348965859585 0 -0.28285123447775751 0.1183560919224374 0 -0.28737892951993471 0.098967158637655914 0 -0.25922316449870308 0.12628093809151891 0 -0.26687835675477128 0.1014348965859585 0 -0.28285123447775751 0.1183560919224374 0 -0.29682817834931757 0.13068013418198679 0 -0.28285123447775751 0.1183560919224374 0 -0.30549209578720232 0.10774456093924389 0 -0.28285123447775751 0.1183560919224374 0 -0.28737892951993471 0.098967158637655914 0 -0.30549209578720232 0.10774456093924389 0 -0.28737892951993471 0.098967158637655914 0 -0.30549209578720232 0.10774456093924389 0 -0.29743787519420251 0.08153307720754506 0 -0.30549209578720232 0.10774456093924389 0 -0.29743787519420251 0.08153307720754506 0 -0.31354631638020197 0.13395604467094269 0 -0.29682817834931757 0.13068013418198679 0 -0.30549209578720232 0.10774456093924389 0 -0.31354631638020197 0.13395604467094269 0 -0.30549209578720232 0.10774456093924389 0 -0.29926204670725021 0.066629363318123747 0 -0.30931237829482389 0.073252958087475881 0 -0.31697319293959142 0.061410437985649477 0 -0.29926204670725021 0.066629363318123747 0 -0.30931237829482389 0.073252958087475881 0 -0.29743787519420251 0.08153307720754506 0 -0.30549209578720232 0.10774456093924389 0 -0.29743787519420251 0.08153307720754506 0 -0.31312795334666071 0.083579729522452809 0 -0.30931237829482389 0.073252958087475881 0 -0.29743787519420251 0.08153307720754506 0 -0.31312795334666071 0.083579729522452809 0 -0.28737892951993471 0.098967158637655914 0 -0.29743787519420251 0.08153307720754506 0 -0.27569457229827071 0.081243623470509244 0 -0.29743787519420251 0.08153307720754506 0 -0.28743776060402371 0.060458689408765323 0 -0.28938365460120269 0.05532159347584624 0 -0.29743787519420251 0.08153307720754506 0 -0.28938365460120269 0.05532159347584624 0 -0.29926204670725021 0.066629363318123747 0 -0.29743787519420251 0.08153307720754506 0 -0.28938365460120269 0.05532159347584624 0 -0.29743787519420251 0.08153307720754506 0 -0.27569457229827071 0.081243623470509244 0 -0.28743776060402371 0.060458689408765323 0 -0.27569457229827071 0.081243623470509244 0 -0.26257114212692878 0.06573449919026883 0 -0.28743776060402371 0.060458689408765323 0 -0.26257114212692878 0.06573449919026883 0 -0.28743776060402371 0.060458689408765323 0 -0.26687835675477128 0.1014348965859585 0 -0.25261226255175379 0.080423606239198905 0 -0.24377998071086901 0.096378574065869249 0 -0.26687835675477128 0.1014348965859585 0 -0.27569457229827071 0.081243623470509244 0 -0.25261226255175379 0.080423606239198905 0 -0.26257114212692878 0.06573449919026883 0 -0.23770452364983391 0.071010308971772351 0 -0.25261226255175379 0.080423606239198905 0 -0.26257114212692878 0.06573449919026883 0 -0.23770452364983391 0.071010308971772351 0 -0.27569457229827071 0.081243623470509244 0 -0.25261226255175379 0.080423606239198905 0 -0.26257114212692878 0.06573449919026883 0 -0.2522816967992324 0.037264740289820159 0 -0.27263172987273521 0.051913181220590639 0 -0.24906194248509719 0.058488871325365822 0 -0.26257114212692878 0.06573449919026883 0 -0.27263172987273521 0.051913181220590639 0 -0.24906194248509719 0.058488871325365822 0 -0.2522816967992324 0.037264740289820159 0 -0.2684979789729644 0.03593820420606865 0 -0.27263172987273521 0.051913181220590639 0 -0.2684979789729644 0.03593820420606865 0 -0.27263172987273521 0.051913181220590639 0 -0.28132943400820298 0.02911010974414751 0 -0.27263172987273521 0.051913181220590639 0 -0.28132943400820298 0.02911010974414751 0 -0.28938365460120269 0.05532159347584624 0 -0.26257114212692878 0.06573449919026883 0 -0.27263172987273521 0.051913181220590639 0 -0.28743776060402371 0.060458689408765323 0 -0.25267499080189931 -0.0034516002120552492 0 -0.26909988492935111 -0.0018655285383734981 0 -0.25157722050270093 0.012682655753942951 0 -0.26909988492935111 -0.0018655285383734981 0 -0.25157722050270093 0.012682655753942951 0 -0.27200359261247947 0.017754051058092819 0 -0.2522816967992324 0.037264740289820159 0 -0.25157722050270093 0.012682655753942951 0 -0.27200359261247947 0.017754051058092819 0 -0.2522816967992324 0.037264740289820159 0 -0.2684979789729644 0.03593820420606865 0 -0.27200359261247947 0.017754051058092819 0 -0.2522816967992324 0.037264740289820159 0 -0.27200359261247947 0.017754051058092819 0 -0.27200359261247947 0.017754051058092819 0 -0.28831373269731447 0.017122983851404761 0 -0.28132943400820298 0.02911010974414751 0 -0.2684979789729644 0.03593820420606865 0 -0.27200359261247947 0.017754051058092819 0 -0.28132943400820298 0.02911010974414751 0 -0.26909988492935111 -0.0018655285383734981 0 -0.2917254884257266 -0.0017566381736345419 0 -0.27200359261247947 0.017754051058092819 0 -0.2917254884257266 -0.0017566381736345419 0 -0.27200359261247947 0.017754051058092819 0 -0.28831373269731447 0.017122983851404761 0 -0.2917254884257266 -0.0017566381736345419 0 -0.28831373269731447 0.017122983851404761 0 -0.29997880334656019 0.01439552450637107 0 -0.2917254884257266 -0.0017566381736345419 0 -0.27200359261247947 0.017754051058092819 0 -0.28831373269731447 0.017122983851404761 0 -0.29656482898857922 0.02610767777843559 0 -0.29997880334656019 0.01439552450637107 0 -0.28831373269731447 0.017122983851404761 0 -0.28132943400820298 0.02911010974414751 0 -0.29656482898857922 0.02610767777843559 0 -0.28132943400820298 0.02911010974414751 0 -0.29656482898857922 0.02610767777843559 0 -0.29344050585463782 0.03493273697686209 0 -0.29656482898857922 0.02610767777843559 0 -0.31039051656375261 0.022327184027059441 0 -0.30541723396373921 0.038711125382435783 0 -0.31039051656375261 0.022327184027059441 0 -0.30541723396373921 0.038711125382435783 0 -0.32038394146944787 0.031620215762440292 0 -0.29656482898857922 0.02610767777843559 0 -0.31039051656375261 0.022327184027059441 0 -0.29997880334656019 0.01439552450637107 0 -0.31039051656375261 0.022327184027059441 0 -0.31177688145040278 0.0050359958776742568 0 -0.29997880334656019 0.01439552450637107 0 -0.2917254884257266 -0.0017566381736345419 0 -0.31177688145040278 0.0050359958776742568 0 -0.29997880334656019 0.01439552450637107 0 -0.27263172987273521 0.051913181220590639 0 -0.28743776060402371 0.060458689408765323 0 -0.28938365460120269 0.05532159347584624 0 -0.28938365460120269 0.05532159347584624 0 -0.29045052645802971 0.045802035002429492 0 -0.29738278035354182 0.050541329601553678 0 -0.28938365460120269 0.05532159347584624 0 -0.29738278035354182 0.050541329601553678 0 -0.29780899910201009 0.056562827273038227 0 -0.29926204670725021 0.066629363318123747 0 -0.28938365460120269 0.05532159347584624 0 -0.29780899910201009 0.056562827273038227 0 -0.28132943400820298 0.02911010974414751 0 -0.28938365460120269 0.05532159347584624 0 -0.29045052645802971 0.045802035002429492 0 -0.28132943400820298 0.02911010974414751 0 -0.28938365460120269 0.05532159347584624 0 -0.28132943400820298 0.02911010974414751 0 -0.29344050585463782 0.03493273697686209 0 -0.29045052645802971 0.045802035002429492 0 -0.29344050585463782 0.03493273697686209 0 -0.29045052645802971 0.045802035002429492 0 -0.30541723396373921 0.038711125382435783 0 -0.29045052645802971 0.045802035002429492 0 -0.30541723396373921 0.038711125382435783 0 -0.29738278035354182 0.050541329601553678 0 -0.29045052645802971 0.045802035002429492 0 -0.30541723396373921 0.038711125382435783 0 -0.29656482898857922 0.02610767777843559 0 -0.29344050585463782 0.03493273697686209 0 -0.30541723396373921 0.038711125382435783 0 -0.30541723396373921 0.038711125382435783 0 -0.30520751474604563 0.05375902269662923 0 -0.31780711793698518 0.045521831715634557 0 -0.29926204670725021 0.066629363318123747 0 -0.30520751474604563 0.05375902269662923 0 -0.31697319293959142 0.061410437985649477 0 -0.30541723396373921 0.038711125382435783 0 -0.30520751474604563 0.05375902269662923 0 -0.29738278035354182 0.050541329601553678 0 -0.30520751474604563 0.05375902269662923 0 -0.29738278035354182 0.050541329601553678 0 -0.29780899910201009 0.056562827273038227 0 -0.29926204670725021 0.066629363318123747 0 -0.30520751474604563 0.05375902269662923 0 -0.29780899910201009 0.056562827273038227 0 -0.32553678940662539 0.052415823907368687 0 -0.31780711793698518 0.045521831715634557 0 -0.33422422494732851 0.04449049745268327 0 -0.31697319293959142 0.061410437985649477 0 -0.32553678940662539 0.052415823907368687 0 -0.31780711793698518 0.045521831715634557 0 -0.30520751474604563 0.05375902269662923 0 -0.31697319293959142 0.061410437985649477 0 -0.31780711793698518 0.045521831715634557 0 -0.31697319293959142 0.061410437985649477 0 -0.32808937753058609 0.059947696530402161 0 -0.32553678940662539 0.052415823907368687 0 -0.31780711793698518 0.045521831715634557 0 -0.32038394146944787 0.031620215762440292 0 -0.33422422494732851 0.04449049745268327 0 -0.30541723396373921 0.038711125382435783 0 -0.31780711793698518 0.045521831715634557 0 -0.32038394146944787 0.031620215762440292 0 -0.30541723396373921 0.038711125382435783 0 -0.32038394146944787 0.031620215762440292 0 -0.32038394146944787 0.031620215762440292 0 -0.33422422494732851 0.04449049745268327 0 -0.33422422494732851 0.04449049745268327 0 -0.34051642268078958 0.02208187176518148 0 -0.34924074101412461 0.03711639968071382 0 -0.32038394146944787 0.031620215762440292 0 -0.33422422494732851 0.04449049745268327 0 -0.34051642268078958 0.02208187176518148 0 -0.33422422494732851 0.04449049745268327 0 -0.34715076893326918 0.04673829876922056 0 -0.34924074101412461 0.03711639968071382 0 -0.33422422494732851 0.04449049745268327 0 -0.34806450842520742 0.057360779142928031 0 -0.34715076893326918 0.04673829876922056 0 -0.33422422494732851 0.04449049745268327 0 -0.34806450842520742 0.057360779142928031 0 -0.33422422494732851 0.04449049745268327 0 -0.33482930480244999 0.055095026294593591 0 -0.34806450842520742 0.057360779142928031 0 -0.3407399656121517 0.06083029771636933 0 -0.33482930480244999 0.055095026294593591 0 -0.33440717105718593 0.063083878638897639 0 -0.3407399656121517 0.06083029771636933 0 -0.33482930480244999 0.055095026294593591 0 -0.34806450842520742 0.057360779142928031 0 -0.32808937753058609 0.059947696530402161 0 -0.33482930480244999 0.055095026294593591 0 -0.33440717105718593 0.063083878638897639 0 -0.32808937753058609 0.059947696530402161 0 -0.32553678940662539 0.052415823907368687 0 -0.33482930480244999 0.055095026294593591 0 -0.32553678940662539 0.052415823907368687 0 -0.33422422494732851 0.04449049745268327 0 -0.33482930480244999 0.055095026294593591 0 -0.31039051656375261 0.022327184027059441 0 -0.31177688145040278 0.0050359958776742568 0 -0.3261420213634148 0.01391490981329808 0 -0.32828291010712762 -0.0049346835118845543 0 -0.31177688145040278 0.0050359958776742568 0 -0.3261420213634148 0.01391490981329808 0 -0.31039051656375261 0.022327184027059441 0 -0.32038394146944787 0.031620215762440292 0 -0.3261420213634148 0.01391490981329808 0 -0.31039051656375261 0.022327184027059441 0 -0.32038394146944787 0.031620215762440292 0 -0.32038394146944787 0.031620215762440292 0 -0.34051642268078958 0.02208187176518148 0 -0.32038394146944787 0.031620215762440292 0 -0.3261420213634148 0.01391490981329808 0 -0.34051642268078958 0.02208187176518148 0 -0.3261420213634148 0.01391490981329808 0 -0.34051642268078958 0.02208187176518148 0 -0.34055428987364128 0.0059527955302196532 0 -0.32828291010712762 -0.0049346835118845543 0 -0.3261420213634148 0.01391490981329808 0 -0.34055428987364128 0.0059527955302196532 0 -0.34051642268078958 0.02208187176518148 0 -0.34055428987364128 0.0059527955302196532 0 -0.36064890389212972 0.0125435277679194 0 -0.34718119132474479 -0.01384164818341615 0 -0.34055428987364128 0.0059527955302196532 0 -0.36064890389212972 0.0125435277679194 0 -0.34051642268078958 0.02208187176518148 0 -0.36064890389212972 0.0125435277679194 0 -0.34051642268078958 0.02208187176518148 0 -0.35699945364537122 0.027147445145089769 0 -0.34924074101412461 0.03711639968071382 0 -0.34051642268078958 0.02208187176518148 0 -0.35699945364537122 0.027147445145089769 0 -0.36064890389212972 0.0125435277679194 0 -0.35699945364537122 0.027147445145089769 0 -0.36163302121541668 0.029781402687577421 0 -0.35940737946489582 0.035374977024224222 0 -0.37998819155715241 0.0057865511937031933 0 -0.36738966121720701 0.029980518529024301 0 -0.37123175334181557 0.027162262264614271 0 -0.37998819155715241 0.0057865511937031933 0 -0.36738966121720701 0.029980518529024301 0 -0.3645477689834325 0.020181962352102071 0 -0.37998819155715241 0.0057865511937031933 0 -0.36738966121720701 0.029980518529024301 0 -0.36273559053419291 0.026622670051971411 0 -0.36738966121720701 0.029980518529024301 0 -0.3645477689834325 0.020181962352102071 0 -0.35699945364537122 0.027147445145089769 0 -0.36163302121541668 0.029781402687577421 0 -0.36273559053419291 0.026622670051971411 0 -0.35699945364537122 0.027147445145089769 0 -0.36273559053419291 0.026622670051971411 0 -0.3645477689834325 0.020181962352102071 0 -0.36163302121541668 0.029781402687577421 0 -0.36273559053419291 0.026622670051971411 0 -0.36738966121720701 0.029980518529024301 0 -0.35699945364537122 0.027147445145089769 0 -0.3645477689834325 0.020181962352102071 0 -0.36064890389212972 0.0125435277679194 0 -0.3645477689834325 0.020181962352102071 0 -0.36064890389212972 0.0125435277679194 0 -0.37998819155715241 0.0057865511937031933 0 -0.3645477689834325 0.020181962352102071 0 -0.36064890389212972 0.0125435277679194 0 -0.38683543611469601 0.0001369023841863784 0 -0.36064890389212972 0.0125435277679194 0 -0.37474494217865062 -0.0022388935110706832 0 -0.38683543611469601 0.0001369023841863784 0 -0.36064890389212972 0.0125435277679194 0 -0.37474494217865062 -0.0022388935110706832 0 -0.36307869926690151 -0.00068504054922277494 0 -0.36064890389212972 0.0125435277679194 0 -0.35479113087726238 0.05417448586434577 0 -0.34715076893326918 0.04673829876922056 0 -0.35593663516940488 0.04278932274017315 0 -0.35479113087726238 0.05417448586434577 0 -0.35147867423579721 0.06053566178096708 0 -0.3622197730044176 0.060127746183944272 0 -0.35479113087726238 0.05417448586434577 0 -0.35147867423579721 0.06053566178096708 0 -0.35479113087726238 0.05417448586434577 0 -0.34806450842520742 0.057360779142928031 0 -0.35147867423579721 0.06053566178096708 0 -0.35479113087726238 0.05417448586434577 0 -0.34806450842520742 0.057360779142928031 0 -0.34806450842520742 0.057360779142928031 0 -0.35147867423579721 0.06053566178096708 0 -0.3447014191436914 0.063951910484466787 0 -0.34806450842520742 0.057360779142928031 0 -0.35147867423579721 0.06053566178096708 0 -0.3407399656121517 0.06083029771636933 0 -0.34806450842520742 0.057360779142928031 0 -0.3407399656121517 0.06083029771636933 0 -0.34806450842520742 0.057360779142928031 0 -0.3447014191436914 0.063951910484466787 0 -0.35479113087726238 0.05417448586434577 0 -0.34806450842520742 0.057360779142928031 0 -0.34715076893326918 0.04673829876922056 0 -0.34715076893326918 0.04673829876922056 0 -0.34924074101412461 0.03711639968071382 0 -0.35593663516940488 0.04278932274017315 0 -0.36738966121720701 0.029980518529024301 0 -0.35479113087726238 0.05417448586434577 0 -0.35593663516940488 0.04278932274017315 0 -0.35699945364537122 0.027147445145089769 0 -0.34924074101412461 0.03711639968071382 0 -0.35940737946489582 0.035374977024224222 0 -0.34924074101412461 0.03711639968071382 0 -0.35593663516940488 0.04278932274017315 0 -0.35940737946489582 0.035374977024224222 0 -0.36738966121720701 0.029980518529024301 0 -0.35479113087726238 0.05417448586434577 0 -0.36677646394688163 0.041367990420506082 0 -0.37123175334181557 0.027162262264614271 0 -0.37046143272875132 0.04675171495388801 0 -0.36738966121720701 0.029980518529024301 0 -0.35479113087726238 0.05417448586434577 0 -0.37123175334181557 0.027162262264614271 0 -0.36677646394688163 0.041367990420506082 0 -0.37046143272875132 0.04675171495388801 0 -0.3764786745208083 0.032098692741998169 0 -0.37123175334181557 0.027162262264614271 0 -0.37046143272875132 0.04675171495388801 0 -0.36163302121541668 0.029781402687577421 0 -0.36738966121720701 0.029980518529024301 0 -0.35940737946489582 0.035374977024224222 0 -0.36738966121720701 0.029980518529024301 0 -0.35593663516940488 0.04278932274017315 0 -0.35940737946489582 0.035374977024224222 0 -0.36738966121720701 0.029980518529024301 0 -0.37123175334181557 0.027162262264614271 0 -0.36677646394688163 0.041367990420506082 0 -0.36677646394688163 0.041367990420506082 0 -0.37046143272875132 0.04675171495388801 0 -0.36802302346639398 0.047906750352184523 0 -0.36677646394688163 0.041367990420506082 0 -0.36802302346639398 0.047906750352184523 0 -0.37046143272875132 0.04675171495388801 0 -0.37000681959492809 0.05831264468359916 0 -0.36802302346639398 0.047906750352184523 0 -0.37000681959492809 0.05831264468359916 0 -0.37046143272875132 0.04675171495388801 0 -0.36802302346639398 0.047906750352184523 0 -0.37000681959492809 0.05831264468359916 0 -0.37046143272875132 0.04675171495388801 0 -0.36802302346639398 0.047906750352184523 0 -0.35479113087726238 0.05417448586434577 0 -0.36802302346639398 0.047906750352184523 0 -0.35479113087726238 0.05417448586434577 0 -0.36802302346639398 0.047906750352184523 0 -0.3622197730044176 0.060127746183944272 0 -0.35479113087726238 0.05417448586434577 0 -0.36677646394688163 0.041367990420506082 0 -0.36802302346639398 0.047906750352184523 0 -0.36802302346639398 0.047906750352184523 0 -0.3622197730044176 0.060127746183944272 0 -0.37000681959492809 0.05831264468359916 0 -0.35147867423579721 0.06053566178096708 0 -0.36926886504626422 0.077079019973005369 0 -0.3622197730044176 0.060127746183944272 0 -0.37000681959492809 0.05831264468359916 0 -0.36926886504626422 0.077079019973005369 0 -0.37000681959492809 0.05831264468359916 0 -0.36926886504626422 0.077079019973005369 0 -0.37079498002478778 0.078498176574577722 0 -0.36926886504626422 0.077079019973005369 0 -0.34551673285671652 0.071984855543133663 0 -0.36912013352382872 0.080861301107253064 0 -0.37000681959492809 0.05831264468359916 0 -0.37079498002478778 0.078498176574577722 0 -0.37470600383380392 0.082961959162170973 0 -0.35147867423579721 0.06053566178096708 0 -0.3622197730044176 0.060127746183944272 0 -0.36926886504626422 0.077079019973005369 0 -0.37000681959492809 0.05831264468359916 0 -0.37470600383380392 0.082961959162170973 0 -0.37000681959492809 0.05831264468359916 0 -0.36926886504626422 0.077079019973005369 0 -0.36926886504626422 0.077079019973005369 0 -0.37079498002478778 0.078498176574577722 0 -0.34551673285671652 0.071984855543133663 0 -0.34763839367566191 0.079069075487607554 0 -0.36912013352382872 0.080861301107253064 0 -0.34551673285671652 0.071984855543133663 0 -0.36912013352382872 0.080861301107253064 0 -0.35147867423579721 0.06053566178096708 0 -0.36926886504626422 0.077079019973005369 0 -0.34551673285671652 0.071984855543133663 0 -0.34408269824063842 0.074738747125954852 0 -0.34763839367566191 0.079069075487607554 0 -0.34179116264722731 0.080399472229040897 0 -0.34408269824063842 0.074738747125954852 0 -0.34551673285671652 0.071984855543133663 0 -0.34763839367566191 0.079069075487607554 0 -0.34408269824063842 0.074738747125954852 0 -0.34551673285671652 0.071984855543133663 0 -0.35147867423579721 0.06053566178096708 0 -0.34551673285671652 0.071984855543133663 0 -0.3447014191436914 0.063951910484466787 0 -0.35147867423579721 0.06053566178096708 0 -0.34551673285671652 0.071984855543133663 0 -0.34763839367566191 0.079069075487607554 0 -0.36858415035949882 0.094491491786065696 0 -0.34763839367566191 0.079069075487607554 0 -0.36858415035949882 0.094491491786065696 0 -0.35198293914272999 0.094145145766245733 0 -0.34456144318064219 0.08667329674911145 0 -0.34763839367566191 0.079069075487607554 0 -0.35198293914272999 0.094145145766245733 0 -0.34456144318064219 0.08667329674911145 0 -0.35198293914272999 0.094145145766245733 0 -0.34431035454597703 0.093789606507308373 0 -0.34456144318064219 0.08667329674911145 0 -0.34763839367566191 0.079069075487607554 0 -0.34179116264722731 0.080399472229040897 0 -0.3782625711058698 0.101617738696854 0 -0.37470600383380392 0.082961959162170973 0 -0.36858415035949882 0.094491491786065696 0 -0.34763839367566191 0.079069075487607554 0 -0.36912013352382872 0.080861301107253064 0 -0.36858415035949882 0.094491491786065696 0 -0.36926886504626422 0.077079019973005369 0 -0.37079498002478778 0.078498176574577722 0 -0.36912013352382872 0.080861301107253064 0 -0.36926886504626422 0.077079019973005369 0 -0.36912013352382872 0.080861301107253064 0 -0.36912013352382872 0.080861301107253064 0 -0.37470600383380392 0.082961959162170973 0 -0.37079498002478778 0.078498176574577722 0 -0.36912013352382872 0.080861301107253064 0 -0.37470600383380392 0.082961959162170973 0 -0.36912013352382872 0.080861301107253064 0 -0.37470600383380392 0.082961959162170973 0 -0.36858415035949882 0.094491491786065696 0 -0.36912013352382872 0.080861301107253064 0 -0.36858415035949882 0.094491491786065696 0 -0.36858415035949882 0.094491491786065696 0 -0.36747352968705388 0.12273486311700831 0 -0.3782625711058698 0.101617738696854 0 -0.36858415035949882 0.094491491786065696 0 -0.36858415035949882 0.094491491786065696 0 -0.36006702585218792 0.10838608290929221 0 -0.35198293914272999 0.094145145766245733 0 -0.36858415035949882 0.094491491786065696 0 -0.36006702585218792 0.10838608290929221 0 -0.36747352968705388 0.12273486311700831 0 -0.3782625711058698 0.101617738696854 0 -0.36858415035949882 0.094491491786065696 0 -0.36747352968705388 0.12273486311700831 0 -0.36006702585218792 0.10838608290929221 0 -0.36747352968705388 0.12273486311700831 0 -0.35832203275528268 0.1183511860346923 0 -0.35528769071996391 0.12689780186549679 0 -0.36747352968705388 0.12273486311700831 0 -0.35832203275528268 0.1183511860346923 0 -0.35528769071996391 0.12689780186549679 0 -0.35832203275528268 0.1183511860346923 0 -0.35045988476192508 0.115385996246972 0 -0.36006702585218792 0.10838608290929221 0 -0.35832203275528268 0.1183511860346923 0 -0.35045988476192508 0.115385996246972 0 -0.35045988476192508 0.115385996246972 0 -0.34547580274860562 0.10394098399483009 0 -0.33570271963636877 0.11206429961599181 0 -0.35528769071996391 0.12689780186549679 0 -0.35045988476192508 0.115385996246972 0 -0.34115039425197219 0.12498493974687711 0 -0.36006702585218792 0.10838608290929221 0 -0.35198293914272999 0.094145145766245733 0 -0.34547580274860562 0.10394098399483009 0 -0.36006702585218792 0.10838608290929221 0 -0.35045988476192508 0.115385996246972 0 -0.34547580274860562 0.10394098399483009 0 -0.35198293914272999 0.094145145766245733 0 -0.34547580274860562 0.10394098399483009 0 -0.34431035454597703 0.093789606507308373 0 -0.34547580274860562 0.10394098399483009 0 -0.34431035454597703 0.093789606507308373 0 -0.335413749579693 0.097286071719103154 0 -0.34547580274860562 0.10394098399483009 0 -0.335413749579693 0.097286071719103154 0 -0.33570271963636877 0.11206429961599181 0 -0.335413749579693 0.097286071719103154 0 -0.33570271963636877 0.11206429961599181 0 -0.32444247844199348 0.1047035033472971 0 -0.35045988476192508 0.115385996246972 0 -0.34115039425197219 0.12498493974687711 0 -0.33570271963636877 0.11206429961599181 0 -0.32917568526667751 0.12578156900391591 0 -0.33570271963636877 0.11206429961599181 0 -0.32114709127587232 0.11611322513389059 0 -0.32917568526667751 0.12578156900391591 0 -0.34115039425197219 0.12498493974687711 0 -0.33570271963636877 0.11206429961599181 0 -0.31354631638020197 0.13395604467094269 0 -0.30549209578720232 0.10774456093924389 0 -0.32114709127587232 0.11611322513389059 0 -0.30549209578720232 0.10774456093924389 0 -0.32114709127587232 0.11611322513389059 0 -0.32444247844199348 0.1047035033472971 0 -0.33570271963636877 0.11206429961599181 0 -0.32114709127587232 0.11611322513389059 0 -0.32444247844199348 0.1047035033472971 0 -0.30549209578720232 0.10774456093924389 0 -0.32444247844199348 0.1047035033472971 0 -0.32445673593083119 0.090309359328255762 0 -0.30549209578720232 0.10774456093924389 0 -0.32445673593083119 0.090309359328255762 0 -0.31312795334666071 0.083579729522452809 0 -0.335413749579693 0.097286071719103154 0 -0.32444247844199348 0.1047035033472971 0 -0.32445673593083119 0.090309359328255762 0 -0.32445673593083119 0.090309359328255762 0 -0.3275606083710243 0.080211281293741998 0 -0.31312795334666071 0.083579729522452809 0 -0.3275606083710243 0.080211281293741998 0 -0.31312795334666071 0.083579729522452809 0 -0.31976082328641481 0.073112182403608325 0 -0.30931237829482389 0.073252958087475881 0 -0.31312795334666071 0.083579729522452809 0 -0.31976082328641481 0.073112182403608325 0 -0.30931237829482389 0.073252958087475881 0 -0.31697319293959142 0.061410437985649477 0 -0.31976082328641481 0.073112182403608325 0 -0.31697319293959142 0.061410437985649477 0 -0.31976082328641481 0.073112182403608325 0 -0.32886731949388731 0.069155273298144179 0 -0.31697319293959142 0.061410437985649477 0 -0.32808937753058609 0.059947696530402161 0 -0.32886731949388731 0.069155273298144179 0 -0.3275606083710243 0.080211281293741998 0 -0.31976082328641481 0.073112182403608325 0 -0.32886731949388731 0.069155273298144179 0 -0.32886731949388731 0.069155273298144179 0 -0.33770721458858299 0.069047958238937293 0 -0.336378655355973 0.076693290193422539 0 -0.3275606083710243 0.080211281293741998 0 -0.32886731949388731 0.069155273298144179 0 -0.336378655355973 0.076693290193422539 0 -0.33440717105718593 0.063083878638897639 0 -0.32886731949388731 0.069155273298144179 0 -0.33770721458858299 0.069047958238937293 0 -0.32808937753058609 0.059947696530402161 0 -0.33440717105718593 0.063083878638897639 0 -0.32886731949388731 0.069155273298144179 0 -0.3407399656121517 0.06083029771636933 0 -0.33440717105718593 0.063083878638897639 0 -0.33770721458858299 0.069047958238937293 0 -0.3407399656121517 0.06083029771636933 0 -0.3447014191436914 0.063951910484466787 0 -0.33770721458858299 0.069047958238937293 0 -0.34551673285671652 0.071984855543133663 0 -0.3447014191436914 0.063951910484466787 0 -0.33770721458858299 0.069047958238937293 0 -0.34408269824063842 0.074738747125954852 0 -0.33770721458858299 0.069047958238937293 0 -0.336378655355973 0.076693290193422539 0 -0.34408269824063842 0.074738747125954852 0 -0.34551673285671652 0.071984855543133663 0 -0.33770721458858299 0.069047958238937293 0 -0.34551673285671652 0.071984855543133663 0 -0.33770721458858299 0.069047958238937293 0 -0.34408269824063842 0.074738747125954852 0 -0.336378655355973 0.076693290193422539 0 -0.34179116264722731 0.080399472229040897 0 -0.336378655355973 0.076693290193422539 0 -0.34179116264722731 0.080399472229040897 0 -0.33708436589161489 0.085963183755354639 0 -0.34456144318064219 0.08667329674911145 0 -0.34179116264722731 0.080399472229040897 0 -0.33708436589161489 0.085963183755354639 0 -0.34456144318064219 0.08667329674911145 0 -0.34431035454597703 0.093789606507308373 0 -0.33708436589161489 0.085963183755354639 0 -0.34431035454597703 0.093789606507308373 0 -0.335413749579693 0.097286071719103154 0 -0.33708436589161489 0.085963183755354639 0 -0.335413749579693 0.097286071719103154 0 -0.32445673593083119 0.090309359328255762 0 -0.33708436589161489 0.085963183755354639 0 -0.32445673593083119 0.090309359328255762 0 -0.3275606083710243 0.080211281293741998 0 -0.33708436589161489 0.085963183755354639 0 -0.3275606083710243 0.080211281293741998 0 -0.336378655355973 0.076693290193422539 0 -0.33708436589161489 0.085963183755354639 0 -0.38891458820749281 0.47713565504117422 0 -0.42172655890518862 0.5 0 -0.3640375775585698 0.5 0 -0.38891458820749281 0.47713565504117422 0 -0.37103467036260362 0.45695891695805302 0 -0.36943712044780219 0.47475959506207249 0 -0.39694697642853649 0.45370639251272787 0 -0.37103467036260362 0.45695891695805302 0 -0.38891458820749281 0.47713565504117422 0 -0.39694697642853649 0.45370639251272787 0 -0.37103467036260362 0.45695891695805302 0 -0.38249991962136642 0.44345487931465249 0 -0.39694697642853649 0.45370639251272787 0 -0.37103467036260362 0.45695891695805302 0 -0.38249991962136642 0.44345487931465249 0 -0.39694697642853649 0.45370639251272787 0 -0.40464661760035381 0.43350824459614162 0 -0.38891458820749281 0.47713565504117422 0 -0.39694697642853649 0.45370639251272787 0 -0.41631826774707797 0.4711213942969617 0 -0.39694697642853649 0.45370639251272787 0 -0.42285928249446952 0.45045386806740279 0 -0.41631826774707797 0.4711213942969617 0 -0.42285928249446952 0.45045386806740279 0 -0.42501824733507809 0.43459816807542118 0 -0.40464661760035381 0.43350824459614162 0 -0.39694697642853649 0.45370639251272787 0 -0.42285928249446952 0.45045386806740279 0 -0.39694697642853649 0.45370639251272787 0 -0.42285928249446952 0.45045386806740279 0 -0.40464661760035381 0.43350824459614162 0 -0.42285928249446952 0.45045386806740279 0 -0.43521244088076849 0.46107148678855758 0 -0.44877158856040261 0.44720134362207808 0 -0.42285928249446952 0.45045386806740279 0 -0.44877158856040261 0.44720134362207808 0 -0.42285928249446952 0.45045386806740279 0 -0.43592409671607729 0.44045812782560079 0 -0.44877158856040261 0.44720134362207808 0 -0.42285928249446952 0.45045386806740279 0 -0.43592409671607729 0.44045812782560079 0 -0.42501824733507809 0.43459816807542118 0 -0.42285928249446952 0.45045386806740279 0 -0.43521244088076849 0.46107148678855758 0 -0.41631826774707797 0.4711213942969617 0 -0.41631826774707797 0.4711213942969617 0 -0.42172655890518862 0.5 0 -0.43935827984199688 0.47473889959161758 0 -0.43521244088076849 0.46107148678855758 0 -0.41631826774707797 0.4711213942969617 0 -0.43935827984199688 0.47473889959161758 0 -0.38891458820749281 0.47713565504117422 0 -0.41631826774707797 0.4711213942969617 0 -0.42172655890518862 0.5 0 -0.42172655890518862 0.5 0 -0.43935827984199688 0.47473889959161758 0 -0.47784082473980471 0.47626967285504462 0 -0.42172655890518862 0.5 0 -0.5 0.5 0 -0.47784082473980471 0.47626967285504462 0 -0.43935827984199688 0.47473889959161758 0 -0.47784082473980471 0.47626967285504462 0 -0.4487547857598953 0.46184192836472759 0 -0.5 0.5 0 -0.47784082473980471 0.47626967285504462 0 -0.49999999999999589 0.44077113011354369 0 -0.47784082473980471 0.47626967285504462 0 -0.47438579428019922 0.44398623686781052 0 -0.4627013265822788 0.4545376326069438 0 -0.47784082473980471 0.47626967285504462 0 -0.49999999999999589 0.44077113011354369 0 -0.47438579428019922 0.44398623686781052 0 -0.49999999999999589 0.44077113011354369 0 -0.47438579428019922 0.44398623686781052 0 -0.48180565015534738 0.42787197640755792 0 -0.49999999999999589 0.44077113011354369 0 -0.47438579428019922 0.44398623686781052 0 -0.47438579428019922 0.44398623686781052 0 -0.4627013265822788 0.4545376326069438 0 -0.44877158856040261 0.44720134362207808 0 -0.47438579428019922 0.44398623686781052 0 -0.44877158856040261 0.44720134362207808 0 -0.47438579428019922 0.44398623686781052 0 -0.44877158856040261 0.44720134362207808 0 -0.46289485375526918 0.43579199928955081 0 -0.44877158856040261 0.44720134362207808 0 -0.44878504691792248 0.43547483269414872 0 -0.46289485375526918 0.43579199928955081 0 -0.47784082473980471 0.47626967285504462 0 -0.4627013265822788 0.4545376326069438 0 -0.4487547857598953 0.46184192836472759 0 -0.4627013265822788 0.4545376326069438 0 -0.4487547857598953 0.46184192836472759 0 -0.44877158856040261 0.44720134362207808 0 -0.4487547857598953 0.46184192836472759 0 -0.44877158856040261 0.44720134362207808 0 -0.43521244088076849 0.46107148678855758 0 -0.4487547857598953 0.46184192836472759 0 -0.44877158856040261 0.44720134362207808 0 -0.43521244088076849 0.46107148678855758 0 -0.43935827984199688 0.47473889959161758 0 -0.4487547857598953 0.46184192836472759 0 -0.44877158856040261 0.44720134362207808 0 -0.44508566455651338 0.43839632914573512 0 -0.44878504691792248 0.43547483269414872 0 -0.44877158856040261 0.44720134362207808 0 -0.44878504691792248 0.43547483269414872 0 -0.43592409671607729 0.44045812782560079 0 -0.44877158856040261 0.44720134362207808 0 -0.44508566455651338 0.43839632914573512 0 -0.44531233658805403 0.42513554986162888 0 -0.44878504691792248 0.43547483269414872 0 -0.44880957839306629 0.41410011360809668 0 -0.44878504691792248 0.43547483269414872 0 -0.44880957839306629 0.41410011360809668 0 -0.43788570063392329 0.43164093021736671 0 -0.44531233658805403 0.42513554986162888 0 -0.44878504691792248 0.43547483269414872 0 -0.43592409671607729 0.44045812782560079 0 -0.44508566455651338 0.43839632914573512 0 -0.43788570063392329 0.43164093021736671 0 -0.44508566455651338 0.43839632914573512 0 -0.43788570063392329 0.43164093021736671 0 -0.44878504691792248 0.43547483269414872 0 -0.44508566455651338 0.43839632914573512 0 -0.44878504691792248 0.43547483269414872 0 -0.44531233658805403 0.42513554986162888 0 -0.44880957839306629 0.41410011360809668 0 -0.42391867717568832 0.41711337076656618 0 -0.44880957839306629 0.41410011360809668 0 -0.46585669794528167 0.42199291516666237 0 -0.4641229039382897 0.40091036417177778 0 -0.44878504691792248 0.43547483269414872 0 -0.46585669794528167 0.42199291516666237 0 -0.44878504691792248 0.43547483269414872 0 -0.44880957839306629 0.41410011360809668 0 -0.46585669794528167 0.42199291516666237 0 -0.44878504691792248 0.43547483269414872 0 -0.46585669794528167 0.42199291516666237 0 -0.46289485375526918 0.43579199928955081 0 -0.47438579428019922 0.44398623686781052 0 -0.46289485375526918 0.43579199928955081 0 -0.48180565015534738 0.42787197640755792 0 -0.46585669794528167 0.42199291516666237 0 -0.46289485375526918 0.43579199928955081 0 -0.48180565015534738 0.42787197640755792 0 -0.46585669794528167 0.42199291516666237 0 -0.48292834897264081 0.4085109976391762 0 -0.4641229039382897 0.40091036417177778 0 -0.46585669794528167 0.42199291516666237 0 -0.48292834897264081 0.4085109976391762 0 -0.46585669794528167 0.42199291516666237 0 -0.48180565015534738 0.42787197640755792 0 -0.48292834897264081 0.4085109976391762 0 -0.48292834897264081 0.4085109976391762 0 -0.5 0.41790010511261683 0 -0.5 0.39502908011169002 0 -0.48180565015534738 0.42787197640755792 0 -0.48292834897264081 0.4085109976391762 0 -0.5 0.41790010511261683 0 -0.49999999999999589 0.44077113011354369 0 -0.48180565015534738 0.42787197640755792 0 -0.5 0.41790010511261683 0 -0.48850556386005051 0.3766603246979251 0 -0.5 0.39502908011169002 0 -0.47832653283541199 0.38608194873200979 0 -0.48850556386005051 0.3766603246979251 0 -0.5 0.39502908011169002 0 -0.5 0.36887446842263683 0 -0.48292834897264081 0.4085109976391762 0 -0.5 0.39502908011169002 0 -0.47832653283541199 0.38608194873200979 0 -0.48292834897264081 0.4085109976391762 0 -0.5 0.39502908011169002 0 -0.48292834897264081 0.4085109976391762 0 -0.47832653283541199 0.38608194873200979 0 -0.4641229039382897 0.40091036417177778 0 -0.48850556386005051 0.3766603246979251 0 -0.47832653283541199 0.38608194873200979 0 -0.48259334700195489 0.36409898273387958 0 -0.47832653283541199 0.38608194873200979 0 -0.46059005399087027 0.38292215568240928 0 -0.4641229039382897 0.40091036417177778 0 -0.47832653283541199 0.38608194873200979 0 -0.46059005399087027 0.38292215568240928 0 -0.46572599417265398 0.36772482908493609 0 -0.44880957839306629 0.41410011360809668 0 -0.4641229039382897 0.40091036417177778 0 -0.44883410986820999 0.3927253945220448 0 -0.46059005399087027 0.38292215568240928 0 -0.4641229039382897 0.40091036417177778 0 -0.44883410986820999 0.3927253945220448 0 -0.44880957839306629 0.41410011360809668 0 -0.44883410986820999 0.3927253945220448 0 -0.43699833754743561 0.40294499431243458 0 -0.44880957839306629 0.41410011360809668 0 -0.44883410986820999 0.3927253945220448 0 -0.44883410986820999 0.3927253945220448 0 -0.43978391516082421 0.3912231797547942 0 -0.43699833754743561 0.40294499431243458 0 -0.44883410986820999 0.3927253945220448 0 -0.43978391516082421 0.3912231797547942 0 -0.44802713623065987 0.37645115623263098 0 -0.44883410986820999 0.3927253945220448 0 -0.44885864134335329 0.37135067543599282 0 -0.44883410986820999 0.3927253945220448 0 -0.44802713623065987 0.37645115623263098 0 -0.44885864134335329 0.37135067543599282 0 -0.43978391516082421 0.3912231797547942 0 -0.44802713623065987 0.37645115623263098 0 -0.42527607699699133 0.39277117395206662 0 -0.46059005399087027 0.38292215568240928 0 -0.44883410986820999 0.3927253945220448 0 -0.44885864134335329 0.37135067543599282 0 -0.44802713623065987 0.37645115623263098 0 -0.4250431626101242 0.37647010748543319 0 -0.42527607699699133 0.39277117395206662 0 -0.44802713623065987 0.37645115623263098 0 -0.42527607699699133 0.39277117395206662 0 -0.4250431626101242 0.37647010748543319 0 -0.4134887672477453 0.38574914578498593 0 -0.40122768387689522 0.38158953953487368 0 -0.4250431626101242 0.37647010748543319 0 -0.40122768387689522 0.38158953953487368 0 -0.4250431626101242 0.37647010748543319 0 -0.4134887672477453 0.38574914578498593 0 -0.42527607699699133 0.39277117395206662 0 -0.4250431626101242 0.37647010748543319 0 -0.40122768387689522 0.38158953953487368 0 -0.40086489287733429 0.37467411733839928 0 -0.4134887672477453 0.38574914578498593 0 -0.40798835104355652 0.39359067917546098 0 -0.40557429982823212 0.38794008425198068 0 -0.4134887672477453 0.38574914578498593 0 -0.40122768387689522 0.38158953953487368 0 -0.40557429982823212 0.38794008425198068 0 -0.40798835104355652 0.39359067917546098 0 -0.42527607699699133 0.39277117395206662 0 -0.40252501776332311 0.40909119167150271 0 -0.42527607699699133 0.39277117395206662 0 -0.40252501776332311 0.40909119167150271 0 -0.4134887672477453 0.38574914578498593 0 -0.40798835104355652 0.39359067917546098 0 -0.42527607699699133 0.39277117395206662 0 -0.42527607699699133 0.39277117395206662 0 -0.43699833754743561 0.40294499431243458 0 -0.42391867717568832 0.41711337076656618 0 -0.43978391516082421 0.3912231797547942 0 -0.42527607699699133 0.39277117395206662 0 -0.43699833754743561 0.40294499431243458 0 -0.44880957839306629 0.41410011360809668 0 -0.43699833754743561 0.40294499431243458 0 -0.42391867717568832 0.41711337076656618 0 -0.44531233658805403 0.42513554986162888 0 -0.42391867717568832 0.41711337076656618 0 -0.43788570063392329 0.43164093021736671 0 -0.44531233658805403 0.42513554986162888 0 -0.42391867717568832 0.41711337076656618 0 -0.43788570063392329 0.43164093021736671 0 -0.42391867717568832 0.41711337076656618 0 -0.42501824733507809 0.43459816807542118 0 -0.43592409671607729 0.44045812782560079 0 -0.43788570063392329 0.43164093021736671 0 -0.42501824733507809 0.43459816807542118 0 -0.42391867717568832 0.41711337076656618 0 -0.42501824733507809 0.43459816807542118 0 -0.40464661760035381 0.43350824459614162 0 -0.42527607699699133 0.39277117395206662 0 -0.42391867717568832 0.41711337076656618 0 -0.40252501776332311 0.40909119167150271 0 -0.42391867717568832 0.41711337076656618 0 -0.40252501776332311 0.40909119167150271 0 -0.40464661760035381 0.43350824459614162 0 -0.42391867717568832 0.41711337076656618 0 -0.40252501776332311 0.40909119167150271 0 -0.40252501776332311 0.40909119167150271 0 -0.37875820238401509 0.42613984176471847 0 -0.40252501776332311 0.40909119167150271 0 -0.40464661760035381 0.43350824459614162 0 -0.37875820238401509 0.42613984176471847 0 -0.38249991962136642 0.44345487931465249 0 -0.40464661760035381 0.43350824459614162 0 -0.37875820238401509 0.42613984176471847 0 -0.40252501776332311 0.40909119167150271 0 -0.37875820238401509 0.42613984176471847 0 -0.37769092578324193 0.39977892163450779 0 -0.37769092578324193 0.39977892163450779 0 -0.38963770449155072 0.39285491215608792 0 -0.37686086334024771 0.38257038446795849 0 -0.40252501776332311 0.40909119167150271 0 -0.37769092578324193 0.39977892163450779 0 -0.38963770449155072 0.39285491215608792 0 -0.40252501776332311 0.40909119167150271 0 -0.37769092578324193 0.39977892163450779 0 -0.37686086334024771 0.38257038446795849 0 -0.39363670834615189 0.38450398520198442 0 -0.40086489287733429 0.37467411733839928 0 -0.38963770449155072 0.39285491215608792 0 -0.37686086334024771 0.38257038446795849 0 -0.39363670834615189 0.38450398520198442 0 -0.37686086334024771 0.38257038446795849 0 -0.40086489287733429 0.37467411733839928 0 -0.37686086334024771 0.38257038446795849 0 -0.40086489287733429 0.37467411733839928 0 -0.39033592763893787 0.37070590072739279 0 -0.39363670834615189 0.38450398520198442 0 -0.40122768387689522 0.38158953953487368 0 -0.39959239714473138 0.39083097251260251 0 -0.38963770449155072 0.39285491215608792 0 -0.39363670834615189 0.38450398520198442 0 -0.39959239714473138 0.39083097251260251 0 -0.39363670834615189 0.38450398520198442 0 -0.40122768387689522 0.38158953953487368 0 -0.40086489287733429 0.37467411733839928 0 -0.40122768387689522 0.38158953953487368 0 -0.40557429982823212 0.38794008425198068 0 -0.39959239714473138 0.39083097251260251 0 -0.40798835104355652 0.39359067917546098 0 -0.40557429982823212 0.38794008425198068 0 -0.39959239714473138 0.39083097251260251 0 -0.40252501776332311 0.40909119167150271 0 -0.38963770449155072 0.39285491215608792 0 -0.39959239714473138 0.39083097251260251 0 -0.40798835104355652 0.39359067917546098 0 -0.40252501776332311 0.40909119167150271 0 -0.39959239714473138 0.39083097251260251 0 -0.3926828114571661 0.35541775914535301 0 -0.40105078960399698 0.34662517948293931 0 -0.40586906590548888 0.3393029225754271 0 -0.3926828114571661 0.35541775914535301 0 -0.39400561065841477 0.34382680172727831 0 -0.40586906590548888 0.3393029225754271 0 -0.3926828114571661 0.35541775914535301 0 -0.40586906590548888 0.3393029225754271 0 -0.3926828114571661 0.35541775914535301 0 -0.39969836615416421 0.35756427730283669 0 -0.39341808057325789 0.36431669671432632 0 -0.3926828114571661 0.35541775914535301 0 -0.40105078960399698 0.34662517948293931 0 -0.39969836615416421 0.35756427730283669 0 -0.3926828114571661 0.35541775914535301 0 -0.39400561065841477 0.34382680172727831 0 -0.38539473684528258 0.34837828204789067 0 -0.40105078960399698 0.34662517948293931 0 -0.40525205349158999 0.35429039595711992 0 -0.40888688292129022 0.34941903462410451 0 -0.40105078960399698 0.34662517948293931 0 -0.4080564418273247 0.34368885170405422 0 -0.40888688292129022 0.34941903462410451 0 -0.40105078960399698 0.34662517948293931 0 -0.40525205349158999 0.35429039595711992 0 -0.39969836615416421 0.35756427730283669 0 -0.40525205349158999 0.35429039595711992 0 -0.39969836615416421 0.35756427730283669 0 -0.40553625032349627 0.36037170931698131 0 -0.40553625032349627 0.36037170931698131 0 -0.40544017780568847 0.3661562974108753 0 -0.40025021147547779 0.36436392320030081 0 -0.40544017780568847 0.3661562974108753 0 -0.40025021147547779 0.36436392320030081 0 -0.397742957241214 0.36844985128713797 0 -0.39969836615416421 0.35756427730283669 0 -0.40553625032349627 0.36037170931698131 0 -0.40025021147547779 0.36436392320030081 0 -0.40544017780568847 0.3661562974108753 0 -0.40086489287733429 0.37467411733839928 0 -0.397742957241214 0.36844985128713797 0 -0.40086489287733429 0.37467411733839928 0 -0.397742957241214 0.36844985128713797 0 -0.39033592763893787 0.37070590072739279 0 -0.397742957241214 0.36844985128713797 0 -0.39341808057325789 0.36431669671432632 0 -0.39033592763893787 0.37070590072739279 0 -0.39969836615416421 0.35756427730283669 0 -0.40025021147547779 0.36436392320030081 0 -0.39341808057325789 0.36431669671432632 0 -0.40025021147547779 0.36436392320030081 0 -0.397742957241214 0.36844985128713797 0 -0.39341808057325789 0.36431669671432632 0 -0.3926828114571661 0.35541775914535301 0 -0.39341808057325789 0.36431669671432632 0 -0.37949655700884349 0.37153259571527891 0 -0.37949655700884349 0.37153259571527891 0 -0.37823932191431281 0.35548757599615399 0 -0.37024808467873749 0.36543132639488701 0 -0.3926828114571661 0.35541775914535301 0 -0.37949655700884349 0.37153259571527891 0 -0.37823932191431281 0.35548757599615399 0 -0.3926828114571661 0.35541775914535301 0 -0.37949655700884349 0.37153259571527891 0 -0.39341808057325789 0.36431669671432632 0 -0.39033592763893787 0.37070590072739279 0 -0.37949655700884349 0.37153259571527891 0 -0.37686086334024771 0.38257038446795849 0 -0.39033592763893787 0.37070590072739279 0 -0.37949655700884349 0.37153259571527891 0 -0.37823932191431281 0.35548757599615399 0 -0.38539473684528258 0.34837828204789067 0 -0.3787015959315434 0.33902802614693439 0 -0.3926828114571661 0.35541775914535301 0 -0.37823932191431281 0.35548757599615399 0 -0.38539473684528258 0.34837828204789067 0 -0.3787015959315434 0.33902802614693439 0 -0.37816355277066899 0.32985684687273281 0 -0.39158393304450312 0.32769252248945308 0 -0.39400561065841477 0.34382680172727831 0 -0.38539473684528258 0.34837828204789067 0 -0.3787015959315434 0.33902802614693439 0 -0.39158393304450312 0.32769252248945308 0 -0.37442838800096029 0.32044424157556423 0 -0.37816355277066899 0.32985684687273281 0 -0.39158393304450312 0.32769252248945308 0 -0.37442838800096029 0.32044424157556423 0 -0.38613629988198012 0.31665983269396758 0 -0.39158393304450312 0.32769252248945308 0 -0.37442838800096029 0.32044424157556423 0 -0.38613629988198012 0.31665983269396758 0 -0.37442838800096029 0.32044424157556423 0 -0.37415321332832258 0.31386652142517069 0 -0.39158393304450312 0.32769252248945308 0 -0.4039094095666334 0.320812311378052 0 -0.40925887999808552 0.33516025262174892 0 -0.38613629988198012 0.31665983269396758 0 -0.39830358576524327 0.31266849694114901 0 -0.39158393304450312 0.32769252248945308 0 -0.39830358576524327 0.31266849694114901 0 -0.39158393304450312 0.32769252248945308 0 -0.4039094095666334 0.320812311378052 0 -0.39830358576524327 0.31266849694114901 0 -0.4039094095666334 0.320812311378052 0 -0.40826549608127172 0.31275764886218971 0 -0.3787015959315434 0.33902802614693439 0 -0.40777024278950652 0.33697950655941222 0 -0.39158393304450312 0.32769252248945308 0 -0.40925887999808552 0.33516025262174892 0 -0.39158393304450312 0.32769252248945308 0 -0.40777024278950652 0.33697950655941222 0 -0.40925887999808552 0.33516025262174892 0 -0.3787015959315434 0.33902802614693439 0 -0.39158393304450312 0.32769252248945308 0 -0.40777024278950652 0.33697950655941222 0 -0.39400561065841477 0.34382680172727831 0 -0.3787015959315434 0.33902802614693439 0 -0.40777024278950652 0.33697950655941222 0 -0.39400561065841477 0.34382680172727831 0 -0.40586906590548888 0.3393029225754271 0 -0.40777024278950652 0.33697950655941222 0 -0.40105078960399698 0.34662517948293931 0 -0.40586906590548888 0.3393029225754271 0 -0.40105078960399698 0.34662517948293931 0 -0.40586906590548888 0.3393029225754271 0 -0.4080564418273247 0.34368885170405422 0 -0.4080564418273247 0.34368885170405422 0 -0.41125860555200922 0.34134685969384471 0 -0.40895905381070002 0.33957121871677393 0 -0.40586906590548888 0.3393029225754271 0 -0.4080564418273247 0.34368885170405422 0 -0.40895905381070002 0.33957121871677393 0 -0.4080564418273247 0.34368885170405422 0 -0.41125860555200922 0.34134685969384471 0 -0.41366919887348358 0.34576378073699821 0 -0.41125860555200922 0.34134685969384471 0 -0.41273643032526569 0.33662953043248711 0 -0.41433336845197538 0.3415594658204692 0 -0.41125860555200922 0.34134685969384471 0 -0.41433336845197538 0.3415594658204692 0 -0.41366919887348358 0.34576378073699821 0 -0.41125860555200922 0.34134685969384471 0 -0.41273643032526569 0.33662953043248711 0 -0.40895905381070002 0.33957121871677393 0 -0.41273643032526569 0.33662953043248711 0 -0.40777024278950652 0.33697950655941222 0 -0.41273643032526569 0.33662953043248711 0 -0.40895905381070002 0.33957121871677393 0 -0.40777024278950652 0.33697950655941222 0 -0.41273643032526569 0.33662953043248711 0 -0.40777024278950652 0.33697950655941222 0 -0.40925887999808552 0.33516025262174892 0 -0.40777024278950652 0.33697950655941222 0 -0.40925887999808552 0.33516025262174892 0 -0.40586906590548888 0.3393029225754271 0 -0.40895905381070002 0.33957121871677393 0 -0.40777024278950652 0.33697950655941222 0 -0.40586906590548888 0.3393029225754271 0 -0.40777024278950652 0.33697950655941222 0 -0.41273643032526569 0.33662953043248711 0 -0.40925887999808552 0.33516025262174892 0 -0.40925887999808552 0.33516025262174892 0 -0.42024067891477529 0.32173946694831868 0 -0.40925887999808552 0.33516025262174892 0 -0.42071708592719742 0.33131558094746122 0 -0.42024067891477529 0.32173946694831868 0 -0.41273643032526569 0.33662953043248711 0 -0.40925887999808552 0.33516025262174892 0 -0.42071708592719742 0.33131558094746122 0 -0.41273643032526569 0.33662953043248711 0 -0.4199209072431685 0.34318781838679219 0 -0.41433336845197538 0.3415594658204692 0 -0.4199209072431685 0.34318781838679219 0 -0.41433336845197538 0.3415594658204692 0 -0.41366919887348358 0.34576378073699821 0 -0.40925887999808552 0.33516025262174892 0 -0.41892768793075841 0.31754462100172592 0 -0.42141481873501418 0.31567829233095179 0 -0.40925887999808552 0.33516025262174892 0 -0.411263050936583 0.31954773430139438 0 -0.41892768793075841 0.31754462100172592 0 -0.40925887999808552 0.33516025262174892 0 -0.42141481873501418 0.31567829233095179 0 -0.40925887999808552 0.33516025262174892 0 -0.42024067891477529 0.32173946694831868 0 -0.42141481873501418 0.31567829233095179 0 -0.411263050936583 0.31954773430139438 0 -0.40826549608127172 0.31275764886218971 0 -0.41647318301620623 0.31168328686166002 0 -0.4039094095666334 0.320812311378052 0 -0.411263050936583 0.31954773430139438 0 -0.40826549608127172 0.31275764886218971 0 -0.4039094095666334 0.320812311378052 0 -0.40925887999808552 0.33516025262174892 0 -0.411263050936583 0.31954773430139438 0 -0.411263050936583 0.31954773430139438 0 -0.41892768793075841 0.31754462100172592 0 -0.41647318301620623 0.31168328686166002 0 -0.41892768793075841 0.31754462100172592 0 -0.42141481873501418 0.31567829233095179 0 -0.41892768793075841 0.31754462100172592 0 -0.42141481873501418 0.31567829233095179 0 -0.41647318301620623 0.31168328686166002 0 -0.42024067891477529 0.32173946694831868 0 -0.43790895006943947 0.32081412042189511 0 -0.43122247783146522 0.30831868127488848 0 -0.42024067891477529 0.32173946694831868 0 -0.42938605365092247 0.3272194948190838 0 -0.43790895006943947 0.32081412042189511 0 -0.42024067891477529 0.32173946694831868 0 -0.42141481873501418 0.31567829233095179 0 -0.43122247783146522 0.30831868127488848 0 -0.42024067891477529 0.32173946694831868 0 -0.43122247783146522 0.30831868127488848 0 -0.42071708592719742 0.33131558094746122 0 -0.42024067891477529 0.32173946694831868 0 -0.42938605365092247 0.3272194948190838 0 -0.42938605365092247 0.3272194948190838 0 -0.43674098495811231 0.33493788649063261 0 -0.43790895006943947 0.32081412042189511 0 -0.43790895006943947 0.32081412042189511 0 -0.4401847358662575 0.3127477530096977 0 -0.43122247783146522 0.30831868127488848 0 -0.41273643032526569 0.33662953043248711 0 -0.43674098495811231 0.33493788649063261 0 -0.42071708592719742 0.33131558094746122 0 -0.42938605365092247 0.3272194948190838 0 -0.43674098495811231 0.33493788649063261 0 -0.41273643032526569 0.33662953043248711 0 -0.4199209072431685 0.34318781838679219 0 -0.43385085243219867 0.34555045147446217 0 -0.41273643032526569 0.33662953043248711 0 -0.42071708592719742 0.33131558094746122 0 -0.43674098495811231 0.33493788649063261 0 -0.41273643032526569 0.33662953043248711 0 -0.43385085243219867 0.34555045147446217 0 -0.41273643032526569 0.33662953043248711 0 -0.43674098495811231 0.33493788649063261 0 -0.43385085243219867 0.34555045147446217 0 -0.43385085243219867 0.34555045147446217 0 -0.4302486007270056 0.35272204188882378 0 -0.42573384958437638 0.34916959158482058 0 -0.43385085243219867 0.34555045147446217 0 -0.43539550265875948 0.35741731211322858 0 -0.44110397924445488 0.35756373905142852 0 -0.43539550265875948 0.35741731211322858 0 -0.4302486007270056 0.35272204188882378 0 -0.42757171946388478 0.35850981688022993 0 -0.43385085243219867 0.34555045147446217 0 -0.43539550265875948 0.35741731211322858 0 -0.4302486007270056 0.35272204188882378 0 -0.4302486007270056 0.35272204188882378 0 -0.42480748600639012 0.35482075793933809 0 -0.42573384958437638 0.34916959158482058 0 -0.4302486007270056 0.35272204188882378 0 -0.42757171946388478 0.35850981688022993 0 -0.42480748600639012 0.35482075793933809 0 -0.42757171946388478 0.35850981688022993 0 -0.42480748600639012 0.35482075793933809 0 -0.42195212413097077 0.36043988011418487 0 -0.4199209072431685 0.34318781838679219 0 -0.43385085243219867 0.34555045147446217 0 -0.42573384958437638 0.34916959158482058 0 -0.42480748600639012 0.35482075793933809 0 -0.42573384958437638 0.34916959158482058 0 -0.41984140151311927 0.3495668882346864 0 -0.4199209072431685 0.34318781838679219 0 -0.42573384958437638 0.34916959158482058 0 -0.41984140151311927 0.3495668882346864 0 -0.4199209072431685 0.34318781838679219 0 -0.41984140151311927 0.3495668882346864 0 -0.41366919887348358 0.34576378073699821 0 -0.41984140151311927 0.3495668882346864 0 -0.41366919887348358 0.34576378073699821 0 -0.41404230344944593 0.35073751764187411 0 -0.42480748600639012 0.35482075793933809 0 -0.41984140151311927 0.3495668882346864 0 -0.41755863725870102 0.35684421707679032 0 -0.42480748600639012 0.35482075793933809 0 -0.41755863725870102 0.35684421707679032 0 -0.42195212413097077 0.36043988011418487 0 -0.41984140151311927 0.3495668882346864 0 -0.41755863725870102 0.35684421707679032 0 -0.41404230344944593 0.35073751764187411 0 -0.41755863725870102 0.35684421707679032 0 -0.41125051028190041 0.35540848222164118 0 -0.41404230344944593 0.35073751764187411 0 -0.41125051028190041 0.35540848222164118 0 -0.40888688292129022 0.34941903462410451 0 -0.41404230344944593 0.35073751764187411 0 -0.41755863725870102 0.35684421707679032 0 -0.41125051028190041 0.35540848222164118 0 -0.41142088061722581 0.36176204086772412 0 -0.40553625032349627 0.36037170931698131 0 -0.41125051028190041 0.35540848222164118 0 -0.41142088061722581 0.36176204086772412 0 -0.40525205349158999 0.35429039595711992 0 -0.40553625032349627 0.36037170931698131 0 -0.41125051028190041 0.35540848222164118 0 -0.40525205349158999 0.35429039595711992 0 -0.41125051028190041 0.35540848222164118 0 -0.40888688292129022 0.34941903462410451 0 -0.4080564418273247 0.34368885170405422 0 -0.40888688292129022 0.34941903462410451 0 -0.41366919887348358 0.34576378073699821 0 -0.40888688292129022 0.34941903462410451 0 -0.41366919887348358 0.34576378073699821 0 -0.41404230344944593 0.35073751764187411 0 -0.4250431626101242 0.37647010748543319 0 -0.40086489287733429 0.37467411733839928 0 -0.42486892241442098 0.36677785020884007 0 -0.40086489287733429 0.37467411733839928 0 -0.42486892241442098 0.36677785020884007 0 -0.40086489287733429 0.37467411733839928 0 -0.41378193274770297 0.36450427419225789 0 -0.42486892241442098 0.36677785020884007 0 -0.40544017780568847 0.3661562974108753 0 -0.40086489287733429 0.37467411733839928 0 -0.41378193274770297 0.36450427419225789 0 -0.40544017780568847 0.3661562974108753 0 -0.41142088061722581 0.36176204086772412 0 -0.41378193274770297 0.36450427419225789 0 -0.40553625032349627 0.36037170931698131 0 -0.40544017780568847 0.3661562974108753 0 -0.41142088061722581 0.36176204086772412 0 -0.41755863725870102 0.35684421707679032 0 -0.41378193274770297 0.36450427419225789 0 -0.42195212413097077 0.36043988011418487 0 -0.41378193274770297 0.36450427419225789 0 -0.42486892241442098 0.36677785020884007 0 -0.42195212413097077 0.36043988011418487 0 -0.41755863725870102 0.35684421707679032 0 -0.41142088061722581 0.36176204086772412 0 -0.41378193274770297 0.36450427419225789 0 -0.4250431626101242 0.37647010748543319 0 -0.44885864134335329 0.37135067543599282 0 -0.4250431626101242 0.37647010748543319 0 -0.42486892241442098 0.36677785020884007 0 -0.44885864134335329 0.37135067543599282 0 -0.42486892241442098 0.36677785020884007 0 -0.448872951951507 0.35888158307927881 0 -0.43539550265875948 0.35741731211322858 0 -0.42486892241442098 0.36677785020884007 0 -0.44110397924445488 0.35756373905142852 0 -0.43539550265875948 0.35741731211322858 0 -0.42757171946388478 0.35850981688022993 0 -0.42486892241442098 0.36677785020884007 0 -0.42757171946388478 0.35850981688022993 0 -0.42486892241442098 0.36677785020884007 0 -0.42195212413097077 0.36043988011418487 0 -0.42486892241442098 0.36677785020884007 0 -0.44885864134335329 0.37135067543599282 0 -0.448872951951507 0.35888158307927881 0 -0.44802713623065987 0.37645115623263098 0 -0.4250431626101242 0.37647010748543319 0 -0.44885864134335329 0.37135067543599282 0 -0.42486892241442098 0.36677785020884007 0 -0.44110397924445488 0.35756373905142852 0 -0.448872951951507 0.35888158307927881 0 -0.44885864134335329 0.37135067543599282 0 -0.448872951951507 0.35888158307927881 0 -0.44885864134335329 0.37135067543599282 0 -0.448872951951507 0.35888158307927881 0 -0.45634368000688869 0.36512471152292858 0 -0.43385085243219867 0.34555045147446217 0 -0.45496527453913199 0.35447137251643651 0 -0.44889299330712729 0.34242966823447613 0 -0.43385085243219867 0.34555045147446217 0 -0.45496527453913199 0.35447137251643651 0 -0.43385085243219867 0.34555045147446217 0 -0.44887533288597797 0.35680703170406669 0 -0.45496527453913199 0.35447137251643651 0 -0.43385085243219867 0.34555045147446217 0 -0.44110397924445488 0.35756373905142852 0 -0.44887533288597797 0.35680703170406669 0 -0.44110397924445488 0.35756373905142852 0 -0.44887533288597797 0.35680703170406669 0 -0.448872951951507 0.35888158307927881 0 -0.44887533288597797 0.35680703170406669 0 -0.448872951951507 0.35888158307927881 0 -0.44887533288597797 0.35680703170406669 0 -0.448872951951507 0.35888158307927881 0 -0.45496527453913199 0.35447137251643651 0 -0.448872951951507 0.35888158307927881 0 -0.45496527453913199 0.35447137251643651 0 -0.47186707529616939 0.3513175305497272 0 -0.448872951951507 0.35888158307927881 0 -0.47186707529616939 0.3513175305497272 0 -0.448872951951507 0.35888158307927881 0 -0.45634368000688869 0.36512471152292858 0 -0.47186707529616939 0.3513175305497272 0 -0.45911772068334677 0.34536620346235469 0 -0.45496527453913199 0.35447137251643651 0 -0.47186707529616939 0.3513175305497272 0 -0.45911772068334677 0.34536620346235469 0 -0.45496527453913199 0.35447137251643651 0 -0.44889299330712729 0.34242966823447613 0 -0.46572599417265398 0.36772482908493609 0 -0.45634368000688869 0.36512471152292858 0 -0.47186707529616939 0.3513175305497272 0 -0.46059005399087027 0.38292215568240928 0 -0.44885864134335329 0.37135067543599282 0 -0.46572599417265398 0.36772482908493609 0 -0.44885864134335329 0.37135067543599282 0 -0.46572599417265398 0.36772482908493609 0 -0.44885864134335329 0.37135067543599282 0 -0.46572599417265398 0.36772482908493609 0 -0.45634368000688869 0.36512471152292858 0 -0.47832653283541199 0.38608194873200979 0 -0.46572599417265398 0.36772482908493609 0 -0.48259334700195489 0.36409898273387958 0 -0.46572599417265398 0.36772482908493609 0 -0.48259334700195489 0.36409898273387958 0 -0.47186707529616939 0.3513175305497272 0 -0.46572599417265398 0.36772482908493609 0 -0.48259334700195489 0.36409898273387958 0 -0.47186707529616939 0.3513175305497272 0 -0.494861198640831 0.34375347802017348 0 -0.47186707529616939 0.3513175305497272 0 -0.48536711719674469 0.35339641184703091 0 -0.494861198640831 0.34375347802017348 0 -0.48259334700195489 0.36409898273387958 0 -0.47186707529616939 0.3513175305497272 0 -0.48536711719674469 0.35339641184703091 0 -0.48259334700195489 0.36409898273387958 0 -0.49214684784802371 0.35441565608434311 0 -0.48536711719674469 0.35339641184703091 0 -0.49214684784802371 0.35441565608434311 0 -0.5 0.36887446842263683 0 -0.5 0.34271985673358363 0 -0.49214684784802371 0.35441565608434311 0 -0.48536711719674469 0.35339641184703091 0 -0.494861198640831 0.34375347802017348 0 -0.49214684784802371 0.35441565608434311 0 -0.494861198640831 0.34375347802017348 0 -0.5 0.34271985673358363 0 -0.48850556386005051 0.3766603246979251 0 -0.48259334700195489 0.36409898273387958 0 -0.5 0.36887446842263683 0 -0.48259334700195489 0.36409898273387958 0 -0.49214684784802371 0.35441565608434311 0 -0.5 0.36887446842263683 0 -0.485708092488497 0.3189911195031831 0 -0.5 0.31656524504453032 0 -0.48475009422380527 0.3315545986069256 0 -0.485708092488497 0.3189911195031831 0 -0.5 0.31656524504453032 0 -0.48583489694974541 0.30845327583860088 0 -0.5 0.31656524504453032 0 -0.5 0.34271985673358363 0 -0.48475009422380527 0.3315545986069256 0 -0.494861198640831 0.34375347802017348 0 -0.5 0.34271985673358363 0 -0.48475009422380527 0.3315545986069256 0 -0.48475009422380527 0.3315545986069256 0 -0.46074553959095882 0.3332462425487791 0 -0.47186707529616939 0.3513175305497272 0 -0.494861198640831 0.34375347802017348 0 -0.48475009422380527 0.3315545986069256 0 -0.47186707529616939 0.3513175305497272 0 -0.48475009422380527 0.3315545986069256 0 -0.46074553959095882 0.3332462425487791 0 -0.48475009422380527 0.3315545986069256 0 -0.47224737878043732 0.31939135852267558 0 -0.46074553959095882 0.3332462425487791 0 -0.485708092488497 0.3189911195031831 0 -0.48475009422380527 0.3315545986069256 0 -0.47224737878043732 0.31939135852267558 0 -0.485708092488497 0.3189911195031831 0 -0.47224737878043732 0.31939135852267558 0 -0.48583489694974541 0.30845327583860088 0 -0.47224737878043732 0.31939135852267558 0 -0.46258830912673421 0.31343425170936878 0 -0.46074553959095882 0.3332462425487791 0 -0.46258830912673421 0.31343425170936878 0 -0.46074553959095882 0.3332462425487791 0 -0.45107709460752138 0.31557533431346357 0 -0.45911772068334677 0.34536620346235469 0 -0.47186707529616939 0.3513175305497272 0 -0.46074553959095882 0.3332462425487791 0 -0.45911772068334677 0.34536620346235469 0 -0.46074553959095882 0.3332462425487791 0 -0.44889299330712729 0.34242966823447613 0 -0.43674098495811231 0.33493788649063261 0 -0.46074553959095882 0.3332462425487791 0 -0.43674098495811231 0.33493788649063261 0 -0.46074553959095882 0.3332462425487791 0 -0.44889299330712729 0.34242966823447613 0 -0.43674098495811231 0.33493788649063261 0 -0.46074553959095882 0.3332462425487791 0 -0.43790895006943947 0.32081412042189511 0 -0.43674098495811231 0.33493788649063261 0 -0.43385085243219867 0.34555045147446217 0 -0.44889299330712729 0.34242966823447613 0 -0.46074553959095882 0.3332462425487791 0 -0.45107709460752138 0.31557533431346357 0 -0.43790895006943947 0.32081412042189511 0 -0.45107709460752138 0.31557533431346357 0 -0.43790895006943947 0.32081412042189511 0 -0.4401847358662575 0.3127477530096977 0 -0.44444415583193408 0.29216055381020578 0 -0.43122247783146522 0.30831868127488848 0 -0.44810052680614793 0.29565349026271098 0 -0.43122247783146522 0.30831868127488848 0 -0.44368336155109173 0.30649675881006838 0 -0.44810052680614793 0.29565349026271098 0 -0.43122247783146522 0.30831868127488848 0 -0.4401847358662575 0.3127477530096977 0 -0.44368336155109173 0.30649675881006838 0 -0.43122247783146522 0.30831868127488848 0 -0.44444415583193408 0.29216055381020578 0 -0.44810052680614793 0.29565349026271098 0 -0.43122247783146522 0.30831868127488848 0 -0.45107709460752138 0.31557533431346357 0 -0.4401847358662575 0.3127477530096977 0 -0.44368336155109173 0.30649675881006838 0 -0.44368336155109173 0.30649675881006838 0 -0.44996115485610377 0.3015940899144034 0 -0.4551770389262465 0.30483297142504889 0 -0.44368336155109173 0.30649675881006838 0 -0.44996115485610377 0.3015940899144034 0 -0.44810052680614793 0.29565349026271098 0 -0.45288369214092922 0.29939313915978533 0 -0.44996115485610377 0.3015940899144034 0 -0.44810052680614793 0.29565349026271098 0 -0.45288369214092922 0.29939313915978533 0 -0.44996115485610377 0.3015940899144034 0 -0.4551770389262465 0.30483297142504889 0 -0.45107709460752138 0.31557533431346357 0 -0.44368336155109173 0.30649675881006838 0 -0.4551770389262465 0.30483297142504889 0 -0.44702735364695217 0.27675533545947301 0 -0.43422108619098299 0.29621681389521232 0 -0.44444415583193408 0.29216055381020578 0 -0.44702735364695217 0.27675533545947301 0 -0.43422108619098299 0.29621681389521232 0 -0.44702735364695217 0.27675533545947301 0 -0.43274811138672559 0.28469846643612018 0 -0.43422108619098299 0.29621681389521232 0 -0.44810052680614793 0.29565349026271098 0 -0.4493542421043164 0.28919027156790111 0 -0.45395006383388498 0.28587005882998617 0 -0.44444415583193408 0.29216055381020578 0 -0.44810052680614793 0.29565349026271098 0 -0.4493542421043164 0.28919027156790111 0 -0.44444415583193408 0.29216055381020578 0 -0.4493542421043164 0.28919027156790111 0 -0.44702735364695217 0.27675533545947301 0 -0.4493542421043164 0.28919027156790111 0 -0.45395006383388498 0.28587005882998617 0 -0.44702735364695217 0.27675533545947301 0 -0.44810052680614793 0.29565349026271098 0 -0.45395006383388498 0.28587005882998617 0 -0.46497857578083068 0.28298829925053381 0 -0.44810052680614793 0.29565349026271098 0 -0.4593999708052337 0.29480301670676529 0 -0.46497857578083068 0.28298829925053381 0 -0.44810052680614793 0.29565349026271098 0 -0.46497857578083068 0.28298829925053381 0 -0.45288369214092922 0.29939313915978533 0 -0.44810052680614793 0.29565349026271098 0 -0.4593999708052337 0.29480301670676529 0 -0.4593999708052337 0.29480301670676529 0 -0.46827174088950307 0.29409138505043392 0 -0.46497857578083068 0.28298829925053381 0 -0.46258830912673421 0.31343425170936878 0 -0.45107709460752138 0.31557533431346357 0 -0.4551770389262465 0.30483297142504889 0 -0.45288369214092922 0.29939313915978533 0 -0.4593999708052337 0.29480301670676529 0 -0.4551770389262465 0.30483297142504889 0 -0.4593999708052337 0.29480301670676529 0 -0.4551770389262465 0.30483297142504889 0 -0.46625021185001803 0.30380681263807602 0 -0.4593999708052337 0.29480301670676529 0 -0.46827174088950307 0.29409138505043392 0 -0.46625021185001803 0.30380681263807602 0 -0.47224737878043732 0.31939135852267558 0 -0.46258830912673421 0.31343425170936878 0 -0.46625021185001803 0.30380681263807602 0 -0.46258830912673421 0.31343425170936878 0 -0.4551770389262465 0.30483297142504889 0 -0.46625021185001803 0.30380681263807602 0 -0.47551717359816043 0.30301602212345602 0 -0.4769183937012712 0.29196404103452073 0 -0.48583489694974541 0.30845327583860088 0 -0.47224737878043732 0.31939135852267558 0 -0.46625021185001803 0.30380681263807602 0 -0.47551717359816043 0.30301602212345602 0 -0.47224737878043732 0.31939135852267558 0 -0.47551717359816043 0.30301602212345602 0 -0.48583489694974541 0.30845327583860088 0 -0.46827174088950307 0.29409138505043392 0 -0.46625021185001803 0.30380681263807602 0 -0.47551717359816043 0.30301602212345602 0 -0.46827174088950307 0.29409138505043392 0 -0.46497857578083068 0.28298829925053381 0 -0.4769183937012712 0.29196404103452073 0 -0.4769183937012712 0.29196404103452073 0 -0.48757792524538679 0.2814999319082685 0 -0.48583489694974541 0.30845327583860088 0 -0.46827174088950307 0.29409138505043392 0 -0.47551717359816043 0.30301602212345602 0 -0.4769183937012712 0.29196404103452073 0 -0.46497857578083068 0.28298829925053381 0 -0.47783287987075052 0.28169384510791978 0 -0.4769183937012712 0.29196404103452073 0 -0.47783287987075052 0.28169384510791978 0 -0.4769183937012712 0.29196404103452073 0 -0.48757792524538679 0.2814999319082685 0 -0.5 0.29041063335547701 0 -0.48757792524538679 0.2814999319082685 0 -0.48583489694974541 0.30845327583860088 0 -0.48757792524538679 0.2814999319082685 0 -0.48583489694974541 0.30845327583860088 0 -0.5 0.31656524504453032 0 -0.5 0.29041063335547701 0 -0.48583489694974541 0.30845327583860088 0 -0.5 0.23810140997737081 0 -0.5 0.26425602166642381 0 -0.48932095354102823 0.25454658797793611 0 -0.48757792524538679 0.2814999319082685 0 -0.48932095354102823 0.25454658797793611 0 -0.48366697684514259 0.26703881783025729 0 -0.48757792524538679 0.2814999319082685 0 -0.5 0.26425602166642381 0 -0.48932095354102823 0.25454658797793611 0 -0.48757792524538679 0.2814999319082685 0 -0.48932095354102823 0.25454658797793611 0 -0.5 0.29041063335547701 0 -0.48757792524538679 0.2814999319082685 0 -0.5 0.26425602166642381 0 -0.46497857578083068 0.28298829925053381 0 -0.48185662475551339 0.27032310823835648 0 -0.46497857578083068 0.28298829925053381 0 -0.47783287987075052 0.28169384510791978 0 -0.48185662475551339 0.27032310823835648 0 -0.48366697684514259 0.26703881783025729 0 -0.45893043448094739 0.2699305570534084 0 -0.48757792524538679 0.2814999319082685 0 -0.48366697684514259 0.26703881783025729 0 -0.48185662475551339 0.27032310823835648 0 -0.48366697684514259 0.26703881783025729 0 -0.48185662475551339 0.27032310823835648 0 -0.47235815296560851 0.27257019559313889 0 -0.46497857578083068 0.28298829925053381 0 -0.48185662475551339 0.27032310823835648 0 -0.47235815296560851 0.27257019559313889 0 -0.48366697684514259 0.26703881783025729 0 -0.46959483388743167 0.25994315597580908 0 -0.45893043448094739 0.2699305570534084 0 -0.48366697684514259 0.26703881783025729 0 -0.47235815296560851 0.27257019559313889 0 -0.45893043448094739 0.2699305570534084 0 -0.47783287987075052 0.28169384510791978 0 -0.48757792524538679 0.2814999319082685 0 -0.48185662475551339 0.27032310823835648 0 -0.48932095354102823 0.25454658797793611 0 -0.48366697684514259 0.26703881783025729 0 -0.47792533453874358 0.25606878273296479 0 -0.48366697684514259 0.26703881783025729 0 -0.46959483388743167 0.25994315597580908 0 -0.47792533453874358 0.25606878273296479 0 -0.47864167104372218 0.246590621409366 0 -0.48932095354102823 0.25454658797793611 0 -0.47792533453874358 0.25606878273296479 0 -0.47864167104372218 0.246590621409366 0 -0.47792533453874358 0.25606878273296479 0 -0.46938038244821267 0.25133041049185839 0 -0.46959483388743167 0.25994315597580908 0 -0.47792533453874358 0.25606878273296479 0 -0.46938038244821267 0.25133041049185839 0 -0.46959483388743167 0.25994315597580908 0 -0.46938038244821267 0.25133041049185839 0 -0.45807104112411212 0.25534721177055669 0 -0.46959483388743167 0.25994315597580908 0 -0.45807104112411212 0.25534721177055669 0 -0.45893043448094739 0.2699305570534084 0 -0.45807104112411212 0.25534721177055669 0 -0.45893043448094739 0.2699305570534084 0 -0.44442574262614493 0.25832327296872359 0 -0.45395006383388498 0.28587005882998617 0 -0.46497857578083068 0.28298829925053381 0 -0.45893043448094739 0.2699305570534084 0 -0.45395006383388498 0.28587005882998617 0 -0.45893043448094739 0.2699305570534084 0 -0.44702735364695217 0.27675533545947301 0 -0.46497857578083068 0.28298829925053381 0 -0.47235815296560851 0.27257019559313889 0 -0.45893043448094739 0.2699305570534084 0 -0.45893043448094739 0.2699305570534084 0 -0.43419389211675241 0.27282229627655952 0 -0.45893043448094739 0.2699305570534084 0 -0.44442574262614493 0.25832327296872359 0 -0.43419389211675241 0.27282229627655952 0 -0.45893043448094739 0.2699305570534084 0 -0.44702735364695217 0.27675533545947301 0 -0.43419389211675241 0.27282229627655952 0 -0.44702735364695217 0.27675533545947301 0 -0.43419389211675241 0.27282229627655952 0 -0.43274811138672559 0.28469846643612018 0 -0.45046339488490522 0.249057113070103 0 -0.45807104112411212 0.25534721177055669 0 -0.44442574262614493 0.25832327296872359 0 -0.44062222049055039 0.24203477259657111 0 -0.44442574262614493 0.25832327296872359 0 -0.42503978512155383 0.25887440404814072 0 -0.44062222049055039 0.24203477259657111 0 -0.42503978512155383 0.25887440404814072 0 -0.44442574262614493 0.25832327296872359 0 -0.42503978512155383 0.25887440404814072 0 -0.43419389211675241 0.27282229627655952 0 -0.42503978512155383 0.25887440404814072 0 -0.40945734975255721 0.27571403549971041 0 -0.40585136056822319 0.25674789398696107 0 -0.4198454647722451 0.23985190764030939 0 -0.42503978512155383 0.25887440404814072 0 -0.40585136056822319 0.25674789398696107 0 -0.40945734975255721 0.27571403549971041 0 -0.43419389211675241 0.27282229627655952 0 -0.42503978512155383 0.25887440404814072 0 -0.40945734975255721 0.27571403549971041 0 -0.42503978512155383 0.25887440404814072 0 -0.40945734975255721 0.27571403549971041 0 -0.43419389211675241 0.27282229627655952 0 -0.40945734975255721 0.27571403549971041 0 -0.43419389211675241 0.27282229627655952 0 -0.4229835889384117 0.28415291652507912 0 -0.43419389211675241 0.27282229627655952 0 -0.43274811138672559 0.28469846643612018 0 -0.4229835889384117 0.28415291652507912 0 -0.43274811138672559 0.28469846643612018 0 -0.43422108619098299 0.29621681389521232 0 -0.42519236151645012 0.29288975242762622 0 -0.43274811138672559 0.28469846643612018 0 -0.42519236151645012 0.29288975242762622 0 -0.4229835889384117 0.28415291652507912 0 -0.42141481873501418 0.31567829233095179 0 -0.43422108619098299 0.29621681389521232 0 -0.42141481873501418 0.31567829233095179 0 -0.43422108619098299 0.29621681389521232 0 -0.42237726971740519 0.30236741203524931 0 -0.44444415583193408 0.29216055381020578 0 -0.43422108619098299 0.29621681389521232 0 -0.43122247783146522 0.30831868127488848 0 -0.42141481873501418 0.31567829233095179 0 -0.43422108619098299 0.29621681389521232 0 -0.43122247783146522 0.30831868127488848 0 -0.43422108619098299 0.29621681389521232 0 -0.42519236151645012 0.29288975242762622 0 -0.42237726971740519 0.30236741203524931 0 -0.42141481873501418 0.31567829233095179 0 -0.43122247783146522 0.30831868127488848 0 -0.42237726971740519 0.30236741203524931 0 -0.41647318301620623 0.31168328686166002 0 -0.40812109447663159 0.30329838776079099 0 -0.42141481873501418 0.31567829233095179 0 -0.42237726971740519 0.30236741203524931 0 -0.41647318301620623 0.31168328686166002 0 -0.42237726971740519 0.30236741203524931 0 -0.40812109447663159 0.30329838776079099 0 -0.41256551749876041 0.29129965580367562 0 -0.40826549608127172 0.31275764886218971 0 -0.41647318301620623 0.31168328686166002 0 -0.40812109447663159 0.30329838776079099 0 -0.40945734975255721 0.27571403549971041 0 -0.4229835889384117 0.28415291652507912 0 -0.41256551749876041 0.29129965580367562 0 -0.42519236151645012 0.29288975242762622 0 -0.4229835889384117 0.28415291652507912 0 -0.41256551749876041 0.29129965580367562 0 -0.42519236151645012 0.29288975242762622 0 -0.42237726971740519 0.30236741203524931 0 -0.41256551749876041 0.29129965580367562 0 -0.40945734975255721 0.27571403549971041 0 -0.39180528154043992 0.29479027846244049 0 -0.39350738277932218 0.27757861076756318 0 -0.40945734975255721 0.27571403549971041 0 -0.39180528154043992 0.29479027846244049 0 -0.40812109447663159 0.30329838776079099 0 -0.41256551749876041 0.29129965580367562 0 -0.39180528154043992 0.29479027846244049 0 -0.40945734975255721 0.27571403549971041 0 -0.41256551749876041 0.29129965580367562 0 -0.39180528154043992 0.29479027846244049 0 -0.38613629988198012 0.31665983269396758 0 -0.39830358576524327 0.31266849694114901 0 -0.39180528154043992 0.29479027846244049 0 -0.39830358576524327 0.31266849694114901 0 -0.40812109447663159 0.30329838776079099 0 -0.39180528154043992 0.29479027846244049 0 -0.39830358576524327 0.31266849694114901 0 -0.40826549608127172 0.31275764886218971 0 -0.40812109447663159 0.30329838776079099 0 -0.39180528154043992 0.29479027846244049 0 -0.37819889022761238 0.29924868842846319 0 -0.37415321332832258 0.31386652142517069 0 -0.38613629988198012 0.31665983269396758 0 -0.39180528154043992 0.29479027846244049 0 -0.37415321332832258 0.31386652142517069 0 -0.39180528154043992 0.29479027846244049 0 -0.37415321332832258 0.31386652142517069 0 -0.39180528154043992 0.29479027846244049 0 -0.37819889022761238 0.29924868842846319 0 -0.37870614451813112 0.28175948497688769 0 -0.39180528154043992 0.29479027846244049 0 -0.37870614451813112 0.28175948497688769 0 -0.39350738277932218 0.27757861076756318 0 -0.37870614451813112 0.28175948497688769 0 -0.37647038179830861 0.26645711442365799 0 -0.39350738277932218 0.27757861076756318 0 -0.37647038179830861 0.26645711442365799 0 -0.39336972403141229 0.26369738761855421 0 -0.39350738277932218 0.27757861076756318 0 -0.38790582398472923 0.24962922847932231 0 -0.37647038179830861 0.26645711442365799 0 -0.39336972403141229 0.26369738761855421 0 -0.38790582398472923 0.24962922847932231 0 -0.37647038179830861 0.26645711442365799 0 -0.36318679658289171 0.25196182354824148 0 -0.40945734975255721 0.27571403549971041 0 -0.40585136056822319 0.25674789398696107 0 -0.39336972403141229 0.26369738761855421 0 -0.38790582398472923 0.24962922847932231 0 -0.40585136056822319 0.25674789398696107 0 -0.39336972403141229 0.26369738761855421 0 -0.40945734975255721 0.27571403549971041 0 -0.39336972403141229 0.26369738761855421 0 -0.39350738277932218 0.27757861076756318 0 -0.40945734975255721 0.27571403549971041 0 -0.39350738277932218 0.27757861076756318 0 -0.35583614606747688 0.27501819518035592 0 -0.36318679658289171 0.25196182354824148 0 -0.33952374355129727 0.25899057541505788 0 -0.37647038179830861 0.26645711442365799 0 -0.35583614606747688 0.27501819518035592 0 -0.36318679658289171 0.25196182354824148 0 -0.37870614451813112 0.28175948497688769 0 -0.37647038179830861 0.26645711442365799 0 -0.35583614606747688 0.27501819518035592 0 -0.37819889022761238 0.29924868842846319 0 -0.37870614451813112 0.28175948497688769 0 -0.36775571630023218 0.2927315942663431 0 -0.37870614451813112 0.28175948497688769 0 -0.35583614606747688 0.27501819518035592 0 -0.36775571630023218 0.2927315942663431 0 -0.37819889022761238 0.29924868842846319 0 -0.36899777432263853 0.30469822459034263 0 -0.37415321332832258 0.31386652142517069 0 -0.36899777432263853 0.30469822459034263 0 -0.36272901898995358 0.31473918551029578 0 -0.37415321332832258 0.31386652142517069 0 -0.37819889022761238 0.29924868842846319 0 -0.36775571630023218 0.2927315942663431 0 -0.36899777432263853 0.30469822459034263 0 -0.36775571630023218 0.2927315942663431 0 -0.36899777432263853 0.30469822459034263 0 -0.35931620367806588 0.30475084950198522 0 -0.36775571630023218 0.2927315942663431 0 -0.35931620367806588 0.30475084950198522 0 -0.35261706249820868 0.29381533636168528 0 -0.36899777432263853 0.30469822459034263 0 -0.35931620367806588 0.30475084950198522 0 -0.36272901898995358 0.31473918551029578 0 -0.35931620367806588 0.30475084950198522 0 -0.35261706249820868 0.29381533636168528 0 -0.34344143829887858 0.30736403781452232 0 -0.35931620367806588 0.30475084950198522 0 -0.34344143829887858 0.30736403781452232 0 -0.35467675850453528 0.31743756764607989 0 -0.35931620367806588 0.30475084950198522 0 -0.35467675850453528 0.31743756764607989 0 -0.36272901898995358 0.31473918551029578 0 -0.35583614606747688 0.27501819518035592 0 -0.36775571630023218 0.2927315942663431 0 -0.35261706249820868 0.29381533636168528 0 -0.35583614606747688 0.27501819518035592 0 -0.35261706249820868 0.29381533636168528 0 -0.33673580814638959 0.28921200504521999 0 -0.35261706249820868 0.29381533636168528 0 -0.33673580814638959 0.28921200504521999 0 -0.34344143829887858 0.30736403781452232 0 -0.33673580814638959 0.28921200504521999 0 -0.32075162894010661 0.28280614760534989 0 -0.33379142081270979 0.2734424933293601 0 -0.34344143829887858 0.30736403781452232 0 -0.31699951866320542 0.30755322334125379 0 -0.34344143829887858 0.30736403781452232 0 -0.31699951866320542 0.30755322334125379 0 -0.33459812393413729 0.32207732583041709 0 -0.33673580814638959 0.28921200504521999 0 -0.34344143829887858 0.30736403781452232 0 -0.31699951866320542 0.30755322334125379 0 -0.33673580814638959 0.28921200504521999 0 -0.31699951866320542 0.30755322334125379 0 -0.32075162894010661 0.28280614760534989 0 -0.31699951866320542 0.30755322334125379 0 -0.32075162894010661 0.28280614760534989 0 -0.30493521127791462 0.28695781074044469 0 -0.32075162894010661 0.28280614760534989 0 -0.31931282352829687 0.26617321261290411 0 -0.33379142081270979 0.2734424933293601 0 -0.32075162894010661 0.28280614760534989 0 -0.31931282352829687 0.26617321261290411 0 -0.30493521127791462 0.28695781074044469 0 -0.35583614606747688 0.27501819518035592 0 -0.33673580814638959 0.28921200504521999 0 -0.33379142081270979 0.2734424933293601 0 -0.35583614606747688 0.27501819518035592 0 -0.33379142081270979 0.2734424933293601 0 -0.33952374355129727 0.25899057541505788 0 -0.31931282352829687 0.26617321261290411 0 -0.33379142081270979 0.2734424933293601 0 -0.33952374355129727 0.25899057541505788 0 -0.32200613725511351 0.24850726385495631 0 -0.31931282352829687 0.26617321261290411 0 -0.33952374355129727 0.25899057541505788 0 -0.32200613725511351 0.24850726385495631 0 -0.31931282352829687 0.26617321261290411 0 -0.30640548876467488 0.25787073169030861 0 -0.31931282352829687 0.26617321261290411 0 -0.30640548876467488 0.25787073169030861 0 -0.3010630097917536 0.27273037638764702 0 -0.31931282352829687 0.26617321261290411 0 -0.3010630097917536 0.27273037638764702 0 -0.30493521127791462 0.28695781074044469 0 -0.31931282352829687 0.26617321261290411 0 -0.30493521127791462 0.28695781074044469 0 -0.3010630097917536 0.27273037638764702 0 -0.29309283898050847 0.28048055459605348 0 -0.30493521127791462 0.28695781074044469 0 -0.3010630097917536 0.27273037638764702 0 -0.29309283898050847 0.28048055459605348 0 -0.28156868640737281 0.27216957229852412 0 -0.30640548876467488 0.25787073169030861 0 -0.3010630097917536 0.27273037638764702 0 -0.28156868640737281 0.27216957229852412 0 -0.30640548876467488 0.25787073169030861 0 -0.28156868640737281 0.27216957229852412 0 -0.28729818335365731 0.26780124082781631 0 -0.28156868640737281 0.27216957229852412 0 -0.28729818335365731 0.26780124082781631 0 -0.27880962639343299 0.26078065685839158 0 -0.29309283898050847 0.28048055459605348 0 -0.28156868640737281 0.27216957229852412 0 -0.28401529333418091 0.28255904946725641 0 -0.30640548876467488 0.25787073169030861 0 -0.28156868640737281 0.27216957229852412 0 -0.29125564533142001 0.24067530578368901 0 -0.30640548876467488 0.25787073169030861 0 -0.28729818335365731 0.26780124082781631 0 -0.29125564533142001 0.24067530578368901 0 -0.28729818335365731 0.26780124082781631 0 -0.27880962639343299 0.26078065685839158 0 -0.29125564533142001 0.24067530578368901 0 -0.28729818335365731 0.26780124082781631 0 -0.29125564533142001 0.24067530578368901 0 -0.26892213733164849 0.25365425058065472 0 -0.27880962639343299 0.26078065685839158 0 -0.26892213733164849 0.25365425058065472 0 -0.27880962639343299 0.26078065685839158 0 -0.26500347954306669 0.26960291480127369 0 -0.28156868640737281 0.27216957229852412 0 -0.25673188405007052 0.28646841290673969 0 -0.28156868640737281 0.27216957229852412 0 -0.26500347954306669 0.26960291480127369 0 -0.25673188405007052 0.28646841290673969 0 -0.28156868640737281 0.27216957229852412 0 -0.27880962639343299 0.26078065685839158 0 -0.26500347954306669 0.26960291480127369 0 -0.28156868640737281 0.27216957229852412 0 -0.27479408276187339 0.28687287199942368 0 -0.28401529333418091 0.28255904946725641 0 -0.26500347954306669 0.26960291480127369 0 -0.25265925142613249 0.26128234508680298 0 -0.25673188405007052 0.28646841290673969 0 -0.26892213733164849 0.25365425058065472 0 -0.26500347954306669 0.26960291480127369 0 -0.25265925142613249 0.26128234508680298 0 -0.25621817608628389 0.2460965770837312 0 -0.26892213733164849 0.25365425058065472 0 -0.25265925142613249 0.26128234508680298 0 -0.25505401324638421 0.30366623925853881 0 -0.26661761067819428 0.2958317928062858 0 -0.26721257633701828 0.30790943684761429 0 -0.25505401324638421 0.30366623925853881 0 -0.26721257633701828 0.30790943684761429 0 -0.25901197930261888 0.31383205914145501 0 -0.26721257633701828 0.30790943684761429 0 -0.25901197930261888 0.31383205914145501 0 -0.26528599585519008 0.31471464054907522 0 -0.25505401324638421 0.30366623925853881 0 -0.25901197930261888 0.31383205914145501 0 -0.24885494741763489 0.31718848033418301 0 -0.25505401324638421 0.30366623925853881 0 -0.25673188405007052 0.28646841290673969 0 -0.26661761067819428 0.2958317928062858 0 -0.26661761067819428 0.2958317928062858 0 -0.27573637841232751 0.29432500902679382 0 -0.27326763327687947 0.30016750757533939 0 -0.28156868640737281 0.27216957229852412 0 -0.25673188405007052 0.28646841290673969 0 -0.27479408276187339 0.28687287199942368 0 -0.26661761067819428 0.2958317928062858 0 -0.27479408276187339 0.28687287199942368 0 -0.27573637841232751 0.29432500902679382 0 -0.25673188405007052 0.28646841290673969 0 -0.26661761067819428 0.2958317928062858 0 -0.27479408276187339 0.28687287199942368 0 -0.27479408276187339 0.28687287199942368 0 -0.28401529333418091 0.28255904946725641 0 -0.28313816676434478 0.29069510378855717 0 -0.27479408276187339 0.28687287199942368 0 -0.27573637841232751 0.29432500902679382 0 -0.28313816676434478 0.29069510378855717 0 -0.27573637841232751 0.29432500902679382 0 -0.28086439858034518 0.29805776896436298 0 -0.28313816676434478 0.29069510378855717 0 -0.28086439858034518 0.29805776896436298 0 -0.27753065875984329 0.30327410754998058 0 -0.28274061889410179 0.30278083970340541 0 -0.27753065875984329 0.30327410754998058 0 -0.27514776209796898 0.30785266251660498 0 -0.28274061889410179 0.30278083970340541 0 -0.27753065875984329 0.30327410754998058 0 -0.27326763327687947 0.30016750757533939 0 -0.27348155140824082 0.30658246875079598 0 -0.28086439858034518 0.29805776896436298 0 -0.27753065875984329 0.30327410754998058 0 -0.27326763327687947 0.30016750757533939 0 -0.27573637841232751 0.29432500902679382 0 -0.28086439858034518 0.29805776896436298 0 -0.27326763327687947 0.30016750757533939 0 -0.26661761067819428 0.2958317928062858 0 -0.27326763327687947 0.30016750757533939 0 -0.26721257633701828 0.30790943684761429 0 -0.26721257633701828 0.30790943684761429 0 -0.27514776209796898 0.30785266251660498 0 -0.27123720609067609 0.3158529302113221 0 -0.26721257633701828 0.30790943684761429 0 -0.27348155140824082 0.30658246875079598 0 -0.27514776209796898 0.30785266251660498 0 -0.26721257633701828 0.30790943684761429 0 -0.27514776209796898 0.30785266251660498 0 -0.27326763327687947 0.30016750757533939 0 -0.26721257633701828 0.30790943684761429 0 -0.27348155140824082 0.30658246875079598 0 -0.27514776209796898 0.30785266251660498 0 -0.2851872012256097 0.31550597615259851 0 -0.27753065875984329 0.30327410754998058 0 -0.27348155140824082 0.30658246875079598 0 -0.27514776209796898 0.30785266251660498 0 -0.27348155140824082 0.30658246875079598 0 -0.27514776209796898 0.30785266251660498 0 -0.27514776209796898 0.30785266251660498 0 -0.2905575990275322 0.30774240886798532 0 -0.27514776209796898 0.30785266251660498 0 -0.2905575990275322 0.30774240886798532 0 -0.2851872012256097 0.31550597615259851 0 -0.2896026760048197 0.2969772506180926 0 -0.2905575990275322 0.30774240886798532 0 -0.30493521127791462 0.28695781074044469 0 -0.27514776209796898 0.30785266251660498 0 -0.28274061889410179 0.30278083970340541 0 -0.2905575990275322 0.30774240886798532 0 -0.2905575990275322 0.30774240886798532 0 -0.2851872012256097 0.31550597615259851 0 -0.28274061889410179 0.30278083970340541 0 -0.2896026760048197 0.2969772506180926 0 -0.2905575990275322 0.30774240886798532 0 -0.28086439858034518 0.29805776896436298 0 -0.28274061889410179 0.30278083970340541 0 -0.2896026760048197 0.2969772506180926 0 -0.28401529333418091 0.28255904946725641 0 -0.28313816676434478 0.29069510378855717 0 -0.29095683727235372 0.28753395384208091 0 -0.28086439858034518 0.29805776896436298 0 -0.2896026760048197 0.2969772506180926 0 -0.28313816676434478 0.29069510378855717 0 -0.2896026760048197 0.2969772506180926 0 -0.28313816676434478 0.29069510378855717 0 -0.29095683727235372 0.28753395384208091 0 -0.2896026760048197 0.2969772506180926 0 -0.29095683727235372 0.28753395384208091 0 -0.30493521127791462 0.28695781074044469 0 -0.29309283898050847 0.28048055459605348 0 -0.29095683727235372 0.28753395384208091 0 -0.30493521127791462 0.28695781074044469 0 -0.29309283898050847 0.28048055459605348 0 -0.28401529333418091 0.28255904946725641 0 -0.29095683727235372 0.28753395384208091 0 -0.31699951866320542 0.30755322334125379 0 -0.2905575990275322 0.30774240886798532 0 -0.30563014257680821 0.31779627416788381 0 -0.31699951866320542 0.30755322334125379 0 -0.2905575990275322 0.30774240886798532 0 -0.2905575990275322 0.30774240886798532 0 -0.30493521127791462 0.28695781074044469 0 -0.31699951866320542 0.30755322334125379 0 -0.2905575990275322 0.30774240886798532 0 -0.30493521127791462 0.28695781074044469 0 -0.30538608464820588 0.33090408634228141 0 -0.28942706780696309 0.31873813168532672 0 -0.30563014257680821 0.31779627416788381 0 -0.30538608464820588 0.33090408634228141 0 -0.31811651498789978 0.32488887006413791 0 -0.30563014257680821 0.31779627416788381 0 -0.30538608464820588 0.33090408634228141 0 -0.2937791937433501 0.31637108240395312 0 -0.30538608464820588 0.33090408634228141 0 -0.3017933608705089 0.344447887165377 0 -0.32134510148944728 0.34307004099923799 0 -0.30538608464820588 0.33090408634228141 0 -0.29093013722955491 0.33661105704622479 0 -0.3017933608705089 0.344447887165377 0 -0.30538608464820588 0.33090408634228141 0 -0.29093013722955491 0.33661105704622479 0 -0.2885751077852815 0.32830696870384862 0 -0.29093013722955491 0.33661105704622479 0 -0.28224162025157051 0.34582573333151501 0 -0.3017933608705089 0.344447887165377 0 -0.2885751077852815 0.32830696870384862 0 -0.28146834572906437 0.33465123959114113 0 -0.2790455690922089 0.3243844570517187 0 -0.29093013722955491 0.33661105704622479 0 -0.2885751077852815 0.32830696870384862 0 -0.28146834572906437 0.33465123959114113 0 -0.29093013722955491 0.33661105704622479 0 -0.28146834572906437 0.33465123959114113 0 -0.28224162025157051 0.34582573333151501 0 -0.30538608464820588 0.33090408634228141 0 -0.2885751077852815 0.32830696870384862 0 -0.28942706780696309 0.31873813168532672 0 -0.30538608464820588 0.33090408634228141 0 -0.28942706780696309 0.31873813168532672 0 -0.2937791937433501 0.31637108240395312 0 -0.28942706780696309 0.31873813168532672 0 -0.2937791937433501 0.31637108240395312 0 -0.2851872012256097 0.31550597615259851 0 -0.2905575990275322 0.30774240886798532 0 -0.30563014257680821 0.31779627416788381 0 -0.2937791937433501 0.31637108240395312 0 -0.2905575990275322 0.30774240886798532 0 -0.2937791937433501 0.31637108240395312 0 -0.2851872012256097 0.31550597615259851 0 -0.28942706780696309 0.31873813168532672 0 -0.2937791937433501 0.31637108240395312 0 -0.2885751077852815 0.32830696870384862 0 -0.28942706780696309 0.31873813168532672 0 -0.2790455690922089 0.3243844570517187 0 -0.28942706780696309 0.31873813168532672 0 -0.2790455690922089 0.3243844570517187 0 -0.2851872012256097 0.31550597615259851 0 -0.2790455690922089 0.3243844570517187 0 -0.28942706780696309 0.31873813168532672 0 -0.2851872012256097 0.31550597615259851 0 -0.2790455690922089 0.3243844570517187 0 -0.28942706780696309 0.31873813168532672 0 -0.2851872012256097 0.31550597615259851 0 -0.27514776209796898 0.30785266251660498 0 -0.2851872012256097 0.31550597615259851 0 -0.27699557949655113 0.31645322234696882 0 -0.2851872012256097 0.31550597615259851 0 -0.27699557949655113 0.31645322234696882 0 -0.2790455690922089 0.3243844570517187 0 -0.27514776209796898 0.30785266251660498 0 -0.27699557949655113 0.31645322234696882 0 -0.27123720609067609 0.3158529302113221 0 -0.27001263578126711 0.32263717043347712 0 -0.2790455690922089 0.3243844570517187 0 -0.25910260253645218 0.33523110656146687 0 -0.26721257633701828 0.30790943684761429 0 -0.27123720609067609 0.3158529302113221 0 -0.26528599585519008 0.31471464054907522 0 -0.27699557949655113 0.31645322234696882 0 -0.27123720609067609 0.3158529302113221 0 -0.27001263578126711 0.32263717043347712 0 -0.27123720609067609 0.3158529302113221 0 -0.26528599585519008 0.31471464054907522 0 -0.26368222169044719 0.32126413599590953 0 -0.27123720609067609 0.3158529302113221 0 -0.27001263578126711 0.32263717043347712 0 -0.26368222169044719 0.32126413599590953 0 -0.27699557949655113 0.31645322234696882 0 -0.27001263578126711 0.32263717043347712 0 -0.2790455690922089 0.3243844570517187 0 -0.2790455690922089 0.3243844570517187 0 -0.25910260253645218 0.33523110656146687 0 -0.2790455690922089 0.3243844570517187 0 -0.26824012707650141 0.34000504592112352 0 -0.28146834572906437 0.33465123959114113 0 -0.2790455690922089 0.3243844570517187 0 -0.26824012707650141 0.34000504592112352 0 -0.2790455690922089 0.3243844570517187 0 -0.26824012707650141 0.34000504592112352 0 -0.25910260253645218 0.33523110656146687 0 -0.28146834572906437 0.33465123959114113 0 -0.26824012707650141 0.34000504592112352 0 -0.28224162025157051 0.34582573333151501 0 -0.25910260253645218 0.33523110656146687 0 -0.25407523553642281 0.3497448278934856 0 -0.23915963598069589 0.34607775607121571 0 -0.25910260253645218 0.33523110656146687 0 -0.25407523553642281 0.3497448278934856 0 -0.26309588156361569 0.34576168367824162 0 -0.26824012707650141 0.34000504592112352 0 -0.25910260253645218 0.33523110656146687 0 -0.26309588156361569 0.34576168367824162 0 -0.25910260253645218 0.33523110656146687 0 -0.25451497659773847 0.32559442806853028 0 -0.24843663428782739 0.33758714710907461 0 -0.25451497659773847 0.32559442806853028 0 -0.25901197930261888 0.31383205914145501 0 -0.24885494741763489 0.31718848033418301 0 -0.25451497659773847 0.32559442806853028 0 -0.25901197930261888 0.31383205914145501 0 -0.26368222169044719 0.32126413599590953 0 -0.25901197930261888 0.31383205914145501 0 -0.26528599585519008 0.31471464054907522 0 -0.26368222169044719 0.32126413599590953 0 -0.27001263578126711 0.32263717043347712 0 -0.25910260253645218 0.33523110656146687 0 -0.26368222169044719 0.32126413599590953 0 -0.25910260253645218 0.33523110656146687 0 -0.25451497659773847 0.32559442806853028 0 -0.26368222169044719 0.32126413599590953 0 -0.26470209097228098 0.37140351159401941 0 -0.25562758441007077 0.36194187249828802 0 -0.266880351992417 0.3582272519812631 0 -0.26470209097228098 0.37140351159401941 0 -0.25213085833087667 0.37355178257669552 0 -0.25562758441007077 0.36194187249828802 0 -0.25213085833087667 0.37355178257669552 0 -0.25562758441007077 0.36194187249828802 0 -0.24329038266145239 0.36134909741814653 0 -0.25562758441007077 0.36194187249828802 0 -0.25407523553642281 0.3497448278934856 0 -0.24329038266145239 0.36134909741814653 0 -0.25407523553642281 0.3497448278934856 0 -0.26309588156361569 0.34576168367824162 0 -0.266880351992417 0.3582272519812631 0 -0.25562758441007077 0.36194187249828802 0 -0.25407523553642281 0.3497448278934856 0 -0.266880351992417 0.3582272519812631 0 -0.266880351992417 0.3582272519812631 0 -0.27640009279511962 0.35155878343443242 0 -0.28837447244510311 0.36628710188532532 0 -0.26309588156361569 0.34576168367824162 0 -0.266880351992417 0.3582272519812631 0 -0.27640009279511962 0.35155878343443242 0 -0.26824012707650141 0.34000504592112352 0 -0.26309588156361569 0.34576168367824162 0 -0.27640009279511962 0.35155878343443242 0 -0.26824012707650141 0.34000504592112352 0 -0.27640009279511962 0.35155878343443242 0 -0.28224162025157051 0.34582573333151501 0 -0.266880351992417 0.3582272519812631 0 -0.28837447244510311 0.36628710188532532 0 -0.266880351992417 0.3582272519812631 0 -0.28837447244510311 0.36628710188532532 0 -0.27747916353329311 0.37529003384729942 0 -0.26470209097228098 0.37140351159401941 0 -0.266880351992417 0.3582272519812631 0 -0.27747916353329311 0.37529003384729942 0 -0.28837447244510311 0.36628710188532532 0 -0.28714059247178902 0.37543321948423419 0 -0.27747916353329311 0.37529003384729942 0 -0.28837447244510311 0.36628710188532532 0 -0.28956810344150979 0.35324588380912608 0 -0.30292150033679799 0.36018321991941088 0 -0.28837447244510311 0.36628710188532532 0 -0.29874239202075642 0.37528196759933868 0 -0.28714059247178902 0.37543321948423419 0 -0.28224162025157051 0.34582573333151501 0 -0.3017933608705089 0.344447887165377 0 -0.28224162025157051 0.34582573333151501 0 -0.28956810344150979 0.35324588380912608 0 -0.3017933608705089 0.344447887165377 0 -0.27640009279511962 0.35155878343443242 0 -0.28224162025157051 0.34582573333151501 0 -0.28956810344150979 0.35324588380912608 0 -0.27640009279511962 0.35155878343443242 0 -0.28837447244510311 0.36628710188532532 0 -0.28956810344150979 0.35324588380912608 0 -0.3017933608705089 0.344447887165377 0 -0.31193410579265052 0.3536039280541286 0 -0.30292150033679799 0.36018321991941088 0 -0.28956810344150979 0.35324588380912608 0 -0.3017933608705089 0.344447887165377 0 -0.30292150033679799 0.36018321991941088 0 -0.3017933608705089 0.344447887165377 0 -0.32134510148944728 0.34307004099923799 0 -0.3017933608705089 0.344447887165377 0 -0.31193410579265052 0.3536039280541286 0 -0.32134510148944728 0.34307004099923799 0 -0.31193410579265052 0.3536039280541286 0 -0.30292150033679799 0.36018321991941088 0 -0.31340485972314069 0.36375751913665871 0 -0.28837447244510311 0.36628710188532532 0 -0.30292150033679799 0.36018321991941088 0 -0.30986859289778912 0.37434695178938759 0 -0.28837447244510311 0.36628710188532532 0 -0.30986859289778912 0.37434695178938759 0 -0.28837447244510311 0.36628710188532532 0 -0.30986859289778912 0.37434695178938759 0 -0.29874239202075642 0.37528196759933868 0 -0.30292150033679799 0.36018321991941088 0 -0.30986859289778912 0.37434695178938759 0 -0.31340485972314069 0.36375751913665871 0 -0.30986859289778912 0.37434695178938759 0 -0.31340485972314069 0.36375751913665871 0 -0.32167824364597858 0.36970754211250728 0 -0.31340485972314069 0.36375751913665871 0 -0.32243327870136801 0.35950699838777223 0 -0.32167824364597858 0.36970754211250728 0 -0.32243327870136801 0.35950699838777223 0 -0.32167824364597858 0.36970754211250728 0 -0.33132177355711989 0.36851943955526861 0 -0.32167824364597858 0.36970754211250728 0 -0.33132177355711989 0.36851943955526861 0 -0.33136271335047512 0.38240680169344993 0 -0.32243327870136801 0.35950699838777223 0 -0.33132177355711989 0.36851943955526861 0 -0.33989838930305449 0.35721367281084643 0 -0.33132177355711989 0.36851943955526861 0 -0.34304766554360439 0.37232322735168022 0 -0.33136271335047512 0.38240680169344993 0 -0.33132177355711989 0.36851943955526861 0 -0.34304766554360439 0.37232322735168022 0 -0.33989838930305449 0.35721367281084643 0 -0.33989838930305449 0.35721367281084643 0 -0.32134510148944728 0.34307004099923799 0 -0.33989838930305449 0.35721367281084643 0 -0.32134510148944728 0.34307004099923799 0 -0.3500233487104954 0.34104903357308669 0 -0.32243327870136801 0.35950699838777223 0 -0.33989838930305449 0.35721367281084643 0 -0.32134510148944728 0.34307004099923799 0 -0.31193410579265052 0.3536039280541286 0 -0.32243327870136801 0.35950699838777223 0 -0.32134510148944728 0.34307004099923799 0 -0.31193410579265052 0.3536039280541286 0 -0.31340485972314069 0.36375751913665871 0 -0.32243327870136801 0.35950699838777223 0 -0.30538608464820588 0.33090408634228141 0 -0.32134510148944728 0.34307004099923799 0 -0.30538608464820588 0.33090408634228141 0 -0.32134510148944728 0.34307004099923799 0 -0.31811651498789978 0.32488887006413791 0 -0.32134510148944728 0.34307004099923799 0 -0.31811651498789978 0.32488887006413791 0 -0.33459812393413729 0.32207732583041709 0 -0.31699951866320542 0.30755322334125379 0 -0.30563014257680821 0.31779627416788381 0 -0.31811651498789978 0.32488887006413791 0 -0.31699951866320542 0.30755322334125379 0 -0.31811651498789978 0.32488887006413791 0 -0.33459812393413729 0.32207732583041709 0 -0.32134510148944728 0.34307004099923799 0 -0.34342889555096417 0.33131534648734451 0 -0.3500233487104954 0.34104903357308669 0 -0.32134510148944728 0.34307004099923799 0 -0.33459812393413729 0.32207732583041709 0 -0.34342889555096417 0.33131534648734451 0 -0.32134510148944728 0.34307004099923799 0 -0.3500233487104954 0.34104903357308669 0 -0.3500233487104954 0.34104903357308669 0 -0.35650114511620551 0.33294276438790088 0 -0.36794029410566942 0.33226259727897972 0 -0.34342889555096417 0.33131534648734451 0 -0.3500233487104954 0.34104903357308669 0 -0.35650114511620551 0.33294276438790088 0 -0.33459812393413729 0.32207732583041709 0 -0.34342889555096417 0.33131534648734451 0 -0.35467675850453528 0.31743756764607989 0 -0.34344143829887858 0.30736403781452232 0 -0.33459812393413729 0.32207732583041709 0 -0.35467675850453528 0.31743756764607989 0 -0.35650114511620551 0.33294276438790088 0 -0.35467675850453528 0.31743756764607989 0 -0.36272901898995358 0.31473918551029578 0 -0.34342889555096417 0.33131534648734451 0 -0.35650114511620551 0.33294276438790088 0 -0.35467675850453528 0.31743756764607989 0 -0.35650114511620551 0.33294276438790088 0 -0.36272901898995358 0.31473918551029578 0 -0.37415321332832258 0.31386652142517069 0 -0.35650114511620551 0.33294276438790088 0 -0.37415321332832258 0.31386652142517069 0 -0.35650114511620551 0.33294276438790088 0 -0.37442838800096029 0.32044424157556423 0 -0.37415321332832258 0.31386652142517069 0 -0.37816355277066899 0.32985684687273281 0 -0.37442838800096029 0.32044424157556423 0 -0.36794029410566942 0.33226259727897972 0 -0.3787015959315434 0.33902802614693439 0 -0.3500233487104954 0.34104903357308669 0 -0.36794029410566942 0.33226259727897972 0 -0.35650114511620551 0.33294276438790088 0 -0.37442838800096029 0.32044424157556423 0 -0.36794029410566942 0.33226259727897972 0 -0.3787015959315434 0.33902802614693439 0 -0.3500233487104954 0.34104903357308669 0 -0.3787015959315434 0.33902802614693439 0 -0.37816355277066899 0.32985684687273281 0 -0.36794029410566942 0.33226259727897972 0 -0.3787015959315434 0.33902802614693439 0 -0.3500233487104954 0.34104903357308669 0 -0.36501658974902518 0.35367198233662939 0 -0.37823932191431281 0.35548757599615399 0 -0.3787015959315434 0.33902802614693439 0 -0.36501658974902518 0.35367198233662939 0 -0.37823932191431281 0.35548757599615399 0 -0.36501658974902518 0.35367198233662939 0 -0.37024808467873749 0.36543132639488701 0 -0.36501658974902518 0.35367198233662939 0 -0.37024808467873749 0.36543132639488701 0 -0.35845167711666143 0.37135730462245548 0 -0.37949655700884349 0.37153259571527891 0 -0.37024808467873749 0.36543132639488701 0 -0.36758280318953013 0.37627165255961892 0 -0.37024808467873749 0.36543132639488701 0 -0.35845167711666143 0.37135730462245548 0 -0.36758280318953013 0.37627165255961892 0 -0.36501658974902518 0.35367198233662939 0 -0.35845167711666143 0.37135730462245548 0 -0.35334750121980912 0.35582299833575448 0 -0.34304766554360439 0.37232322735168022 0 -0.33989838930305449 0.35721367281084643 0 -0.35845167711666143 0.37135730462245548 0 -0.33989838930305449 0.35721367281084643 0 -0.35845167711666143 0.37135730462245548 0 -0.35334750121980912 0.35582299833575448 0 -0.33989838930305449 0.35721367281084643 0 -0.35845167711666143 0.37135730462245548 0 -0.33989838930305449 0.35721367281084643 0 -0.3500233487104954 0.34104903357308669 0 -0.35334750121980912 0.35582299833575448 0 -0.3500233487104954 0.34104903357308669 0 -0.36501658974902518 0.35367198233662939 0 -0.35334750121980912 0.35582299833575448 0 -0.35285683380316007 0.39046665159751448 0 -0.36027192889352422 0.40897543894708011 0 -0.34270265381785459 0.40768080501023862 0 -0.34304766554360439 0.37232322735168022 0 -0.35845167711666143 0.37135730462245548 0 -0.35285683380316007 0.39046665159751448 0 -0.37686086334024771 0.38257038446795849 0 -0.35285683380316007 0.39046665159751448 0 -0.37686086334024771 0.38257038446795849 0 -0.35285683380316007 0.39046665159751448 0 -0.36758280318953013 0.37627165255961892 0 -0.35845167711666143 0.37135730462245548 0 -0.35285683380316007 0.39046665159751448 0 -0.36758280318953013 0.37627165255961892 0 -0.37686086334024771 0.38257038446795849 0 -0.37949655700884349 0.37153259571527891 0 -0.36758280318953013 0.37627165255961892 0 -0.37769092578324193 0.39977892163450779 0 -0.35285683380316007 0.39046665159751448 0 -0.37769092578324193 0.39977892163450779 0 -0.37686086334024771 0.38257038446795849 0 -0.35285683380316007 0.39046665159751448 0 -0.37769092578324193 0.39977892163450779 0 -0.35285683380316007 0.39046665159751448 0 -0.36027192889352422 0.40897543894708011 0 -0.37875820238401509 0.42613984176471847 0 -0.37769092578324193 0.39977892163450779 0 -0.36027192889352422 0.40897543894708011 0 -0.37875820238401509 0.42613984176471847 0 -0.36027192889352422 0.40897543894708011 0 -0.36048507512927641 0.42545129427310208 0 -0.37875820238401509 0.42613984176471847 0 -0.36048507512927641 0.42545129427310208 0 -0.35499138700470761 0.44318849185793469 0 -0.37875820238401509 0.42613984176471847 0 -0.35499138700470761 0.44318849185793469 0 -0.34691622899781399 0.42161541908905831 0 -0.33223168701086447 0.43660936806356893 0 -0.35499138700470761 0.44318849185793469 0 -0.36048507512927641 0.42545129427310208 0 -0.34691622899781399 0.42161541908905831 0 -0.35499138700470761 0.44318849185793469 0 -0.36027192889352422 0.40897543894708011 0 -0.34691622899781399 0.42161541908905831 0 -0.34270265381785459 0.40768080501023862 0 -0.36027192889352422 0.40897543894708011 0 -0.36048507512927641 0.42545129427310208 0 -0.34691622899781399 0.42161541908905831 0 -0.34270265381785459 0.40768080501023862 0 -0.32841174735063311 0.41773478988879181 0 -0.32505653004414181 0.39961172552874852 0 -0.34691622899781399 0.42161541908905831 0 -0.34270265381785459 0.40768080501023862 0 -0.32841174735063311 0.41773478988879181 0 -0.34691622899781399 0.42161541908905831 0 -0.32841174735063311 0.41773478988879181 0 -0.33223168701086447 0.43660936806356893 0 -0.32841174735063311 0.41773478988879181 0 -0.33223168701086447 0.43660936806356893 0 -0.31148998866141242 0.43181261152586448 0 -0.32841174735063311 0.41773478988879181 0 -0.31441363705571701 0.41408607272300291 0 -0.32505653004414181 0.39961172552874852 0 -0.32841174735063311 0.41773478988879181 0 -0.31441363705571701 0.41408607272300291 0 -0.31148998866141242 0.43181261152586448 0 -0.32505653004414181 0.39961172552874852 0 -0.31219235154091651 0.39185403334122892 0 -0.30619500853749271 0.39725637532293351 0 -0.32505653004414181 0.39961172552874852 0 -0.31778050989885959 0.38527433798844479 0 -0.31219235154091651 0.39185403334122892 0 -0.35285683380316007 0.39046665159751448 0 -0.32505653004414181 0.39961172552874852 0 -0.33136271335047512 0.38240680169344993 0 -0.35285683380316007 0.39046665159751448 0 -0.34270265381785459 0.40768080501023862 0 -0.32505653004414181 0.39961172552874852 0 -0.35285683380316007 0.39046665159751448 0 -0.32505653004414181 0.39961172552874852 0 -0.35285683380316007 0.39046665159751448 0 -0.33136271335047512 0.38240680169344993 0 -0.34304766554360439 0.37232322735168022 0 -0.35285683380316007 0.39046665159751448 0 -0.33136271335047512 0.38240680169344993 0 -0.30986859289778912 0.37434695178938759 0 -0.32167824364597858 0.36970754211250728 0 -0.33136271335047512 0.38240680169344993 0 -0.30986859289778912 0.37434695178938759 0 -0.33136271335047512 0.38240680169344993 0 -0.32505653004414181 0.39961172552874852 0 -0.33136271335047512 0.38240680169344993 0 -0.31778050989885959 0.38527433798844479 0 -0.30986859289778912 0.37434695178938759 0 -0.33136271335047512 0.38240680169344993 0 -0.31778050989885959 0.38527433798844479 0 -0.30986859289778912 0.37434695178938759 0 -0.31778050989885959 0.38527433798844479 0 -0.30574515252343709 0.38648905476423068 0 -0.30986859289778912 0.37434695178938759 0 -0.30574515252343709 0.38648905476423068 0 -0.29874239202075642 0.37528196759933868 0 -0.30574515252343709 0.38648905476423068 0 -0.29874239202075642 0.37528196759933868 0 -0.29146244090030071 0.40289140707507309 0 -0.31778050989885959 0.38527433798844479 0 -0.30574515252343709 0.38648905476423068 0 -0.31219235154091651 0.39185403334122892 0 -0.32505653004414181 0.39961172552874852 0 -0.30619500853749271 0.39725637532293351 0 -0.29725622628512233 0.40875679945997928 0 -0.32505653004414181 0.39961172552874852 0 -0.29725622628512233 0.40875679945997928 0 -0.30574515252343709 0.38648905476423068 0 -0.30619500853749271 0.39725637532293351 0 -0.29146244090030071 0.40289140707507309 0 -0.30574515252343709 0.38648905476423068 0 -0.31219235154091651 0.39185403334122892 0 -0.30619500853749271 0.39725637532293351 0 -0.30619500853749271 0.39725637532293351 0 -0.29146244090030071 0.40289140707507309 0 -0.29725622628512233 0.40875679945997928 0 -0.29146244090030071 0.40289140707507309 0 -0.2882496590958894 0.39023794275143442 0 -0.278827461574497 0.39790462172635238 0 -0.28396634188800352 0.38487377460497352 0 -0.2882496590958894 0.39023794275143442 0 -0.278827461574497 0.39790462172635238 0 -0.29146244090030071 0.40289140707507309 0 -0.278827461574497 0.39790462172635238 0 -0.27940045790464241 0.41220012044695847 0 -0.29874239202075642 0.37528196759933868 0 -0.29146244090030071 0.40289140707507309 0 -0.29874239202075642 0.37528196759933868 0 -0.29146244090030071 0.40289140707507309 0 -0.2882496590958894 0.39023794275143442 0 -0.29874239202075642 0.37528196759933868 0 -0.28396634188800352 0.38487377460497352 0 -0.28714059247178902 0.37543321948423419 0 -0.29874239202075642 0.37528196759933868 0 -0.28396634188800352 0.38487377460497352 0 -0.2882496590958894 0.39023794275143442 0 -0.28396634188800352 0.38487377460497352 0 -0.28714059247178902 0.37543321948423419 0 -0.27747916353329311 0.37529003384729942 0 -0.28396634188800352 0.38487377460497352 0 -0.27747916353329311 0.37529003384729942 0 -0.26775424033426293 0.38456849691175748 0 -0.28396634188800352 0.38487377460497352 0 -0.26775424033426293 0.38456849691175748 0 -0.278827461574497 0.39790462172635238 0 -0.26470209097228098 0.37140351159401941 0 -0.27747916353329311 0.37529003384729942 0 -0.26775424033426293 0.38456849691175748 0 -0.278827461574497 0.39790462172635238 0 -0.26298604578065232 0.3973558675440883 0 -0.2677584473194361 0.40899541659639099 0 -0.26775424033426293 0.38456849691175748 0 -0.278827461574497 0.39790462172635238 0 -0.26298604578065232 0.3973558675440883 0 -0.26298604578065232 0.3973558675440883 0 -0.25152819264859128 0.38883491631829081 0 -0.2490618870264745 0.40647588616764979 0 -0.26298604578065232 0.3973558675440883 0 -0.2677584473194361 0.40899541659639099 0 -0.2490618870264745 0.40647588616764979 0 -0.25213085833087667 0.37355178257669552 0 -0.26775424033426293 0.38456849691175748 0 -0.25152819264859128 0.38883491631829081 0 -0.26775424033426293 0.38456849691175748 0 -0.26298604578065232 0.3973558675440883 0 -0.25152819264859128 0.38883491631829081 0 -0.26470209097228098 0.37140351159401941 0 -0.25213085833087667 0.37355178257669552 0 -0.26775424033426293 0.38456849691175748 0 -0.2572482915111563 0.42152384209731297 0 -0.26330490497154813 0.43976041958731371 0 -0.24092688658692171 0.43286849171069308 0 -0.2572482915111563 0.42152384209731297 0 -0.27163392734069919 0.42205675226444578 0 -0.26330490497154813 0.43976041958731371 0 -0.2572482915111563 0.42152384209731297 0 -0.2677584473194361 0.40899541659639099 0 -0.2490618870264745 0.40647588616764979 0 -0.2572482915111563 0.42152384209731297 0 -0.2677584473194361 0.40899541659639099 0 -0.27163392734069919 0.42205675226444578 0 -0.27940045790464241 0.41220012044695847 0 -0.27163392734069919 0.42205675226444578 0 -0.28418248977984512 0.43050084655080739 0 -0.2677584473194361 0.40899541659639099 0 -0.27940045790464241 0.41220012044695847 0 -0.27163392734069919 0.42205675226444578 0 -0.278827461574497 0.39790462172635238 0 -0.2677584473194361 0.40899541659639099 0 -0.27940045790464241 0.41220012044695847 0 -0.27163392734069919 0.42205675226444578 0 -0.28418248977984512 0.43050084655080739 0 -0.26330490497154813 0.43976041958731371 0 -0.28418248977984512 0.43050084655080739 0 -0.29943060469912958 0.42576946359573847 0 -0.28981068171355151 0.44369098771903792 0 -0.29146244090030071 0.40289140707507309 0 -0.28418248977984512 0.43050084655080739 0 -0.29146244090030071 0.40289140707507309 0 -0.27940045790464241 0.41220012044695847 0 -0.28418248977984512 0.43050084655080739 0 -0.28418248977984512 0.43050084655080739 0 -0.29725622628512233 0.40875679945997928 0 -0.29943060469912958 0.42576946359573847 0 -0.29146244090030071 0.40289140707507309 0 -0.28418248977984512 0.43050084655080739 0 -0.29725622628512233 0.40875679945997928 0 -0.31441363705571701 0.41408607272300291 0 -0.32505653004414181 0.39961172552874852 0 -0.29725622628512233 0.40875679945997928 0 -0.31441363705571701 0.41408607272300291 0 -0.29725622628512233 0.40875679945997928 0 -0.29943060469912958 0.42576946359573847 0 -0.31441363705571701 0.41408607272300291 0 -0.29943060469912958 0.42576946359573847 0 -0.31148998866141242 0.43181261152586448 0 -0.29943060469912958 0.42576946359573847 0 -0.31148998866141242 0.43181261152586448 0 -0.28981068171355151 0.44369098771903792 0 -0.31148998866141242 0.43181261152586448 0 -0.30120616623050861 0.45239726712555162 0 -0.31718999816658727 0.45065056632578487 0 -0.31148998866141242 0.43181261152586448 0 -0.30120616623050861 0.45239726712555162 0 -0.31148998866141242 0.43181261152586448 0 -0.30120616623050861 0.45239726712555162 0 -0.28981068171355151 0.44369098771903792 0 -0.30120616623050861 0.45239726712555162 0 -0.29092234379960469 0.47298192272523881 0 -0.30745775624609217 0.47728579204436761 0 -0.30120616623050861 0.45239726712555162 0 -0.30745775624609217 0.47728579204436761 0 -0.31718999816658727 0.45065056632578487 0 -0.2852957606144535 0.45730244818253718 0 -0.28186649269177161 0.46567885888970018 0 -0.29092234379960469 0.47298192272523881 0 -0.30120616623050861 0.45239726712555162 0 -0.29092234379960469 0.47298192272523881 0 -0.30120616623050861 0.45239726712555162 0 -0.2852957606144535 0.45730244818253718 0 -0.29092234379960469 0.47298192272523881 0 -0.2852957606144535 0.45730244818253718 0 -0.28186649269177161 0.46567885888970018 0 -0.27690253865938408 0.45811028602654041 0 -0.28418248977984512 0.43050084655080739 0 -0.28981068171355151 0.44369098771903792 0 -0.27690253865938408 0.45811028602654041 0 -0.30120616623050861 0.45239726712555162 0 -0.2852957606144535 0.45730244818253718 0 -0.28981068171355151 0.44369098771903792 0 -0.2852957606144535 0.45730244818253718 0 -0.28981068171355151 0.44369098771903792 0 -0.27690253865938408 0.45811028602654041 0 -0.28418248977984512 0.43050084655080739 0 -0.27690253865938408 0.45811028602654041 0 -0.28418248977984512 0.43050084655080739 0 -0.27690253865938408 0.45811028602654041 0 -0.26330490497154813 0.43976041958731371 0 -0.2852957606144535 0.45730244818253718 0 -0.27690253865938408 0.45811028602654041 0 -0.28186649269177161 0.46567885888970018 0 -0.27690253865938408 0.45811028602654041 0 -0.27835780074514338 0.47366975871288508 0 -0.27690253865938408 0.45811028602654041 0 -0.25345677561811758 0.46036691342989022 0 -0.27690253865938408 0.45811028602654041 0 -0.25345677561811758 0.46036691342989022 0 -0.26590293397843329 0.47057525233348851 0 -0.25345677561811758 0.46036691342989022 0 -0.25315469521642581 0.4750486889203015 0 -0.26590293397843329 0.47057525233348851 0 -0.25345677561811758 0.46036691342989022 0 -0.26330490497154813 0.43976041958731371 0 -0.24129970279445639 0.44943490890582899 0 -0.27690253865938408 0.45811028602654041 0 -0.25345677561811758 0.46036691342989022 0 -0.26330490497154813 0.43976041958731371 0 -0.26169037092037989 0.4910190989046625 0 -0.25397816739109252 0.5 0 -0.27113802145370669 0.49283981386083792 0 -0.26169037092037989 0.4910190989046625 0 -0.25474868654415728 0.48692894813519849 0 -0.26689660829256312 0.48430763362261348 0 -0.26169037092037989 0.4910190989046625 0 -0.25397816739109252 0.5 0 -0.25474868654415728 0.48692894813519849 0 -0.25315469521642581 0.4750486889203015 0 -0.26689660829256312 0.48430763362261348 0 -0.25315469521642581 0.4750486889203015 0 -0.26689660829256312 0.48430763362261348 0 -0.26590293397843329 0.47057525233348851 0 -0.25474868654415728 0.48692894813519849 0 -0.25315469521642581 0.4750486889203015 0 -0.26689660829256312 0.48430763362261348 0 -0.27690253865938408 0.45811028602654041 0 -0.26590293397843329 0.47057525233348851 0 -0.26946370716205509 0.4860372782758946 0 -0.27690253865938408 0.45811028602654041 0 -0.26946370716205509 0.4860372782758946 0 -0.27690253865938408 0.45811028602654041 0 -0.27835780074514338 0.47366975871288508 0 -0.26946370716205509 0.4860372782758946 0 -0.26689660829256312 0.48430763362261348 0 -0.26590293397843329 0.47057525233348851 0 -0.26946370716205509 0.4860372782758946 0 -0.28186649269177161 0.46567885888970018 0 -0.27835780074514338 0.47366975871288508 0 -0.28298297564177088 0.4743823417855309 0 -0.27835780074514338 0.47366975871288508 0 -0.2798907507987049 0.48286402398659151 0 -0.28298297564177088 0.4743823417855309 0 -0.27835780074514338 0.47366975871288508 0 -0.2798907507987049 0.48286402398659151 0 -0.26946370716205509 0.4860372782758946 0 -0.26946370716205509 0.4860372782758946 0 -0.28063852136870049 0.49356657832492562 0 -0.26946370716205509 0.4860372782758946 0 -0.27113802145370669 0.49283981386083792 0 -0.28063852136870049 0.49356657832492562 0 -0.2798907507987049 0.48286402398659151 0 -0.26946370716205509 0.4860372782758946 0 -0.28063852136870049 0.49356657832492562 0 -0.25397816739109252 0.5 0 -0.27113802145370669 0.49283981386083792 0 -0.27742446875513049 0.50000000000000155 0 -0.26689660829256312 0.48430763362261348 0 -0.26946370716205509 0.4860372782758946 0 -0.27113802145370669 0.49283981386083792 0 -0.26169037092037989 0.4910190989046625 0 -0.26689660829256312 0.48430763362261348 0 -0.27113802145370669 0.49283981386083792 0 -0.26689660829256312 0.48430763362261348 0 -0.26946370716205509 0.4860372782758946 0 -0.27113802145370669 0.49283981386083792 0 -0.28063852136870049 0.49356657832492562 0 -0.27742446875513049 0.50000000000000155 0 -0.28063852136870049 0.49356657832492562 0 -0.27742446875513049 0.50000000000000155 0 -0.28063852136870049 0.49356657832492562 0 -0.27742446875513049 0.50000000000000155 0 -0.29018685806186229 0.50000000000000122 0 -0.28063852136870049 0.49356657832492562 0 -0.29018685806186229 0.50000000000000122 0 -0.29092234379960469 0.47298192272523881 0 -0.28063852136870049 0.49356657832492562 0 -0.29018685806186229 0.50000000000000122 0 -0.29018685806186229 0.50000000000000122 0 -0.29092234379960469 0.47298192272523881 0 -0.30745775624609217 0.47728579204436761 0 -0.28063852136870049 0.49356657832492562 0 -0.29092234379960469 0.47298192272523881 0 -0.2798907507987049 0.48286402398659151 0 -0.28063852136870049 0.49356657832492562 0 -0.29092234379960469 0.47298192272523881 0 -0.28186649269177161 0.46567885888970018 0 -0.28298297564177088 0.4743823417855309 0 -0.29092234379960469 0.47298192272523881 0 -0.2798907507987049 0.48286402398659151 0 -0.28298297564177088 0.4743823417855309 0 -0.29092234379960469 0.47298192272523881 0 -0.29018685806186229 0.50000000000000122 0 -0.30745775624609217 0.47728579204436761 0 -0.3640375775585698 0.5 0 -0.30745775624609217 0.47728579204436761 0 -0.33122457162539992 0.46023714195115112 0 -0.3640375775585698 0.5 0 -0.30745775624609217 0.47728579204436761 0 -0.33122457162539992 0.46023714195115112 0 -0.30745775624609217 0.47728579204436761 0 -0.31718999816658727 0.45065056632578487 0 -0.33122457162539992 0.46023714195115112 0 -0.33223168701086447 0.43660936806356893 0 -0.31148998866141242 0.43181261152586448 0 -0.31718999816658727 0.45065056632578487 0 -0.33223168701086447 0.43660936806356893 0 -0.31718999816658727 0.45065056632578487 0 -0.33122457162539992 0.46023714195115112 0 -0.33122457162539992 0.46023714195115112 0 -0.35499138700470761 0.44318849185793469 0 -0.33223168701086447 0.43660936806356893 0 -0.33122457162539992 0.46023714195115112 0 -0.35499138700470761 0.44318849185793469 0 -0.33122457162539992 0.46023714195115112 0 -0.35376164566254242 0.46494380824906301 0 -0.35499138700470761 0.44318849185793469 0 -0.38249991962136642 0.44345487931465249 0 -0.35499138700470761 0.44318849185793469 0 -0.37103467036260362 0.45695891695805302 0 -0.38249991962136642 0.44345487931465249 0 -0.37875820238401509 0.42613984176471847 0 -0.35499138700470761 0.44318849185793469 0 -0.35376164566254242 0.46494380824906301 0 -0.35499138700470761 0.44318849185793469 0 -0.37103467036260362 0.45695891695805302 0 -0.35376164566254242 0.46494380824906301 0 -0.37103467036260362 0.45695891695805302 0 -0.36943712044780219 0.47475959506207249 0 -0.33122457162539992 0.46023714195115112 0 -0.35376164566254242 0.46494380824906301 0 -0.3640375775585698 0.5 0 -0.38891458820749281 0.47713565504117422 0 -0.36943712044780219 0.47475959506207249 0 -0.3640375775585698 0.5 0 -0.35376164566254242 0.46494380824906301 0 -0.36943712044780219 0.47475959506207249 0 -0.3640375775585698 0.5 0 -0.1410608215807003 0.47118489318428192 0 -0.1506389915883973 0.47451242435581331 0 -0.15779819732271971 0.4695739402503486 0 -0.1410608215807003 0.47118489318428192 0 -0.15779819732271971 0.4695739402503486 0 -0.1455325599989582 0.47665965757352818 0 -0.14983465253105441 0.48099067897208148 0 -0.1405957742956809 0.47995063378193648 0 -0.14983465253105441 0.48099067897208148 0 -0.14427471349546869 0.48965289008050411 0 -0.1405957742956809 0.47995063378193648 0 -0.1455325599989582 0.47665965757352818 0 -0.1410608215807003 0.47118489318428192 0 -0.1506389915883973 0.47451242435581331 0 -0.1455325599989582 0.47665965757352818 0 -0.1410608215807003 0.47118489318428192 0 -0.1405957742956809 0.47995063378193648 0 -0.1506389915883973 0.47451242435581331 0 -0.15682389603308189 0.47748605108520858 0 -0.15779819732271971 0.4695739402503486 0 -0.1506389915883973 0.47451242435581331 0 -0.14983465253105441 0.48099067897208148 0 -0.15682389603308189 0.47748605108520858 0 -0.1455325599989582 0.47665965757352818 0 -0.1506389915883973 0.47451242435581331 0 -0.14983465253105441 0.48099067897208148 0 -0.14983465253105441 0.48099067897208148 0 -0.1558122254133027 0.48316327461493752 0 -0.15682389603308189 0.47748605108520858 0 -0.14983465253105441 0.48099067897208148 0 -0.1558122254133027 0.48316327461493752 0 -0.15140604362779489 0.486968875654338 0 -0.1558122254133027 0.48316327461493752 0 -0.15140604362779489 0.486968875654338 0 -0.15545271364459581 0.49281799385228547 0 -0.14983465253105441 0.48099067897208148 0 -0.15140604362779489 0.486968875654338 0 -0.14427471349546869 0.48965289008050411 0 -0.15140604362779489 0.486968875654338 0 -0.15545271364459581 0.49281799385228547 0 -0.14427471349546869 0.48965289008050411 0 -0.15453849507163009 0.5 0 -0.14427471349546869 0.48965289008050411 0 -0.12543772684428189 0.5 0 -0.15453849507163009 0.5 0 -0.15545271364459581 0.49281799385228547 0 -0.14427471349546869 0.48965289008050411 0 -0.14427471349546869 0.48965289008050411 0 -0.12543772684428189 0.5 0 -0.13178312884530541 0.48627570230508688 0 -0.14427471349546869 0.48965289008050411 0 -0.13178312884530541 0.48627570230508688 0 -0.1405957742956809 0.47995063378193648 0 -0.13178312884530541 0.48627570230508688 0 -0.1317912103042716 0.47600940211286807 0 -0.11642361318749669 0.48420448820259387 0 -0.1317912103042716 0.47600940211286807 0 -0.14083201439797821 0.46516349611765162 0 -0.12052644250191399 0.4682622397032008 0 -0.13178312884530541 0.48627570230508688 0 -0.1405957742956809 0.47995063378193648 0 -0.1317912103042716 0.47600940211286807 0 -0.1410608215807003 0.47118489318428192 0 -0.1405957742956809 0.47995063378193648 0 -0.1317912103042716 0.47600940211286807 0 -0.1410608215807003 0.47118489318428192 0 -0.1317912103042716 0.47600940211286807 0 -0.14083201439797821 0.46516349611765162 0 -0.12618187852634369 0.45882241462805679 0 -0.14083201439797821 0.46516349611765162 0 -0.12052644250191399 0.4682622397032008 0 -0.14083201439797821 0.46516349611765162 0 -0.12052644250191399 0.4682622397032008 0 -0.12618187852634369 0.45882241462805679 0 -0.13621980461969219 0.45775649261309698 0 -0.13482926781972801 0.45201676164804122 0 -0.13621980461969219 0.45775649261309698 0 -0.13482926781972801 0.45201676164804122 0 -0.1430360577347192 0.45502329805863873 0 -0.13621980461969219 0.45775649261309698 0 -0.14083201439797821 0.46516349611765162 0 -0.1430360577347192 0.45502329805863873 0 -0.12618187852634369 0.45882241462805679 0 -0.13621980461969219 0.45775649261309698 0 -0.14083201439797821 0.46516349611765162 0 -0.12618187852634369 0.45882241462805679 0 -0.13482926781972801 0.45201676164804122 0 -0.1248743097581413 0.44162978393037222 0 -0.13482926781972801 0.45201676164804122 0 -0.13973201497409549 0.44099892737807922 0 -0.1415241139788854 0.4488412036993919 0 -0.13482926781972801 0.45201676164804122 0 -0.1415241139788854 0.4488412036993919 0 -0.1430360577347192 0.45502329805863873 0 -0.13973201497409549 0.44099892737807922 0 -0.13491063247587859 0.43073185275000708 0 -0.1248743097581413 0.44162978393037222 0 -0.13482926781972801 0.45201676164804122 0 -0.13973201497409549 0.44099892737807922 0 -0.1248743097581413 0.44162978393037222 0 -0.13973201497409549 0.44099892737807922 0 -0.14849911538699881 0.44732582771280882 0 -0.14949031039727409 0.43903968606904947 0 -0.14849911538699881 0.44732582771280882 0 -0.1430360577347192 0.45502329805863873 0 -0.15230793746503779 0.45507497120342549 0 -0.13973201497409549 0.44099892737807922 0 -0.1415241139788854 0.4488412036993919 0 -0.14849911538699881 0.44732582771280882 0 -0.1415241139788854 0.4488412036993919 0 -0.14849911538699881 0.44732582771280882 0 -0.1430360577347192 0.45502329805863873 0 -0.14849911538699881 0.44732582771280882 0 -0.15230793746503779 0.45507497120342549 0 -0.15767924869329919 0.44641741059368378 0 -0.14949031039727409 0.43903968606904947 0 -0.15767924869329919 0.44641741059368378 0 -0.15912083936695831 0.4347249498771325 0 -0.14849911538699881 0.44732582771280882 0 -0.14949031039727409 0.43903968606904947 0 -0.15767924869329919 0.44641741059368378 0 -0.14083201439797821 0.46516349611765162 0 -0.16113758629404229 0.46206475253210239 0 -0.15779819732271971 0.4695739402503486 0 -0.1410608215807003 0.47118489318428192 0 -0.14083201439797821 0.46516349611765162 0 -0.15779819732271971 0.4695739402503486 0 -0.14083201439797821 0.46516349611765162 0 -0.16113758629404229 0.46206475253210239 0 -0.14083201439797821 0.46516349611765162 0 -0.15230793746503779 0.45507497120342549 0 -0.16113758629404229 0.46206475253210239 0 -0.14083201439797821 0.46516349611765162 0 -0.1430360577347192 0.45502329805863873 0 -0.15230793746503779 0.45507497120342549 0 -0.16113758629404229 0.46206475253210239 0 -0.16940388650370539 0.44815354093755089 0 -0.18144315819010631 0.45896600894655282 0 -0.16113758629404229 0.46206475253210239 0 -0.18144315819010631 0.45896600894655282 0 -0.16113758629404229 0.46206475253210239 0 -0.17453557306473899 0.46796298731641428 0 -0.15779819732271971 0.4695739402503486 0 -0.15230793746503779 0.45507497120342549 0 -0.16113758629404229 0.46206475253210239 0 -0.16013216473902109 0.45292766881669072 0 -0.16113758629404229 0.46206475253210239 0 -0.16013216473902109 0.45292766881669072 0 -0.16940388650370539 0.44815354093755089 0 -0.15767924869329919 0.44641741059368378 0 -0.16940388650370539 0.44815354093755089 0 -0.15912083936695831 0.4347249498771325 0 -0.15230793746503779 0.45507497120342549 0 -0.16013216473902109 0.45292766881669072 0 -0.15767924869329919 0.44641741059368378 0 -0.16013216473902109 0.45292766881669072 0 -0.15767924869329919 0.44641741059368378 0 -0.16940388650370539 0.44815354093755089 0 -0.1829590266345629 0.45699162349075462 0 -0.18255950863604661 0.43173185523385532 0 -0.1829590266345629 0.45699162349075462 0 -0.19557533522393281 0.44055915781337712 0 -0.18255950863604661 0.43173185523385532 0 -0.16940388650370539 0.44815354093755089 0 -0.1829590266345629 0.45699162349075462 0 -0.18255950863604661 0.43173185523385532 0 -0.16113758629404229 0.46206475253210239 0 -0.17453557306473899 0.46796298731641428 0 -0.18144315819010631 0.45896600894655282 0 -0.17453557306473899 0.46796298731641428 0 -0.18144315819010631 0.45896600894655282 0 -0.17453557306473899 0.46796298731641428 0 -0.18311948649431831 0.46713679563994498 0 -0.16940388650370539 0.44815354093755089 0 -0.18144315819010631 0.45896600894655282 0 -0.1829590266345629 0.45699162349075462 0 -0.18144315819010631 0.45896600894655282 0 -0.1829590266345629 0.45699162349075462 0 -0.18144315819010631 0.45896600894655282 0 -0.1829865290739871 0.45873048193697258 0 -0.1829590266345629 0.45699162349075462 0 -0.18144315819010631 0.45896600894655282 0 -0.1829865290739871 0.45873048193697258 0 -0.1829865290739871 0.45873048193697258 0 -0.1829590266345629 0.45699162349075462 0 -0.17453557306473899 0.46796298731641428 0 -0.18144315819010631 0.45896600894655282 0 -0.18311948649431831 0.46713679563994498 0 -0.1829865290739871 0.45873048193697258 0 -0.18311948649431831 0.46713679563994498 0 -0.18144315819010631 0.45896600894655282 0 -0.1829865290739871 0.45873048193697258 0 -0.18311948649431831 0.46713679563994498 0 -0.18311948649431831 0.46713679563994498 0 -0.18337937489664821 0.48356839781997168 0 -0.19511197543601369 0.47606725323690458 0 -0.18311948649431831 0.46713679563994498 0 -0.18337937489664821 0.48356839781997168 0 -0.18311948649431831 0.46713679563994498 0 -0.18337937489664821 0.48356839781997168 0 -0.17485937494801759 0.47808814193434568 0 -0.17453557306473899 0.46796298731641428 0 -0.18311948649431831 0.46713679563994498 0 -0.17485937494801759 0.47808814193434568 0 -0.17453557306473899 0.46796298731641428 0 -0.15779819732271971 0.4695739402503486 0 -0.17453557306473899 0.46796298731641428 0 -0.16499414335466689 0.48039049058434952 0 -0.17453557306473899 0.46796298731641428 0 -0.16499414335466689 0.48039049058434952 0 -0.15779819732271971 0.4695739402503486 0 -0.17453557306473899 0.46796298731641428 0 -0.17485937494801759 0.47808814193434568 0 -0.16499414335466689 0.48039049058434952 0 -0.17485937494801759 0.47808814193434568 0 -0.16499414335466689 0.48039049058434952 0 -0.1699453859209171 0.49288017845899518 0 -0.1558122254133027 0.48316327461493752 0 -0.16499414335466689 0.48039049058434952 0 -0.15682389603308189 0.47748605108520858 0 -0.16499414335466689 0.48039049058434952 0 -0.15682389603308189 0.47748605108520858 0 -0.15779819732271971 0.4695739402503486 0 -0.15453849507163009 0.5 0 -0.1699453859209171 0.49288017845899518 0 -0.18363926329897839 0.49999999999999828 0 -0.15453849507163009 0.5 0 -0.15545271364459581 0.49281799385228547 0 -0.1699453859209171 0.49288017845899518 0 -0.15545271364459581 0.49281799385228547 0 -0.16499414335466689 0.48039049058434952 0 -0.1699453859209171 0.49288017845899518 0 -0.15545271364459581 0.49281799385228547 0 -0.16499414335466689 0.48039049058434952 0 -0.1558122254133027 0.48316327461493752 0 -0.15545271364459581 0.49281799385228547 0 -0.16499414335466689 0.48039049058434952 0 -0.18337937489664821 0.48356839781997168 0 -0.18363926329897839 0.49999999999999828 0 -0.18337937489664821 0.48356839781997168 0 -0.1699453859209171 0.49288017845899518 0 -0.18363926329897839 0.49999999999999828 0 -0.18337937489664821 0.48356839781997168 0 -0.17485937494801759 0.47808814193434568 0 -0.1699453859209171 0.49288017845899518 0 -0.18337937489664821 0.48356839781997168 0 -0.18363926329897839 0.49999999999999828 0 -0.19848883175809501 0.48685236178056529 0 -0.18363926329897839 0.49999999999999828 0 -0.19848883175809501 0.48685236178056529 0 -0.20708556466301639 0.5 0 -0.18311948649431831 0.46713679563994498 0 -0.19511197543601369 0.47606725323690458 0 -0.20656524953558469 0.46488016823659339 0 -0.18337937489664821 0.48356839781997168 0 -0.19848883175809501 0.48685236178056529 0 -0.19511197543601369 0.47606725323690458 0 -0.19848883175809501 0.48685236178056529 0 -0.19511197543601369 0.47606725323690458 0 -0.206747867840962 0.47700509082497228 0 -0.19511197543601369 0.47606725323690458 0 -0.206747867840962 0.47700509082497228 0 -0.20656524953558469 0.46488016823659339 0 -0.19848883175809501 0.48685236178056529 0 -0.206747867840962 0.47700509082497228 0 -0.21585796601610141 0.48648558657266339 0 -0.206747867840962 0.47700509082497228 0 -0.21852396914967101 0.47285401242330122 0 -0.20656524953558469 0.46488016823659339 0 -0.206747867840962 0.47700509082497228 0 -0.21852396914967101 0.47285401242330122 0 -0.21585796601610141 0.48648558657266339 0 -0.20708556466301639 0.5 0 -0.21585796601610141 0.48648558657266339 0 -0.23053186602705439 0.5 0 -0.19848883175809501 0.48685236178056529 0 -0.20708556466301639 0.5 0 -0.21585796601610141 0.48648558657266339 0 -0.21585796601610141 0.48648558657266339 0 -0.23053186602705439 0.5 0 -0.2373192826940049 0.48342253064983348 0 -0.21852396914967101 0.47285401242330122 0 -0.2373192826940049 0.48342253064983348 0 -0.23001101257685119 0.46262354083324181 0 -0.21852396914967101 0.47285401242330122 0 -0.21585796601610141 0.48648558657266339 0 -0.2373192826940049 0.48342253064983348 0 -0.25474868654415728 0.48692894813519849 0 -0.25315469521642581 0.4750486889203015 0 -0.2373192826940049 0.48342253064983348 0 -0.25315469521642581 0.4750486889203015 0 -0.2373192826940049 0.48342253064983348 0 -0.23001101257685119 0.46262354083324181 0 -0.25397816739109252 0.5 0 -0.23053186602705439 0.5 0 -0.2373192826940049 0.48342253064983348 0 -0.25397816739109252 0.5 0 -0.25474868654415728 0.48692894813519849 0 -0.2373192826940049 0.48342253064983348 0 -0.26330490497154813 0.43976041958731371 0 -0.24129970279445639 0.44943490890582899 0 -0.24092688658692171 0.43286849171069308 0 -0.24129970279445639 0.44943490890582899 0 -0.2242493546558077 0.44235471361969553 0 -0.24092688658692171 0.43286849171069308 0 -0.25345677561811758 0.46036691342989022 0 -0.23001101257685119 0.46262354083324181 0 -0.25345677561811758 0.46036691342989022 0 -0.24129970279445639 0.44943490890582899 0 -0.23001101257685119 0.46262354083324181 0 -0.25345677561811758 0.46036691342989022 0 -0.25315469521642581 0.4750486889203015 0 -0.23001101257685119 0.46262354083324181 0 -0.24129970279445639 0.44943490890582899 0 -0.23001101257685119 0.46262354083324181 0 -0.2242493546558077 0.44235471361969553 0 -0.23001101257685119 0.46262354083324181 0 -0.2242493546558077 0.44235471361969553 0 -0.2144914677851314 0.45380351874251162 0 -0.2242493546558077 0.44235471361969553 0 -0.20880164963731279 0.443380440886459 0 -0.2144914677851314 0.45380351874251162 0 -0.20880164963731279 0.443380440886459 0 -0.2144914677851314 0.45380351874251162 0 -0.20415969833182021 0.45549933815243238 0 -0.23001101257685119 0.46262354083324181 0 -0.2144914677851314 0.45380351874251162 0 -0.20656524953558469 0.46488016823659339 0 -0.21852396914967101 0.47285401242330122 0 -0.23001101257685119 0.46262354083324181 0 -0.20656524953558469 0.46488016823659339 0 -0.23001101257685119 0.46262354083324181 0 -0.20656524953558469 0.46488016823659339 0 -0.2144914677851314 0.45380351874251162 0 -0.20415969833182021 0.45549933815243238 0 -0.20656524953558469 0.46488016823659339 0 -0.1829865290739871 0.45873048193697258 0 -0.1829590266345629 0.45699162349075462 0 -0.20415969833182021 0.45549933815243238 0 -0.1829865290739871 0.45873048193697258 0 -0.20415969833182021 0.45549933815243238 0 -0.18311948649431831 0.46713679563994498 0 -0.20415969833182021 0.45549933815243238 0 -0.20656524953558469 0.46488016823659339 0 -0.1829865290739871 0.45873048193697258 0 -0.18311948649431831 0.46713679563994498 0 -0.20415969833182021 0.45549933815243238 0 -0.18311948649431831 0.46713679563994498 0 -0.20656524953558469 0.46488016823659339 0 -0.1829590266345629 0.45699162349075462 0 -0.19557533522393281 0.44055915781337712 0 -0.1829590266345629 0.45699162349075462 0 -0.20415969833182021 0.45549933815243238 0 -0.19557533522393281 0.44055915781337712 0 -0.20880164963731279 0.443380440886459 0 -0.20415969833182021 0.45549933815243238 0 -0.19557533522393281 0.44055915781337712 0 -0.19557533522393281 0.44055915781337712 0 -0.20819164381331129 0.42412669213600601 0 -0.19557533522393281 0.44055915781337712 0 -0.19413142888046839 0.4217351031076268 0 -0.18255950863604661 0.43173185523385532 0 -0.19557533522393281 0.44055915781337712 0 -0.19413142888046839 0.4217351031076268 0 -0.20819164381331129 0.42412669213600601 0 -0.19413142888046839 0.4217351031076268 0 -0.20819164381331129 0.42412669213600601 0 -0.2021706660915297 0.40578572337793972 0 -0.19413142888046839 0.4217351031076268 0 -0.2021706660915297 0.40578572337793972 0 -0.18215999063752189 0.40647208697695608 0 -0.20819164381331129 0.42412669213600601 0 -0.22405449890785839 0.40643558214578251 0 -0.2021706660915297 0.40578572337793972 0 -0.20880164963731279 0.443380440886459 0 -0.19557533522393281 0.44055915781337712 0 -0.20819164381331129 0.42412669213600601 0 -0.2242493546558077 0.44235471361969553 0 -0.20880164963731279 0.443380440886459 0 -0.20819164381331129 0.42412669213600601 0 -0.2242493546558077 0.44235471361969553 0 -0.20819164381331129 0.42412669213600601 0 -0.22600929792909111 0.42518400498706249 0 -0.2242493546558077 0.44235471361969553 0 -0.22600929792909111 0.42518400498706249 0 -0.24092688658692171 0.43286849171069308 0 -0.20819164381331129 0.42412669213600601 0 -0.22600929792909111 0.42518400498706249 0 -0.22405449890785839 0.40643558214578251 0 -0.22600929792909111 0.42518400498706249 0 -0.22405449890785839 0.40643558214578251 0 -0.2382988550227183 0.41778448946306668 0 -0.2572482915111563 0.42152384209731297 0 -0.2382988550227183 0.41778448946306668 0 -0.2490618870264745 0.40647588616764979 0 -0.22405449890785839 0.40643558214578251 0 -0.2382988550227183 0.41778448946306668 0 -0.2490618870264745 0.40647588616764979 0 -0.2572482915111563 0.42152384209731297 0 -0.2382988550227183 0.41778448946306668 0 -0.24092688658692171 0.43286849171069308 0 -0.22600929792909111 0.42518400498706249 0 -0.2382988550227183 0.41778448946306668 0 -0.24092688658692171 0.43286849171069308 0 -0.24000210142933509 0.37809552861286783 0 -0.23801773827758249 0.39392053259368742 0 -0.22567210936962789 0.38582584627882549 0 -0.25152819264859128 0.38883491631829081 0 -0.24000210142933509 0.37809552861286783 0 -0.23801773827758249 0.39392053259368742 0 -0.25213085833087667 0.37355178257669552 0 -0.25152819264859128 0.38883491631829081 0 -0.24000210142933509 0.37809552861286783 0 -0.25152819264859128 0.38883491631829081 0 -0.2490618870264745 0.40647588616764979 0 -0.23801773827758249 0.39392053259368742 0 -0.22405449890785839 0.40643558214578251 0 -0.2490618870264745 0.40647588616764979 0 -0.23801773827758249 0.39392053259368742 0 -0.22405449890785839 0.40643558214578251 0 -0.22567210936962789 0.38582584627882549 0 -0.2099895612515065 0.38861519238670661 0 -0.22405449890785839 0.40643558214578251 0 -0.23801773827758249 0.39392053259368742 0 -0.22567210936962789 0.38582584627882549 0 -0.22567210936962789 0.38582584627882549 0 -0.21752164111765379 0.37637519474985792 0 -0.23054114355980421 0.3681661286558337 0 -0.24000210142933509 0.37809552861286783 0 -0.22567210936962789 0.38582584627882549 0 -0.23054114355980421 0.3681661286558337 0 -0.22567210936962789 0.38582584627882549 0 -0.21752164111765379 0.37637519474985792 0 -0.2099895612515065 0.38861519238670661 0 -0.21752164111765379 0.37637519474985792 0 -0.2099895612515065 0.38861519238670661 0 -0.20825127389149589 0.37038948781896619 0 -0.2099895612515065 0.38861519238670661 0 -0.1956253707180633 0.37355818799515828 0 -0.20825127389149589 0.37038948781896619 0 -0.22405449890785839 0.40643558214578251 0 -0.2099895612515065 0.38861519238670661 0 -0.2021706660915297 0.40578572337793972 0 -0.2021706660915297 0.40578572337793972 0 -0.19434121226752371 0.39112870189136351 0 -0.18215999063752189 0.40647208697695608 0 -0.2099895612515065 0.38861519238670661 0 -0.2021706660915297 0.40578572337793972 0 -0.19434121226752371 0.39112870189136351 0 -0.2099895612515065 0.38861519238670661 0 -0.19434121226752371 0.39112870189136351 0 -0.1956253707180633 0.37355818799515828 0 -0.19434121226752371 0.39112870189136351 0 -0.18176047263899719 0.38121231872005679 0 -0.1956253707180633 0.37355818799515828 0 -0.18176047263899719 0.38121231872005679 0 -0.16585623702428451 0.39107516703040651 0 -0.16689278400863089 0.37048631692620287 0 -0.16585623702428451 0.39107516703040651 0 -0.1532541744773912 0.375434017343177 0 -0.15169756500005979 0.38990146883471011 0 -0.16585623702428451 0.39107516703040651 0 -0.1532541744773912 0.375434017343177 0 -0.16689278400863089 0.37048631692620287 0 -0.16585623702428451 0.39107516703040651 0 -0.1665369108918931 0.40914444316194981 0 -0.1556916669008335 0.40278409093046019 0 -0.16585623702428451 0.39107516703040651 0 -0.18215999063752189 0.40647208697695608 0 -0.1665369108918931 0.40914444316194981 0 -0.16585623702428451 0.39107516703040651 0 -0.15169756500005979 0.38990146883471011 0 -0.1556916669008335 0.40278409093046019 0 -0.18176047263899719 0.38121231872005679 0 -0.16585623702428451 0.39107516703040651 0 -0.18215999063752189 0.40647208697695608 0 -0.18176047263899719 0.38121231872005679 0 -0.18215999063752189 0.40647208697695608 0 -0.19434121226752371 0.39112870189136351 0 -0.18176047263899719 0.38121231872005679 0 -0.18215999063752189 0.40647208697695608 0 -0.18215999063752189 0.40647208697695608 0 -0.18255950863604661 0.43173185523385532 0 -0.18215999063752189 0.40647208697695608 0 -0.16958367679162159 0.42493542776846188 0 -0.1665369108918931 0.40914444316194981 0 -0.19413142888046839 0.4217351031076268 0 -0.18215999063752189 0.40647208697695608 0 -0.18255950863604661 0.43173185523385532 0 -0.18215999063752189 0.40647208697695608 0 -0.18255950863604661 0.43173185523385532 0 -0.16958367679162159 0.42493542776846188 0 -0.16940388650370539 0.44815354093755089 0 -0.18255950863604661 0.43173185523385532 0 -0.16958367679162159 0.42493542776846188 0 -0.16940388650370539 0.44815354093755089 0 -0.16958367679162159 0.42493542776846188 0 -0.15912083936695831 0.4347249498771325 0 -0.16958367679162159 0.42493542776846188 0 -0.15912083936695831 0.4347249498771325 0 -0.15604886632200479 0.41831593774319042 0 -0.16958367679162159 0.42493542776846188 0 -0.1665369108918931 0.40914444316194981 0 -0.15604886632200479 0.41831593774319042 0 -0.1665369108918931 0.40914444316194981 0 -0.15604886632200479 0.41831593774319042 0 -0.1556916669008335 0.40278409093046019 0 -0.15604886632200479 0.41831593774319042 0 -0.14768726638806501 0.40958107086639878 0 -0.1556916669008335 0.40278409093046019 0 -0.15604886632200479 0.41831593774319042 0 -0.1455440964649429 0.41771164433310332 0 -0.14575226394851429 0.42876386523653243 0 -0.15604886632200479 0.41831593774319042 0 -0.1455440964649429 0.41771164433310332 0 -0.14768726638806501 0.40958107086639878 0 -0.1455440964649429 0.41771164433310332 0 -0.14768726638806501 0.40958107086639878 0 -0.13820848934052041 0.41088683445876423 0 -0.15912083936695831 0.4347249498771325 0 -0.15604886632200479 0.41831593774319042 0 -0.14575226394851429 0.42876386523653243 0 -0.14949031039727409 0.43903968606904947 0 -0.15912083936695831 0.4347249498771325 0 -0.14575226394851429 0.42876386523653243 0 -0.1455440964649429 0.41771164433310332 0 -0.14575226394851429 0.42876386523653243 0 -0.13557398954387551 0.42076075412316039 0 -0.13973201497409549 0.44099892737807922 0 -0.14949031039727409 0.43903968606904947 0 -0.14575226394851429 0.42876386523653243 0 -0.13491063247587859 0.43073185275000708 0 -0.1242188050129694 0.42501783294758849 0 -0.1248743097581413 0.44162978393037222 0 -0.13973201497409549 0.44099892737807922 0 -0.14575226394851429 0.42876386523653243 0 -0.13491063247587859 0.43073185275000708 0 -0.14575226394851429 0.42876386523653243 0 -0.13491063247587859 0.43073185275000708 0 -0.13557398954387551 0.42076075412316039 0 -0.13491063247587859 0.43073185275000708 0 -0.13557398954387551 0.42076075412316039 0 -0.1242188050129694 0.42501783294758849 0 -0.13820848934052041 0.41088683445876423 0 -0.13557398954387551 0.42076075412316039 0 -0.12623023605756489 0.41143854881348008 0 -0.1455440964649429 0.41771164433310332 0 -0.13820848934052041 0.41088683445876423 0 -0.13557398954387551 0.42076075412316039 0 -0.13557398954387551 0.42076075412316039 0 -0.12623023605756489 0.41143854881348008 0 -0.1242188050129694 0.42501783294758849 0 -0.13820848934052041 0.41088683445876423 0 -0.12623023605756489 0.41143854881348008 0 -0.13398515235888339 0.40371564514020769 0 -0.12997925716256209 0.39431640422262348 0 -0.14074253368576661 0.38200722200303072 0 -0.1429432129120235 0.39820684686647628 0 -0.12623023605756489 0.41143854881348008 0 -0.13398515235888339 0.40371564514020769 0 -0.12997925716256209 0.39431640422262348 0 -0.13398515235888339 0.40371564514020769 0 -0.12997925716256209 0.39431640422262348 0 -0.1429432129120235 0.39820684686647628 0 -0.13820848934052041 0.41088683445876423 0 -0.13398515235888339 0.40371564514020769 0 -0.1429432129120235 0.39820684686647628 0 -0.12997925716256209 0.39431640422262348 0 -0.14074253368576661 0.38200722200303072 0 -0.12523428666698541 0.37069662222368049 0 -0.12997925716256209 0.39431640422262348 0 -0.12523428666698541 0.37069662222368049 0 -0.12103247972044499 0.39311621374447298 0 -0.14074253368576661 0.38200722200303072 0 -0.15169756500005979 0.38990146883471011 0 -0.1429432129120235 0.39820684686647628 0 -0.14074253368576661 0.38200722200303072 0 -0.1532541744773912 0.375434017343177 0 -0.15169756500005979 0.38990146883471011 0 -0.15169756500005979 0.38990146883471011 0 -0.1556916669008335 0.40278409093046019 0 -0.1429432129120235 0.39820684686647628 0 -0.14768726638806501 0.40958107086639878 0 -0.1556916669008335 0.40278409093046019 0 -0.1429432129120235 0.39820684686647628 0 -0.14768726638806501 0.40958107086639878 0 -0.13820848934052041 0.41088683445876423 0 -0.1429432129120235 0.39820684686647628 0 -0.14407255521749979 0.34403263722221961 0 -0.15504053286571459 0.3545366000593369 0 -0.14129669608781389 0.36249735492572199 0 -0.14407255521749979 0.34403263722221961 0 -0.15504053286571459 0.3545366000593369 0 -0.1549481930100888 0.34056708499864929 0 -0.14074253368576661 0.38200722200303072 0 -0.1532541744773912 0.375434017343177 0 -0.14129669608781389 0.36249735492572199 0 -0.1532541744773912 0.375434017343177 0 -0.15504053286571459 0.3545366000593369 0 -0.14129669608781389 0.36249735492572199 0 -0.14129669608781389 0.36249735492572199 0 -0.12523428666698541 0.37069662222368049 0 -0.1294360936135257 0.3482770307028879 0 -0.12523428666698541 0.37069662222368049 0 -0.1294360936135257 0.3482770307028879 0 -0.14074253368576661 0.38200722200303072 0 -0.14129669608781389 0.36249735492572199 0 -0.12523428666698541 0.37069662222368049 0 -0.14407255521749979 0.34403263722221961 0 -0.14129669608781389 0.36249735492572199 0 -0.1294360936135257 0.3482770307028879 0 -0.1294360936135257 0.3482770307028879 0 -0.13363790056006589 0.32585743918209531 0 -0.14407255521749979 0.34403263722221961 0 -0.1294360936135257 0.3482770307028879 0 -0.13363790056006589 0.32585743918209531 0 -0.1294360936135257 0.3482770307028879 0 -0.13363790056006589 0.32585743918209531 0 -0.1154499742120704 0.34086754873962172 0 -0.12722248981549561 0.3181430308760943 0 -0.13363790056006589 0.32585743918209531 0 -0.1360408951285694 0.3130357752318072 0 -0.12722248981549561 0.3181430308760943 0 -0.1360408951285694 0.3130357752318072 0 -0.12136448477009221 0.30951812845445109 0 -0.12722248981549561 0.3181430308760943 0 -0.13363790056006589 0.32585743918209531 0 -0.12142985306419619 0.32461006626398298 0 -0.13363790056006589 0.32585743918209531 0 -0.12142985306419619 0.32461006626398298 0 -0.13363790056006589 0.32585743918209531 0 -0.1360408951285694 0.3130357752318072 0 -0.14290423209994971 0.32095809222069871 0 -0.13363790056006589 0.32585743918209531 0 -0.1360408951285694 0.3130357752318072 0 -0.14290423209994971 0.32095809222069871 0 -0.1532404752523272 0.32269894785805692 0 -0.1464174014568787 0.29836992735667278 0 -0.13363790056006589 0.32585743918209531 0 -0.14290423209994971 0.32095809222069871 0 -0.15729966860100811 0.32827511069417059 0 -0.13363790056006589 0.32585743918209531 0 -0.15729966860100811 0.32827511069417059 0 -0.14290423209994971 0.32095809222069871 0 -0.1532404752523272 0.32269894785805692 0 -0.15729966860100811 0.32827511069417059 0 -0.1532404752523272 0.32269894785805692 0 -0.15943794807189979 0.31595908059817063 0 -0.1547819877644892 0.3091453549012102 0 -0.14407255521749979 0.34403263722221961 0 -0.13363790056006589 0.32585743918209531 0 -0.14748957934716561 0.33468306802428371 0 -0.13363790056006589 0.32585743918209531 0 -0.14748957934716561 0.33468306802428371 0 -0.15729966860100811 0.32827511069417059 0 -0.14748957934716561 0.33468306802428371 0 -0.1549481930100888 0.34056708499864929 0 -0.15729966860100811 0.32827511069417059 0 -0.14407255521749979 0.34403263722221961 0 -0.14748957934716561 0.33468306802428371 0 -0.1549481930100888 0.34056708499864929 0 -0.15729966860100811 0.32827511069417059 0 -0.18096143664194889 0.33069278220625808 0 -0.1549481930100888 0.34056708499864929 0 -0.15729966860100811 0.32827511069417059 0 -0.16781010436956259 0.34240718275037813 0 -0.15729966860100811 0.32827511069417059 0 -0.16781010436956259 0.34240718275037813 0 -0.18096143664194889 0.33069278220625808 0 -0.15729966860100811 0.32827511069417059 0 -0.17028988351433311 0.32233995817617028 0 -0.18096143664194889 0.33069278220625808 0 -0.15943794807189979 0.31595908059817063 0 -0.16495134068588049 0.31685297469802859 0 -0.1638395481514221 0.30983277085387728 0 -0.1532404752523272 0.32269894785805692 0 -0.15943794807189979 0.31595908059817063 0 -0.16037638850537991 0.32126535467967993 0 -0.15943794807189979 0.31595908059817063 0 -0.16037638850537991 0.32126535467967993 0 -0.16495134068588049 0.31685297469802859 0 -0.15729966860100811 0.32827511069417059 0 -0.16037638850537991 0.32126535467967993 0 -0.17028988351433311 0.32233995817617028 0 -0.1532404752523272 0.32269894785805692 0 -0.15729966860100811 0.32827511069417059 0 -0.16037638850537991 0.32126535467967993 0 -0.16495134068588049 0.31685297469802859 0 -0.17285953122972289 0.31090601179704258 0 -0.1638395481514221 0.30983277085387728 0 -0.17028988351433311 0.32233995817617028 0 -0.16495134068588049 0.31685297469802859 0 -0.17285953122972289 0.31090601179704258 0 -0.16037638850537991 0.32126535467967993 0 -0.17028988351433311 0.32233995817617028 0 -0.16495134068588049 0.31685297469802859 0 -0.18077272512400111 0.31876138179813301 0 -0.17285953122972289 0.31090601179704258 0 -0.17028988351433311 0.32233995817617028 0 -0.18077272512400111 0.31876138179813301 0 -0.17285953122972289 0.31090601179704258 0 -0.17028988351433311 0.32233995817617028 0 -0.18077272512400111 0.31876138179813301 0 -0.18096143664194889 0.33069278220625808 0 -0.18077272512400111 0.31876138179813301 0 -0.19386790912735871 0.33176087567547108 0 -0.18077272512400111 0.31876138179813301 0 -0.18096143664194889 0.33069278220625808 0 -0.18077272512400111 0.31876138179813301 0 -0.18096143664194889 0.33069278220625808 0 -0.19386790912735871 0.33176087567547108 0 -0.18096143664194889 0.33069278220625808 0 -0.1813609546404725 0.35595255046315749 0 -0.18096143664194889 0.33069278220625808 0 -0.1813609546404725 0.35595255046315749 0 -0.19258948339875709 0.33633707034479371 0 -0.16781010436956259 0.34240718275037813 0 -0.18096143664194889 0.33069278220625808 0 -0.1813609546404725 0.35595255046315749 0 -0.18096143664194889 0.33069278220625808 0 -0.19386790912735871 0.33176087567547108 0 -0.15504053286571459 0.3545366000593369 0 -0.16781010436956259 0.34240718275037813 0 -0.1813609546404725 0.35595255046315749 0 -0.15504053286571459 0.3545366000593369 0 -0.1549481930100888 0.34056708499864929 0 -0.16781010436956259 0.34240718275037813 0 -0.1532541744773912 0.375434017343177 0 -0.15504053286571459 0.3545366000593369 0 -0.16689278400863089 0.37048631692620287 0 -0.15504053286571459 0.3545366000593369 0 -0.1813609546404725 0.35595255046315749 0 -0.16689278400863089 0.37048631692620287 0 -0.18176047263899719 0.38121231872005679 0 -0.1813609546404725 0.35595255046315749 0 -0.18176047263899719 0.38121231872005679 0 -0.1813609546404725 0.35595255046315749 0 -0.1956253707180633 0.37355818799515828 0 -0.18176047263899719 0.38121231872005679 0 -0.1813609546404725 0.35595255046315749 0 -0.16689278400863089 0.37048631692620287 0 -0.1813609546404725 0.35595255046315749 0 -0.1956253707180633 0.37355818799515828 0 -0.2000380028121157 0.35856944723279938 0 -0.1956253707180633 0.37355818799515828 0 -0.2000380028121157 0.35856944723279938 0 -0.20825127389149589 0.37038948781896619 0 -0.1813609546404725 0.35595255046315749 0 -0.1951678646333711 0.34883535218340811 0 -0.19258948339875709 0.33633707034479371 0 -0.1813609546404725 0.35595255046315749 0 -0.1951678646333711 0.34883535218340811 0 -0.2000380028121157 0.35856944723279938 0 -0.1951678646333711 0.34883535218340811 0 -0.2000380028121157 0.35856944723279938 0 -0.20668301768213909 0.34448234069288158 0 -0.20668301768213909 0.34448234069288158 0 -0.2120127789660084 0.36084248239747968 0 -0.21921666942493959 0.3569244055809645 0 -0.2000380028121157 0.35856944723279938 0 -0.20668301768213909 0.34448234069288158 0 -0.2120127789660084 0.36084248239747968 0 -0.2120127789660084 0.36084248239747968 0 -0.21921666942493959 0.3569244055809645 0 -0.20668301768213909 0.34448234069288158 0 -0.21921666942493959 0.3569244055809645 0 -0.22158808080033929 0.34557455345049992 0 -0.20668301768213909 0.34448234069288158 0 -0.21921666942493959 0.3569244055809645 0 -0.2000380028121157 0.35856944723279938 0 -0.20825127389149589 0.37038948781896619 0 -0.2120127789660084 0.36084248239747968 0 -0.2120127789660084 0.36084248239747968 0 -0.2199937556016836 0.36693485901855288 0 -0.21921666942493959 0.3569244055809645 0 -0.20825127389149589 0.37038948781896619 0 -0.2120127789660084 0.36084248239747968 0 -0.2199937556016836 0.36693485901855288 0 -0.21752164111765379 0.37637519474985792 0 -0.20825127389149589 0.37038948781896619 0 -0.2199937556016836 0.36693485901855288 0 -0.21752164111765379 0.37637519474985792 0 -0.23054114355980421 0.3681661286558337 0 -0.2199937556016836 0.36693485901855288 0 -0.23054114355980421 0.3681661286558337 0 -0.21921666942493959 0.3569244055809645 0 -0.23305195790672301 0.35812934693154008 0 -0.23054114355980421 0.3681661286558337 0 -0.2199937556016836 0.36693485901855288 0 -0.21921666942493959 0.3569244055809645 0 -0.23054114355980421 0.3681661286558337 0 -0.21921666942493959 0.3569244055809645 0 -0.21921666942493959 0.3569244055809645 0 -0.22158808080033929 0.34557455345049992 0 -0.23915963598069589 0.34607775607121571 0 -0.21921666942493959 0.3569244055809645 0 -0.23915963598069589 0.34607775607121571 0 -0.21921666942493959 0.3569244055809645 0 -0.23305195790672301 0.35812934693154008 0 -0.23915963598069589 0.34607775607121571 0 -0.23305195790672301 0.35812934693154008 0 -0.23915963598069589 0.34607775607121571 0 -0.24329038266145239 0.36134909741814653 0 -0.25407523553642281 0.3497448278934856 0 -0.23915963598069589 0.34607775607121571 0 -0.24329038266145239 0.36134909741814653 0 -0.25213085833087667 0.37355178257669552 0 -0.24000210142933509 0.37809552861286783 0 -0.24329038266145239 0.36134909741814653 0 -0.24000210142933509 0.37809552861286783 0 -0.23054114355980421 0.3681661286558337 0 -0.24329038266145239 0.36134909741814653 0 -0.23054114355980421 0.3681661286558337 0 -0.23305195790672301 0.35812934693154008 0 -0.24329038266145239 0.36134909741814653 0 -0.23582541811145999 0.32679902143390172 0 -0.24885494741763489 0.31718848033418301 0 -0.23189508169276829 0.30076725351495531 0 -0.23582541811145999 0.32679902143390172 0 -0.24885494741763489 0.31718848033418301 0 -0.24633099797708269 0.32737693631841108 0 -0.25451497659773847 0.32559442806853028 0 -0.24885494741763489 0.31718848033418301 0 -0.24633099797708269 0.32737693631841108 0 -0.24843663428782739 0.33758714710907461 0 -0.22129300011358269 0.33481371145693772 0 -0.25451497659773847 0.32559442806853028 0 -0.24633099797708269 0.32737693631841108 0 -0.24843663428782739 0.33758714710907461 0 -0.25910260253645218 0.33523110656146687 0 -0.23915963598069589 0.34607775607121571 0 -0.23582541811145999 0.32679902143390172 0 -0.24633099797708269 0.32737693631841108 0 -0.24843663428782739 0.33758714710907461 0 -0.25910260253645218 0.33523110656146687 0 -0.23915963598069589 0.34607775607121571 0 -0.24843663428782739 0.33758714710907461 0 -0.23582541811145999 0.32679902143390172 0 -0.24843663428782739 0.33758714710907461 0 -0.22129300011358269 0.33481371145693772 0 -0.23915963598069589 0.34607775607121571 0 -0.24843663428782739 0.33758714710907461 0 -0.22129300011358269 0.33481371145693772 0 -0.22158808080033929 0.34557455345049992 0 -0.23915963598069589 0.34607775607121571 0 -0.22129300011358269 0.33481371145693772 0 -0.23582541811145999 0.32679902143390172 0 -0.21954464392232159 0.31820766509236142 0 -0.23189508169276829 0.30076725351495531 0 -0.23582541811145999 0.32679902143390172 0 -0.22129300011358269 0.33481371145693772 0 -0.21954464392232159 0.31820766509236142 0 -0.21954464392232159 0.31820766509236142 0 -0.20492818889453221 0.32276220977772679 0 -0.20060783596013981 0.3076349397264902 0 -0.22129300011358269 0.33481371145693772 0 -0.21954464392232159 0.31820766509236142 0 -0.20492818889453221 0.32276220977772679 0 -0.22129300011358269 0.33481371145693772 0 -0.20492818889453221 0.32276220977772679 0 -0.19386790912735871 0.33176087567547108 0 -0.22129300011358269 0.33481371145693772 0 -0.19386790912735871 0.33176087567547108 0 -0.20668301768213909 0.34448234069288158 0 -0.22129300011358269 0.33481371145693772 0 -0.19386790912735871 0.33176087567547108 0 -0.20668301768213909 0.34448234069288158 0 -0.22158808080033929 0.34557455345049992 0 -0.22129300011358269 0.33481371145693772 0 -0.20668301768213909 0.34448234069288158 0 -0.19386790912735871 0.33176087567547108 0 -0.19258948339875709 0.33633707034479371 0 -0.20668301768213909 0.34448234069288158 0 -0.19386790912735871 0.33176087567547108 0 -0.1951678646333711 0.34883535218340811 0 -0.20668301768213909 0.34448234069288158 0 -0.19258948339875709 0.33633707034479371 0 -0.18096143664194889 0.33069278220625808 0 -0.19386790912735871 0.33176087567547108 0 -0.19258948339875709 0.33633707034479371 0 -0.19386790912735871 0.33176087567547108 0 -0.19258948339875709 0.33633707034479371 0 -0.18077272512400111 0.31876138179813301 0 -0.19386790912735871 0.33176087567547108 0 -0.20060783596013981 0.3076349397264902 0 -0.20492818889453221 0.32276220977772679 0 -0.19386790912735871 0.33176087567547108 0 -0.20060783596013981 0.3076349397264902 0 -0.19386790912735871 0.33176087567547108 0 -0.20060783596013981 0.3076349397264902 0 -0.20060783596013981 0.3076349397264902 0 -0.20734776279292019 0.28350900377750898 0 -0.23189508169276829 0.30076725351495531 0 -0.21954464392232159 0.31820766509236142 0 -0.20060783596013981 0.3076349397264902 0 -0.23189508169276829 0.30076725351495531 0 -0.20060783596013981 0.3076349397264902 0 -0.20734776279292019 0.28350900377750898 0 -0.18034630435624241 0.29180066960649809 0 -0.20734776279292019 0.28350900377750898 0 -0.19375927737912041 0.2730469699042487 0 -0.18034630435624241 0.29180066960649809 0 -0.20060783596013981 0.3076349397264902 0 -0.20734776279292019 0.28350900377750898 0 -0.20734776279292019 0.28350900377750898 0 -0.23189508169276829 0.30076725351495531 0 -0.22396762922540969 0.27514125130055722 0 -0.23189508169276829 0.30076725351495531 0 -0.2378434694439332 0.28391349183279069 0 -0.22396762922540969 0.27514125130055722 0 -0.25673188405007052 0.28646841290673969 0 -0.23189508169276829 0.30076725351495531 0 -0.2378434694439332 0.28391349183279069 0 -0.25673188405007052 0.28646841290673969 0 -0.23189508169276829 0.30076725351495531 0 -0.25505401324638421 0.30366623925853881 0 -0.25673188405007052 0.28646841290673969 0 -0.23189508169276829 0.30076725351495531 0 -0.25505401324638421 0.30366623925853881 0 -0.24885494741763489 0.31718848033418301 0 -0.23189508169276829 0.30076725351495531 0 -0.25265925142613249 0.26128234508680298 0 -0.23885305679183191 0.2684477152547543 0 -0.23951274761537589 0.2474853768326048 0 -0.23885305679183191 0.2684477152547543 0 -0.22811192938500721 0.25829645972706228 0 -0.23951274761537589 0.2474853768326048 0 -0.25621817608628389 0.2460965770837312 0 -0.25265925142613249 0.26128234508680298 0 -0.23951274761537589 0.2474853768326048 0 -0.25673188405007052 0.28646841290673969 0 -0.2378434694439332 0.28391349183279069 0 -0.23885305679183191 0.2684477152547543 0 -0.25265925142613249 0.26128234508680298 0 -0.25673188405007052 0.28646841290673969 0 -0.23885305679183191 0.2684477152547543 0 -0.23885305679183191 0.2684477152547543 0 -0.22396762922540969 0.27514125130055722 0 -0.22811192938500721 0.25829645972706228 0 -0.2378434694439332 0.28391349183279069 0 -0.23885305679183191 0.2684477152547543 0 -0.22396762922540969 0.27514125130055722 0 -0.22811192938500721 0.25829645972706228 0 -0.22371849106378741 0.2462845034026982 0 -0.23951274761537589 0.2474853768326048 0 -0.22396762922540969 0.27514125130055722 0 -0.22811192938500721 0.25829645972706228 0 -0.21408768962570049 0.25938306782852782 0 -0.22811192938500721 0.25829645972706228 0 -0.21408768962570049 0.25938306782852782 0 -0.22371849106378741 0.2462845034026982 0 -0.21408768962570049 0.25938306782852782 0 -0.19928355658839081 0.25766712263582692 0 -0.2066863838603582 0.24242880758937649 0 -0.21408768962570049 0.25938306782852782 0 -0.20163280817849061 0.26608937016207479 0 -0.19928355658839081 0.25766712263582692 0 -0.20734776279292019 0.28350900377750898 0 -0.21408768962570049 0.25938306782852782 0 -0.20734776279292019 0.28350900377750898 0 -0.22396762922540969 0.27514125130055722 0 -0.21408768962570049 0.25938306782852782 0 -0.20734776279292019 0.28350900377750898 0 -0.21408768962570049 0.25938306782852782 0 -0.20163280817849061 0.26608937016207479 0 -0.20734776279292019 0.28350900377750898 0 -0.20163280817849061 0.26608937016207479 0 -0.19375927737912041 0.2730469699042487 0 -0.20163280817849061 0.26608937016207479 0 -0.19375927737912041 0.2730469699042487 0 -0.19160269433399771 0.26436194023610149 0 -0.19375927737912041 0.2730469699042487 0 -0.19160269433399771 0.26436194023610149 0 -0.17991988358848049 0.26483995741486333 0 -0.19928355658839081 0.25766712263582692 0 -0.18259587964237009 0.2606558300825601 0 -0.2066863838603582 0.24242880758937649 0 -0.18259587964237009 0.2606558300825601 0 -0.19333963139412971 0.24385714112684301 0 -0.19928355658839081 0.25766712263582692 0 -0.19160269433399771 0.26436194023610149 0 -0.18259587964237009 0.2606558300825601 0 -0.18259587964237009 0.2606558300825601 0 -0.2066863838603582 0.24242880758937649 0 -0.20163280817849061 0.26608937016207479 0 -0.19928355658839081 0.25766712263582692 0 -0.19160269433399771 0.26436194023610149 0 -0.17991988358848049 0.26483995741486333 0 -0.17951502337729761 0.2392424245160312 0 -0.17991988358848049 0.26483995741486333 0 -0.17042143569771079 0.26099360542817968 0 -0.17951502337729761 0.2392424245160312 0 -0.18259587964237009 0.2606558300825601 0 -0.17991988358848049 0.26483995741486333 0 -0.17951502337729761 0.2392424245160312 0 -0.19160269433399771 0.26436194023610149 0 -0.18259587964237009 0.2606558300825601 0 -0.17991988358848049 0.26483995741486333 0 -0.18259587964237009 0.2606558300825601 0 -0.17991988358848049 0.26483995741486333 0 -0.17991988358848049 0.26483995741486333 0 -0.17042143569771079 0.26099360542817968 0 -0.17716480609589361 0.26914773470870201 0 -0.17042143569771079 0.26099360542817968 0 -0.1627301728603629 0.26968240911070368 0 -0.1532221513837192 0.25419418888983192 0 -0.17042143569771079 0.26099360542817968 0 -0.1532221513837192 0.25419418888983192 0 -0.17951502337729761 0.2392424245160312 0 -0.1627301728603629 0.26968240911070368 0 -0.1620479085915319 0.28265904931380531 0 -0.15271877240598841 0.27446820953958367 0 -0.17042143569771079 0.26099360542817968 0 -0.1627301728603629 0.26968240911070368 0 -0.1699765768805111 0.26885491792894611 0 -0.1627301728603629 0.26968240911070368 0 -0.1699765768805111 0.26885491792894611 0 -0.16860704672851359 0.27535934789532951 0 -0.1627301728603629 0.26968240911070368 0 -0.16860704672851359 0.27535934789532951 0 -0.1620479085915319 0.28265904931380531 0 -0.16860704672851359 0.27535934789532951 0 -0.17077339862397739 0.28423195702734899 0 -0.1620479085915319 0.28265904931380531 0 -0.17991988358848049 0.26483995741486333 0 -0.18034630435624241 0.29180066960649809 0 -0.17991988358848049 0.26483995741486333 0 -0.17716480609589361 0.26914773470870201 0 -0.18034630435624241 0.29180066960649809 0 -0.16860704672851359 0.27535934789532951 0 -0.17716480609589361 0.26914773470870201 0 -0.17077339862397739 0.28423195702734899 0 -0.19375927737912041 0.2730469699042487 0 -0.17991988358848049 0.26483995741486333 0 -0.18034630435624241 0.29180066960649809 0 -0.17042143569771079 0.26099360542817968 0 -0.1699765768805111 0.26885491792894611 0 -0.17716480609589361 0.26914773470870201 0 -0.1699765768805111 0.26885491792894611 0 -0.16860704672851359 0.27535934789532951 0 -0.17716480609589361 0.26914773470870201 0 -0.17991988358848049 0.26483995741486333 0 -0.17716480609589361 0.26914773470870201 0 -0.17716480609589361 0.26914773470870201 0 -0.18034630435624241 0.29180066960649809 0 -0.17077339862397739 0.28423195702734899 0 -0.18034630435624241 0.29180066960649809 0 -0.16501618616712291 0.29775164083812761 0 -0.17077339862397739 0.28423195702734899 0 -0.18077272512400111 0.31876138179813301 0 -0.18034630435624241 0.29180066960649809 0 -0.18077272512400111 0.31876138179813301 0 -0.18034630435624241 0.29180066960649809 0 -0.17285953122972289 0.31090601179704258 0 -0.18034630435624241 0.29180066960649809 0 -0.17285953122972289 0.31090601179704258 0 -0.16501618616712291 0.29775164083812761 0 -0.18077272512400111 0.31876138179813301 0 -0.20060783596013981 0.3076349397264902 0 -0.18034630435624241 0.29180066960649809 0 -0.16501618616712291 0.29775164083812761 0 -0.15329008091572741 0.28945008379417048 0 -0.1547819877644892 0.3091453549012102 0 -0.17285953122972289 0.31090601179704258 0 -0.16501618616712291 0.29775164083812761 0 -0.1638395481514221 0.30983277085387728 0 -0.16501618616712291 0.29775164083812761 0 -0.1638395481514221 0.30983277085387728 0 -0.1547819877644892 0.3091453549012102 0 -0.15943794807189979 0.31595908059817063 0 -0.1638395481514221 0.30983277085387728 0 -0.1547819877644892 0.3091453549012102 0 -0.16501618616712291 0.29775164083812761 0 -0.17077339862397739 0.28423195702734899 0 -0.1620479085915319 0.28265904931380531 0 -0.16501618616712291 0.29775164083812761 0 -0.1620479085915319 0.28265904931380531 0 -0.15329008091572741 0.28945008379417048 0 -0.1464174014568787 0.29836992735667278 0 -0.13959432766143021 0.2740409068552887 0 -0.1620479085915319 0.28265904931380531 0 -0.15329008091572741 0.28945008379417048 0 -0.15271877240598841 0.27446820953958367 0 -0.15329008091572741 0.28945008379417048 0 -0.1464174014568787 0.29836992735667278 0 -0.13959432766143021 0.2740409068552887 0 -0.15329008091572741 0.28945008379417048 0 -0.1464174014568787 0.29836992735667278 0 -0.1547819877644892 0.3091453549012102 0 -0.1532404752523272 0.32269894785805692 0 -0.1464174014568787 0.29836992735667278 0 -0.1360408951285694 0.3130357752318072 0 -0.14290423209994971 0.32095809222069871 0 -0.1464174014568787 0.29836992735667278 0 -0.1532404752523272 0.32269894785805692 0 -0.1464174014568787 0.29836992735667278 0 -0.1547819877644892 0.3091453549012102 0 -0.1360408951285694 0.3130357752318072 0 -0.1264253840414637 0.29528772621663357 0 -0.12136448477009221 0.30951812845445109 0 -0.1360408951285694 0.3130357752318072 0 -0.1464174014568787 0.29836992735667278 0 -0.1264253840414637 0.29528772621663357 0 -0.1464174014568787 0.29836992735667278 0 -0.1264253840414637 0.29528772621663357 0 -0.13959432766143021 0.2740409068552887 0 -0.1264253840414637 0.29528772621663357 0 -0.13959432766143021 0.2740409068552887 0 -0.1185373796182298 0.27837978510360878 0 -0.13959432766143021 0.2740409068552887 0 -0.1327712538659816 0.24971188635390451 0 -0.13959432766143021 0.2740409068552887 0 -0.116744543106582 0.25728181003509248 0 -0.1327712538659816 0.24971188635390451 0 -0.13959432766143021 0.2740409068552887 0 -0.1532221513837192 0.25419418888983192 0 -0.1327712538659816 0.24971188635390451 0 -0.1627301728603629 0.26968240911070368 0 -0.1532221513837192 0.25419418888983192 0 -0.15271877240598841 0.27446820953958367 0 -0.13959432766143021 0.2740409068552887 0 -0.1532221513837192 0.25419418888983192 0 -0.15271877240598841 0.27446820953958367 0 -0.15329008091572741 0.28945008379417048 0 -0.13959432766143021 0.2740409068552887 0 -0.15271877240598841 0.27446820953958367 0 -0.1061606963602142 0.26761343855331338 0 -0.1001789302111205 0.27974269320078388 0 -0.1185373796182298 0.27837978510360878 0 -0.1061606963602142 0.26761343855331338 0 -0.1001789302111205 0.27974269320078388 0 -0.092613028744971265 0.26767711662392979 0 -0.1061606963602142 0.26761343855331338 0 -0.10005120432924321 0.25626016583208688 0 -0.116744543106582 0.25728181003509248 0 -0.1061606963602142 0.26761343855331338 0 -0.10005120432924321 0.25626016583208688 0 -0.092613028744971265 0.26767711662392979 0 -0.10005120432924321 0.25626016583208688 0 -0.116744543106582 0.25728181003509248 0 -0.1045487088169635 0.24438495162540061 0 -0.13959432766143021 0.2740409068552887 0 -0.116744543106582 0.25728181003509248 0 -0.1185373796182298 0.27837978510360878 0 -0.1061606963602142 0.26761343855331338 0 -0.116744543106582 0.25728181003509248 0 -0.1185373796182298 0.27837978510360878 0 -0.1264253840414637 0.29528772621663357 0 -0.1127724140037699 0.30190213115774378 0 -0.1091517300735869 0.29135078386346752 0 -0.1264253840414637 0.29528772621663357 0 -0.1185373796182298 0.27837978510360878 0 -0.1091517300735869 0.29135078386346752 0 -0.1264253840414637 0.29528772621663357 0 -0.12136448477009221 0.30951812845445109 0 -0.1127724140037699 0.30190213115774378 0 -0.12136448477009221 0.30951812845445109 0 -0.1127724140037699 0.30190213115774378 0 -0.1061991548417472 0.31213959050036899 0 -0.1127724140037699 0.30190213115774378 0 -0.1061991548417472 0.31213959050036899 0 -0.1005146973405663 0.30141191014932889 0 -0.1127724140037699 0.30190213115774378 0 -0.1005146973405663 0.30141191014932889 0 -0.1091517300735869 0.29135078386346752 0 -0.1005146973405663 0.30141191014932889 0 -0.094430836728355921 0.29177030977787999 0 -0.089068024122243669 0.30112896568664949 0 -0.1061991548417472 0.31213959050036899 0 -0.1005146973405663 0.30141191014932889 0 -0.090928135519314904 0.31087631578889069 0 -0.1001789302111205 0.27974269320078388 0 -0.1185373796182298 0.27837978510360878 0 -0.1091517300735869 0.29135078386346752 0 -0.1005146973405663 0.30141191014932889 0 -0.1091517300735869 0.29135078386346752 0 -0.094430836728355921 0.29177030977787999 0 -0.1001789302111205 0.27974269320078388 0 -0.1091517300735869 0.29135078386346752 0 -0.094430836728355921 0.29177030977787999 0 -0.1001789302111205 0.27974269320078388 0 -0.094430836728355921 0.29177030977787999 0 -0.086145563619835275 0.2816538088019015 0 -0.094430836728355921 0.29177030977787999 0 -0.086145563619835275 0.2816538088019015 0 -0.081526075002782958 0.29533369696514911 0 -0.094430836728355921 0.29177030977787999 0 -0.081526075002782958 0.29533369696514911 0 -0.089068024122243669 0.30112896568664949 0 -0.086145563619835275 0.2816538088019015 0 -0.081526075002782958 0.29533369696514911 0 -0.070830210313899522 0.29195808219782299 0 -0.090928135519314904 0.31087631578889069 0 -0.079482369404140468 0.30560554845979909 0 -0.074915307566508993 0.31649039264194578 0 -0.090928135519314904 0.31087631578889069 0 -0.089068024122243669 0.30112896568664949 0 -0.079482369404140468 0.30560554845979909 0 -0.1005146973405663 0.30141191014932889 0 -0.090928135519314904 0.31087631578889069 0 -0.089068024122243669 0.30112896568664949 0 -0.081526075002782958 0.29533369696514911 0 -0.089068024122243669 0.30112896568664949 0 -0.079482369404140468 0.30560554845979909 0 -0.054647974243728172 0.30430181459310768 0 -0.074915307566508993 0.31649039264194578 0 -0.079482369404140468 0.30560554845979909 0 -0.068661557073843291 0.3005821027458685 0 -0.074915307566508993 0.31649039264194578 0 -0.068661557073843291 0.3005821027458685 0 -0.054647974243728172 0.30430181459310768 0 -0.074915307566508993 0.31649039264194578 0 -0.081526075002782958 0.29533369696514911 0 -0.079482369404140468 0.30560554845979909 0 -0.068661557073843291 0.3005821027458685 0 -0.070830210313899522 0.29195808219782299 0 -0.067453711470644842 0.27023673344429472 0 -0.052574645638654917 0.28480468584225688 0 -0.081526075002782958 0.29533369696514911 0 -0.068661557073843291 0.3005821027458685 0 -0.070830210313899522 0.29195808219782299 0 -0.068661557073843291 0.3005821027458685 0 -0.070830210313899522 0.29195808219782299 0 -0.068661557073843291 0.3005821027458685 0 -0.070830210313899522 0.29195808219782299 0 -0.059610011597539182 0.29372125904316332 0 -0.086145563619835275 0.2816538088019015 0 -0.070830210313899522 0.29195808219782299 0 -0.077256670317037021 0.26667642926106078 0 -0.070830210313899522 0.29195808219782299 0 -0.067453711470644842 0.27023673344429472 0 -0.070830210313899522 0.29195808219782299 0 -0.077256670317037021 0.26667642926106078 0 -0.070830210313899522 0.29195808219782299 0 -0.067453711470644842 0.27023673344429472 0 -0.077256670317037021 0.26667642926106078 0 -0.086145563619835275 0.2816538088019015 0 -0.077256670317037021 0.26667642926106078 0 -0.092613028744971265 0.26767711662392979 0 -0.1001789302111205 0.27974269320078388 0 -0.086145563619835275 0.2816538088019015 0 -0.092613028744971265 0.26767711662392979 0 -0.077256670317037021 0.26667642926106078 0 -0.086302411784292182 0.25447467192259482 0 -0.083666647235009842 0.24139059785004849 0 -0.077256670317037021 0.26667642926106078 0 -0.083666647235009842 0.24139059785004849 0 -0.10005120432924321 0.25626016583208688 0 -0.086302411784292182 0.25447467192259482 0 -0.094679029848152713 0.24609146959404629 0 -0.10005120432924321 0.25626016583208688 0 -0.092613028744971265 0.26767711662392979 0 -0.086302411784292182 0.25447467192259482 0 -0.077256670317037021 0.26667642926106078 0 -0.092613028744971265 0.26767711662392979 0 -0.086302411784292182 0.25447467192259482 0 -0.077256670317037021 0.26667642926106078 0 -0.064077212627390134 0.24851538469076631 0 -0.083666647235009842 0.24139059785004849 0 -0.067453711470644842 0.27023673344429472 0 -0.077256670317037021 0.26667642926106078 0 -0.064077212627390134 0.24851538469076631 0 -0.067453711470644842 0.27023673344429472 0 -0.064077212627390134 0.24851538469076631 0 -0.067453711470644842 0.27023673344429472 0 -0.04634179854296408 0.26632715615711849 0 -0.064077212627390134 0.24851538469076631 0 -0.04634179854296408 0.26632715615711849 0 -0.064077212627390134 0.24851538469076631 0 -0.046578861792199937 0.24361118962503389 0 -0.067453711470644842 0.27023673344429472 0 -0.04634179854296408 0.26632715615711849 0 -0.052574645638654917 0.28480468584225688 0 -0.04634179854296408 0.26632715615711849 0 -0.034380640920947357 0.29211323654426968 0 -0.052574645638654917 0.28480468584225688 0 -0.04634179854296408 0.26632715615711849 0 -0.022607631921228569 0.27169805167723737 0 -0.034380640920947357 0.29211323654426968 0 -0.04634179854296408 0.26632715615711849 0 -0.03068766995985707 0.25286978792993342 0 -0.022607631921228569 0.27169805167723737 0 -0.04634179854296408 0.26632715615711849 0 -0.03068766995985707 0.25286978792993342 0 -0.046578861792199937 0.24361118962503389 0 -0.03068766995985707 0.25286978792993342 0 -0.022607631921228569 0.27169805167723737 0 -0.0098044441781452579 0.25473951632571468 0 -0.022607631921228569 0.27169805167723737 0 -0.015153941911089409 0.29208252597919021 0 3.3590645499582607e-05 0.27236849017123349 0 -0.022607631921228569 0.27169805167723737 0 -0.0098044441781452579 0.25473951632571468 0 3.3590645499582607e-05 0.27236849017123349 0 -0.0098044441781452579 0.25473951632571468 0 0.0073806355134042019 0.25529449578482938 0 3.3590645499582607e-05 0.27236849017123349 0 -0.0088759444352828343 0.31092800175718183 0 -0.015153941911089409 0.29208252597919021 0 0.0083336089875100904 0.29343585490586271 0 -0.015153941911089409 0.29208252597919021 0 0.0083336089875100904 0.29343585490586271 0 3.3590645499582607e-05 0.27236849017123349 0 -0.022607631921228569 0.27169805167723737 0 -0.015153941911089409 0.29208252597919021 0 -0.034380640920947357 0.29211323654426968 0 -0.0088759444352828343 0.31092800175718183 0 -0.015153941911089409 0.29208252597919021 0 -0.03508050583840458 0.3127012881250415 0 -0.015153941911089409 0.29208252597919021 0 -0.034380640920947357 0.29211323654426968 0 -0.03508050583840458 0.3127012881250415 0 -0.034380640920947357 0.29211323654426968 0 -0.054647974243728172 0.30430181459310768 0 -0.034380640920947357 0.29211323654426968 0 -0.054647974243728172 0.30430181459310768 0 -0.03508050583840458 0.3127012881250415 0 -0.034380640920947357 0.29211323654426968 0 -0.052574645638654917 0.28480468584225688 0 -0.054647974243728172 0.30430181459310768 0 -0.052574645638654917 0.28480468584225688 0 -0.059610011597539182 0.29372125904316332 0 -0.054647974243728172 0.30430181459310768 0 -0.070830210313899522 0.29195808219782299 0 -0.052574645638654917 0.28480468584225688 0 -0.059610011597539182 0.29372125904316332 0 -0.068661557073843291 0.3005821027458685 0 -0.059610011597539182 0.29372125904316332 0 -0.054647974243728172 0.30430181459310768 0 -0.058679851530075752 0.32054224196392622 0 -0.045885169747561752 0.33132665820789581 0 -0.073191842414501496 0.33174208285196288 0 -0.054647974243728172 0.30430181459310768 0 -0.058679851530075752 0.32054224196392622 0 -0.03508050583840458 0.3127012881250415 0 -0.045885169747561752 0.33132665820789581 0 -0.067541502003893042 0.3482616942848048 0 -0.073191842414501496 0.33174208285196288 0 -0.045885169747561752 0.33132665820789581 0 -0.073191842414501496 0.33174208285196288 0 -0.045885169747561752 0.33132665820789581 0 -0.018578497080621779 0.33091123356382868 0 -0.045885169747561752 0.33132665820789581 0 -0.03508050583840458 0.3127012881250415 0 -0.018578497080621779 0.33091123356382868 0 -0.058679851530075752 0.32054224196392622 0 -0.045885169747561752 0.33132665820789581 0 -0.03508050583840458 0.3127012881250415 0 -0.0088759444352828343 0.31092800175718183 0 -0.03508050583840458 0.3127012881250415 0 -0.018578497080621779 0.33091123356382868 0 -0.018578497080621779 0.33091123356382868 0 -0.0050552824635438226 0.34569829691311771 0 -0.02749858990914332 0.35301881799134821 0 -0.045885169747561752 0.33132665820789581 0 -0.018578497080621779 0.33091123356382868 0 -0.02749858990914332 0.35301881799134821 0 -0.018578497080621779 0.33091123356382868 0 -0.0050552824635438226 0.34569829691311771 0 0.0064742168078369342 0.3347740657525386 0 -0.018578497080621779 0.33091123356382868 0 0.0087281755863181168 0.33049580891976171 0 -0.018578497080621779 0.33091123356382868 0 0.0064742168078369342 0.3347740657525386 0 0.0087281755863181168 0.33049580891976171 0 -0.018578497080621779 0.33091123356382868 0 -0.003280447873963227 0.32161399115684158 0 0.0087281755863181168 0.33049580891976171 0 -0.0088759444352828343 0.31092800175718183 0 -0.018578497080621779 0.33091123356382868 0 -0.003280447873963227 0.32161399115684158 0 -0.0088759444352828343 0.31092800175718183 0 -0.003280447873963227 0.32161399115684158 0 0.0056044744337335906 0.31412092038659428 0 -0.0052616759920083916 0.36132776784546622 0 -0.0045342830833226501 0.3863935686212247 0 -0.0052616759920083916 0.36132776784546622 0 -0.024169526760701381 0.37267007813580277 0 -0.0045342830833226501 0.3863935686212247 0 -0.0052616759920083916 0.36132776784546622 0 -0.0045342830833226501 0.3863935686212247 0 0.0079023355216259559 0.37348921158265391 0 -0.0052616759920083916 0.36132776784546622 0 -0.0050552824635438226 0.34569829691311771 0 0.0061318462344260851 0.35417601161121459 0 -0.0052616759920083916 0.36132776784546622 0 -0.0050552824635438226 0.34569829691311771 0 -0.02749858990914332 0.35301881799134821 0 -0.02749858990914332 0.35301881799134821 0 -0.024169526760701381 0.37267007813580277 0 -0.04149310004589906 0.37124785083274592 0 -0.0052616759920083916 0.36132776784546622 0 -0.02749858990914332 0.35301881799134821 0 -0.024169526760701381 0.37267007813580277 0 -0.02749858990914332 0.35301881799134821 0 -0.04149310004589906 0.37124785083274592 0 -0.051818441616049399 0.35735321764765782 0 -0.045885169747561752 0.33132665820789581 0 -0.02749858990914332 0.35301881799134821 0 -0.051818441616049399 0.35735321764765782 0 -0.045885169747561752 0.33132665820789581 0 -0.051818441616049399 0.35735321764765782 0 -0.067541502003893042 0.3482616942848048 0 -0.04149310004589906 0.37124785083274592 0 -0.051818441616049399 0.35735321764765782 0 -0.056875823715872062 0.37631267096962301 0 -0.051818441616049399 0.35735321764765782 0 -0.069616273344600341 0.3650636543096733 0 -0.056875823715872062 0.37631267096962301 0 -0.069616273344600341 0.3650636543096733 0 -0.085055645225370236 0.37193713089684588 0 -0.071788917171084016 0.3809272333041443 0 -0.069616273344600341 0.3650636543096733 0 -0.071788917171084016 0.3809272333041443 0 -0.056875823715872062 0.37631267096962301 0 -0.069616273344600341 0.3650636543096733 0 -0.085055645225370236 0.37193713089684588 0 -0.084100884505446297 0.3554636863979832 0 -0.085055645225370236 0.37193713089684588 0 -0.084100884505446297 0.3554636863979832 0 -0.1008292236537022 0.36036332390371462 0 -0.084100884505446297 0.3554636863979832 0 -0.067541502003893042 0.3482616942848048 0 -0.085709514220790303 0.34113927750747819 0 -0.084100884505446297 0.3554636863979832 0 -0.085709514220790303 0.34113927750747819 0 -0.099722393067727538 0.34687368244968458 0 -0.069616273344600341 0.3650636543096733 0 -0.084100884505446297 0.3554636863979832 0 -0.067541502003893042 0.3482616942848048 0 -0.051818441616049399 0.35735321764765782 0 -0.069616273344600341 0.3650636543096733 0 -0.067541502003893042 0.3482616942848048 0 -0.067541502003893042 0.3482616942848048 0 -0.073191842414501496 0.33174208285196288 0 -0.085709514220790303 0.34113927750747819 0 -0.058679851530075752 0.32054224196392622 0 -0.073191842414501496 0.33174208285196288 0 -0.074915307566508993 0.31649039264194578 0 -0.054647974243728172 0.30430181459310768 0 -0.058679851530075752 0.32054224196392622 0 -0.074915307566508993 0.31649039264194578 0 -0.073191842414501496 0.33174208285196288 0 -0.074915307566508993 0.31649039264194578 0 -0.095182640889289766 0.32867897069078372 0 -0.090928135519314904 0.31087631578889069 0 -0.074915307566508993 0.31649039264194578 0 -0.095182640889289766 0.32867897069078372 0 -0.074915307566508993 0.31649039264194578 0 -0.095182640889289766 0.32867897069078372 0 -0.073191842414501496 0.33174208285196288 0 -0.085709514220790303 0.34113927750747819 0 -0.095182640889289766 0.32867897069078372 0 -0.085709514220790303 0.34113927750747819 0 -0.095182640889289766 0.32867897069078372 0 -0.099722393067727538 0.34687368244968458 0 -0.095182640889289766 0.32867897069078372 0 -0.1154499742120704 0.34086754873962172 0 -0.095182640889289766 0.32867897069078372 0 -0.1098512680755149 0.32470257897991811 0 -0.1154499742120704 0.34086754873962172 0 -0.095182640889289766 0.32867897069078372 0 -0.1154499742120704 0.34086754873962172 0 -0.099722393067727538 0.34687368244968458 0 -0.1061991548417472 0.31213959050036899 0 -0.090928135519314904 0.31087631578889069 0 -0.095182640889289766 0.32867897069078372 0 -0.1061991548417472 0.31213959050036899 0 -0.095182640889289766 0.32867897069078372 0 -0.1098512680755149 0.32470257897991811 0 -0.1061991548417472 0.31213959050036899 0 -0.115330384384618 0.31728312261503783 0 -0.1098512680755149 0.32470257897991811 0 -0.12136448477009221 0.30951812845445109 0 -0.1061991548417472 0.31213959050036899 0 -0.115330384384618 0.31728312261503783 0 -0.115330384384618 0.31728312261503783 0 -0.1098512680755149 0.32470257897991811 0 -0.12142985306419619 0.32461006626398298 0 -0.12722248981549561 0.3181430308760943 0 -0.115330384384618 0.31728312261503783 0 -0.12142985306419619 0.32461006626398298 0 -0.12722248981549561 0.3181430308760943 0 -0.12136448477009221 0.30951812845445109 0 -0.115330384384618 0.31728312261503783 0 -0.1098512680755149 0.32470257897991811 0 -0.12142985306419619 0.32461006626398298 0 -0.1154499742120704 0.34086754873962172 0 -0.13363790056006589 0.32585743918209531 0 -0.12142985306419619 0.32461006626398298 0 -0.1154499742120704 0.34086754873962172 0 -0.12523428666698541 0.37069662222368049 0 -0.1294360936135257 0.3482770307028879 0 -0.1154159689866658 0.35521970897278921 0 -0.1154499742120704 0.34086754873962172 0 -0.1154159689866658 0.35521970897278921 0 -0.099722393067727538 0.34687368244968458 0 -0.1294360936135257 0.3482770307028879 0 -0.1154499742120704 0.34086754873962172 0 -0.1154159689866658 0.35521970897278921 0 -0.12523428666698541 0.37069662222368049 0 -0.1154159689866658 0.35521970897278921 0 -0.11117961403065831 0.36839673047223442 0 -0.12523428666698541 0.37069662222368049 0 -0.11117961403065831 0.36839673047223442 0 -0.1123930043347208 0.38073562172137532 0 -0.11117961403065831 0.36839673047223442 0 -0.1008292236537022 0.36036332390371462 0 -0.09970079949094271 0.37763208900548878 0 -0.1154159689866658 0.35521970897278921 0 -0.11117961403065831 0.36839673047223442 0 -0.1008292236537022 0.36036332390371462 0 -0.085055645225370236 0.37193713089684588 0 -0.1008292236537022 0.36036332390371462 0 -0.09970079949094271 0.37763208900548878 0 -0.084100884505446297 0.3554636863979832 0 -0.1008292236537022 0.36036332390371462 0 -0.099722393067727538 0.34687368244968458 0 -0.1154159689866658 0.35521970897278921 0 -0.1008292236537022 0.36036332390371462 0 -0.099722393067727538 0.34687368244968458 0 -0.1036554482544351 0.39516830989393792 0 -0.1102807352191843 0.41378788895710661 0 -0.09259379641793411 0.40948313349934218 0 -0.1036554482544351 0.39516830989393792 0 -0.09970079949094271 0.37763208900548878 0 -0.1123930043347208 0.38073562172137532 0 -0.1036554482544351 0.39516830989393792 0 -0.09970079949094271 0.37763208900548878 0 -0.084297773186445962 0.39217279846007119 0 -0.11117961403065831 0.36839673047223442 0 -0.09970079949094271 0.37763208900548878 0 -0.1123930043347208 0.38073562172137532 0 -0.12523428666698541 0.37069662222368049 0 -0.1123930043347208 0.38073562172137532 0 -0.12103247972044499 0.39311621374447298 0 -0.1036554482544351 0.39516830989393792 0 -0.1123930043347208 0.38073562172137532 0 -0.12103247972044499 0.39311621374447298 0 -0.12523428666698541 0.37069662222368049 0 -0.12103247972044499 0.39311621374447298 0 -0.1036554482544351 0.39516830989393792 0 -0.12103247972044499 0.39311621374447298 0 -0.1102807352191843 0.41378788895710661 0 -0.12997925716256209 0.39431640422262348 0 -0.1102807352191843 0.41378788895710661 0 -0.12997925716256209 0.39431640422262348 0 -0.12103247972044499 0.39311621374447298 0 -0.1102807352191843 0.41378788895710661 0 -0.12623023605756489 0.41143854881348008 0 -0.1102807352191843 0.41378788895710661 0 -0.1242188050129694 0.42501783294758849 0 -0.12623023605756489 0.41143854881348008 0 -0.12997925716256209 0.39431640422262348 0 -0.1102807352191843 0.41378788895710661 0 -0.1102807352191843 0.41378788895710661 0 -0.1104760497445479 0.43296770510105842 0 -0.1242188050129694 0.42501783294758849 0 -0.1104760497445479 0.43296770510105842 0 -0.1242188050129694 0.42501783294758849 0 -0.1248743097581413 0.44162978393037222 0 -0.1102807352191843 0.41378788895710661 0 -0.090582213275806372 0.43325937369158968 0 -0.1102807352191843 0.41378788895710661 0 -0.1104760497445479 0.43296770510105842 0 -0.090582213275806372 0.43325937369158968 0 -0.1102807352191843 0.41378788895710661 0 -0.09259379641793411 0.40948313349934218 0 -0.090582213275806372 0.43325937369158968 0 -0.09259379641793411 0.40948313349934218 0 -0.090582213275806372 0.43325937369158968 0 -0.074152812153798875 0.41302729649400538 0 -0.090582213275806372 0.43325937369158968 0 -0.066022972602334681 0.42956105407568013 0 -0.074152812153798875 0.41302729649400538 0 -0.066022972602334681 0.42956105407568013 0 -0.074152812153798875 0.41302729649400538 0 -0.049329429094603867 0.41198700835812702 0 -0.074152812153798875 0.41302729649400538 0 -0.063154715464804681 0.39516467689365731 0 -0.084297773186445962 0.39217279846007119 0 -0.09259379641793411 0.40948313349934218 0 -0.074152812153798875 0.41302729649400538 0 -0.084297773186445962 0.39217279846007119 0 -0.1036554482544351 0.39516830989393792 0 -0.09259379641793411 0.40948313349934218 0 -0.084297773186445962 0.39217279846007119 0 -0.085055645225370236 0.37193713089684588 0 -0.09970079949094271 0.37763208900548878 0 -0.084297773186445962 0.39217279846007119 0 -0.085055645225370236 0.37193713089684588 0 -0.084297773186445962 0.39217279846007119 0 -0.071788917171084016 0.3809272333041443 0 -0.063154715464804681 0.39516467689365731 0 -0.084297773186445962 0.39217279846007119 0 -0.071788917171084016 0.3809272333041443 0 -0.063154715464804681 0.39516467689365731 0 -0.071788917171084016 0.3809272333041443 0 -0.056875823715872062 0.37631267096962301 0 -0.04149310004589906 0.37124785083274592 0 -0.056875823715872062 0.37631267096962301 0 -0.04338349465279491 0.38811939282985902 0 -0.063154715464804681 0.39516467689365731 0 -0.056875823715872062 0.37631267096962301 0 -0.04338349465279491 0.38811939282985902 0 -0.063154715464804681 0.39516467689365731 0 -0.04338349465279491 0.38811939282985902 0 -0.049329429094603867 0.41198700835812702 0 -0.04338349465279491 0.38811939282985902 0 -0.024844401122877391 0.39948633252540261 0 -0.049329429094603867 0.41198700835812702 0 -0.024169526760701381 0.37267007813580277 0 -0.04149310004589906 0.37124785083274592 0 -0.04338349465279491 0.38811939282985902 0 -0.024169526760701381 0.37267007813580277 0 -0.04338349465279491 0.38811939282985902 0 -0.024844401122877391 0.39948633252540261 0 -0.024169526760701381 0.37267007813580277 0 -0.024844401122877391 0.39948633252540261 0 -0.0045342830833226501 0.3863935686212247 0 -0.024844401122877391 0.39948633252540261 0 -0.0045342830833226501 0.3863935686212247 0 -0.0038092142255275289 0.41137928311071797 0 -0.0045342830833226501 0.3863935686212247 0 -0.0038092142255275289 0.41137928311071797 0 -0.024169526760701381 0.37267007813580277 0 -0.0045342830833226501 0.3863935686212247 0 -0.0030841453677343121 0.43636499760021141 0 -0.0038092142255275289 0.41137928311071797 0 -0.026324668085478481 0.42779129271708288 0 -0.0030841453677343121 0.43636499760021141 0 -0.0038092142255275289 0.41137928311071797 0 -0.024844401122877391 0.39948633252540261 0 -0.0038092142255275289 0.41137928311071797 0 -0.026324668085478481 0.42779129271708288 0 -0.026324668085478481 0.42779129271708288 0 -0.049329429094603867 0.41198700835812702 0 -0.049413859365407042 0.43472239834070731 0 -0.024844401122877391 0.39948633252540261 0 -0.026324668085478481 0.42779129271708288 0 -0.049329429094603867 0.41198700835812702 0 -0.074152812153798875 0.41302729649400538 0 -0.063154715464804681 0.39516467689365731 0 -0.049329429094603867 0.41198700835812702 0 -0.066022972602334681 0.42956105407568013 0 -0.049329429094603867 0.41198700835812702 0 -0.049413859365407042 0.43472239834070731 0 -0.066022972602334681 0.42956105407568013 0 -0.049413859365407042 0.43472239834070731 0 -0.0708836913324285 0.45273085842607269 0 -0.0393713920190637 0.45112048084748302 0 -0.052402143273794041 0.47435943831340011 0 -0.0708836913324285 0.45273085842607269 0 -0.049413859365407042 0.43472239834070731 0 -0.0393713920190637 0.45112048084748302 0 -0.0708836913324285 0.45273085842607269 0 -0.0393713920190637 0.45112048084748302 0 -0.02876560419008364 0.47203163756026523 0 -0.052402143273794041 0.47435943831340011 0 -0.026324668085478481 0.42779129271708288 0 -0.049413859365407042 0.43472239834070731 0 -0.0393713920190637 0.45112048084748302 0 -0.0030841453677343121 0.43636499760021141 0 -0.026324668085478481 0.42779129271708288 0 -0.01888650882967766 0.45329231687868837 0 -0.026324668085478481 0.42779129271708288 0 -0.0393713920190637 0.45112048084748302 0 -0.01888650882967766 0.45329231687868837 0 -0.0393713920190637 0.45112048084748302 0 -0.01888650882967766 0.45329231687868837 0 -0.02876560419008364 0.47203163756026523 0 -0.01888650882967766 0.45329231687868837 0 -0.01341416680576474 0.47109478045738301 0 -0.02876560419008364 0.47203163756026523 0 -0.01888650882967766 0.45329231687868837 0 -0.002359076509941094 0.46135071208970457 0 -0.01341416680576474 0.47109478045738301 0 -0.0030841453677343121 0.43636499760021141 0 -0.01888650882967766 0.45329231687868837 0 -0.002359076509941094 0.46135071208970457 0 -0.0030841453677343121 0.43636499760021141 0 -0.002359076509941094 0.46135071208970457 0 -0.0090346539348886701 0.5 0 -0.0016340076521478781 0.48633642657919801 0 -0.017460482120078509 0.48648722646036041 0 -0.0016340076521478781 0.48633642657919801 0 -0.01341416680576474 0.47109478045738301 0 -0.017460482120078509 0.48648722646036041 0 -0.002359076509941094 0.46135071208970457 0 -0.0016340076521478781 0.48633642657919801 0 -0.01341416680576474 0.47109478045738301 0 -0.002359076509941094 0.46135071208970457 0 -0.0016340076521478781 0.48633642657919801 0 -0.002359076509941094 0.46135071208970457 0 -0.0016340076521478781 0.48633642657919801 0 0.0036787250480955699 0.47408322248379448 0 -0.01341416680576474 0.47109478045738301 0 -0.02876560419008364 0.47203163756026523 0 -0.017460482120078509 0.48648722646036041 0 -0.02876560419008364 0.47203163756026523 0 -0.017460482120078509 0.48648722646036041 0 -0.038135422162237087 0.5 0 -0.0090346539348886701 0.5 0 -0.017460482120078509 0.48648722646036041 0 -0.038135422162237087 0.5 0 -0.02876560419008364 0.47203163756026523 0 -0.038135422162237087 0.5 0 -0.052402143273794041 0.47435943831340011 0 -0.038135422162237087 0.5 0 -0.052402143273794041 0.47435943831340011 0 -0.067236190389585393 0.5 0 -0.052402143273794041 0.47435943831340011 0 -0.067236190389585393 0.5 0 -0.073349005429332273 0.47921852398434828 0 -0.067236190389585393 0.5 0 -0.073349005429332273 0.47921852398434828 0 -0.096336958616933588 0.5 0 -0.073349005429332273 0.47921852398434828 0 -0.096336958616933588 0.5 0 -0.093805091172543903 0.47224368257650851 0 -0.052402143273794041 0.47435943831340011 0 -0.073349005429332273 0.47921852398434828 0 -0.0708836913324285 0.45273085842607269 0 -0.0708836913324285 0.45273085842607269 0 -0.1043361340672995 0.45358667135048331 0 -0.093805091172543903 0.47224368257650851 0 -0.090582213275806372 0.43325937369158968 0 -0.0708836913324285 0.45273085842607269 0 -0.1043361340672995 0.45358667135048331 0 -0.090582213275806372 0.43325937369158968 0 -0.066022972602334681 0.42956105407568013 0 -0.0708836913324285 0.45273085842607269 0 -0.090582213275806372 0.43325937369158968 0 -0.0708836913324285 0.45273085842607269 0 -0.073349005429332273 0.47921852398434828 0 -0.0708836913324285 0.45273085842607269 0 -0.093805091172543903 0.47224368257650851 0 -0.1043361340672995 0.45358667135048331 0 -0.12052644250191399 0.4682622397032008 0 -0.093805091172543903 0.47224368257650851 0 -0.1104760497445479 0.43296770510105842 0 -0.090582213275806372 0.43325937369158968 0 -0.1043361340672995 0.45358667135048331 0 -0.12618187852634369 0.45882241462805679 0 -0.1043361340672995 0.45358667135048331 0 -0.1248743097581413 0.44162978393037222 0 -0.1104760497445479 0.43296770510105842 0 -0.1043361340672995 0.45358667135048331 0 -0.1248743097581413 0.44162978393037222 0 -0.12618187852634369 0.45882241462805679 0 -0.1043361340672995 0.45358667135048331 0 -0.12052644250191399 0.4682622397032008 0 -0.1317912103042716 0.47600940211286807 0 -0.12052644250191399 0.4682622397032008 0 -0.11642361318749669 0.48420448820259387 0 -0.12052644250191399 0.4682622397032008 0 -0.11642361318749669 0.48420448820259387 0 -0.093805091172543903 0.47224368257650851 0 -0.12543772684428189 0.5 0 -0.11642361318749669 0.48420448820259387 0 -0.096336958616933588 0.5 0 -0.12543772684428189 0.5 0 -0.13178312884530541 0.48627570230508688 0 -0.11642361318749669 0.48420448820259387 0 -0.11642361318749669 0.48420448820259387 0 -0.096336958616933588 0.5 0 -0.093805091172543903 0.47224368257650851 0 -0.1693268494853358 0.079538523923443544 0 -0.16945340910355561 0.089496265134995978 0 -0.1618062267740645 0.07958177760614682 0 -0.16945340910355561 0.089496265134995978 0 -0.1618062267740645 0.07958177760614682 0 -0.1616157516695074 0.095139316102685473 0 -0.1618062267740645 0.07958177760614682 0 -0.1616157516695074 0.095139316102685473 0 -0.14767322655010931 0.084806545451415583 0 -0.1618062267740645 0.07958177760614682 0 -0.16640070467345031 0.07104807823334372 0 -0.15517576509654349 0.068304766057398533 0 -0.16640070467345031 0.07104807823334372 0 -0.15517576509654349 0.068304766057398533 0 -0.16451238623864939 0.061110077383343737 0 -0.16640070467345031 0.07104807823334372 0 -0.17354141001077031 0.063798093567348918 0 -0.16451238623864939 0.061110077383343737 0 -0.17157411485926041 0.074087910936242465 0 -0.16640070467345031 0.07104807823334372 0 -0.17354141001077031 0.063798093567348918 0 -0.1693268494853358 0.079538523923443544 0 -0.17157411485926041 0.074087910936242465 0 -0.16640070467345031 0.07104807823334372 0 -0.1693268494853358 0.079538523923443544 0 -0.1618062267740645 0.07958177760614682 0 -0.16640070467345031 0.07104807823334372 0 -0.17354141001077031 0.063798093567348918 0 -0.17702749526748529 0.081966948020833708 0 -0.17656426821359539 0.052679136019797047 0 -0.18185637422210199 0.067243003367259677 0 -0.17702749526748529 0.081966948020833708 0 -0.17656426821359539 0.052679136019797047 0 -0.17702749526748529 0.081966948020833708 0 -0.17656426821359539 0.052679136019797047 0 -0.17157411485926041 0.074087910936242465 0 -0.17354141001077031 0.063798093567348918 0 -0.17702749526748529 0.081966948020833708 0 -0.18185637422210199 0.067243003367259677 0 -0.1853153676200878 0.058850167416455039 0 -0.18892740292417859 0.064703221589215376 0 -0.18185637422210199 0.067243003367259677 0 -0.19050021368002351 0.072419239531055349 0 -0.18892740292417859 0.064703221589215376 0 -0.18185637422210199 0.067243003367259677 0 -0.18141962227324601 0.075216957450553817 0 -0.17702749526748529 0.081966948020833708 0 -0.18185637422210199 0.067243003367259677 0 -0.18141962227324601 0.075216957450553817 0 -0.19050021368002351 0.072419239531055349 0 -0.18141962227324601 0.075216957450553817 0 -0.1867192510276118 0.077748512173410014 0 -0.19050021368002351 0.072419239531055349 0 -0.18141962227324601 0.075216957450553817 0 -0.1867192510276118 0.077748512173410014 0 -0.1819129998543452 0.079414551687582866 0 -0.18248563084903771 0.082725789105533951 0 -0.17702749526748529 0.081966948020833708 0 -0.17749072232138041 0.1112547600218704 0 -0.1867192510276118 0.077748512173410014 0 -0.18248563084903771 0.082725789105533951 0 -0.1819129998543452 0.079414551687582866 0 -0.18141962227324601 0.075216957450553817 0 -0.1819129998543452 0.079414551687582866 0 -0.17702749526748529 0.081966948020833708 0 -0.18248563084903771 0.082725789105533951 0 -0.1819129998543452 0.079414551687582866 0 -0.17702749526748529 0.081966948020833708 0 -0.1693268494853358 0.079538523923443544 0 -0.16945340910355561 0.089496265134995978 0 -0.17702749526748529 0.081966948020833708 0 -0.1693268494853358 0.079538523923443544 0 -0.17157411485926041 0.074087910936242465 0 -0.17702749526748529 0.081966948020833708 0 -0.17702749526748529 0.081966948020833708 0 -0.17749072232138041 0.1112547600218704 0 -0.16945340910355561 0.089496265134995978 0 -0.17702749526748529 0.081966948020833708 0 -0.17749072232138041 0.1112547600218704 0 -0.17749072232138041 0.1112547600218704 0 -0.1951643137470572 0.093770439387570487 0 -0.18248563084903771 0.082725789105533951 0 -0.17749072232138041 0.1112547600218704 0 -0.1951643137470572 0.093770439387570487 0 -0.17749072232138041 0.1112547600218704 0 -0.19150979458678249 0.1243728737611647 0 -0.17789558253256721 0.1368522929207025 0 -0.17749072232138041 0.1112547600218704 0 -0.17789558253256721 0.1368522929207025 0 -0.17749072232138041 0.1112547600218704 0 -0.16113979031376621 0.12743058591966341 0 -0.17749072232138041 0.1112547600218704 0 -0.15084139672814201 0.110160429760413 0 -0.16113979031376621 0.12743058591966341 0 -0.17749072232138041 0.1112547600218704 0 -0.1616157516695074 0.095139316102685473 0 -0.15084139672814201 0.110160429760413 0 -0.16945340910355561 0.089496265134995978 0 -0.17749072232138041 0.1112547600218704 0 -0.1616157516695074 0.095139316102685473 0 -0.1616157516695074 0.095139316102685473 0 -0.15084139672814201 0.110160429760413 0 -0.14767322655010931 0.084806545451415583 0 -0.15084139672814201 0.110160429760413 0 -0.1348328660863515 0.097215266237156234 0 -0.14767322655010931 0.084806545451415583 0 -0.15084139672814201 0.110160429760413 0 -0.13137241316615089 0.11357835761918721 0 -0.14300315410871919 0.1253406317882016 0 -0.15084139672814201 0.110160429760413 0 -0.16113979031376621 0.12743058591966341 0 -0.14300315410871919 0.1253406317882016 0 -0.13137241316615089 0.11357835761918721 0 -0.14300315410871919 0.1253406317882016 0 -0.12687331202938101 0.13192737382428379 0 -0.13137241316615089 0.11357835761918721 0 -0.1348328660863515 0.097215266237156234 0 -0.1198812247159142 0.095002477965890675 0 -0.15084139672814201 0.110160429760413 0 -0.13137241316615089 0.11357835761918721 0 -0.1348328660863515 0.097215266237156234 0 -0.1348328660863515 0.097215266237156234 0 -0.12533951967512769 0.078274991835817334 0 -0.1198812247159142 0.095002477965890675 0 -0.1348328660863515 0.097215266237156234 0 -0.12533951967512769 0.078274991835817334 0 -0.14767322655010931 0.084806545451415583 0 -0.1618062267740645 0.07958177760614682 0 -0.14767322655010931 0.084806545451415583 0 -0.15517576509654349 0.068304766057398533 0 -0.14767322655010931 0.084806545451415583 0 -0.15517576509654349 0.068304766057398533 0 -0.14001017723872511 0.063978020277280875 0 -0.12533951967512769 0.078274991835817334 0 -0.14767322655010931 0.084806545451415583 0 -0.14001017723872511 0.063978020277280875 0 -0.12533951967512769 0.078274991835817334 0 -0.14001017723872511 0.063978020277280875 0 -0.1248745965026067 0.059896082918310993 0 -0.14001017723872511 0.063978020277280875 0 -0.13626681081840961 0.042829268155062397 0 -0.1248745965026067 0.059896082918310993 0 -0.13626681081840961 0.042829268155062397 0 -0.1339340902388827 0.022300844741854581 0 -0.1180188049733784 0.030804183747700629 0 -0.13626681081840961 0.042829268155062397 0 -0.1339340902388827 0.022300844741854581 0 -0.15968783393996419 0.037567277286728401 0 -0.13626681081840961 0.042829268155062397 0 -0.15351002702878311 0.053877414325468623 0 -0.15968783393996419 0.037567277286728401 0 -0.13626681081840961 0.042829268155062397 0 -0.15968783393996419 0.037567277286728401 0 -0.14001017723872511 0.063978020277280875 0 -0.13626681081840961 0.042829268155062397 0 -0.15351002702878311 0.053877414325468623 0 -0.15517576509654349 0.068304766057398533 0 -0.14001017723872511 0.063978020277280875 0 -0.15351002702878311 0.053877414325468623 0 -0.12735709500343681 0.004015926865657337 0 -0.15177498865293759 0.016606981474429749 0 -0.12735709500343681 0.004015926865657337 0 -0.1339340902388827 0.022300844741854581 0 -0.15177498865293759 0.016606981474429749 0 -0.12735709500343681 0.004015926865657337 0 -0.1339340902388827 0.022300844741854581 0 -0.11835839359799651 0.016938700943610479 0 -0.1339340902388827 0.022300844741854581 0 -0.15177498865293759 0.016606981474429749 0 -0.15968783393996419 0.037567277286728401 0 -0.1339340902388827 0.022300844741854581 0 -0.15968783393996419 0.037567277286728401 0 -0.12735709500343681 0.004015926865657337 0 -0.15177498865293759 0.016606981474429749 0 -0.14801408494475049 0.0031182785745780331 0 -0.15177498865293759 0.016606981474429749 0 -0.14801408494475049 0.0031182785745780331 0 -0.1619193683370386 0.0066468078375689294 0 -0.15773416148281841 -0.0035868741371463562 0 -0.14801408494475049 0.0031182785745780331 0 -0.1619193683370386 0.0066468078375689294 0 -0.15177498865293759 0.016606981474429749 0 -0.1619193683370386 0.0066468078375689294 0 -0.16760309597538539 0.015861310899326669 0 -0.16716832075785379 -0.0032078365625175 0 -0.1619193683370386 0.0066468078375689294 0 -0.17584419881677341 0.0071523107965592754 0 -0.1619193683370386 0.0066468078375689294 0 -0.16760309597538539 0.015861310899326669 0 -0.17584419881677341 0.0071523107965592754 0 -0.15177498865293759 0.016606981474429749 0 -0.17619288230243149 0.029198036083215671 0 -0.15177498865293759 0.016606981474429749 0 -0.17619288230243149 0.029198036083215671 0 -0.15968783393996419 0.037567277286728401 0 -0.15177498865293759 0.016606981474429749 0 -0.16760309597538539 0.015861310899326669 0 -0.17619288230243149 0.029198036083215671 0 -0.17619288230243149 0.029198036083215671 0 -0.1852069371874478 0.015311100034367831 0 -0.17584419881677341 0.0071523107965592754 0 -0.17619288230243149 0.029198036083215671 0 -0.17584419881677341 0.0071523107965592754 0 -0.16760309597538539 0.015861310899326669 0 -0.17619288230243149 0.029198036083215671 0 -0.17584419881677341 0.0071523107965592754 0 -0.17619288230243149 0.029198036083215671 0 -0.19572946351785711 0.039272048382664133 0 -0.19029700863621521 0.024089069561314659 0 -0.17619288230243149 0.029198036083215671 0 -0.1852069371874478 0.015311100034367831 0 -0.19029700863621521 0.024089069561314659 0 -0.1852069371874478 0.015311100034367831 0 -0.18717715497560061 0.0062623078557712403 0 -0.17584419881677341 0.0071523107965592754 0 -0.18154179604087481 -0.0036104187285780349 0 -0.18717715497560061 0.0062623078557712403 0 -0.17584419881677341 0.0071523107965592754 0 -0.15351002702878311 0.053877414325468623 0 -0.1659033968134131 0.050269055427132232 0 -0.15968783393996419 0.037567277286728401 0 -0.1659033968134131 0.050269055427132232 0 -0.16451238623864939 0.061110077383343737 0 -0.17656426821359539 0.052679136019797047 0 -0.17354141001077031 0.063798093567348918 0 -0.16451238623864939 0.061110077383343737 0 -0.17656426821359539 0.052679136019797047 0 -0.16451238623864939 0.061110077383343737 0 -0.17656426821359539 0.052679136019797047 0 -0.15351002702878311 0.053877414325468623 0 -0.1659033968134131 0.050269055427132232 0 -0.16451238623864939 0.061110077383343737 0 -0.15517576509654349 0.068304766057398533 0 -0.15351002702878311 0.053877414325468623 0 -0.16451238623864939 0.061110077383343737 0 -0.15968783393996419 0.037567277286728401 0 -0.1762663423330757 0.033842591165095401 0 -0.1659033968134131 0.050269055427132232 0 -0.15968783393996419 0.037567277286728401 0 -0.1764827173319595 0.047523031967639129 0 -0.17619288230243149 0.029198036083215671 0 -0.15968783393996419 0.037567277286728401 0 -0.1762663423330757 0.033842591165095401 0 -0.15968783393996419 0.037567277286728401 0 -0.1764827173319595 0.047523031967639129 0 -0.15968783393996419 0.037567277286728401 0 -0.1762663423330757 0.033842591165095401 0 -0.1764827173319595 0.047523031967639129 0 -0.17619288230243149 0.029198036083215671 0 -0.19572946351785711 0.039272048382664133 0 -0.181281627628781 0.040827380692469641 0 -0.18051660755046151 0.049914261515807259 0 -0.1764827173319595 0.047523031967639129 0 -0.17619288230243149 0.029198036083215671 0 -0.1762663423330757 0.033842591165095401 0 -0.19572946351785711 0.039272048382664133 0 -0.1762663423330757 0.033842591165095401 0 -0.181281627628781 0.040827380692469641 0 -0.19572946351785711 0.039272048382664133 0 -0.1762663423330757 0.033842591165095401 0 -0.181281627628781 0.040827380692469641 0 -0.1764827173319595 0.047523031967639129 0 -0.1762663423330757 0.033842591165095401 0 -0.1764827173319595 0.047523031967639129 0 -0.17619288230243149 0.029198036083215671 0 -0.1762663423330757 0.033842591165095401 0 -0.181281627628781 0.040827380692469641 0 -0.18051660755046151 0.049914261515807259 0 -0.19572946351785711 0.039272048382664133 0 -0.18051660755046151 0.049914261515807259 0 -0.17656426821359539 0.052679136019797047 0 -0.1853153676200878 0.058850167416455039 0 -0.18051660755046151 0.049914261515807259 0 -0.1764827173319595 0.047523031967639129 0 -0.1764827173319595 0.047523031967639129 0 -0.17656426821359539 0.052679136019797047 0 -0.1659033968134131 0.050269055427132232 0 -0.1764827173319595 0.047523031967639129 0 -0.17656426821359539 0.052679136019797047 0 -0.18051660755046151 0.049914261515807259 0 -0.1764827173319595 0.047523031967639129 0 -0.17656426821359539 0.052679136019797047 0 -0.18051660755046151 0.049914261515807259 0 -0.17656426821359539 0.052679136019797047 0 -0.18185637422210199 0.067243003367259677 0 -0.17656426821359539 0.052679136019797047 0 -0.1853153676200878 0.058850167416455039 0 -0.1853153676200878 0.058850167416455039 0 -0.19803765617450109 0.060300476042091433 0 -0.18892740292417859 0.064703221589215376 0 -0.18051660755046151 0.049914261515807259 0 -0.19803765617450109 0.060300476042091433 0 -0.1977866825790292 0.05007637869738242 0 -0.18051660755046151 0.049914261515807259 0 -0.1853153676200878 0.058850167416455039 0 -0.19803765617450109 0.060300476042091433 0 -0.18051660755046151 0.049914261515807259 0 -0.19803765617450109 0.060300476042091433 0 -0.19803765617450109 0.060300476042091433 0 -0.1977866825790292 0.05007637869738242 0 -0.2066297839190599 0.054855205218219752 0 -0.18051660755046151 0.049914261515807259 0 -0.1977866825790292 0.05007637869738242 0 -0.19572946351785711 0.039272048382664133 0 -0.18051660755046151 0.049914261515807259 0 -0.19572946351785711 0.039272048382664133 0 -0.19572946351785711 0.039272048382664133 0 -0.2098237389609823 0.029412342647955388 0 -0.1977866825790292 0.05007637869738242 0 -0.19572946351785711 0.039272048382664133 0 -0.2073344650466164 0.045256152092875389 0 -0.19572946351785711 0.039272048382664133 0 -0.2073344650466164 0.045256152092875389 0 -0.2073344650466164 0.045256152092875389 0 -0.21702036639386221 0.038769314305699548 0 -0.2098237389609823 0.029412342647955388 0 -0.19572946351785711 0.039272048382664133 0 -0.2073344650466164 0.045256152092875389 0 -0.2098237389609823 0.029412342647955388 0 -0.21702036639386221 0.038769314305699548 0 -0.2098237389609823 0.029412342647955388 0 -0.2284051488343061 0.035137669629428533 0 -0.2073344650466164 0.045256152092875389 0 -0.21702036639386221 0.038769314305699548 0 -0.22251811273354419 0.045271092852538893 0 -0.2073344650466164 0.045256152092875389 0 -0.21769334509658461 0.055951218203848879 0 -0.22251811273354419 0.045271092852538893 0 -0.21769334509658461 0.055951218203848879 0 -0.20947987249717179 0.060448397508133619 0 -0.2066297839190599 0.054855205218219752 0 -0.21769334509658461 0.055951218203848879 0 -0.20947987249717179 0.060448397508133619 0 -0.2155587047985415 0.070686690568374386 0 -0.19803765617450109 0.060300476042091433 0 -0.20947987249717179 0.060448397508133619 0 -0.2066297839190599 0.054855205218219752 0 -0.1977866825790292 0.05007637869738242 0 -0.2073344650466164 0.045256152092875389 0 -0.2066297839190599 0.054855205218219752 0 -0.2073344650466164 0.045256152092875389 0 -0.21769334509658461 0.055951218203848879 0 -0.2066297839190599 0.054855205218219752 0 -0.1989264366345522 -0.0080023544535597537 0 -0.1965234412062255 0.0098537758749781944 0 -0.20713549204565579 6.5395444916274768e-05 0 -0.19066530249761049 -0.0041303576494283751 0 -0.18717715497560061 0.0062623078557712403 0 -0.1965234412062255 0.0098537758749781944 0 -0.1852069371874478 0.015311100034367831 0 -0.18717715497560061 0.0062623078557712403 0 -0.1965234412062255 0.0098537758749781944 0 -0.1965234412062255 0.0098537758749781944 0 -0.20113962024173071 0.02227838771243261 0 -0.2107847094499361 0.011405203725301251 0 -0.19572946351785711 0.039272048382664133 0 -0.20113962024173071 0.02227838771243261 0 -0.2098237389609823 0.029412342647955388 0 -0.19572946351785711 0.039272048382664133 0 -0.20113962024173071 0.02227838771243261 0 -0.19029700863621521 0.024089069561314659 0 -0.1965234412062255 0.0098537758749781944 0 -0.20113962024173071 0.02227838771243261 0 -0.19029700863621521 0.024089069561314659 0 -0.1852069371874478 0.015311100034367831 0 -0.1965234412062255 0.0098537758749781944 0 -0.19029700863621521 0.024089069561314659 0 -0.2098237389609823 0.029412342647955388 0 -0.2107847094499361 0.011405203725301251 0 -0.22391801440410891 0.019552636913248388 0 -0.20113962024173071 0.02227838771243261 0 -0.2098237389609823 0.029412342647955388 0 -0.2107847094499361 0.011405203725301251 0 -0.2098237389609823 0.029412342647955388 0 -0.22391801440410891 0.019552636913248388 0 -0.21702438745170211 -0.0043907958627755336 0 -0.2107847094499361 0.011405203725301251 0 -0.20713549204565579 6.5395444916274768e-05 0 -0.21702438745170211 -0.0043907958627755336 0 -0.2107847094499361 0.011405203725301251 0 -0.22391801440410891 0.019552636913248388 0 -0.1965234412062255 0.0098537758749781944 0 -0.2107847094499361 0.011405203725301251 0 -0.20713549204565579 6.5395444916274768e-05 0 -0.22867745033346079 0.0038692188645070222 0 -0.22391801440410891 0.019552636913248388 0 -0.2344599051246074 0.012178015861532989 0 -0.21702438745170211 -0.0043907958627755336 0 -0.22391801440410891 0.019552636913248388 0 -0.21702438745170211 -0.0043907958627755336 0 -0.22867745033346079 0.0038692188645070222 0 -0.22391801440410891 0.019552636913248388 0 -0.22391801440410891 0.019552636913248388 0 -0.2403792472176362 0.02548084658656756 0 -0.2344599051246074 0.012178015861532989 0 -0.2098237389609823 0.029412342647955388 0 -0.22391801440410891 0.019552636913248388 0 -0.2284051488343061 0.035137669629428533 0 -0.22391801440410891 0.019552636913248388 0 -0.2403792472176362 0.02548084658656756 0 -0.2284051488343061 0.035137669629428533 0 -0.22391801440410891 0.019552636913248388 0 -0.2344599051246074 0.012178015861532989 0 -0.22391801440410891 0.019552636913248388 0 -0.2284051488343061 0.035137669629428533 0 -0.2522816967992324 0.037264740289820159 0 -0.25157722050270093 0.012682655753942951 0 -0.2403792472176362 0.02548084658656756 0 -0.25157722050270093 0.012682655753942951 0 -0.2403792472176362 0.02548084658656756 0 -0.2344599051246074 0.012178015861532989 0 -0.25267499080189931 -0.0034516002120552492 0 -0.25157722050270093 0.012682655753942951 0 -0.2401015516947359 0.00075261550232862703 0 -0.25157722050270093 0.012682655753942951 0 -0.2344599051246074 0.012178015861532989 0 -0.2401015516947359 0.00075261550232862703 0 -0.22867745033346079 0.0038692188645070222 0 -0.2344599051246074 0.012178015861532989 0 -0.2401015516947359 0.00075261550232862703 0 -0.21769334509658461 0.055951218203848879 0 -0.23255980098598539 0.056775429521547523 0 -0.2155587047985415 0.070686690568374386 0 -0.23289228326450309 0.050722702345608793 0 -0.22641588552015429 0.052180110730886013 0 -0.22251811273354419 0.045271092852538893 0 -0.23289228326450309 0.050722702345608793 0 -0.23255980098598539 0.056775429521547523 0 -0.22641588552015429 0.052180110730886013 0 -0.21769334509658461 0.055951218203848879 0 -0.23255980098598539 0.056775429521547523 0 -0.22641588552015429 0.052180110730886013 0 -0.21769334509658461 0.055951218203848879 0 -0.22641588552015429 0.052180110730886013 0 -0.22251811273354419 0.045271092852538893 0 -0.21702036639386221 0.038769314305699548 0 -0.22251811273354419 0.045271092852538893 0 -0.2284051488343061 0.035137669629428533 0 -0.23289228326450309 0.050722702345608793 0 -0.22251811273354419 0.045271092852538893 0 -0.2284051488343061 0.035137669629428533 0 -0.23289228326450309 0.050722702345608793 0 -0.2284051488343061 0.035137669629428533 0 -0.2522816967992324 0.037264740289820159 0 -0.2403792472176362 0.02548084658656756 0 -0.2284051488343061 0.035137669629428533 0 -0.2522816967992324 0.037264740289820159 0 -0.23289228326450309 0.050722702345608793 0 -0.2284051488343061 0.035137669629428533 0 -0.2522816967992324 0.037264740289820159 0 -0.23289228326450309 0.050722702345608793 0 -0.23255980098598539 0.056775429521547523 0 -0.2522816967992324 0.037264740289820159 0 -0.23255980098598539 0.056775429521547523 0 -0.2522816967992324 0.037264740289820159 0 -0.23255980098598539 0.056775429521547523 0 -0.24906194248509719 0.058488871325365822 0 -0.23255980098598539 0.056775429521547523 0 -0.24906194248509719 0.058488871325365822 0 -0.23770452364983391 0.071010308971772351 0 -0.26257114212692878 0.06573449919026883 0 -0.24906194248509719 0.058488871325365822 0 -0.23770452364983391 0.071010308971772351 0 -0.25261226255175379 0.080423606239198905 0 -0.23770452364983391 0.071010308971772351 0 -0.23158356521460469 0.085326977986282804 0 -0.25261226255175379 0.080423606239198905 0 -0.23158356521460469 0.085326977986282804 0 -0.24377998071086901 0.096378574065869249 0 -0.23158356521460469 0.085326977986282804 0 -0.21283790517273879 0.076286118753275345 0 -0.22135706029896429 0.097751395037259853 0 -0.23158356521460469 0.085326977986282804 0 -0.22135706029896429 0.097751395037259853 0 -0.24377998071086901 0.096378574065869249 0 -0.23255980098598539 0.056775429521547523 0 -0.21283790517273879 0.076286118753275345 0 -0.23770452364983391 0.071010308971772351 0 -0.23158356521460469 0.085326977986282804 0 -0.21283790517273879 0.076286118753275345 0 -0.23255980098598539 0.056775429521547523 0 -0.23770452364983391 0.071010308971772351 0 -0.21283790517273879 0.076286118753275345 0 -0.23255980098598539 0.056775429521547523 0 -0.21283790517273879 0.076286118753275345 0 -0.2155587047985415 0.070686690568374386 0 -0.23770452364983391 0.071010308971772351 0 -0.21283790517273879 0.076286118753275345 0 -0.19803765617450109 0.060300476042091433 0 -0.20947987249717179 0.060448397508133619 0 -0.2155587047985415 0.070686690568374386 0 -0.19803765617450109 0.060300476042091433 0 -0.20333782300263301 0.070680183335342567 0 -0.2155587047985415 0.070686690568374386 0 -0.19803765617450109 0.060300476042091433 0 -0.2155587047985415 0.070686690568374386 0 -0.21283790517273879 0.076286118753275345 0 -0.19766176801088831 0.079505953929404904 0 -0.20333782300263301 0.070680183335342567 0 -0.21283790517273879 0.076286118753275345 0 -0.19766176801088831 0.079505953929404904 0 -0.20333782300263301 0.070680183335342567 0 -0.21283790517273879 0.076286118753275345 0 -0.2155587047985415 0.070686690568374386 0 -0.21283790517273879 0.076286118753275345 0 -0.1951643137470572 0.093770439387570487 0 -0.22135706029896429 0.097751395037259853 0 -0.21283790517273879 0.076286118753275345 0 -0.1951643137470572 0.093770439387570487 0 -0.21283790517273879 0.076286118753275345 0 -0.19766176801088831 0.079505953929404904 0 -0.1951643137470572 0.093770439387570487 0 -0.18248563084903771 0.082725789105533951 0 -0.19766176801088831 0.079505953929404904 0 -0.1951643137470572 0.093770439387570487 0 -0.1867192510276118 0.077748512173410014 0 -0.18248563084903771 0.082725789105533951 0 -0.19766176801088831 0.079505953929404904 0 -0.18248563084903771 0.082725789105533951 0 -0.19766176801088831 0.079505953929404904 0 -0.1867192510276118 0.077748512173410014 0 -0.19766176801088831 0.079505953929404904 0 -0.19050021368002351 0.072419239531055349 0 -0.19803765617450109 0.060300476042091433 0 -0.19050021368002351 0.072419239531055349 0 -0.18892740292417859 0.064703221589215376 0 -0.19803765617450109 0.060300476042091433 0 -0.20333782300263301 0.070680183335342567 0 -0.19050021368002351 0.072419239531055349 0 -0.20333782300263301 0.070680183335342567 0 -0.19766176801088831 0.079505953929404904 0 -0.19050021368002351 0.072419239531055349 0 -0.17749072232138041 0.1112547600218704 0 -0.19150979458678249 0.1243728737611647 0 -0.1951643137470572 0.093770439387570487 0 -0.19150979458678249 0.1243728737611647 0 -0.1951643137470572 0.093770439387570487 0 -0.20994497012605751 0.11823125198409511 0 -0.1951643137470572 0.093770439387570487 0 -0.20994497012605751 0.11823125198409511 0 -0.22135706029896429 0.097751395037259853 0 -0.20994497012605751 0.11823125198409511 0 -0.2348316268224595 0.11651500804646669 0 -0.2235388627286797 0.12965651036182041 0 -0.20994497012605751 0.11823125198409511 0 -0.22135706029896429 0.097751395037259853 0 -0.2348316268224595 0.11651500804646669 0 -0.22135706029896429 0.097751395037259853 0 -0.24377998071086901 0.096378574065869249 0 -0.2348316268224595 0.11651500804646669 0 -0.25136603029008331 0.1103208693098497 0 -0.24377998071086901 0.096378574065869249 0 -0.2348316268224595 0.11651500804646669 0 -0.25922316449870308 0.12628093809151891 0 -0.25136603029008331 0.1103208693098497 0 -0.2348316268224595 0.11651500804646669 0 -0.25922316449870308 0.12628093809151891 0 -0.2348316268224595 0.11651500804646669 0 -0.2369615480924761 0.1404602413506009 0 -0.2369615480924761 0.1404602413506009 0 -0.2235388627286797 0.12965651036182041 0 -0.2124173058737257 0.14341954006611901 0 -0.2348316268224595 0.11651500804646669 0 -0.2369615480924761 0.1404602413506009 0 -0.2235388627286797 0.12965651036182041 0 -0.2369615480924761 0.1404602413506009 0 -0.22679867445049531 0.16064067306310431 0 -0.2124173058737257 0.14341954006611901 0 -0.2369615480924761 0.1404602413506009 0 -0.247018622616726 0.15992587597476091 0 -0.22679867445049531 0.16064067306310431 0 -0.25846103874104392 0.14702121199507179 0 -0.2369615480924761 0.1404602413506009 0 -0.247018622616726 0.15992587597476091 0 -0.247018622616726 0.15992587597476091 0 -0.23359887481107691 0.1809086922627815 0 -0.247018622616726 0.15992587597476091 0 -0.23359887481107691 0.1809086922627815 0 -0.22679867445049531 0.16064067306310431 0 -0.26439180367967152 0.18225540552070321 0 -0.247018622616726 0.15992587597476091 0 -0.23359887481107691 0.1809086922627815 0 -0.23359887481107691 0.1809086922627815 0 -0.20517995294037331 0.17379218369948349 0 -0.2201791270054278 0.2018915085508021 0 -0.23359887481107691 0.1809086922627815 0 -0.22679867445049531 0.16064067306310431 0 -0.20517995294037331 0.17379218369948349 0 -0.22679867445049531 0.16064067306310431 0 -0.20517995294037331 0.17379218369948349 0 -0.2124173058737257 0.14341954006611901 0 -0.20517995294037331 0.17379218369948349 0 -0.19274338499996449 0.14807478539393409 0 -0.17830044274374979 0.16244982581953471 0 -0.19150979458678249 0.1243728737611647 0 -0.19274338499996449 0.14807478539393409 0 -0.2124173058737257 0.14341954006611901 0 -0.20994497012605751 0.11823125198409511 0 -0.2235388627286797 0.12965651036182041 0 -0.2124173058737257 0.14341954006611901 0 -0.19150979458678249 0.1243728737611647 0 -0.20994497012605751 0.11823125198409511 0 -0.2124173058737257 0.14341954006611901 0 -0.20517995294037331 0.17379218369948349 0 -0.19274338499996449 0.14807478539393409 0 -0.2124173058737257 0.14341954006611901 0 -0.22371849106378741 0.2462845034026982 0 -0.23019370483249479 0.22382880503591951 0 -0.2066863838603582 0.24242880758937649 0 -0.22371849106378741 0.2462845034026982 0 -0.23951274761537589 0.2474853768326048 0 -0.23019370483249479 0.22382880503591951 0 -0.25272375818517617 0.22994970808158929 0 -0.25621817608628389 0.2460965770837312 0 -0.23951274761537589 0.2474853768326048 0 -0.25370102580463139 0.2052288024824625 0 -0.25272375818517617 0.22994970808158929 0 -0.23019370483249479 0.22382880503591951 0 -0.25272375818517617 0.22994970808158929 0 -0.23951274761537589 0.2474853768326048 0 -0.23019370483249479 0.22382880503591951 0 -0.25370102580463139 0.2052288024824625 0 -0.23359887481107691 0.1809086922627815 0 -0.2201791270054278 0.2018915085508021 0 -0.25370102580463139 0.2052288024824625 0 -0.23019370483249479 0.22382880503591951 0 -0.2201791270054278 0.2018915085508021 0 -0.23019370483249479 0.22382880503591951 0 -0.2201791270054278 0.2018915085508021 0 -0.20675937919977869 0.22287432483882261 0 -0.25370102580463139 0.2052288024824625 0 -0.23019370483249479 0.22382880503591951 0 -0.23359887481107691 0.1809086922627815 0 -0.2201791270054278 0.2018915085508021 0 -0.20517995294037331 0.17379218369948349 0 -0.2201791270054278 0.2018915085508021 0 -0.19686056424972551 0.20437535499954981 0 -0.20517995294037331 0.17379218369948349 0 -0.19686056424972551 0.20437535499954981 0 -0.17870530295493239 0.18804735871836689 0 -0.19686056424972551 0.20437535499954981 0 -0.20675937919977869 0.22287432483882261 0 -0.19122946023172571 0.22600186257262461 0 -0.19686056424972551 0.20437535499954981 0 -0.19122946023172571 0.22600186257262461 0 -0.179110163166115 0.21364489161719899 0 -0.2201791270054278 0.2018915085508021 0 -0.19686056424972551 0.20437535499954981 0 -0.20675937919977869 0.22287432483882261 0 -0.2201791270054278 0.2018915085508021 0 -0.20675937919977869 0.22287432483882261 0 -0.23019370483249479 0.22382880503591951 0 -0.2066863838603582 0.24242880758937649 0 -0.23019370483249479 0.22382880503591951 0 -0.20675937919977869 0.22287432483882261 0 -0.2066863838603582 0.24242880758937649 0 -0.20675937919977869 0.22287432483882261 0 -0.19333963139412971 0.24385714112684301 0 -0.20675937919977869 0.22287432483882261 0 -0.19122946023172571 0.22600186257262461 0 -0.19333963139412971 0.24385714112684301 0 -0.19122946023172571 0.22600186257262461 0 -0.19333963139412971 0.24385714112684301 0 -0.17951502337729761 0.2392424245160312 0 -0.20675937919977869 0.22287432483882261 0 -0.19333963139412971 0.24385714112684301 0 -0.2066863838603582 0.24242880758937649 0 -0.18259587964237009 0.2606558300825601 0 -0.19333963139412971 0.24385714112684301 0 -0.2066863838603582 0.24242880758937649 0 -0.21408768962570049 0.25938306782852782 0 -0.22371849106378741 0.2462845034026982 0 -0.2066863838603582 0.24242880758937649 0 -0.1532221513837192 0.25419418888983192 0 -0.17951502337729761 0.2392424245160312 0 -0.15110003921584569 0.22881829817408891 0 -0.18259587964237009 0.2606558300825601 0 -0.19333963139412971 0.24385714112684301 0 -0.17951502337729761 0.2392424245160312 0 -0.17951502337729761 0.2392424245160312 0 -0.1619547442009632 0.2162214427956837 0 -0.179110163166115 0.21364489161719899 0 -0.19122946023172571 0.22600186257262461 0 -0.17951502337729761 0.2392424245160312 0 -0.179110163166115 0.21364489161719899 0 -0.17951502337729761 0.2392424245160312 0 -0.179110163166115 0.21364489161719899 0 -0.17951502337729761 0.2392424245160312 0 -0.1619547442009632 0.2162214427956837 0 -0.15110003921584569 0.22881829817408891 0 -0.1619547442009632 0.2162214427956837 0 -0.179110163166115 0.21364489161719899 0 -0.17870530295493239 0.18804735871836689 0 -0.19686056424972551 0.20437535499954981 0 -0.179110163166115 0.21364489161719899 0 -0.17870530295493239 0.18804735871836689 0 -0.179110163166115 0.21364489161719899 0 -0.17870530295493239 0.18804735871836689 0 -0.1619547442009632 0.2162214427956837 0 -0.17870530295493239 0.18804735871836689 0 -0.15775407484820861 0.18727827749961631 0 -0.14804225966403101 0.20585853828705919 0 -0.15775407484820861 0.18727827749961631 0 -0.13876353146598761 0.18223131465273959 0 -0.1619547442009632 0.2162214427956837 0 -0.14804225966403101 0.20585853828705919 0 -0.15775407484820861 0.18727827749961631 0 -0.13876353146598761 0.18223131465273959 0 -0.1245765098090509 0.17966052017845999 0 -0.1190175871807343 0.20067046473278771 0 -0.14804225966403101 0.20585853828705919 0 -0.13876353146598761 0.18223131465273959 0 -0.1190175871807343 0.20067046473278771 0 -0.14804225966403101 0.20585853828705919 0 -0.13479108425045189 0.2189379304695287 0 -0.1190175871807343 0.20067046473278771 0 -0.13479108425045189 0.2189379304695287 0 -0.12594818007053379 0.2253828658525201 0 -0.1190175871807343 0.20067046473278771 0 -0.1619547442009632 0.2162214427956837 0 -0.14804225966403101 0.20585853828705919 0 -0.15110003921584569 0.22881829817408891 0 -0.14804225966403101 0.20585853828705919 0 -0.15110003921584569 0.22881829817408891 0 -0.13479108425045189 0.2189379304695287 0 -0.15110003921584569 0.22881829817408891 0 -0.13479108425045189 0.2189379304695287 0 -0.1378537507735782 0.22769286600650679 0 -0.15110003921584569 0.22881829817408891 0 -0.1378537507735782 0.22769286600650679 0 -0.13827307027013019 0.2362506378269415 0 -0.13479108425045189 0.2189379304695287 0 -0.12594818007053379 0.2253828658525201 0 -0.1378537507735782 0.22769286600650679 0 -0.12594818007053379 0.2253828658525201 0 -0.1378537507735782 0.22769286600650679 0 -0.13827307027013019 0.2362506378269415 0 -0.12594818007053379 0.2253828658525201 0 -0.13827307027013019 0.2362506378269415 0 -0.1327712538659816 0.24971188635390451 0 -0.12594818007053379 0.2253828658525201 0 -0.1327712538659816 0.24971188635390451 0 -0.1532221513837192 0.25419418888983192 0 -0.15110003921584569 0.22881829817408891 0 -0.13827307027013019 0.2362506378269415 0 -0.1532221513837192 0.25419418888983192 0 -0.13827307027013019 0.2362506378269415 0 -0.1327712538659816 0.24971188635390451 0 -0.16317411874061041 0.14897554401654969 0 -0.16113979031376621 0.12743058591966341 0 -0.1447888583061562 0.1436064118174607 0 -0.16317411874061041 0.14897554401654969 0 -0.16113979031376621 0.12743058591966341 0 -0.17789558253256721 0.1368522929207025 0 -0.17749072232138041 0.1112547600218704 0 -0.16113979031376621 0.12743058591966341 0 -0.17789558253256721 0.1368522929207025 0 -0.19150979458678249 0.1243728737611647 0 -0.19274338499996449 0.14807478539393409 0 -0.17789558253256721 0.1368522929207025 0 -0.16317411874061041 0.14897554401654969 0 -0.17789558253256721 0.1368522929207025 0 -0.17830044274374979 0.16244982581953471 0 -0.17789558253256721 0.1368522929207025 0 -0.17830044274374979 0.16244982581953471 0 -0.19274338499996449 0.14807478539393409 0 -0.17789558253256721 0.1368522929207025 0 -0.17830044274374979 0.16244982581953471 0 -0.20517995294037331 0.17379218369948349 0 -0.17870530295493239 0.18804735871836689 0 -0.17830044274374979 0.16244982581953471 0 -0.17870530295493239 0.18804735871836689 0 -0.17830044274374979 0.16244982581953471 0 -0.17870530295493239 0.18804735871836689 0 -0.17830044274374979 0.16244982581953471 0 -0.15775407484820861 0.18727827749961631 0 -0.17830044274374979 0.16244982581953471 0 -0.15775407484820861 0.18727827749961631 0 -0.15245232938168229 0.1648839185887534 0 -0.16317411874061041 0.14897554401654969 0 -0.17830044274374979 0.16244982581953471 0 -0.15245232938168229 0.1648839185887534 0 -0.15775407484820861 0.18727827749961631 0 -0.15245232938168229 0.1648839185887534 0 -0.13876353146598761 0.18223131465273959 0 -0.13876353146598761 0.18223131465273959 0 -0.12843792629854631 0.15978223771525801 0 -0.1245765098090509 0.17966052017845999 0 -0.15245232938168229 0.1648839185887534 0 -0.13876353146598761 0.18223131465273959 0 -0.12843792629854631 0.15978223771525801 0 -0.12843792629854631 0.15978223771525801 0 -0.1447888583061562 0.1436064118174607 0 -0.12843792629854631 0.15978223771525801 0 -0.1447888583061562 0.1436064118174607 0 -0.1204435081575875 0.14623213693654391 0 -0.16317411874061041 0.14897554401654969 0 -0.15245232938168229 0.1648839185887534 0 -0.1447888583061562 0.1436064118174607 0 -0.15245232938168229 0.1648839185887534 0 -0.12843792629854631 0.15978223771525801 0 -0.1447888583061562 0.1436064118174607 0 -0.16113979031376621 0.12743058591966341 0 -0.1447888583061562 0.1436064118174607 0 -0.14300315410871919 0.1253406317882016 0 -0.16113979031376621 0.12743058591966341 0 -0.1447888583061562 0.1436064118174607 0 -0.1447888583061562 0.1436064118174607 0 -0.12687331202938101 0.13192737382428379 0 -0.1204435081575875 0.14623213693654391 0 -0.1447888583061562 0.1436064118174607 0 -0.14300315410871919 0.1253406317882016 0 -0.12687331202938101 0.13192737382428379 0 -0.12687331202938101 0.13192737382428379 0 -0.1130049083687871 0.13722853083192951 0 -0.10667563132183119 0.1260080396076822 0 -0.12687331202938101 0.13192737382428379 0 -0.1130049083687871 0.13722853083192951 0 -0.1204435081575875 0.14623213693654391 0 -0.10667563132183119 0.1260080396076822 0 -0.081978849477511453 0.1384377215961772 0 -0.096577670607123245 0.1239972751083621 0 -0.10667563132183119 0.1260080396076822 0 -0.1008242758955458 0.1385116675773613 0 -0.081978849477511453 0.1384377215961772 0 -0.10667563132183119 0.1260080396076822 0 -0.081978849477511453 0.1384377215961772 0 -0.1130049083687871 0.13722853083192951 0 -0.10667563132183119 0.1260080396076822 0 -0.1008242758955458 0.1385116675773613 0 -0.1130049083687871 0.13722853083192951 0 -0.1008242758955458 0.1385116675773613 0 -0.1078791741402548 0.14587794917826699 0 -0.094422293866394627 0.1556947047027778 0 -0.094582816169344081 0.14500609667275041 0 -0.1078791741402548 0.14587794917826699 0 -0.1008242758955458 0.1385116675773613 0 -0.094582816169344081 0.14500609667275041 0 -0.1078791741402548 0.14587794917826699 0 -0.12843792629854631 0.15978223771525801 0 -0.1204435081575875 0.14623213693654391 0 -0.1073217141416921 0.15896651377475199 0 -0.1078791741402548 0.14587794917826699 0 -0.1204435081575875 0.14623213693654391 0 -0.1073217141416921 0.15896651377475199 0 -0.1130049083687871 0.13722853083192951 0 -0.1078791741402548 0.14587794917826699 0 -0.1204435081575875 0.14623213693654391 0 -0.12843792629854631 0.15978223771525801 0 -0.1245765098090509 0.17966052017845999 0 -0.1120869942909358 0.17595806361305491 0 -0.1120869942909358 0.17595806361305491 0 -0.1073217141416921 0.15896651377475199 0 -0.12843792629854631 0.15978223771525801 0 -0.1120869942909358 0.17595806361305491 0 -0.12843792629854631 0.15978223771525801 0 -0.1120869942909358 0.17595806361305491 0 -0.1073217141416921 0.15896651377475199 0 -0.1245765098090509 0.17966052017845999 0 -0.1120869942909358 0.17595806361305491 0 -0.1190175871807343 0.20067046473278771 0 -0.1120869942909358 0.17595806361305491 0 -0.1020860412129876 0.1687304780430319 0 -0.095149617161195271 0.19271405424946009 0 -0.1020860412129876 0.1687304780430319 0 -0.095149617161195271 0.19271405424946009 0 -0.1120869942909358 0.17595806361305491 0 -0.095149617161195271 0.19271405424946009 0 -0.1020860412129876 0.1687304780430319 0 -0.093279947424905002 0.17994671451597891 0 -0.095149617161195271 0.19271405424946009 0 -0.1020860412129876 0.1687304780430319 0 -0.089956478385260899 0.16811851343374709 0 -0.093279947424905002 0.17994671451597891 0 -0.094422293866394627 0.1556947047027778 0 -0.1078791741402548 0.14587794917826699 0 -0.1020860412129876 0.1687304780430319 0 -0.1078791741402548 0.14587794917826699 0 -0.1073217141416921 0.15896651377475199 0 -0.1020860412129876 0.1687304780430319 0 -0.1120869942909358 0.17595806361305491 0 -0.1073217141416921 0.15896651377475199 0 -0.1020860412129876 0.1687304780430319 0 -0.1078791741402548 0.14587794917826699 0 -0.1020860412129876 0.1687304780430319 0 -0.094422293866394627 0.1556947047027778 0 -0.1020860412129876 0.1687304780430319 0 -0.089956478385260899 0.16811851343374709 0 -0.094422293866394627 0.1556947047027778 0 -0.089956478385260899 0.16811851343374709 0 -0.084742563178951485 0.15922574422532609 0 -0.089956478385260899 0.16811851343374709 0 -0.080023232193096983 0.1657260639694961 0 -0.084742563178951485 0.15922574422532609 0 -0.089956478385260899 0.16811851343374709 0 -0.080023232193096983 0.1657260639694961 0 -0.081293191825158789 0.17801619480298669 0 -0.080023232193096983 0.1657260639694961 0 -0.084742563178951485 0.15922574422532609 0 -0.074930767296401246 0.15918989644816289 0 -0.081293191825158789 0.17801619480298669 0 -0.095149617161195271 0.19271405424946009 0 -0.073474196407973841 0.19079473501472519 0 -0.081293191825158789 0.17801619480298669 0 -0.095149617161195271 0.19271405424946009 0 -0.093279947424905002 0.17994671451597891 0 -0.081293191825158789 0.17801619480298669 0 -0.095149617161195271 0.19271405424946009 0 -0.089956478385260899 0.16811851343374709 0 -0.093279947424905002 0.17994671451597891 0 -0.081293191825158789 0.17801619480298669 0 -0.064604308801312821 0.18244611143699499 0 -0.069549912031587807 0.17131438064227461 0 -0.073474196407973841 0.19079473501472519 0 -0.081293191825158789 0.17801619480298669 0 -0.069549912031587807 0.17131438064227461 0 -0.073474196407973841 0.19079473501472519 0 -0.069549912031587807 0.17131438064227461 0 -0.073474196407973841 0.19079473501472519 0 -0.064604308801312821 0.18244611143699499 0 -0.069549912031587807 0.17131438064227461 0 -0.062041409668937363 0.1723934095439342 0 -0.084742563178951485 0.15922574422532609 0 -0.074930767296401246 0.15918989644816289 0 -0.074588176879671189 0.15080810715310269 0 -0.080023232193096983 0.1657260639694961 0 -0.074930767296401246 0.15918989644816289 0 -0.06743676648912228 0.16331833535651319 0 -0.081293191825158789 0.17801619480298669 0 -0.069549912031587807 0.17131438064227461 0 -0.06743676648912228 0.16331833535651319 0 -0.080023232193096983 0.1657260639694961 0 -0.081293191825158789 0.17801619480298669 0 -0.06743676648912228 0.16331833535651319 0 -0.081293191825158789 0.17801619480298669 0 -0.06743676648912228 0.16331833535651319 0 -0.069549912031587807 0.17131438064227461 0 -0.062031688412593149 0.16441565219234799 0 -0.062041409668937363 0.1723934095439342 0 -0.069549912031587807 0.17131438064227461 0 -0.06743676648912228 0.16331833535651319 0 -0.062031688412593149 0.16441565219234799 0 -0.06743676648912228 0.16331833535651319 0 -0.06725389334219653 0.15771987894696021 0 -0.062031688412593149 0.16441565219234799 0 -0.074930767296401246 0.15918989644816289 0 -0.06743676648912228 0.16331833535651319 0 -0.06725389334219653 0.15771987894696021 0 -0.081978849477511453 0.1384377215961772 0 -0.05728206763319247 0.1508674035846734 0 -0.06725389334219653 0.15771987894696021 0 -0.074588176879671189 0.15080810715310269 0 -0.05728206763319247 0.1508674035846734 0 -0.074588176879671189 0.15080810715310269 0 -0.081978849477511453 0.1384377215961772 0 -0.05728206763319247 0.1508674035846734 0 -0.081978849477511453 0.1384377215961772 0 -0.06070043620975589 0.134524720015781 0 -0.05728206763319247 0.1508674035846734 0 -0.074930767296401246 0.15918989644816289 0 -0.06725389334219653 0.15771987894696021 0 -0.074588176879671189 0.15080810715310269 0 -0.071786582042575819 0.1280585334591178 0 -0.081978849477511453 0.1384377215961772 0 -0.08034823769671974 0.121089655777625 0 -0.071786582042575819 0.1280585334591178 0 -0.081978849477511453 0.1384377215961772 0 -0.06070043620975589 0.134524720015781 0 -0.071786582042575819 0.1280585334591178 0 -0.06070043620975589 0.134524720015781 0 -0.06411880478631618 0.11818203644688791 0 -0.081978849477511453 0.1384377215961772 0 -0.08034823769671974 0.121089655777625 0 -0.096577670607123245 0.1239972751083621 0 -0.1008242758955458 0.1385116675773613 0 -0.094582816169344081 0.14500609667275041 0 -0.081978849477511453 0.1384377215961772 0 -0.094582816169344081 0.14500609667275041 0 -0.081978849477511453 0.1384377215961772 0 -0.0854808471676783 0.14892295327365951 0 -0.094422293866394627 0.1556947047027778 0 -0.084742563178951485 0.15922574422532609 0 -0.0854808471676783 0.14892295327365951 0 -0.094422293866394627 0.1556947047027778 0 -0.094582816169344081 0.14500609667275041 0 -0.0854808471676783 0.14892295327365951 0 -0.084742563178951485 0.15922574422532609 0 -0.074588176879671189 0.15080810715310269 0 -0.0854808471676783 0.14892295327365951 0 -0.074588176879671189 0.15080810715310269 0 -0.081978849477511453 0.1384377215961772 0 -0.0854808471676783 0.14892295327365951 0 -0.1045487088169635 0.24438495162540061 0 -0.11455994162881621 0.23631135170566109 0 -0.098826177075254387 0.23394696074010041 0 -0.10005120432924321 0.25626016583208688 0 -0.094679029848152713 0.24609146959404629 0 -0.1045487088169635 0.24438495162540061 0 -0.094679029848152713 0.24609146959404629 0 -0.1045487088169635 0.24438495162540061 0 -0.098826177075254387 0.23394696074010041 0 -0.116744543106582 0.25728181003509248 0 -0.1045487088169635 0.24438495162540061 0 -0.11455994162881621 0.23631135170566109 0 -0.116744543106582 0.25728181003509248 0 -0.1327712538659816 0.24971188635390451 0 -0.11455994162881621 0.23631135170566109 0 -0.12594818007053379 0.2253828658525201 0 -0.1327712538659816 0.24971188635390451 0 -0.11455994162881621 0.23631135170566109 0 -0.11455994162881621 0.23631135170566109 0 -0.1144435087069731 0.2232582902708152 0 -0.1063794885369051 0.22193246116811141 0 -0.12594818007053379 0.2253828658525201 0 -0.1144435087069731 0.2232582902708152 0 -0.1108864245916369 0.20940648235696879 0 -0.12594818007053379 0.2253828658525201 0 -0.11455994162881621 0.23631135170566109 0 -0.1144435087069731 0.2232582902708152 0 -0.11455994162881621 0.23631135170566109 0 -0.1063794885369051 0.22193246116811141 0 -0.098826177075254387 0.23394696074010041 0 -0.1063794885369051 0.22193246116811141 0 -0.098826177075254387 0.23394696074010041 0 -0.089950704149474564 0.21660149084549701 0 -0.1063794885369051 0.22193246116811141 0 -0.089950704149474564 0.21660149084549701 0 -0.10053720550511509 0.21148400771379949 0 -0.095149617161195271 0.19271405424946009 0 -0.089950704149474564 0.21660149084549701 0 -0.1063794885369051 0.22193246116811141 0 -0.10053720550511509 0.21148400771379949 0 -0.089950704149474564 0.21660149084549701 0 -0.10053720550511509 0.21148400771379949 0 -0.1108864245916369 0.20940648235696879 0 -0.095149617161195271 0.19271405424946009 0 -0.1063794885369051 0.22193246116811141 0 -0.10053720550511509 0.21148400771379949 0 -0.1108864245916369 0.20940648235696879 0 -0.12594818007053379 0.2253828658525201 0 -0.1190175871807343 0.20067046473278771 0 -0.12594818007053379 0.2253828658525201 0 -0.1108864245916369 0.20940648235696879 0 -0.1190175871807343 0.20067046473278771 0 -0.12594818007053379 0.2253828658525201 0 -0.1108864245916369 0.20940648235696879 0 -0.1144435087069731 0.2232582902708152 0 -0.1063794885369051 0.22193246116811141 0 -0.1108864245916369 0.20940648235696879 0 -0.1120869942909358 0.17595806361305491 0 -0.1190175871807343 0.20067046473278771 0 -0.1108864245916369 0.20940648235696879 0 -0.1190175871807343 0.20067046473278771 0 -0.10682171669235439 0.1942096232944058 0 -0.1120869942909358 0.17595806361305491 0 -0.1190175871807343 0.20067046473278771 0 -0.10682171669235439 0.1942096232944058 0 -0.1108864245916369 0.20940648235696879 0 -0.095149617161195271 0.19271405424946009 0 -0.1108864245916369 0.20940648235696879 0 -0.10682171669235439 0.1942096232944058 0 -0.095149617161195271 0.19271405424946009 0 -0.1120869942909358 0.17595806361305491 0 -0.10682171669235439 0.1942096232944058 0 -0.095149617161195271 0.19271405424946009 0 -0.095149617161195271 0.19271405424946009 0 -0.077398480784349299 0.2102750893871779 0 -0.095149617161195271 0.19271405424946009 0 -0.073474196407973841 0.19079473501472519 0 -0.077398480784349299 0.2102750893871779 0 -0.095149617161195271 0.19271405424946009 0 -0.077398480784349299 0.2102750893871779 0 -0.087241526055590657 0.20514135106535239 0 -0.073474196407973841 0.19079473501472519 0 -0.077398480784349299 0.2102750893871779 0 -0.073474196407973841 0.19079473501472519 0 -0.077398480784349299 0.2102750893871779 0 -0.068984895145132993 0.20348567813270921 0 -0.064604308801312821 0.18244611143699499 0 -0.073474196407973841 0.19079473501472519 0 -0.062951628171730722 0.19451437844324071 0 -0.073474196407973841 0.19079473501472519 0 -0.062951628171730722 0.19451437844324071 0 -0.068984895145132993 0.20348567813270921 0 -0.062951628171730722 0.19451437844324071 0 -0.068984895145132993 0.20348567813270921 0 -0.057478398324341332 0.20606456403591589 0 -0.068984895145132993 0.20348567813270921 0 -0.075683327299925024 0.21197187487555791 0 -0.057478398324341332 0.20606456403591589 0 -0.075683327299925024 0.21197187487555791 0 -0.060700713784132942 0.2267940359372384 0 -0.057478398324341332 0.20606456403591589 0 -0.075683327299925024 0.21197187487555791 0 -0.057478398324341332 0.20606456403591589 0 -0.077398480784349299 0.2102750893871779 0 -0.068984895145132993 0.20348567813270921 0 -0.075683327299925024 0.21197187487555791 0 -0.075683327299925024 0.21197187487555791 0 -0.077884159070199604 0.2126860219832131 0 -0.060700713784132942 0.2267940359372384 0 -0.075683327299925024 0.21197187487555791 0 -0.077884159070199604 0.2126860219832131 0 -0.077398480784349299 0.2102750893871779 0 -0.075683327299925024 0.21197187487555791 0 -0.077884159070199604 0.2126860219832131 0 -0.077398480784349299 0.2102750893871779 0 -0.077884159070199604 0.2126860219832131 0 -0.077398480784349299 0.2102750893871779 0 -0.075683327299925024 0.21197187487555791 0 -0.077884159070199604 0.2126860219832131 0 -0.089950704149474564 0.21660149084549701 0 -0.077884159070199604 0.2126860219832131 0 -0.087241526055590657 0.20514135106535239 0 -0.089950704149474564 0.21660149084549701 0 -0.095149617161195271 0.19271405424946009 0 -0.087241526055590657 0.20514135106535239 0 -0.089950704149474564 0.21660149084549701 0 -0.095149617161195271 0.19271405424946009 0 -0.089950704149474564 0.21660149084549701 0 -0.077398480784349299 0.2102750893871779 0 -0.077884159070199604 0.2126860219832131 0 -0.087241526055590657 0.20514135106535239 0 -0.077884159070199604 0.2126860219832131 0 -0.083666647235009842 0.24139059785004849 0 -0.089950704149474564 0.21660149084549701 0 -0.083666647235009842 0.24139059785004849 0 -0.077884159070199604 0.2126860219832131 0 -0.089950704149474564 0.21660149084549701 0 -0.083666647235009842 0.24139059785004849 0 -0.098826177075254387 0.23394696074010041 0 -0.089950704149474564 0.21660149084549701 0 -0.083666647235009842 0.24139059785004849 0 -0.077884159070199604 0.2126860219832131 0 -0.083666647235009842 0.24139059785004849 0 -0.060700713784132942 0.2267940359372384 0 -0.075683327299925024 0.21197187487555791 0 -0.060700713784132942 0.2267940359372384 0 -0.064077212627390134 0.24851538469076631 0 -0.083666647235009842 0.24139059785004849 0 -0.060700713784132942 0.2267940359372384 0 -0.086302411784292182 0.25447467192259482 0 -0.083666647235009842 0.24139059785004849 0 -0.094679029848152713 0.24609146959404629 0 -0.098826177075254387 0.23394696074010041 0 -0.083666647235009842 0.24139059785004849 0 -0.086302411784292182 0.25447467192259482 0 -0.094679029848152713 0.24609146959404629 0 -0.083666647235009842 0.24139059785004849 0 -0.03068766995985707 0.25286978792993342 0 -0.034335222642673788 0.23481172099035691 0 -0.046578861792199937 0.24361118962503389 0 -0.034335222642673788 0.23481172099035691 0 -0.046578861792199937 0.24361118962503389 0 -0.045510089746351297 0.2289623102588538 0 -0.064077212627390134 0.24851538469076631 0 -0.046578861792199937 0.24361118962503389 0 -0.055802081643016588 0.23164020743468811 0 -0.064077212627390134 0.24851538469076631 0 -0.055802081643016588 0.23164020743468811 0 -0.060700713784132942 0.2267940359372384 0 -0.064077212627390134 0.24851538469076631 0 -0.060700713784132942 0.2267940359372384 0 -0.046578861792199937 0.24361118962503389 0 -0.055802081643016588 0.23164020743468811 0 -0.045510089746351297 0.2289623102588538 0 -0.055802081643016588 0.23164020743468811 0 -0.053252725762674542 0.2222055350902031 0 -0.045510089746351297 0.2289623102588538 0 -0.055802081643016588 0.23164020743468811 0 -0.060700713784132942 0.2267940359372384 0 -0.053252725762674542 0.2222055350902031 0 -0.055802081643016588 0.23164020743468811 0 -0.060700713784132942 0.2267940359372384 0 -0.053252725762674542 0.2222055350902031 0 -0.045510089746351297 0.2289623102588538 0 -0.046772345315528908 0.21756655778431969 0 -0.045510089746351297 0.2289623102588538 0 -0.036443083940353373 0.22210497005765251 0 -0.046772345315528908 0.21756655778431969 0 -0.034335222642673788 0.23481172099035691 0 -0.045510089746351297 0.2289623102588538 0 -0.036443083940353373 0.22210497005765251 0 -0.034335222642673788 0.23481172099035691 0 -0.036443083940353373 0.22210497005765251 0 -0.024866254401544021 0.22078734426404351 0 -0.036443083940353373 0.22210497005765251 0 -0.046772345315528908 0.21756655778431969 0 -0.031637039445344017 0.19767931081015269 0 -0.046772345315528908 0.21756655778431969 0 -0.057478398324341332 0.20606456403591589 0 -0.031637039445344017 0.19767931081015269 0 -0.060700713784132942 0.2267940359372384 0 -0.053252725762674542 0.2222055350902031 0 -0.057478398324341332 0.20606456403591589 0 -0.060700713784132942 0.2267940359372384 0 -0.057478398324341332 0.20606456403591589 0 -0.053252725762674542 0.2222055350902031 0 -0.046772345315528908 0.21756655778431969 0 -0.057478398324341332 0.20606456403591589 0 -0.062951628171730722 0.19451437844324071 0 -0.057478398324341332 0.20606456403591589 0 -0.054948738746262903 0.1897910154656581 0 -0.057478398324341332 0.20606456403591589 0 -0.054948738746262903 0.1897910154656581 0 -0.031637039445344017 0.19767931081015269 0 -0.057478398324341332 0.20606456403591589 0 -0.054948738746262903 0.1897910154656581 0 -0.054948738746262903 0.1897910154656581 0 -0.031637039445344017 0.19767931081015269 0 -0.039999697082172873 0.18418677263352329 0 -0.057478398324341332 0.20606456403591589 0 -0.031637039445344017 0.19767931081015269 0 -0.031637039445344017 0.19767931081015269 0 -0.0057956805663459468 0.1892940575843915 0 -0.031637039445344017 0.19767931081015269 0 -0.0057956805663459468 0.1892940575843915 0 -0.024775833668462071 0.17590936267321361 0 -0.031637039445344017 0.19767931081015269 0 -0.0057956805663459468 0.1892940575843915 0 -0.01019634689217482 0.20814994011246479 0 -0.0057956805663459468 0.1892940575843915 0 -0.01019634689217482 0.20814994011246479 0 0.0090806704795409685 0.20996839310177981 0 -0.01019634689217482 0.20814994011246479 0 0.00014186162909880781 0.2338185852574263 0 0.0090806704795409685 0.20996839310177981 0 -0.036443083940353373 0.22210497005765251 0 -0.031637039445344017 0.19767931081015269 0 -0.024866254401544021 0.22078734426404351 0 -0.031637039445344017 0.19767931081015269 0 -0.01019634689217482 0.20814994011246479 0 -0.024866254401544021 0.22078734426404351 0 -0.034335222642673788 0.23481172099035691 0 -0.024866254401544021 0.22078734426404351 0 -0.01991034591062427 0.239405390953495 0 -0.024866254401544021 0.22078734426404351 0 0.00014186162909880781 0.2338185852574263 0 -0.024866254401544021 0.22078734426404351 0 -0.01991034591062427 0.239405390953495 0 0.00014186162909880781 0.2338185852574263 0 -0.01019634689217482 0.20814994011246479 0 -0.024866254401544021 0.22078734426404351 0 0.00014186162909880781 0.2338185852574263 0 -0.0098044441781452579 0.25473951632571468 0 0.00014186162909880781 0.2338185852574263 0 0.0073806355134042019 0.25529449578482938 0 -0.0098044441781452579 0.25473951632571468 0 -0.01991034591062427 0.239405390953495 0 0.00014186162909880781 0.2338185852574263 0 -0.03068766995985707 0.25286978792993342 0 -0.034335222642673788 0.23481172099035691 0 -0.01991034591062427 0.239405390953495 0 -0.03068766995985707 0.25286978792993342 0 -0.0098044441781452579 0.25473951632571468 0 -0.01991034591062427 0.239405390953495 0 -0.045513089216113363 0.1481501368583191 0 -0.039963318838929777 0.1583549670989208 0 -0.028048700007850699 0.14601834090005769 0 -0.045513089216113363 0.1481501368583191 0 -0.037584816749385713 0.12707105787504261 0 -0.028048700007850699 0.14601834090005769 0 -0.037584816749385713 0.12707105787504261 0 -0.028048700007850699 0.14601834090005769 0 -0.045513089216113363 0.1481501368583191 0 -0.037584816749385713 0.12707105787504261 0 -0.045513089216113363 0.1481501368583191 0 -0.037584816749385713 0.12707105787504261 0 -0.049753839012929922 0.13582205838018921 0 -0.037584816749385713 0.12707105787504261 0 -0.049753839012929922 0.13582205838018921 0 -0.051208231868337763 0.1260313133231428 0 -0.049753839012929922 0.13582205838018921 0 -0.06070043620975589 0.134524720015781 0 -0.052276118599972977 0.1457036522838337 0 -0.051208231868337763 0.1260313133231428 0 -0.06070043620975589 0.134524720015781 0 -0.06411880478631618 0.11818203644688791 0 -0.06070043620975589 0.134524720015781 0 -0.06411880478631618 0.11818203644688791 0 -0.049753839012929922 0.13582205838018921 0 -0.051208231868337763 0.1260313133231428 0 -0.06070043620975589 0.134524720015781 0 -0.06070043620975589 0.134524720015781 0 -0.052276118599972977 0.1457036522838337 0 -0.05728206763319247 0.1508674035846734 0 -0.06070043620975589 0.134524720015781 0 -0.05728206763319247 0.1508674035846734 0 -0.045513089216113363 0.1481501368583191 0 -0.049753839012929922 0.13582205838018921 0 -0.052276118599972977 0.1457036522838337 0 -0.045513089216113363 0.1481501368583191 0 -0.052276118599972977 0.1457036522838337 0 -0.053440893212920608 0.15280063427064891 0 -0.052276118599972977 0.1457036522838337 0 -0.053440893212920608 0.15280063427064891 0 -0.05728206763319247 0.1508674035846734 0 -0.053440893212920608 0.15280063427064891 0 -0.05728206763319247 0.1508674035846734 0 -0.05728206763319247 0.1508674035846734 0 -0.062031688412593149 0.16441565219234799 0 -0.053441361682841117 0.16922921584159559 0 -0.053440893212920608 0.15280063427064891 0 -0.05728206763319247 0.1508674035846734 0 -0.053441361682841117 0.16922921584159559 0 -0.045513089216113363 0.1481501368583191 0 -0.053440893212920608 0.15280063427064891 0 -0.053441361682841117 0.16922921584159559 0 -0.045513089216113363 0.1481501368583191 0 -0.053441361682841117 0.16922921584159559 0 -0.05728206763319247 0.1508674035846734 0 -0.053441361682841117 0.16922921584159559 0 -0.06725389334219653 0.15771987894696021 0 -0.05728206763319247 0.1508674035846734 0 -0.062031688412593149 0.16441565219234799 0 -0.062031688412593149 0.16441565219234799 0 -0.053441361682841117 0.16922921584159559 0 -0.062041409668937363 0.1723934095439342 0 -0.053441361682841117 0.16922921584159559 0 -0.047633738945979477 0.17108968717192211 0 -0.039963318838929777 0.1583549670989208 0 -0.052991971448818453 0.17137768000779441 0 -0.053441361682841117 0.16922921584159559 0 -0.047633738945979477 0.17108968717192211 0 -0.052991971448818453 0.17137768000779441 0 -0.053441361682841117 0.16922921584159559 0 -0.054948738746262903 0.1897910154656581 0 -0.052419079168185397 0.17351746689540021 0 -0.046888846475854867 0.17837904804597579 0 -0.062951628171730722 0.19451437844324071 0 -0.054948738746262903 0.1897910154656581 0 -0.052419079168185397 0.17351746689540021 0 -0.062951628171730722 0.19451437844324071 0 -0.052991971448818453 0.17137768000779441 0 -0.052419079168185397 0.17351746689540021 0 -0.064604308801312821 0.18244611143699499 0 -0.062951628171730722 0.19451437844324071 0 -0.053441361682841117 0.16922921584159559 0 -0.062951628171730722 0.19451437844324071 0 -0.052991971448818453 0.17137768000779441 0 -0.053441361682841117 0.16922921584159559 0 -0.054948738746262903 0.1897910154656581 0 -0.052419079168185397 0.17351746689540021 0 -0.062951628171730722 0.19451437844324071 0 -0.053441361682841117 0.16922921584159559 0 -0.064604308801312821 0.18244611143699499 0 -0.053441361682841117 0.16922921584159559 0 -0.062041409668937363 0.1723934095439342 0 -0.052991971448818453 0.17137768000779441 0 -0.047633738945979477 0.17108968717192211 0 -0.052419079168185397 0.17351746689540021 0 -0.047633738945979477 0.17108968717192211 0 -0.052419079168185397 0.17351746689540021 0 -0.046888846475854867 0.17837904804597579 0 -0.054948738746262903 0.1897910154656581 0 -0.046888846475854867 0.17837904804597579 0 -0.039999697082172873 0.18418677263352329 0 -0.031637039445344017 0.19767931081015269 0 -0.039999697082172873 0.18418677263352329 0 -0.024775833668462071 0.17590936267321361 0 -0.046888846475854867 0.17837904804597579 0 -0.039999697082172873 0.18418677263352329 0 -0.039442978436673673 0.17331029806337539 0 -0.047633738945979477 0.17108968717192211 0 -0.046888846475854867 0.17837904804597579 0 -0.039442978436673673 0.17331029806337539 0 -0.039442978436673673 0.17331029806337539 0 -0.032139483942643897 0.16694135859911591 0 -0.024775833668462071 0.17590936267321361 0 -0.039999697082172873 0.18418677263352329 0 -0.039442978436673673 0.17331029806337539 0 -0.024775833668462071 0.17590936267321361 0 -0.045513089216113363 0.1481501368583191 0 -0.053441361682841117 0.16922921584159559 0 -0.039963318838929777 0.1583549670989208 0 -0.039963318838929777 0.1583549670989208 0 -0.032139483942643897 0.16694135859911591 0 -0.02343924065842673 0.15869802647678349 0 -0.047633738945979477 0.17108968717192211 0 -0.039442978436673673 0.17331029806337539 0 -0.039963318838929777 0.1583549670989208 0 -0.039442978436673673 0.17331029806337539 0 -0.039963318838929777 0.1583549670989208 0 -0.032139483942643897 0.16694135859911591 0 -0.032139483942643897 0.16694135859911591 0 -0.02343924065842673 0.15869802647678349 0 -0.024775833668462071 0.17590936267321361 0 -0.02343924065842673 0.15869802647678349 0 -0.024775833668462071 0.17590936267321361 0 -0.0048034666842798916 0.1614245706846468 0 -0.0057956805663459468 0.1892940575843915 0 -0.024775833668462071 0.17590936267321361 0 -0.0048034666842798916 0.1614245706846468 0 -0.0048034666842798916 0.1614245706846468 0 -0.01090464080839405 0.14353955890474629 0 0.011098566836083609 0.13484946890849181 0 -0.02343924065842673 0.15869802647678349 0 -0.0048034666842798916 0.1614245706846468 0 -0.01090464080839405 0.14353955890474629 0 -0.039963318838929777 0.1583549670989208 0 -0.02343924065842673 0.15869802647678349 0 -0.028048700007850699 0.14601834090005769 0 -0.02343924065842673 0.15869802647678349 0 -0.01090464080839405 0.14353955890474629 0 -0.028048700007850699 0.14601834090005769 0 -0.037584816749385713 0.12707105787504261 0 -0.0187932077553963 0.1304023687453105 0 -0.02482114599867602 0.1199028763409456 0 -0.01090464080839405 0.14353955890474629 0 -0.028048700007850699 0.14601834090005769 0 -0.0187932077553963 0.1304023687453105 0 -0.037584816749385713 0.12707105787504261 0 -0.028048700007850699 0.14601834090005769 0 -0.0187932077553963 0.1304023687453105 0 -0.0064436606074630637 0.13109611639504981 0 -0.007175360702145514 0.1155930690216506 0 0.011098566836083609 0.13484946890849181 0 -0.01090464080839405 0.14353955890474629 0 -0.0064436606074630637 0.13109611639504981 0 0.011098566836083609 0.13484946890849181 0 -0.0187932077553963 0.1304023687453105 0 -0.0064436606074630637 0.13109611639504981 0 -0.007175360702145514 0.1155930690216506 0 -0.01090464080839405 0.14353955890474629 0 -0.0187932077553963 0.1304023687453105 0 -0.0064436606074630637 0.13109611639504981 0 -0.007175360702145514 0.1155930690216506 0 -0.0040088977147468936 0.097024336429998151 0 -0.013655752966245171 0.094180689311720855 0 -0.007175360702145514 0.1155930690216506 0 -0.0040088977147468936 0.097024336429998151 0 0.0025937760044158291 0.1064596481343341 0 -0.007175360702145514 0.1155930690216506 0 -0.013655752966245171 0.094180689311720855 0 -0.02544928824037461 0.096336669134809427 0 -0.029459919491476121 0.1011230655410132 0 -0.021580178673492881 0.1105609364200745 0 -0.037915498494119543 0.10215930426450601 0 -0.007175360702145514 0.1155930690216506 0 -0.02544928824037461 0.096336669134809427 0 -0.007175360702145514 0.1155930690216506 0 -0.02544928824037461 0.096336669134809427 0 -0.0241566231860777 0.1021061234229471 0 -0.02544928824037461 0.096336669134809427 0 -0.029459919491476121 0.1011230655410132 0 -0.035034026511796899 0.0954599165668297 0 -0.02544928824037461 0.096336669134809427 0 -0.029459919491476121 0.1011230655410132 0 -0.0241566231860777 0.1021061234229471 0 -0.02544928824037461 0.096336669134809427 0 -0.0241566231860777 0.1021061234229471 0 -0.029459919491476121 0.1011230655410132 0 -0.0241566231860777 0.1021061234229471 0 -0.021580178673492881 0.1105609364200745 0 -0.02482114599867602 0.1199028763409456 0 -0.021580178673492881 0.1105609364200745 0 -0.032585978911933711 0.11378053360982859 0 -0.007175360702145514 0.1155930690216506 0 -0.0241566231860777 0.1021061234229471 0 -0.021580178673492881 0.1105609364200745 0 -0.0187932077553963 0.1304023687453105 0 -0.007175360702145514 0.1155930690216506 0 -0.02482114599867602 0.1199028763409456 0 -0.007175360702145514 0.1155930690216506 0 -0.02482114599867602 0.1199028763409456 0 -0.021580178673492881 0.1105609364200745 0 -0.01109578586274463 0.07592966442077155 0 -0.01963881101933795 0.057650575484614511 0 -0.0089029190745683329 0.062319161291970238 0 -0.0031702267477386531 0.067180855403790804 0 -0.01109578586274463 0.07592966442077155 0 0.0065236609159091173 0.071671444604676282 0 -0.0031702267477386531 0.067180855403790804 0 -0.0089029190745683329 0.062319161291970238 0 0.00079413703044923156 0.058803151297745167 0 -0.0031702267477386531 0.067180855403790804 0 -0.01109578586274463 0.07592966442077155 0 -0.0089029190745683329 0.062319161291970238 0 -0.0040088977147468936 0.097024336429998151 0 -0.01109578586274463 0.07592966442077155 0 0.011643404763696401 0.092949868607662828 0 -0.0040088977147468936 0.097024336429998151 0 -0.013655752966245171 0.094180689311720855 0 -0.01109578586274463 0.07592966442077155 0 -0.013655752966245171 0.094180689311720855 0 -0.01109578586274463 0.07592966442077155 0 -0.02054943231121421 0.086019707551374502 0 -0.02544928824037461 0.096336669134809427 0 -0.02054943231121421 0.086019707551374502 0 -0.029642132364781061 0.077623064684345475 0 -0.02544928824037461 0.096336669134809427 0 -0.029642132364781061 0.077623064684345475 0 -0.036673455980692451 0.084509049595857907 0 -0.01109578586274463 0.07592966442077155 0 -0.02054943231121421 0.086019707551374502 0 -0.029642132364781061 0.077623064684345475 0 -0.02544928824037461 0.096336669134809427 0 -0.029642132364781061 0.077623064684345475 0 -0.013655752966245171 0.094180689311720855 0 -0.02544928824037461 0.096336669134809427 0 -0.02054943231121421 0.086019707551374502 0 -0.02544928824037461 0.096336669134809427 0 -0.036673455980692451 0.084509049595857907 0 -0.01109578586274463 0.07592966442077155 0 -0.033834976489186493 0.058909460233881362 0 -0.01109578586274463 0.07592966442077155 0 -0.029642132364781061 0.077623064684345475 0 -0.033834976489186493 0.058909460233881362 0 -0.01109578586274463 0.07592966442077155 0 -0.033834976489186493 0.058909460233881362 0 -0.01963881101933795 0.057650575484614511 0 -0.029642132364781061 0.077623064684345475 0 -0.033834976489186493 0.058909460233881362 0 -0.029642132364781061 0.077623064684345475 0 -0.036732086871232597 0.066761861307427367 0 -0.033834976489186493 0.058909460233881362 0 -0.042969512877196837 0.063698159366550891 0 -0.036732086871232597 0.066761861307427367 0 -0.038306240480512441 0.072768089837317376 0 -0.042969512877196837 0.063698159366550891 0 -0.038306240480512441 0.072768089837317376 0 -0.046136221960229658 0.070392563092827029 0 -0.042969512877196837 0.063698159366550891 0 -0.036732086871232597 0.066761861307427367 0 -0.038907572144486188 0.060810532415041758 0 -0.029642132364781061 0.077623064684345475 0 -0.036732086871232597 0.066761861307427367 0 -0.038306240480512441 0.072768089837317376 0 -0.038306240480512441 0.072768089837317376 0 -0.046136221960229658 0.070392563092827029 0 -0.043586306971417507 0.077534071189344175 0 -0.038306240480512441 0.072768089837317376 0 -0.043586306971417507 0.077534071189344175 0 -0.036673455980692451 0.084509049595857907 0 -0.043586306971417507 0.077534071189344175 0 -0.036673455980692451 0.084509049595857907 0 -0.046978765451358998 0.084182386091036676 0 -0.029642132364781061 0.077623064684345475 0 -0.038306240480512441 0.072768089837317376 0 -0.036673455980692451 0.084509049595857907 0 -0.02544928824037461 0.096336669134809427 0 -0.036673455980692451 0.084509049595857907 0 -0.035034026511796899 0.0954599165668297 0 -0.036673455980692451 0.084509049595857907 0 -0.044089979176562301 0.093675305350012283 0 -0.035034026511796899 0.0954599165668297 0 -0.036673455980692451 0.084509049595857907 0 -0.044089979176562301 0.093675305350012283 0 -0.046978765451358998 0.084182386091036676 0 -0.044089979176562301 0.093675305350012283 0 -0.057144835734191893 0.088207312209507505 0 -0.046978765451358998 0.084182386091036676 0 -0.057144835734191893 0.088207312209507505 0 -0.046978765451358998 0.084182386091036676 0 -0.053399249393930842 0.076986192110461482 0 -0.043586306971417507 0.077534071189344175 0 -0.046978765451358998 0.084182386091036676 0 -0.053399249393930842 0.076986192110461482 0 -0.053399249393930842 0.076986192110461482 0 -0.070406408885084593 0.061857930521202607 0 -0.059815066152941319 0.061788281472960463 0 -0.057144835734191893 0.088207312209507505 0 -0.053399249393930842 0.076986192110461482 0 -0.070406408885084593 0.061857930521202607 0 -0.046136221960229658 0.070392563092827029 0 -0.043586306971417507 0.077534071189344175 0 -0.053399249393930842 0.076986192110461482 0 -0.046136221960229658 0.070392563092827029 0 -0.053399249393930842 0.076986192110461482 0 -0.05257832837313995 0.068950164376806455 0 -0.053399249393930842 0.076986192110461482 0 -0.05257832837313995 0.068950164376806455 0 -0.059815066152941319 0.061788281472960463 0 -0.05257832837313995 0.068950164376806455 0 -0.052166049838275927 0.062310195238599278 0 -0.059815066152941319 0.061788281472960463 0 -0.046136221960229658 0.070392563092827029 0 -0.05257832837313995 0.068950164376806455 0 -0.052166049838275927 0.062310195238599278 0 -0.042969512877196837 0.063698159366550891 0 -0.046136221960229658 0.070392563092827029 0 -0.052166049838275927 0.062310195238599278 0 -0.021580178673492881 0.1105609364200745 0 -0.043883262583300407 0.11455669389781301 0 -0.021580178673492881 0.1105609364200745 0 -0.043883262583300407 0.11455669389781301 0 -0.032585978911933711 0.11378053360982859 0 -0.037584816749385713 0.12707105787504261 0 -0.051208231868337763 0.1260313133231428 0 -0.043883262583300407 0.11455669389781301 0 -0.037584816749385713 0.12707105787504261 0 -0.043883262583300407 0.11455669389781301 0 -0.037584816749385713 0.12707105787504261 0 -0.032585978911933711 0.11378053360982859 0 -0.037584816749385713 0.12707105787504261 0 -0.043883262583300407 0.11455669389781301 0 -0.032585978911933711 0.11378053360982859 0 -0.037584816749385713 0.12707105787504261 0 -0.02482114599867602 0.1199028763409456 0 -0.032585978911933711 0.11378053360982859 0 -0.021580178673492881 0.1105609364200745 0 -0.043883262583300407 0.11455669389781301 0 -0.037915498494119543 0.10215930426450601 0 -0.044089979176562301 0.093675305350012283 0 -0.043883262583300407 0.11455669389781301 0 -0.037915498494119543 0.10215930426450601 0 -0.044089979176562301 0.093675305350012283 0 -0.037915498494119543 0.10215930426450601 0 -0.035034026511796899 0.0954599165668297 0 -0.029459919491476121 0.1011230655410132 0 -0.037915498494119543 0.10215930426450601 0 -0.035034026511796899 0.0954599165668297 0 -0.044089979176562301 0.093675305350012283 0 -0.057144835734191893 0.088207312209507505 0 -0.043883262583300407 0.11455669389781301 0 -0.057144835734191893 0.088207312209507505 0 -0.043883262583300407 0.11455669389781301 0 -0.057144835734191893 0.088207312209507505 0 -0.043883262583300407 0.11455669389781301 0 -0.056175626513735713 0.104231459755559 0 -0.056175626513735713 0.104231459755559 0 -0.061770267295803899 0.1005995653590098 0 -0.06411880478631618 0.11818203644688791 0 -0.057144835734191893 0.088207312209507505 0 -0.056175626513735713 0.104231459755559 0 -0.061770267295803899 0.1005995653590098 0 -0.043883262583300407 0.11455669389781301 0 -0.06411880478631618 0.11818203644688791 0 -0.051208231868337763 0.1260313133231428 0 -0.043883262583300407 0.11455669389781301 0 -0.06411880478631618 0.11818203644688791 0 -0.043883262583300407 0.11455669389781301 0 -0.056175626513735713 0.104231459755559 0 -0.06411880478631618 0.11818203644688791 0 -0.071786582042575819 0.1280585334591178 0 -0.06411880478631618 0.11818203644688791 0 -0.08034823769671974 0.121089655777625 0 -0.06411880478631618 0.11818203644688791 0 -0.08034823769671974 0.121089655777625 0 -0.075381325115152609 0.106019298300689 0 -0.06411880478631618 0.11818203644688791 0 -0.08034823769671974 0.121089655777625 0 -0.08034823769671974 0.121089655777625 0 -0.096577670607123245 0.1239972751083621 0 -0.08034823769671974 0.121089655777625 0 -0.092569001324263961 0.1124699312803344 0 -0.096577670607123245 0.1239972751083621 0 -0.08034823769671974 0.121089655777625 0 -0.083967771981719092 0.1102844810624737 0 -0.092569001324263961 0.1124699312803344 0 -0.08034823769671974 0.121089655777625 0 -0.083967771981719092 0.1102844810624737 0 -0.075381325115152609 0.106019298300689 0 -0.087572523790740042 0.10155903889124659 0 -0.082071947835387321 0.094412947715560025 0 -0.09233625647768956 0.091651488650119919 0 -0.083967771981719092 0.1102844810624737 0 -0.092569001324263961 0.1124699312803344 0 -0.087572523790740042 0.10155903889124659 0 -0.083967771981719092 0.1102844810624737 0 -0.087572523790740042 0.10155903889124659 0 -0.075381325115152609 0.106019298300689 0 -0.087572523790740042 0.10155903889124659 0 -0.082071947835387321 0.094412947715560025 0 -0.075381325115152609 0.106019298300689 0 -0.06411880478631618 0.11818203644688791 0 -0.06964180214897181 0.091777453024084701 0 -0.082071947835387321 0.094412947715560025 0 -0.075381325115152609 0.106019298300689 0 -0.06964180214897181 0.091777453024084701 0 -0.06411880478631618 0.11818203644688791 0 -0.075381325115152609 0.106019298300689 0 -0.06964180214897181 0.091777453024084701 0 -0.061770267295803899 0.1005995653590098 0 -0.06411880478631618 0.11818203644688791 0 -0.06964180214897181 0.091777453024084701 0 -0.057144835734191893 0.088207312209507505 0 -0.061770267295803899 0.1005995653590098 0 -0.06964180214897181 0.091777453024084701 0 -0.06964180214897181 0.091777453024084701 0 -0.075164799511626648 0.065372869601281192 0 -0.057144835734191893 0.088207312209507505 0 -0.06964180214897181 0.091777453024084701 0 -0.068089461569968729 0.076803891339018993 0 -0.06964180214897181 0.091777453024084701 0 -0.068089461569968729 0.076803891339018993 0 -0.075164799511626648 0.065372869601281192 0 -0.057144835734191893 0.088207312209507505 0 -0.068089461569968729 0.076803891339018993 0 -0.070406408885084593 0.061857930521202607 0 -0.06964180214897181 0.091777453024084701 0 -0.075164799511626648 0.065372869601281192 0 -0.08073347634316104 0.073575546631144614 0 -0.057144835734191893 0.088207312209507505 0 -0.070406408885084593 0.061857930521202607 0 -0.068089461569968729 0.076803891339018993 0 -0.075164799511626648 0.065372869601281192 0 -0.070406408885084593 0.061857930521202607 0 -0.089923560922876636 0.068178037636278263 0 -0.08578586832533959 0.082170087930996366 0 -0.103675070998617 0.083967309240415983 0 -0.08073347634316104 0.073575546631144614 0 -0.089923560922876636 0.068178037636278263 0 -0.083186879645449088 0.059889597987781727 0 -0.075164799511626648 0.065372869601281192 0 -0.08073347634316104 0.073575546631144614 0 -0.083186879645449088 0.059889597987781727 0 -0.08073347634316104 0.073575546631144614 0 -0.089923560922876636 0.068178037636278263 0 -0.08578586832533959 0.082170087930996366 0 -0.06964180214897181 0.091777453024084701 0 -0.08073347634316104 0.073575546631144614 0 -0.08578586832533959 0.082170087930996366 0 -0.082071947835387321 0.094412947715560025 0 -0.06964180214897181 0.091777453024084701 0 -0.08578586832533959 0.082170087930996366 0 -0.082071947835387321 0.094412947715560025 0 -0.08578586832533959 0.082170087930996366 0 -0.09233625647768956 0.091651488650119919 0 -0.09233625647768956 0.091651488650119919 0 -0.103675070998617 0.083967309240415983 0 -0.10429444750695741 0.1014886749251958 0 -0.08578586832533959 0.082170087930996366 0 -0.09233625647768956 0.091651488650119919 0 -0.103675070998617 0.083967309240415983 0 -0.103675070998617 0.083967309240415983 0 -0.1198812247159142 0.095002477965890675 0 -0.10429444750695741 0.1014886749251958 0 -0.089923560922876636 0.068178037636278263 0 -0.103675070998617 0.083967309240415983 0 -0.10785209906359081 0.065371441260914459 0 -0.12533951967512769 0.078274991835817334 0 -0.103675070998617 0.083967309240415983 0 -0.10785209906359081 0.065371441260914459 0 -0.12533951967512769 0.078274991835817334 0 -0.10785209906359081 0.065371441260914459 0 -0.1248745965026067 0.059896082918310993 0 -0.12533951967512769 0.078274991835817334 0 -0.103675070998617 0.083967309240415983 0 -0.1198812247159142 0.095002477965890675 0 -0.13137241316615089 0.11357835761918721 0 -0.1198812247159142 0.095002477965890675 0 -0.10429444750695741 0.1014886749251958 0 -0.13137241316615089 0.11357835761918721 0 -0.12687331202938101 0.13192737382428379 0 -0.10667563132183119 0.1260080396076822 0 -0.13137241316615089 0.11357835761918721 0 -0.10667563132183119 0.1260080396076822 0 -0.1062978327852654 0.11550845570815239 0 -0.13137241316615089 0.11357835761918721 0 -0.1062978327852654 0.11550845570815239 0 -0.10429444750695741 0.1014886749251958 0 -0.13137241316615089 0.11357835761918721 0 -0.10667563132183119 0.1260080396076822 0 -0.10667563132183119 0.1260080396076822 0 -0.1062978327852654 0.11550845570815239 0 -0.096577670607123245 0.1239972751083621 0 -0.092569001324263961 0.1124699312803344 0 -0.1062978327852654 0.11550845570815239 0 -0.096577670607123245 0.1239972751083621 0 -0.092569001324263961 0.1124699312803344 0 -0.1062978327852654 0.11550845570815239 0 -0.10429444750695741 0.1014886749251958 0 -0.092569001324263961 0.1124699312803344 0 -0.087572523790740042 0.10155903889124659 0 -0.10429444750695741 0.1014886749251958 0 -0.087572523790740042 0.10155903889124659 0 -0.09233625647768956 0.091651488650119919 0 -0.10429444750695741 0.1014886749251958 0 -0.10370969952600501 0.019997694726909911 0 -0.098524362227562057 0.035744340183224317 0 -0.08645931971955316 0.02325136753113614 0 -0.10370969952600501 0.019997694726909911 0 -0.08645931971955316 0.02325136753113614 0 -0.091682611010439896 0.0063963380850077774 0 -0.10370969952600501 0.019997694726909911 0 -0.1180188049733784 0.030804183747700629 0 -0.098524362227562057 0.035744340183224317 0 -0.10370969952600501 0.019997694726909911 0 -0.10877227824827949 0.0075748546359299482 0 -0.091682611010439896 0.0063963380850077774 0 -0.1029392013539359 -0.0085751277431150782 0 -0.10877227824827949 0.0075748546359299482 0 -0.091682611010439896 0.0063963380850077774 0 -0.10370969952600501 0.019997694726909911 0 -0.10877227824827949 0.0075748546359299482 0 -0.11835839359799651 0.016938700943610479 0 -0.1029392013539359 -0.0085751277431150782 0 -0.12735709500343681 0.004015926865657337 0 -0.10877227824827949 0.0075748546359299482 0 -0.12735709500343681 0.004015926865657337 0 -0.10877227824827949 0.0075748546359299482 0 -0.11835839359799651 0.016938700943610479 0 -0.1339340902388827 0.022300844741854581 0 -0.11835839359799651 0.016938700943610479 0 -0.1180188049733784 0.030804183747700629 0 -0.10370969952600501 0.019997694726909911 0 -0.11835839359799651 0.016938700943610479 0 -0.1180188049733784 0.030804183747700629 0 -0.1180188049733784 0.030804183747700629 0 -0.1128457876968547 0.048091259023394652 0 -0.098524362227562057 0.035744340183224317 0 -0.13626681081840961 0.042829268155062397 0 -0.1128457876968547 0.048091259023394652 0 -0.13626681081840961 0.042829268155062397 0 -0.1180188049733784 0.030804183747700629 0 -0.1128457876968547 0.048091259023394652 0 -0.13626681081840961 0.042829268155062397 0 -0.1128457876968547 0.048091259023394652 0 -0.1248745965026067 0.059896082918310993 0 -0.10785209906359081 0.065371441260914459 0 -0.1128457876968547 0.048091259023394652 0 -0.1248745965026067 0.059896082918310993 0 -0.1128457876968547 0.048091259023394652 0 -0.089424764575299687 0.053353249891726941 0 -0.089923560922876636 0.068178037636278263 0 -0.10785209906359081 0.065371441260914459 0 -0.089424764575299687 0.053353249891726941 0 -0.10785209906359081 0.065371441260914459 0 -0.1128457876968547 0.048091259023394652 0 -0.089424764575299687 0.053353249891726941 0 -0.1128457876968547 0.048091259023394652 0 -0.098524362227562057 0.035744340183224317 0 -0.089424764575299687 0.053353249891726941 0 -0.098524362227562057 0.035744340183224317 0 -0.080687796874281473 0.038968286178477703 0 -0.08645931971955316 0.02325136753113614 0 -0.098524362227562057 0.035744340183224317 0 -0.080687796874281473 0.038968286178477703 0 -0.089424764575299687 0.053353249891726941 0 -0.080687796874281473 0.038968286178477703 0 -0.089424764575299687 0.053353249891726941 0 -0.083186879645449088 0.059889597987781727 0 -0.075164799511626648 0.065372869601281192 0 -0.080687796874281473 0.038968286178477703 0 -0.083186879645449088 0.059889597987781727 0 -0.089923560922876636 0.068178037636278263 0 -0.089424764575299687 0.053353249891726941 0 -0.083186879645449088 0.059889597987781727 0 -0.075164799511626648 0.065372869601281192 0 -0.080687796874281473 0.038968286178477703 0 -0.071303082845968715 0.053347503409362687 0 -0.075164799511626648 0.065372869601281192 0 -0.080687796874281473 0.038968286178477703 0 -0.075164799511626648 0.065372869601281192 0 -0.070406408885084593 0.061857930521202607 0 -0.071303082845968715 0.053347503409362687 0 -0.071303082845968715 0.053347503409362687 0 -0.064856269609628314 0.055117702274744398 0 -0.065400139349222536 0.045420728471107522 0 -0.070406408885084593 0.061857930521202607 0 -0.071303082845968715 0.053347503409362687 0 -0.064856269609628314 0.055117702274744398 0 -0.070406408885084593 0.061857930521202607 0 -0.064856269609628314 0.055117702274744398 0 -0.059815066152941319 0.061788281472960463 0 -0.080687796874281473 0.038968286178477703 0 -0.065400139349222536 0.045420728471107522 0 -0.063264057366842208 0.031259222641012697 0 -0.080687796874281473 0.038968286178477703 0 -0.063264057366842208 0.031259222641012697 0 -0.073460039823911166 0.024685388153665749 0 -0.080687796874281473 0.038968286178477703 0 -0.071303082845968715 0.053347503409362687 0 -0.065400139349222536 0.045420728471107522 0 -0.063264057366842208 0.031259222641012697 0 -0.073460039823911166 0.024685388153665749 0 -0.061440697951084179 0.017621877449499421 0 -0.073460039823911166 0.024685388153665749 0 -0.076769634387976737 0.01135693610240161 0 -0.061440697951084179 0.017621877449499421 0 -0.080687796874281473 0.038968286178477703 0 -0.073460039823911166 0.024685388153665749 0 -0.08645931971955316 0.02325136753113614 0 -0.073460039823911166 0.024685388153665749 0 -0.08645931971955316 0.02325136753113614 0 -0.076769634387976737 0.01135693610240161 0 -0.08645931971955316 0.02325136753113614 0 -0.091682611010439896 0.0063963380850077774 0 -0.076769634387976737 0.01135693610240161 0 -0.091682611010439896 0.0063963380850077774 0 -0.078933949510919491 0.00072378658541613432 0 -0.076769634387976737 0.01135693610240161 0 -0.086097875964997059 -0.0058870606910941042 0 -0.091682611010439896 0.0063963380850077774 0 -0.078933949510919491 0.00072378658541613432 0 -0.078933949510919491 0.00072378658541613432 0 -0.076769634387976737 0.01135693610240161 0 -0.068462160169621672 0.0025537029525893409 0 -0.068462160169621672 0.0025537029525893409 0 -0.057836245250817257 0.0062936453779614283 0 -0.061440697951084179 0.017621877449499421 0 -0.076769634387976737 0.01135693610240161 0 -0.068462160169621672 0.0025537029525893409 0 -0.061440697951084179 0.017621877449499421 0 -0.057836245250817257 0.0062936453779614283 0 -0.061440697951084179 0.017621877449499421 0 -0.042678209040760022 0.019440128409622049 0 -0.057836245250817257 0.0062936453779614283 0 -0.042678209040760022 0.019440128409622049 0 -0.044352522143416888 0.0050416822031405977 0 -0.063264057366842208 0.031259222641012697 0 -0.042678209040760022 0.019440128409622049 0 -0.05195897498334151 0.039592758420259042 0 -0.063264057366842208 0.031259222641012697 0 -0.061440697951084179 0.017621877449499421 0 -0.042678209040760022 0.019440128409622049 0 -0.042678209040760022 0.019440128409622049 0 -0.038256592764973757 0.039174794321751791 0 -0.042678209040760022 0.019440128409622049 0 -0.038256592764973757 0.039174794321751791 0 -0.027511467414372541 0.03001296694831072 0 -0.042678209040760022 0.019440128409622049 0 -0.028180513839983729 0.018098474401369 0 -0.027511467414372541 0.03001296694831072 0 -0.042678209040760022 0.019440128409622049 0 -0.032770024037711037 0.0084985419153508525 0 -0.028180513839983729 0.018098474401369 0 -0.032770024037711037 0.0084985419153508525 0 -0.03614709390981162 0.0015378833132510439 0 -0.044352522143416888 0.0050416822031405977 0 -0.029539197120254941 -0.00051038393964639519 0 -0.032770024037711037 0.0084985419153508525 0 -0.03614709390981162 0.0015378833132510439 0 -0.042678209040760022 0.019440128409622049 0 -0.032770024037711037 0.0084985419153508525 0 -0.044352522143416888 0.0050416822031405977 0 -0.042969512877196837 0.063698159366550891 0 -0.047980875447113908 0.056604040506729722 0 -0.052166049838275927 0.062310195238599278 0 -0.047980875447113908 0.056604040506729722 0 -0.052166049838275927 0.062310195238599278 0 -0.055804220694704088 0.051985500715961808 0 -0.064856269609628314 0.055117702274744398 0 -0.059815066152941319 0.061788281472960463 0 -0.055804220694704088 0.051985500715961808 0 -0.052166049838275927 0.062310195238599278 0 -0.059815066152941319 0.061788281472960463 0 -0.055804220694704088 0.051985500715961808 0 -0.064856269609628314 0.055117702274744398 0 -0.065400139349222536 0.045420728471107522 0 -0.055804220694704088 0.051985500715961808 0 -0.047980875447113908 0.056604040506729722 0 -0.055804220694704088 0.051985500715961808 0 -0.046350630683546529 0.050276175962098407 0 -0.055804220694704088 0.051985500715961808 0 -0.05195897498334151 0.039592758420259042 0 -0.046350630683546529 0.050276175962098407 0 -0.065400139349222536 0.045420728471107522 0 -0.055804220694704088 0.051985500715961808 0 -0.05195897498334151 0.039592758420259042 0 -0.065400139349222536 0.045420728471107522 0 -0.063264057366842208 0.031259222641012697 0 -0.05195897498334151 0.039592758420259042 0 -0.042678209040760022 0.019440128409622049 0 -0.05195897498334151 0.039592758420259042 0 -0.038256592764973757 0.039174794321751791 0 -0.05195897498334151 0.039592758420259042 0 -0.038256592764973757 0.039174794321751791 0 -0.046350630683546529 0.050276175962098407 0 -0.038256592764973757 0.039174794321751791 0 -0.033834976489186493 0.058909460233881362 0 -0.038256592764973757 0.039174794321751791 0 -0.038513274033404883 0.055407770980391423 0 -0.033834976489186493 0.058909460233881362 0 -0.038256592764973757 0.039174794321751791 0 -0.046350630683546529 0.050276175962098407 0 -0.038513274033404883 0.055407770980391423 0 -0.038256592764973757 0.039174794321751791 0 -0.033834976489186493 0.058909460233881362 0 -0.02879531395286377 0.050132256585483953 0 -0.046350630683546529 0.050276175962098407 0 -0.038513274033404883 0.055407770980391423 0 -0.042914570065583427 0.057802329486214707 0 -0.036732086871232597 0.066761861307427367 0 -0.033834976489186493 0.058909460233881362 0 -0.038907572144486188 0.060810532415041758 0 -0.038513274033404883 0.055407770980391423 0 -0.033834976489186493 0.058909460233881362 0 -0.038513274033404883 0.055407770980391423 0 -0.033834976489186493 0.058909460233881362 0 -0.038907572144486188 0.060810532415041758 0 -0.042969512877196837 0.063698159366550891 0 -0.038907572144486188 0.060810532415041758 0 -0.042914570065583427 0.057802329486214707 0 -0.038513274033404883 0.055407770980391423 0 -0.038907572144486188 0.060810532415041758 0 -0.042914570065583427 0.057802329486214707 0 -0.047980875447113908 0.056604040506729722 0 -0.046350630683546529 0.050276175962098407 0 -0.042914570065583427 0.057802329486214707 0 -0.042969512877196837 0.063698159366550891 0 -0.047980875447113908 0.056604040506729722 0 -0.042914570065583427 0.057802329486214707 0 -0.033834976489186493 0.058909460233881362 0 -0.01963881101933795 0.057650575484614511 0 -0.02879531395286377 0.050132256585483953 0 -0.01963881101933795 0.057650575484614511 0 -0.02879531395286377 0.050132256585483953 0 -0.02345087553795689 0.044794196301688183 0 -0.01963881101933795 0.057650575484614511 0 -0.02345087553795689 0.044794196301688183 0 -0.012175026131353321 0.050402421608982242 0 -0.02345087553795689 0.044794196301688183 0 -0.014695186475719159 0.0359408453649432 0 -0.012175026131353321 0.050402421608982242 0 -0.038256592764973757 0.039174794321751791 0 -0.02879531395286377 0.050132256585483953 0 -0.02345087553795689 0.044794196301688183 0 -0.038256592764973757 0.039174794321751791 0 -0.02345087553795689 0.044794196301688183 0 -0.027511467414372541 0.03001296694831072 0 -0.02345087553795689 0.044794196301688183 0 -0.014695186475719159 0.0359408453649432 0 -0.027511467414372541 0.03001296694831072 0 -0.014695186475719159 0.0359408453649432 0 -0.0023331541944977092 0.045311556235899067 0 0.00074240361007229996 0.028778475488121531 0 -0.014695186475719159 0.0359408453649432 0 -0.0023331541944977092 0.045311556235899067 0 -0.012175026131353321 0.050402421608982242 0 -0.0023331541944977092 0.045311556235899067 0 -0.012175026131353321 0.050402421608982242 0 0.00079413703044923156 0.058803151297745167 0 -0.012175026131353321 0.050402421608982242 0 -0.0089029190745683329 0.062319161291970238 0 0.00079413703044923156 0.058803151297745167 0 -0.01963881101933795 0.057650575484614511 0 -0.012175026131353321 0.050402421608982242 0 -0.0089029190745683329 0.062319161291970238 0 -0.021996997598287969 0.010981086364913869 0 -0.02112675760807068 0.0030512678310729521 0 -0.0083058662928979787 0.012079608812324741 0 -0.021996997598287969 0.010981086364913869 0 -0.01661374249992489 0.02103319015209278 0 -0.0083058662928979787 0.012079608812324741 0 -0.021996997598287969 0.010981086364913869 0 -0.02112675760807068 0.0030512678310729521 0 -0.02631380729169577 0.0053104208567875946 0 -0.029539197120254941 -0.00051038393964639519 0 -0.02112675760807068 0.0030512678310729521 0 -0.02631380729169577 0.0053104208567875946 0 -0.029539197120254941 -0.00051038393964639519 0 -0.032770024037711037 0.0084985419153508525 0 -0.02631380729169577 0.0053104208567875946 0 -0.032770024037711037 0.0084985419153508525 0 -0.021996997598287969 0.010981086364913869 0 -0.02631380729169577 0.0053104208567875946 0 -0.032770024037711037 0.0084985419153508525 0 -0.021996997598287969 0.010981086364913869 0 -0.028180513839983729 0.018098474401369 0 -0.028180513839983729 0.018098474401369 0 -0.027511467414372541 0.03001296694831072 0 -0.01661374249992489 0.02103319015209278 0 -0.014695186475719159 0.0359408453649432 0 -0.027511467414372541 0.03001296694831072 0 -0.01661374249992489 0.02103319015209278 0 -0.021996997598287969 0.010981086364913869 0 -0.028180513839983729 0.018098474401369 0 -0.01661374249992489 0.02103319015209278 0 -0.01661374249992489 0.02103319015209278 0 0.00074240361007229996 0.028778475488121531 0 -0.0083058662928979787 0.012079608812324741 0 0.0060294939382754481 0.01286563290641534 0 0.00074240361007229996 0.028778475488121531 0 -0.014695186475719159 0.0359408453649432 0 -0.01661374249992489 0.02103319015209278 0 0.00074240361007229996 0.028778475488121531 0 -0.0083058662928979787 0.012079608812324741 0 0.00074240361007229996 0.028778475488121531 0 -0.01661374249992489 0.02103319015209278 0 -0.0083058662928979787 0.012079608812324741 0 0.00074240361007229996 0.028778475488121531 0 -0.0072764121498596901 -0.0036325873431357339 0 -0.0083058662928979787 0.012079608812324741 0 0.0012074066645448821 -0.00065723147797176382 0 -0.0072764121498596901 -0.0036325873431357339 0 -0.013607688627124061 -0.00178224205395049 0 -0.0083058662928979787 0.012079608812324741 0 -0.017354136195868258 -0.0046192578634720229 0 -0.0083058662928979787 0.012079608812324741 0 -0.017354136195868258 -0.0046192578634720229 0 -0.013607688627124061 -0.00178224205395049 0 -0.0083058662928979787 0.012079608812324741 0 -0.0083058662928979787 0.012079608812324741 0 0.0060294939382754481 0.01286563290641534 0 0.0012074066645448821 -0.00065723147797176382 0 -0.017354136195868258 -0.0046192578634720229 0 -0.02112675760807068 0.0030512678310729521 0 -0.0083058662928979787 0.012079608812324741 0 0.0060294939382754481 0.01286563290641534 0 0.0012074066645448821 -0.00065723147797176382 0 0.01265631079038235 -0.01012693536007268 0 0.0060294939382754481 0.01286563290641534 0 0.020311547060899309 0.014329649790385431 0 0.01265631079038235 -0.01012693536007268 0 0.00074240361007229996 0.028778475488121531 0 0.015746539320639769 0.024046632949657649 0 0.022626785018342459 0.038544513255683338 0 0.0060294939382754481 0.01286563290641534 0 0.00074240361007229996 0.028778475488121531 0 0.015746539320639769 0.024046632949657649 0 0.0060294939382754481 0.01286563290641534 0 0.015746539320639769 0.024046632949657649 0 0.020311547060899309 0.014329649790385431 0 0.015746539320639769 0.024046632949657649 0 0.029022466975609298 0.02571489330768258 0 0.020311547060899309 0.014329649790385431 0 0.015746539320639769 0.024046632949657649 0 0.029022466975609298 0.02571489330768258 0 0.022626785018342459 0.038544513255683338 0 0.020311547060899309 0.014329649790385431 0 0.034885408484197772 0.0062912350017927032 0 0.01265631079038235 -0.01012693536007268 0 0.029022466975609298 0.02571489330768258 0 0.020311547060899309 0.014329649790385431 0 0.034885408484197772 0.0062912350017927032 0 0.00079413703044923156 0.058803151297745167 0 0.01366790099406239 0.052632887419703241 0 0.0065236609159091173 0.071671444604676282 0 -0.0023331541944977092 0.045311556235899067 0 0.00079413703044923156 0.058803151297745167 0 0.01366790099406239 0.052632887419703241 0 0.00074240361007229996 0.028778475488121531 0 0.01366790099406239 0.052632887419703241 0 0.022626785018342459 0.038544513255683338 0 0.00074240361007229996 0.028778475488121531 0 0.022626785018342459 0.038544513255683338 0 -0.0023331541944977092 0.045311556235899067 0 0.00074240361007229996 0.028778475488121531 0 0.01366790099406239 0.052632887419703241 0 0.00074240361007229996 0.028778475488121531 0 0.01366790099406239 0.052632887419703241 0 0.029022466975609298 0.02571489330768258 0 0.022626785018342459 0.038544513255683338 0 0.037630953216902623 0.033668105561091018 0 0.01366790099406239 0.052632887419703241 0 0.022626785018342459 0.038544513255683338 0 0.025434983742737761 0.055249644843112657 0 0.022626785018342459 0.038544513255683338 0 0.025434983742737761 0.055249644843112657 0 0.034616451435572633 0.051242168749322393 0 0.025434983742737761 0.055249644843112657 0 0.034062632092931817 0.061255223706808547 0 0.02703491536905472 0.067401080742933134 0 0.01366790099406239 0.052632887419703241 0 0.025434983742737761 0.055249644843112657 0 0.02703491536905472 0.067401080742933134 0 0.034616451435572633 0.051242168749322393 0 0.044511166426612833 0.04831055102324476 0 0.060132464308973767 0.062986029428160187 0 0.034616451435572633 0.051242168749322393 0 0.060132464308973767 0.062986029428160187 0 0.044258496001147778 0.063884183083345675 0 0.034062632092931817 0.061255223706808547 0 0.034616451435572633 0.051242168749322393 0 0.044258496001147778 0.063884183083345675 0 0.025434983742737761 0.055249644843112657 0 0.034062632092931817 0.061255223706808547 0 0.034616451435572633 0.051242168749322393 0 0.022626785018342459 0.038544513255683338 0 0.044511166426612833 0.04831055102324476 0 0.022626785018342459 0.038544513255683338 0 0.034616451435572633 0.051242168749322393 0 0.044511166426612833 0.04831055102324476 0 0.022626785018342459 0.038544513255683338 0 0.044511166426612833 0.04831055102324476 0 0.037630953216902623 0.033668105561091018 0 0.044511166426612833 0.04831055102324476 0 0.037630953216902623 0.033668105561091018 0 0.0484135161167236 0.034205204957136963 0 0.0484135161167236 0.034205204957136963 0 0.060669767880595721 0.038134724015348051 0 0.0518117103670514 0.042737821036878322 0 0.0484135161167236 0.034205204957136963 0 0.060669767880595721 0.038134724015348051 0 0.057623658326613529 0.02352368721002385 0 0.060669767880595721 0.038134724015348051 0 0.0518117103670514 0.042737821036878322 0 0.059559274975242667 0.047504887075434543 0 0.044511166426612833 0.04831055102324476 0 0.0518117103670514 0.042737821036878322 0 0.059559274975242667 0.047504887075434543 0 0.044511166426612833 0.04831055102324476 0 0.0484135161167236 0.034205204957136963 0 0.0518117103670514 0.042737821036878322 0 0.044511166426612833 0.04831055102324476 0 0.066395547834883203 0.05807658879080619 0 0.060132464308973767 0.062986029428160187 0 0.034616451435572633 0.051242168749322393 0 0.060132464308973767 0.062986029428160187 0 0.044511166426612833 0.04831055102324476 0 0.066395547834883203 0.05807658879080619 0 0.044511166426612833 0.04831055102324476 0 0.059559274975242667 0.047504887075434543 0 0.066395547834883203 0.05807658879080619 0 0.034885408484197772 0.0062912350017927032 0 0.052968053050369737 0.0090809173488315582 0 0.042517259973231587 -0.011683923625132649 0 0.034885408484197772 0.0062912350017927032 0 0.043580831547224863 0.021565365261707499 0 0.052968053050369737 0.0090809173488315582 0 0.029022466975609298 0.02571489330768258 0 0.034885408484197772 0.0062912350017927032 0 0.043580831547224863 0.021565365261707499 0 0.029022466975609298 0.02571489330768258 0 0.037630953216902623 0.033668105561091018 0 0.043580831547224863 0.021565365261707499 0 0.037630953216902623 0.033668105561091018 0 0.0484135161167236 0.034205204957136963 0 0.043580831547224863 0.021565365261707499 0 0.057623658326613529 0.02352368721002385 0 0.052968053050369737 0.0090809173488315582 0 0.071708216805815503 0.016768608491387289 0 0.043580831547224863 0.021565365261707499 0 0.057623658326613529 0.02352368721002385 0 0.052968053050369737 0.0090809173488315582 0 0.0484135161167236 0.034205204957136963 0 0.043580831547224863 0.021565365261707499 0 0.057623658326613529 0.02352368721002385 0 0.052968053050369737 0.0090809173488315582 0 0.071708216805815503 0.016768608491387289 0 0.067492943165135169 -0.0019794682467893379 0 0.083930998993742512 0.0059737405228527038 0 0.071708216805815503 0.016768608491387289 0 0.067492943165135169 -0.0019794682467893379 0 0.083930998993742512 0.0059737405228527038 0 0.098495163759696414 0.0029673617968291321 0 0.094917995650245529 0.021722354499223519 0 0.083930998993742512 0.0059737405228527038 0 0.071708216805815503 0.016768608491387289 0 0.094917995650245529 0.021722354499223519 0 0.071708216805815503 0.016768608491387289 0 0.07449934060461412 0.03258063005354956 0 0.094917995650245529 0.021722354499223519 0 0.07449934060461412 0.03258063005354956 0 0.087237150257314613 0.037926204838731957 0 0.094917995650245529 0.021722354499223519 0 0.057623658326613529 0.02352368721002385 0 0.071708216805815503 0.016768608491387289 0 0.07449934060461412 0.03258063005354956 0 0.060669767880595721 0.038134724015348051 0 0.057623658326613529 0.02352368721002385 0 0.07449934060461412 0.03258063005354956 0 0.060669767880595721 0.038134724015348051 0 0.069155187538762042 0.045022305850501279 0 0.07449934060461412 0.03258063005354956 0 0.060669767880595721 0.038134724015348051 0 0.059559274975242667 0.047504887075434543 0 0.069155187538762042 0.045022305850501279 0 0.069155187538762042 0.045022305850501279 0 0.07449934060461412 0.03258063005354956 0 0.079692196512252927 0.044953406994506007 0 0.059559274975242667 0.047504887075434543 0 0.069155187538762042 0.045022305850501279 0 0.067326156772233525 0.050603546620565112 0 0.059559274975242667 0.047504887075434543 0 0.066395547834883203 0.05807658879080619 0 0.067326156772233525 0.050603546620565112 0 0.066395547834883203 0.05807658879080619 0 0.067326156772233525 0.050603546620565112 0 0.074194616740046182 0.051810404765518438 0 0.069155187538762042 0.045022305850501279 0 0.067326156772233525 0.050603546620565112 0 0.074194616740046182 0.051810404765518438 0 0.069155187538762042 0.045022305850501279 0 0.074194616740046182 0.051810404765518438 0 0.079692196512252927 0.044953406994506007 0 0.066395547834883203 0.05807658879080619 0 0.074194616740046182 0.051810404765518438 0 0.080343143758095259 0.058335218209008277 0 0.066395547834883203 0.05807658879080619 0 0.080343143758095259 0.058335218209008277 0 0.08827992924315356 0.067842626558367619 0 0.080343143758095259 0.058335218209008277 0 0.083306510346727383 0.05351440315152866 0 0.090416084875221875 0.058235299142909973 0 0.074194616740046182 0.051810404765518438 0 0.083306510346727383 0.05351440315152866 0 0.079692196512252927 0.044953406994506007 0 0.083306510346727383 0.05351440315152866 0 0.089760373586053266 0.048866493307206167 0 0.079692196512252927 0.044953406994506007 0 0.074194616740046182 0.051810404765518438 0 0.080343143758095259 0.058335218209008277 0 0.083306510346727383 0.05351440315152866 0 0.083306510346727383 0.05351440315152866 0 0.089760373586053266 0.048866493307206167 0 0.090416084875221875 0.058235299142909973 0 0.089760373586053266 0.048866493307206167 0 0.090416084875221875 0.058235299142909973 0 0.099395501669828634 0.055681054702382278 0 0.080343143758095259 0.058335218209008277 0 0.090416084875221875 0.058235299142909973 0 0.08827992924315356 0.067842626558367619 0 0.087237150257314613 0.037926204838731957 0 0.098930039005792711 0.04227996871225087 0 0.094917995650245529 0.021722354499223519 0 0.07449934060461412 0.03258063005354956 0 0.079692196512252927 0.044953406994506007 0 0.087237150257314613 0.037926204838731957 0 0.089760373586053266 0.048866493307206167 0 0.079692196512252927 0.044953406994506007 0 0.087237150257314613 0.037926204838731957 0 0.089760373586053266 0.048866493307206167 0 0.087237150257314613 0.037926204838731957 0 0.098930039005792711 0.04227996871225087 0 0.10894092886672049 0.033503019923715648 0 0.098930039005792711 0.04227996871225087 0 0.11550376979223601 0.054551475820320147 0 0.10894092886672049 0.033503019923715648 0 0.098930039005792711 0.04227996871225087 0 0.094917995650245529 0.021722354499223519 0 0.098930039005792711 0.04227996871225087 0 0.099395501669828634 0.055681054702382278 0 0.11550376979223601 0.054551475820320147 0 0.099395501669828634 0.055681054702382278 0 0.11550376979223601 0.054551475820320147 0 0.10561354398445311 0.069921878226714862 0 0.090416084875221875 0.058235299142909973 0 0.099395501669828634 0.055681054702382278 0 0.095618088847860577 0.065038419849084594 0 0.089760373586053266 0.048866493307206167 0 0.098930039005792711 0.04227996871225087 0 0.099395501669828634 0.055681054702382278 0 0.10894092886672049 0.033503019923715648 0 0.11961069471150609 0.02296590295220987 0 0.12977361784467401 0.039215218793308727 0 0.10894092886672049 0.033503019923715648 0 0.11550376979223601 0.054551475820320147 0 0.12977361784467401 0.039215218793308727 0 0.11961069471150609 0.02296590295220987 0 0.1158546052028349 0.0064685721448778594 0 0.094917995650245529 0.021722354499223519 0 0.11961069471150609 0.02296590295220987 0 0.1158546052028349 0.0064685721448778594 0 0.13894824890776639 0.02136224913872127 0 0.1158546052028349 0.0064685721448778594 0 0.098495163759696414 0.0029673617968291321 0 0.094917995650245529 0.021722354499223519 0 0.10894092886672049 0.033503019923715648 0 0.11961069471150609 0.02296590295220987 0 0.094917995650245529 0.021722354499223519 0 0.097728221435088053 0.099184528615223033 0 0.110275064223293 0.10236359857942121 0 0.11116449005577619 0.086473750785835857 0 0.099894961061174667 0.1104201015940532 0 0.11150799601301251 0.1117412241471519 0 0.110275064223293 0.10236359857942121 0 0.097728221435088053 0.099184528615223033 0 0.099894961061174667 0.1104201015940532 0 0.110275064223293 0.10236359857942121 0 0.097728221435088053 0.099184528615223033 0 0.099894961061174667 0.1104201015940532 0 0.084925795867796111 0.1103515185161017 0 0.099894961061174667 0.1104201015940532 0 0.096984900528893664 0.1212489081817222 0 0.084925795867796111 0.1103515185161017 0 0.099894961061174667 0.1104201015940532 0 0.096984900528893664 0.1212489081817222 0 0.10712684862241641 0.1210429748963526 0 0.096984900528893664 0.1212489081817222 0 0.10712684862241641 0.1210429748963526 0 0.10589272808503949 0.13156516273042271 0 0.099894961061174667 0.1104201015940532 0 0.10712684862241641 0.1210429748963526 0 0.11150799601301251 0.1117412241471519 0 0.10712684862241641 0.1210429748963526 0 0.11150799601301251 0.1117412241471519 0 0.1187293914863337 0.1182846474287873 0 0.11150799601301251 0.1117412241471519 0 0.1187293914863337 0.1182846474287873 0 0.1197878353292403 0.1092484053650479 0 0.10712684862241641 0.1210429748963526 0 0.1187293914863337 0.1182846474287873 0 0.114987521205969 0.1268010028982309 0 0.1187293914863337 0.1182846474287873 0 0.12813823657366311 0.12049833089676459 0 0.12624189261331301 0.1140678077034443 0 0.1187293914863337 0.1182846474287873 0 0.12212988809696081 0.1249307776834532 0 0.12813823657366311 0.12049833089676459 0 0.1187293914863337 0.1182846474287873 0 0.12212988809696081 0.1249307776834532 0 0.114987521205969 0.1268010028982309 0 0.1187293914863337 0.1182846474287873 0 0.1197878353292403 0.1092484053650479 0 0.12624189261331301 0.1140678077034443 0 0.1216961693062274 0.1020981758197984 0 0.110275064223293 0.10236359857942121 0 0.11116449005577619 0.086473750785835857 0 0.1197878353292403 0.1092484053650479 0 0.1216961693062274 0.1020981758197984 0 0.1302764983332621 0.10693497851168419 0 0.1216961693062274 0.1020981758197984 0 0.11116449005577619 0.086473750785835857 0 0.13668050292917741 0.098217611464673699 0 0.1197878353292403 0.1092484053650479 0 0.1216961693062274 0.1020981758197984 0 0.110275064223293 0.10236359857942121 0 0.11150799601301251 0.1117412241471519 0 0.1197878353292403 0.1092484053650479 0 0.110275064223293 0.10236359857942121 0 0.11116449005577619 0.086473750785835857 0 0.1207366242219714 0.074251990558816788 0 0.1300820653953097 0.084166932106396392 0 0.11116449005577619 0.086473750785835857 0 0.13668050292917741 0.098217611464673699 0 0.11116449005577619 0.086473750785835857 0 0.1207366242219714 0.074251990558816788 0 0.10561354398445311 0.069921878226714862 0 0.11550376979223601 0.054551475820320147 0 0.1207366242219714 0.074251990558816788 0 0.13255022158949201 0.068763676371196639 0 0.11550376979223601 0.054551475820320147 0 0.1207366242219714 0.074251990558816788 0 0.10561354398445311 0.069921878226714862 0 0.11116449005577619 0.086473750785835857 0 0.10561354398445311 0.069921878226714862 0 0.085648477182374977 0.074729890106998029 0 0.10561354398445311 0.069921878226714862 0 0.095618088847860577 0.065038419849084594 0 0.085648477182374977 0.074729890106998029 0 0.099395501669828634 0.055681054702382278 0 0.10561354398445311 0.069921878226714862 0 0.095618088847860577 0.065038419849084594 0 0.11116449005577619 0.086473750785835857 0 0.085648477182374977 0.074729890106998029 0 0.11116449005577619 0.086473750785835857 0 0.090808031879269946 0.087622927320568048 0 0.085648477182374977 0.074729890106998029 0 0.097728221435088053 0.099184528615223033 0 0.11116449005577619 0.086473750785835857 0 0.090808031879269946 0.087622927320568048 0 0.097728221435088053 0.099184528615223033 0 0.090808031879269946 0.087622927320568048 0 0.080235742217082393 0.093435287859391092 0 0.090808031879269946 0.087622927320568048 0 0.078675001300488379 0.083882301042573534 0 0.085648477182374977 0.074729890106998029 0 0.090808031879269946 0.087622927320568048 0 0.078675001300488379 0.083882301042573534 0 0.080235742217082393 0.093435287859391092 0 0.066395547834883203 0.05807658879080619 0 0.08827992924315356 0.067842626558367619 0 0.085648477182374977 0.074729890106998029 0 0.095618088847860577 0.065038419849084594 0 0.08827992924315356 0.067842626558367619 0 0.085648477182374977 0.074729890106998029 0 0.090416084875221875 0.058235299142909973 0 0.095618088847860577 0.065038419849084594 0 0.08827992924315356 0.067842626558367619 0 0.066395547834883203 0.05807658879080619 0 0.085648477182374977 0.074729890106998029 0 0.060132464308973767 0.062986029428160187 0 0.066395547834883203 0.05807658879080619 0 0.08827992924315356 0.067842626558367619 0 0.085648477182374977 0.074729890106998029 0 0.068637102026180674 0.07792917868559901 0 0.060132464308973767 0.062986029428160187 0 0.085648477182374977 0.074729890106998029 0 0.060132464308973767 0.062986029428160187 0 0.078675001300488379 0.083882301042573534 0 0.085648477182374977 0.074729890106998029 0 0.068637102026180674 0.07792917868559901 0 0.080235742217082393 0.093435287859391092 0 0.069503799956795384 0.087722797055870286 0 0.068523875558259784 0.095111972458496966 0 0.078675001300488379 0.083882301042573534 0 0.080235742217082393 0.093435287859391092 0 0.069503799956795384 0.087722797055870286 0 0.078675001300488379 0.083882301042573534 0 0.068637102026180674 0.07792917868559901 0 0.069503799956795384 0.087722797055870286 0 0.068637102026180674 0.07792917868559901 0 0.069503799956795384 0.087722797055870286 0 0.060111091978902922 0.083782113849914977 0 0.069503799956795384 0.087722797055870286 0 0.06135777996986308 0.093915161513068182 0 0.060111091978902922 0.083782113849914977 0 0.069503799956795384 0.087722797055870286 0 0.068523875558259784 0.095111972458496966 0 0.06135777996986308 0.093915161513068182 0 0.068523875558259784 0.095111972458496966 0 0.071520258741129425 0.10189571548122769 0 0.062413973273008162 0.1018934272394761 0 0.068523875558259784 0.095111972458496966 0 0.062413973273008162 0.1018934272394761 0 0.06135777996986308 0.093915161513068182 0 0.071520258741129425 0.10189571548122769 0 0.072821304814728441 0.1108529925529516 0 0.063718101814298073 0.11016590081819259 0 0.071520258741129425 0.10189571548122769 0 0.063718101814298073 0.11016590081819259 0 0.062413973273008162 0.1018934272394761 0 0.071520258741129425 0.10189571548122769 0 0.084925795867796111 0.1103515185161017 0 0.072821304814728441 0.1108529925529516 0 0.080235742217082393 0.093435287859391092 0 0.068523875558259784 0.095111972458496966 0 0.071520258741129425 0.10189571548122769 0 0.097728221435088053 0.099184528615223033 0 0.080235742217082393 0.093435287859391092 0 0.084925795867796111 0.1103515185161017 0 0.080235742217082393 0.093435287859391092 0 0.071520258741129425 0.10189571548122769 0 0.084925795867796111 0.1103515185161017 0 0.084925795867796111 0.1103515185161017 0 0.074154959480044275 0.1204842858357125 0 0.087075880893963842 0.12621803440601359 0 0.096984900528893664 0.1212489081817222 0 0.084925795867796111 0.1103515185161017 0 0.087075880893963842 0.12621803440601359 0 0.084925795867796111 0.1103515185161017 0 0.074154959480044275 0.1204842858357125 0 0.072821304814728441 0.1108529925529516 0 0.074154959480044275 0.1204842858357125 0 0.072821304814728441 0.1108529925529516 0 0.063718101814298073 0.11016590081819259 0 0.074154959480044275 0.1204842858357125 0 0.063718101814298073 0.11016590081819259 0 0.060124536552058239 0.11864948812996751 0 0.074154959480044275 0.1204842858357125 0 0.060124536552058239 0.11864948812996751 0 0.061109117960118017 0.12720913792676911 0 0.060124536552058239 0.11864948812996751 0 0.052595679859244633 0.1236025024456274 0 0.054913207086597561 0.11271600588853189 0 0.060124536552058239 0.11864948812996751 0 0.052595679859244633 0.1236025024456274 0 0.061109117960118017 0.12720913792676911 0 0.052595679859244633 0.1236025024456274 0 0.054913207086597561 0.11271600588853189 0 0.046771683079868627 0.1089772416004138 0 0.063718101814298073 0.11016590081819259 0 0.060124536552058239 0.11864948812996751 0 0.054913207086597561 0.11271600588853189 0 0.063718101814298073 0.11016590081819259 0 0.062413973273008162 0.1018934272394761 0 0.053620768430252298 0.1031656988462608 0 0.063718101814298073 0.11016590081819259 0 0.054913207086597561 0.11271600588853189 0 0.053620768430252298 0.1031656988462608 0 0.06135777996986308 0.093915161513068182 0 0.053620768430252298 0.1031656988462608 0 0.051535176025136201 0.090416251810209708 0 0.062413973273008162 0.1018934272394761 0 0.06135777996986308 0.093915161513068182 0 0.053620768430252298 0.1031656988462608 0 0.053620768430252298 0.1031656988462608 0 0.042875633238578528 0.09739353282270094 0 0.051535176025136201 0.090416251810209708 0 0.053620768430252298 0.1031656988462608 0 0.046771683079868627 0.1089772416004138 0 0.042875633238578528 0.09739353282270094 0 0.054913207086597561 0.11271600588853189 0 0.053620768430252298 0.1031656988462608 0 0.046771683079868627 0.1089772416004138 0 0.046771683079868627 0.1089772416004138 0 0.042875633238578528 0.09739353282270094 0 0.034382595390138257 0.1099700727945534 0 0.042875633238578528 0.09739353282270094 0 0.034382595390138257 0.1099700727945534 0 0.030708755379597181 0.088685576768743155 0 0.034382595390138257 0.1099700727945534 0 0.030708755379597181 0.088685576768743155 0 0.052595679859244633 0.1236025024456274 0 0.046771683079868627 0.1089772416004138 0 0.034382595390138257 0.1099700727945534 0 0.034382595390138257 0.1099700727945534 0 0.02520709702204247 0.1232263280856261 0 0.037354296692750887 0.12718670835402709 0 0.052595679859244633 0.1236025024456274 0 0.034382595390138257 0.1099700727945534 0 0.037354296692750887 0.12718670835402709 0 0.034382595390138257 0.1099700727945534 0 0.037354296692750887 0.12718670835402709 0 0.052595679859244633 0.1236025024456274 0 0.034382595390138257 0.1099700727945534 0 0.060132464308973767 0.062986029428160187 0 0.051537231586459821 0.0703604747810012 0 0.044258496001147778 0.063884183083345675 0 0.051537231586459821 0.0703604747810012 0 0.045053238281461433 0.071665999821029613 0 0.044258496001147778 0.063884183083345675 0 0.060132464308973767 0.062986029428160187 0 0.058160070023191839 0.074213970699792686 0 0.051537231586459821 0.0703604747810012 0 0.068637102026180674 0.07792917868559901 0 0.060132464308973767 0.062986029428160187 0 0.058160070023191839 0.074213970699792686 0 0.051537231586459821 0.0703604747810012 0 0.049495561811348857 0.078896267932753172 0 0.045053238281461433 0.071665999821029613 0 0.058160070023191839 0.074213970699792686 0 0.051537231586459821 0.0703604747810012 0 0.049495561811348857 0.078896267932753172 0 0.049495561811348857 0.078896267932753172 0 0.051535176025136201 0.090416251810209708 0 0.041750220721871581 0.085344735896560275 0 0.049495561811348857 0.078896267932753172 0 0.060111091978902922 0.083782113849914977 0 0.051535176025136201 0.090416251810209708 0 0.068637102026180674 0.07792917868559901 0 0.058160070023191839 0.074213970699792686 0 0.060111091978902922 0.083782113849914977 0 0.058160070023191839 0.074213970699792686 0 0.049495561811348857 0.078896267932753172 0 0.060111091978902922 0.083782113849914977 0 0.06135777996986308 0.093915161513068182 0 0.060111091978902922 0.083782113849914977 0 0.051535176025136201 0.090416251810209708 0 0.042875633238578528 0.09739353282270094 0 0.051535176025136201 0.090416251810209708 0 0.041750220721871581 0.085344735896560275 0 0.042875633238578528 0.09739353282270094 0 0.041750220721871581 0.085344735896560275 0 0.030708755379597181 0.088685576768743155 0 0.041750220721871581 0.085344735896560275 0 0.037489048909448763 0.07466528487264068 0 0.030708755379597181 0.088685576768743155 0 0.049495561811348857 0.078896267932753172 0 0.041750220721871581 0.085344735896560275 0 0.037489048909448763 0.07466528487264068 0 0.037489048909448763 0.07466528487264068 0 0.02703491536905472 0.067401080742933134 0 0.030708755379597181 0.088685576768743155 0 0.049495561811348857 0.078896267932753172 0 0.045053238281461433 0.071665999821029613 0 0.037489048909448763 0.07466528487264068 0 0.045053238281461433 0.071665999821029613 0 0.037489048909448763 0.07466528487264068 0 0.037579666130808903 0.067774354445351542 0 0.034062632092931817 0.061255223706808547 0 0.037579666130808903 0.067774354445351542 0 0.02703491536905472 0.067401080742933134 0 0.037489048909448763 0.07466528487264068 0 0.037579666130808903 0.067774354445351542 0 0.02703491536905472 0.067401080742933134 0 0.034062632092931817 0.061255223706808547 0 0.037579666130808903 0.067774354445351542 0 0.044258496001147778 0.063884183083345675 0 0.045053238281461433 0.071665999821029613 0 0.037579666130808903 0.067774354445351542 0 0.044258496001147778 0.063884183083345675 0 0.02703491536905472 0.067401080742933134 0 0.030708755379597181 0.088685576768743155 0 0.01366790099406239 0.052632887419703241 0 0.026593398378051959 0.076487299351285121 0 0.01366790099406239 0.052632887419703241 0 0.02703491536905472 0.067401080742933134 0 0.026593398378051959 0.076487299351285121 0 0.02703491536905472 0.067401080742933134 0 0.026593398378051959 0.076487299351285121 0 0.030708755379597181 0.088685576768743155 0 0.01366790099406239 0.052632887419703241 0 0.026593398378051959 0.076487299351285121 0 0.01611389888654503 0.070322973248010373 0 0.026593398378051959 0.076487299351285121 0 0.01611389888654503 0.070322973248010373 0 0.01767063525815666 0.080500261616376856 0 0.01767063525815666 0.080500261616376856 0 0.030708755379597181 0.088685576768743155 0 0.011643404763696401 0.092949868607662828 0 0.026593398378051959 0.076487299351285121 0 0.01767063525815666 0.080500261616376856 0 0.030708755379597181 0.088685576768743155 0 0.01767063525815666 0.080500261616376856 0 0.011643404763696401 0.092949868607662828 0 0.0065236609159091173 0.071671444604676282 0 -0.01109578586274463 0.07592966442077155 0 0.011643404763696401 0.092949868607662828 0 0.0065236609159091173 0.071671444604676282 0 -0.01109578586274463 0.07592966442077155 0 0.011643404763696401 0.092949868607662828 0 0.01366790099406239 0.052632887419703241 0 0.01611389888654503 0.070322973248010373 0 0.0065236609159091173 0.071671444604676282 0 0.01611389888654503 0.070322973248010373 0 0.01767063525815666 0.080500261616376856 0 0.0065236609159091173 0.071671444604676282 0 -0.0031702267477386531 0.067180855403790804 0 0.00079413703044923156 0.058803151297745167 0 0.0065236609159091173 0.071671444604676282 0 0.034382595390138257 0.1099700727945534 0 0.02520709702204247 0.1232263280856261 0 0.01356063639681436 0.11371506303709419 0 0.02520709702204247 0.1232263280856261 0 0.01356063639681436 0.11371506303709419 0 0.011098566836083609 0.13484946890849181 0 0.034382595390138257 0.1099700727945534 0 0.011643404763696401 0.092949868607662828 0 0.01356063639681436 0.11371506303709419 0 0.034382595390138257 0.1099700727945534 0 0.011643404763696401 0.092949868607662828 0 0.034382595390138257 0.1099700727945534 0 0.030708755379597181 0.088685576768743155 0 0.011643404763696401 0.092949868607662828 0 -0.0040088977147468936 0.097024336429998151 0 0.011643404763696401 0.092949868607662828 0 0.0025937760044158291 0.1064596481343341 0 0.011643404763696401 0.092949868607662828 0 0.0025937760044158291 0.1064596481343341 0 0.01356063639681436 0.11371506303709419 0 -0.007175360702145514 0.1155930690216506 0 0.0025937760044158291 0.1064596481343341 0 0.01356063639681436 0.11371506303709419 0 -0.007175360702145514 0.1155930690216506 0 0.01356063639681436 0.11371506303709419 0 0.011098566836083609 0.13484946890849181 0 -0.007175360702145514 0.1155930690216506 0 0.011098566836083609 0.13484946890849181 0 0.02520709702204247 0.1232263280856261 0 0.011098566836083609 0.13484946890849181 0 0.028759663239593541 0.13617761485890201 0 0.02520709702204247 0.1232263280856261 0 0.028759663239593541 0.13617761485890201 0 0.037354296692750887 0.12718670835402709 0 0.011098566836083609 0.13484946890849181 0 0.029372494374312729 0.15410586879533311 0 0.013538337341477229 0.1636201682865295 0 0.011098566836083609 0.13484946890849181 0 0.028759663239593541 0.13617761485890201 0 0.029372494374312729 0.15410586879533311 0 0.011098566836083609 0.13484946890849181 0 0.029372494374312729 0.15410586879533311 0 -0.0048034666842798916 0.1614245706846468 0 0.011098566836083609 0.13484946890849181 0 0.013538337341477229 0.1636201682865295 0 -0.0057956805663459468 0.1892940575843915 0 -0.0048034666842798916 0.1614245706846468 0 0.013538337341477229 0.1636201682865295 0 -0.0057956805663459468 0.1892940575843915 0 0.013538337341477229 0.1636201682865295 0 0.020045678312652242 0.18090880435863019 0 -0.0057956805663459468 0.1892940575843915 0 0.020045678312652242 0.18090880435863019 0 0.029372494374312729 0.15410586879533311 0 0.013538337341477229 0.1636201682865295 0 0.020045678312652242 0.18090880435863019 0 0.029372494374312729 0.15410586879533311 0 0.045887037191650451 0.17252355113286891 0 0.04813315871709322 0.1541455757588851 0 0.029372494374312729 0.15410586879533311 0 0.020045678312652242 0.18090880435863019 0 0.045887037191650451 0.17252355113286891 0 0.020045678312652242 0.18090880435863019 0 0.045887037191650451 0.17252355113286891 0 0.020045678312652242 0.18090880435863019 0 0.045887037191650451 0.17252355113286891 0 0.041991232206495782 0.1919910870650737 0 0.045887037191650451 0.17252355113286891 0 0.060802696405823108 0.1787365445376432 0 0.041991232206495782 0.1919910870650737 0 0.045887037191650451 0.17252355113286891 0 0.071728396070648653 0.1641382979071076 0 0.045887037191650451 0.17252355113286891 0 0.060802696405823108 0.1787365445376432 0 0.071728396070648653 0.1641382979071076 0 0.045887037191650451 0.17252355113286891 0 0.059657673584757237 0.15824269734654939 0 0.04813315871709322 0.1541455757588851 0 0.045887037191650451 0.17252355113286891 0 0.059657673584757237 0.15824269734654939 0 0.071728396070648653 0.1641382979071076 0 0.059657673584757237 0.15824269734654939 0 0.04813315871709322 0.1541455757588851 0 0.060329678829100349 0.1474246815113264 0 0.04813315871709322 0.1541455757588851 0 0.050215372913412007 0.1458935282758238 0 0.060329678829100349 0.1474246815113264 0 0.050215372913412007 0.1458935282758238 0 0.060329678829100349 0.1474246815113264 0 0.052072656112092337 0.13760051191958289 0 0.050215372913412007 0.1458935282758238 0 0.052072656112092337 0.13760051191958289 0 0.040325997995362128 0.14440334391350099 0 0.060329678829100349 0.1474246815113264 0 0.062159468211553673 0.13737243366585769 0 0.052072656112092337 0.13760051191958289 0 0.062159468211553673 0.13737243366585769 0 0.054733357378362921 0.13083888414419281 0 0.052072656112092337 0.13760051191958289 0 0.052595679859244633 0.1236025024456274 0 0.054733357378362921 0.13083888414419281 0 0.061109117960118017 0.12720913792676911 0 0.062159468211553673 0.13737243366585769 0 0.054733357378362921 0.13083888414419281 0 0.061109117960118017 0.12720913792676911 0 0.052595679859244633 0.1236025024456274 0 0.054733357378362921 0.13083888414419281 0 0.046346625143134958 0.1312929959830558 0 0.054733357378362921 0.13083888414419281 0 0.052072656112092337 0.13760051191958289 0 0.046346625143134958 0.1312929959830558 0 0.037354296692750887 0.12718670835402709 0 0.040325997995362128 0.14440334391350099 0 0.046346625143134958 0.1312929959830558 0 0.037354296692750887 0.12718670835402709 0 0.040325997995362128 0.14440334391350099 0 0.028759663239593541 0.13617761485890201 0 0.037354296692750887 0.12718670835402709 0 0.040325997995362128 0.14440334391350099 0 0.052072656112092337 0.13760051191958289 0 0.046346625143134958 0.1312929959830558 0 0.040325997995362128 0.14440334391350099 0 0.052595679859244633 0.1236025024456274 0 0.046346625143134958 0.1312929959830558 0 0.037354296692750887 0.12718670835402709 0 0.028759663239593541 0.13617761485890201 0 0.029372494374312729 0.15410586879533311 0 0.040325997995362128 0.14440334391350099 0 0.029372494374312729 0.15410586879533311 0 0.04813315871709322 0.1541455757588851 0 0.040325997995362128 0.14440334391350099 0 0.04813315871709322 0.1541455757588851 0 0.050215372913412007 0.1458935282758238 0 0.040325997995362128 0.14440334391350099 0 0.025149977659741599 0.24684982625080901 0 0.00014186162909880781 0.2338185852574263 0 0.02177620002751179 0.22559840920251981 0 0.025149977659741599 0.24684982625080901 0 0.00014186162909880781 0.2338185852574263 0 0.025149977659741599 0.24684982625080901 0 0.00014186162909880781 0.2338185852574263 0 0.0073806355134042019 0.25529449578482938 0 0.00014186162909880781 0.2338185852574263 0 0.02177620002751179 0.22559840920251981 0 0.0090806704795409685 0.20996839310177981 0 0.025149977659741599 0.24684982625080901 0 0.02177620002751179 0.22559840920251981 0 0.039960986899899173 0.22780444499479169 0 0.02177620002751179 0.22559840920251981 0 0.0090806704795409685 0.20996839310177981 0 0.034547503469278373 0.20955079640779209 0 0.0090806704795409685 0.20996839310177981 0 0.02162293693503077 0.1981024475624624 0 0.034547503469278373 0.20955079640779209 0 -0.0057956805663459468 0.1892940575843915 0 0.0090806704795409685 0.20996839310177981 0 0.02162293693503077 0.1981024475624624 0 -0.0057956805663459468 0.1892940575843915 0 0.020045678312652242 0.18090880435863019 0 0.02162293693503077 0.1981024475624624 0 0.020045678312652242 0.18090880435863019 0 0.02162293693503077 0.1981024475624624 0 0.041991232206495782 0.1919910870650737 0 0.02162293693503077 0.1981024475624624 0 0.041991232206495782 0.1919910870650737 0 0.034547503469278373 0.20955079640779209 0 0.041991232206495782 0.1919910870650737 0 0.05849467095877426 0.1965416733816682 0 0.050764695011206777 0.20916964222725651 0 0.060802696405823108 0.1787365445376432 0 0.041991232206495782 0.1919910870650737 0 0.05849467095877426 0.1965416733816682 0 0.050764695011206777 0.20916964222725651 0 0.066981886553135278 0.20878848804672309 0 0.05849467095877426 0.1965416733816682 0 0.050764695011206777 0.20916964222725651 0 0.066981886553135278 0.20878848804672309 0 0.050764695011206777 0.20916964222725651 0 0.061514006406540499 0.23071042489022231 0 0.066981886553135278 0.20878848804672309 0 0.050764695011206777 0.20916964222725651 0 0.034547503469278373 0.20955079640779209 0 0.039960986899899173 0.22780444499479169 0 0.050764695011206777 0.20916964222725651 0 0.034547503469278373 0.20955079640779209 0 0.041991232206495782 0.1919910870650737 0 0.050764695011206777 0.20916964222725651 0 0.034547503469278373 0.20955079640779209 0 0.02177620002751179 0.22559840920251981 0 0.034547503469278373 0.20955079640779209 0 0.039960986899899173 0.22780444499479169 0 0.039960986899899173 0.22780444499479169 0 0.061514006406540499 0.23071042489022231 0 0.045472231705318063 0.24424317023843681 0 0.050764695011206777 0.20916964222725651 0 0.039960986899899173 0.22780444499479169 0 0.061514006406540499 0.23071042489022231 0 0.061514006406540499 0.23071042489022231 0 0.056046126259945157 0.25263236173372139 0 0.061514006406540499 0.23071042489022231 0 0.056046126259945157 0.25263236173372139 0 0.067905867336300579 0.25358800162702 0 0.061514006406540499 0.23071042489022231 0 0.045472231705318063 0.24424317023843681 0 0.056046126259945157 0.25263236173372139 0 0.025149977659741599 0.24684982625080901 0 0.039960986899899173 0.22780444499479169 0 0.045472231705318063 0.24424317023843681 0 0.092857250133516089 0.24175825718487831 0 0.078525547080241467 0.2465942846531784 0 0.093798877441032588 0.2579700649065903 0 0.092857250133516089 0.24175825718487831 0 0.078525547080241467 0.2465942846531784 0 0.081986142109724491 0.22560265144644431 0 0.061514006406540499 0.23071042489022231 0 0.078525547080241467 0.2465942846531784 0 0.067905867336300579 0.25358800162702 0 0.061514006406540499 0.23071042489022231 0 0.078525547080241467 0.2465942846531784 0 0.081986142109724491 0.22560265144644431 0 0.061514006406540499 0.23071042489022231 0 0.081986142109724491 0.22560265144644431 0 0.066981886553135278 0.20878848804672309 0 0.061514006406540499 0.23071042489022231 0 0.066981886553135278 0.20878848804672309 0 0.081986142109724491 0.22560265144644431 0 0.09236794217301933 0.20819183719001669 0 0.066981886553135278 0.20878848804672309 0 0.09236794217301933 0.20819183719001669 0 0.066981886553135278 0.20878848804672309 0 0.09236794217301933 0.20819183719001669 0 0.066981886553135278 0.20878848804672309 0 0.071445073857882777 0.19089458628000441 0 0.060802696405823108 0.1787365445376432 0 0.05849467095877426 0.1965416733816682 0 0.071445073857882777 0.19089458628000441 0 0.066981886553135278 0.20878848804672309 0 0.071445073857882777 0.19089458628000441 0 0.05849467095877426 0.1965416733816682 0 0.066981886553135278 0.20878848804672309 0 0.071445073857882777 0.19089458628000441 0 0.09236794217301933 0.20819183719001669 0 0.071445073857882777 0.19089458628000441 0 0.086464584236575506 0.1862285865309723 0 0.09236794217301933 0.20819183719001669 0 0.086464584236575506 0.1862285865309723 0 0.1023855527362314 0.18749689463882899 0 0.09236794217301933 0.20819183719001669 0 0.11775399779290339 0.20759518633331239 0 0.1023855527362314 0.18749689463882899 0 0.11775399779290339 0.20759518633331239 0 0.1023855527362314 0.18749689463882899 0 0.12550986450034471 0.186594373040398 0 0.09236794217301933 0.20819183719001669 0 0.11775399779290339 0.20759518633331239 0 0.09236794217301933 0.20819183719001669 0 0.11775399779290339 0.20759518633331239 0 0.10906069526472741 0.22998953009969161 0 0.092857250133516089 0.24175825718487831 0 0.081986142109724491 0.22560265144644431 0 0.10906069526472741 0.22998953009969161 0 0.081986142109724491 0.22560265144644431 0 0.09236794217301933 0.20819183719001669 0 0.10906069526472741 0.22998953009969161 0 0.11775399779290339 0.20759518633331239 0 0.10906069526472741 0.22998953009969161 0 0.1382648444377183 0.22719855966067881 0 0.10906069526472741 0.22998953009969161 0 0.12787711237058769 0.24521089126939841 0 0.1100607559553454 0.25396994184181759 0 0.092857250133516089 0.24175825718487831 0 0.10906069526472741 0.22998953009969161 0 0.1100607559553454 0.25396994184181759 0 0.081151633673542972 0.15313158297098389 0 0.083920606388658545 0.14050817004821939 0 0.0975697549496468 0.15575304468134629 0 0.081151633673542972 0.15313158297098389 0 0.083920606388658545 0.14050817004821939 0 0.071387777285217918 0.15212681924726251 0 0.074154959480044275 0.1204842858357125 0 0.087075880893963842 0.12621803440601359 0 0.083920606388658545 0.14050817004821939 0 0.087075880893963842 0.12621803440601359 0 0.083920606388658545 0.14050817004821939 0 0.097906888154765004 0.1362305538396491 0 0.062159468211553673 0.13737243366585769 0 0.061109117960118017 0.12720913792676911 0 0.083920606388658545 0.14050817004821939 0 0.074154959480044275 0.1204842858357125 0 0.061109117960118017 0.12720913792676911 0 0.083920606388658545 0.14050817004821939 0 0.061109117960118017 0.12720913792676911 0 0.083920606388658545 0.14050817004821939 0 0.062159468211553673 0.13737243366585769 0 0.083920606388658545 0.14050817004821939 0 0.069449382678632612 0.1443580261181665 0 0.060329678829100349 0.1474246815113264 0 0.062159468211553673 0.13737243366585769 0 0.069449382678632612 0.1443580261181665 0 0.060329678829100349 0.1474246815113264 0 0.069449382678632612 0.1443580261181665 0 0.071387777285217918 0.15212681924726251 0 0.083920606388658545 0.14050817004821939 0 0.069449382678632612 0.1443580261181665 0 0.071387777285217918 0.15212681924726251 0 0.059657673584757237 0.15824269734654939 0 0.060329678829100349 0.1474246815113264 0 0.071387777285217918 0.15212681924726251 0 0.059657673584757237 0.15824269734654939 0 0.071387777285217918 0.15212681924726251 0 0.071728396070648653 0.1641382979071076 0 0.081151633673542972 0.15313158297098389 0 0.071387777285217918 0.15212681924726251 0 0.071728396070648653 0.1641382979071076 0 0.071445073857882777 0.19089458628000441 0 0.075908261162629706 0.17300068451328551 0 0.086464584236575506 0.1862285865309723 0 0.060802696405823108 0.1787365445376432 0 0.071445073857882777 0.19089458628000441 0 0.075908261162629706 0.17300068451328551 0 0.071445073857882777 0.19089458628000441 0 0.075908261162629706 0.17300068451328551 0 0.060802696405823108 0.1787365445376432 0 0.071728396070648653 0.1641382979071076 0 0.075908261162629706 0.17300068451328551 0 0.086464584236575506 0.1862285865309723 0 0.090216091253114361 0.17155893003272579 0 0.1023855527362314 0.18749689463882899 0 0.075908261162629706 0.17300068451328551 0 0.086464584236575506 0.1862285865309723 0 0.090216091253114361 0.17155893003272579 0 0.081151633673542972 0.15313158297098389 0 0.071728396070648653 0.1641382979071076 0 0.0975697549496468 0.15575304468134629 0 0.071728396070648653 0.1641382979071076 0 0.090216091253114361 0.17155893003272579 0 0.0975697549496468 0.15575304468134629 0 0.071728396070648653 0.1641382979071076 0 0.075908261162629706 0.17300068451328551 0 0.090216091253114361 0.17155893003272579 0 0.071728396070648653 0.1641382979071076 0 0.0975697549496468 0.15575304468134629 0 0.090216091253114361 0.17155893003272579 0 0.1064810698159025 0.16893633516972181 0 0.0975697549496468 0.15575304468134629 0 0.1064810698159025 0.16893633516972181 0 0.1067320948171991 0.1538072021696697 0 0.0975697549496468 0.15575304468134629 0 0.090216091253114361 0.17155893003272579 0 0.1064810698159025 0.16893633516972181 0 0.1023855527362314 0.18749689463882899 0 0.1064810698159025 0.16893633516972181 0 0.12954358324573961 0.16710623429112001 0 0.12550986450034471 0.186594373040398 0 0.1064810698159025 0.16893633516972181 0 0.1023855527362314 0.18749689463882899 0 0.12550986450034471 0.186594373040398 0 0.1064810698159025 0.16893633516972181 0 0.1067320948171991 0.1538072021696697 0 0.12954358324573961 0.16710623429112001 0 0.1067320948171991 0.1538072021696697 0 0.1262856736452258 0.1537478882528979 0 0.12954358324573961 0.16710623429112001 0 0.1067320948171991 0.1538072021696697 0 0.12954358324573961 0.16710623429112001 0 0.1148569119608701 0.14824987142416859 0 0.1067320948171991 0.1538072021696697 0 0.1262856736452258 0.1537478882528979 0 0.118317888191051 0.14254191757659121 0 0.1148569119608701 0.14824987142416859 0 0.1262856736452258 0.1537478882528979 0 0.118317888191051 0.14254191757659121 0 0.12756241452120801 0.13893694775055651 0 0.1262856736452258 0.1537478882528979 0 0.1148569119608701 0.14824987142416859 0 0.1067320948171991 0.1538072021696697 0 0.1080919911900045 0.14290247769751591 0 0.118317888191051 0.14254191757659121 0 0.1148569119608701 0.14824987142416859 0 0.1080919911900045 0.14290247769751591 0 0.083920606388658545 0.14050817004821939 0 0.1067320948171991 0.1538072021696697 0 0.1067320948171991 0.1538072021696697 0 0.1080919911900045 0.14290247769751591 0 0.097906888154765004 0.1362305538396491 0 0.083920606388658545 0.14050817004821939 0 0.1067320948171991 0.1538072021696697 0 0.097906888154765004 0.1362305538396491 0 0.083920606388658545 0.14050817004821939 0 0.1067320948171991 0.1538072021696697 0 0.0975697549496468 0.15575304468134629 0 0.096984900528893664 0.1212489081817222 0 0.097906888154765004 0.1362305538396491 0 0.10589272808503949 0.13156516273042271 0 0.096984900528893664 0.1212489081817222 0 0.087075880893963842 0.12621803440601359 0 0.097906888154765004 0.1362305538396491 0 0.1080919911900045 0.14290247769751591 0 0.097906888154765004 0.1362305538396491 0 0.10589272808503949 0.13156516273042271 0 0.1080919911900045 0.14290247769751591 0 0.10589272808503949 0.13156516273042271 0 0.11327312463209829 0.13597294690712769 0 0.10712684862241641 0.1210429748963526 0 0.10589272808503949 0.13156516273042271 0 0.114987521205969 0.1268010028982309 0 0.10589272808503949 0.13156516273042271 0 0.114987521205969 0.1268010028982309 0 0.11327312463209829 0.13597294690712769 0 0.114987521205969 0.1268010028982309 0 0.11327312463209829 0.13597294690712769 0 0.1203000125167645 0.13336293759413789 0 0.118317888191051 0.14254191757659121 0 0.1080919911900045 0.14290247769751591 0 0.11327312463209829 0.13597294690712769 0 0.118317888191051 0.14254191757659121 0 0.1203000125167645 0.13336293759413789 0 0.12756241452120801 0.13893694775055651 0 0.118317888191051 0.14254191757659121 0 0.11327312463209829 0.13597294690712769 0 0.1203000125167645 0.13336293759413789 0 0.12212988809696081 0.1249307776834532 0 0.114987521205969 0.1268010028982309 0 0.1203000125167645 0.13336293759413789 0 0.12212988809696081 0.1249307776834532 0 0.1203000125167645 0.13336293759413789 0 0.12788127083107459 0.1291064789800366 0 0.12788127083107459 0.1291064789800366 0 0.13409394305489639 0.1257339851238449 0 0.12813823657366311 0.12049833089676459 0 0.12788127083107459 0.1291064789800366 0 0.13410827310584911 0.13282331674432049 0 0.13409394305489639 0.1257339851238449 0 0.12788127083107459 0.1291064789800366 0 0.12756241452120801 0.13893694775055651 0 0.13410827310584911 0.13282331674432049 0 0.1203000125167645 0.13336293759413789 0 0.12788127083107459 0.1291064789800366 0 0.12756241452120801 0.13893694775055651 0 0.13410827310584911 0.13282331674432049 0 0.14295710802469111 0.12768772724150559 0 0.13848136883728299 0.14203914735535511 0 0.12756241452120801 0.13893694775055651 0 0.13410827310584911 0.13282331674432049 0 0.13848136883728299 0.14203914735535511 0 0.13410827310584911 0.13282331674432049 0 0.13409394305489639 0.1257339851238449 0 0.14295710802469111 0.12768772724150559 0 0.14295710802469111 0.12768772724150559 0 0.15698787762036359 0.14007723406829989 0 0.15364605026385231 0.1227496740475859 0 0.14295710802469111 0.12768772724150559 0 0.13848136883728299 0.14203914735535511 0 0.15698787762036359 0.14007723406829989 0 0.13848136883728299 0.14203914735535511 0 0.1441447949138806 0.1573716891147208 0 0.15698787762036359 0.14007723406829989 0 0.1441447949138806 0.1573716891147208 0 0.1598153361361678 0.15982657838785511 0 0.15698787762036359 0.14007723406829989 0 0.13848136883728299 0.14203914735535511 0 0.1262856736452258 0.1537478882528979 0 0.1441447949138806 0.1573716891147208 0 0.12756241452120801 0.13893694775055651 0 0.13848136883728299 0.14203914735535511 0 0.1262856736452258 0.1537478882528979 0 0.1262856736452258 0.1537478882528979 0 0.12954358324573961 0.16710623429112001 0 0.1441447949138806 0.1573716891147208 0 0.12954358324573961 0.16710623429112001 0 0.12550986450034471 0.186594373040398 0 0.15375492999850379 0.1814330523327968 0 0.12954358324573961 0.16710623429112001 0 0.15375492999850379 0.1814330523327968 0 0.1441447949138806 0.1573716891147208 0 0.15375492999850379 0.1814330523327968 0 0.1441447949138806 0.1573716891147208 0 0.1598153361361678 0.15982657838785511 0 0.1598153361361678 0.15982657838785511 0 0.17205847002769489 0.1711246398383999 0 0.17247097746626519 0.1464629757798975 0 0.15375492999850379 0.1814330523327968 0 0.1598153361361678 0.15982657838785511 0 0.17205847002769489 0.1711246398383999 0 0.15375492999850379 0.1814330523327968 0 0.17205847002769489 0.1711246398383999 0 0.18411838942066619 0.18828130780555291 0 0.17205847002769489 0.1711246398383999 0 0.18411838942066619 0.18828130780555291 0 0.19050902449260759 0.164433536692701 0 0.17205847002769489 0.1711246398383999 0 0.17247097746626519 0.1464629757798975 0 0.19050902449260759 0.164433536692701 0 0.17247097746626519 0.1464629757798975 0 0.1903693880120208 0.14015559280000461 0 0.19050902449260759 0.164433536692701 0 0.17247097746626519 0.1464629757798975 0 0.18002451345814399 0.12716596121819479 0 0.1903693880120208 0.14015559280000461 0 0.17247097746626519 0.1464629757798975 0 0.18002451345814399 0.12716596121819479 0 0.16417220099380411 0.12505127510387981 0 0.15698787762036359 0.14007723406829989 0 0.16417220099380411 0.12505127510387981 0 0.15364605026385231 0.1227496740475859 0 0.17247097746626519 0.1464629757798975 0 0.15698787762036359 0.14007723406829989 0 0.16417220099380411 0.12505127510387981 0 0.1598153361361678 0.15982657838785511 0 0.17247097746626519 0.1464629757798975 0 0.15698787762036359 0.14007723406829989 0 0.14702044576598061 0.2478904659134552 0 0.1382648444377183 0.22719855966067881 0 0.15828943790025421 0.22969507774947781 0 0.14702044576598061 0.2478904659134552 0 0.12787711237058769 0.24521089126939841 0 0.1382648444377183 0.22719855966067881 0 0.10906069526472741 0.22998953009969161 0 0.12787711237058769 0.24521089126939841 0 0.1382648444377183 0.22719855966067881 0 0.1382648444377183 0.22719855966067881 0 0.14314005341278749 0.20699853547660821 0 0.15828943790025421 0.22969507774947781 0 0.14314005341278749 0.20699853547660821 0 0.16852610903267151 0.206401884619904 0 0.11775399779290339 0.20759518633331239 0 0.1382648444377183 0.22719855966067881 0 0.14314005341278749 0.20699853547660821 0 0.11775399779290339 0.20759518633331239 0 0.14314005341278749 0.20699853547660821 0 0.11775399779290339 0.20759518633331239 0 0.12550986450034471 0.186594373040398 0 0.14314005341278749 0.20699853547660821 0 0.15375492999850379 0.1814330523327968 0 0.14314005341278749 0.20699853547660821 0 0.16852610903267151 0.206401884619904 0 0.12550986450034471 0.186594373040398 0 0.15375492999850379 0.1814330523327968 0 0.14314005341278749 0.20699853547660821 0 0.15375492999850379 0.1814330523327968 0 0.18411838942066619 0.18828130780555291 0 0.16852610903267151 0.206401884619904 0 0.18411838942066619 0.18828130780555291 0 0.16852610903267151 0.206401884619904 0 0.1878214256448299 0.20672411698152671 0 0.16852610903267151 0.206401884619904 0 0.17766068788986381 0.23020170431202469 0 0.1878214256448299 0.20672411698152671 0 0.14314005341278749 0.20699853547660821 0 0.16852610903267151 0.206401884619904 0 0.15828943790025421 0.22969507774947781 0 0.16852610903267151 0.206401884619904 0 0.15828943790025421 0.22969507774947781 0 0.17766068788986381 0.23020170431202469 0 0.17766068788986381 0.23020170431202469 0 0.19353513124668931 0.22246748781277501 0 0.1878214256448299 0.20672411698152671 0 0.17766068788986381 0.23020170431202469 0 0.18692125413578081 0.24552837502103991 0 0.19379669244916639 0.23440003217329089 0 0.17766068788986381 0.23020170431202469 0 0.18692125413578081 0.24552837502103991 0 0.16774616909827719 0.2460930353984315 0 0.15828943790025421 0.22969507774947781 0 0.17766068788986381 0.23020170431202469 0 0.16774616909827719 0.2460930353984315 0 0.14702044576598061 0.2478904659134552 0 0.15828943790025421 0.22969507774947781 0 0.16774616909827719 0.2460930353984315 0 0.21557305570370441 0.24515722135805329 0 0.2029257889591993 0.24295866219667439 0 0.23007231546290949 0.2334513308517342 0 0.2029257889591993 0.24295866219667439 0 0.23007231546290949 0.2334513308517342 0 0.21557305570370441 0.24515722135805329 0 0.2029257889591993 0.24295866219667439 0 0.20107379594449931 0.25686311186437227 0 0.18692125413578081 0.24552837502103991 0 0.2029257889591993 0.24295866219667439 0 0.20107379594449931 0.25686311186437227 0 0.18692125413578081 0.24552837502103991 0 0.19379669244916639 0.23440003217329089 0 0.2029257889591993 0.24295866219667439 0 0.17766068788986381 0.23020170431202469 0 0.19379669244916639 0.23440003217329089 0 0.19353513124668931 0.22246748781277501 0 0.19379669244916639 0.23440003217329089 0 0.2029257889591993 0.24295866219667439 0 0.20920449219815451 0.22515354045629349 0 0.19379669244916639 0.23440003217329089 0 0.19353513124668931 0.22246748781277501 0 0.20920449219815451 0.22515354045629349 0 0.2029257889591993 0.24295866219667439 0 0.20920449219815451 0.22515354045629349 0 0.23007231546290949 0.2334513308517342 0 0.19353513124668931 0.22246748781277501 0 0.20920449219815451 0.22515354045629349 0 0.20732414099141369 0.20672295990195361 0 0.20920449219815451 0.22515354045629349 0 0.20732414099141369 0.20672295990195361 0 0.22783619495118521 0.20973527166224001 0 0.19353513124668931 0.22246748781277501 0 0.20732414099141369 0.20672295990195361 0 0.1878214256448299 0.20672411698152671 0 0.18411838942066619 0.18828130780555291 0 0.1878214256448299 0.20672411698152671 0 0.20343121377691101 0.18825927067945539 0 0.20732414099141369 0.20672295990195361 0 0.1878214256448299 0.20672411698152671 0 0.20343121377691101 0.18825927067945539 0 0.20732414099141369 0.20672295990195361 0 0.20343121377691101 0.18825927067945539 0 0.2219787971027708 0.18678942035429349 0 0.20732414099141369 0.20672295990195361 0 0.22783619495118521 0.20973527166224001 0 0.2219787971027708 0.18678942035429349 0 0.24528107816237801 0.1907036486386274 0 0.22783619495118521 0.20973527166224001 0 0.2219787971027708 0.18678942035429349 0 0.24528107816237801 0.1907036486386274 0 0.25242827713160498 0.21540237912569379 0 0.24528107816237801 0.1907036486386274 0 0.22783619495118521 0.20973527166224001 0 0.25242827713160498 0.21540237912569379 0 0.20920449219815451 0.22515354045629349 0 0.22783619495118521 0.20973527166224001 0 0.23007231546290949 0.2334513308517342 0 0.23007231546290949 0.2334513308517342 0 0.25242827713160498 0.21540237912569379 0 0.23007231546290949 0.2334513308517342 0 0.25511338863332461 0.22468137717712711 0 0.25242827713160498 0.21540237912569379 0 0.23007231546290949 0.2334513308517342 0 0.25511338863332461 0.22468137717712711 0 0.23007231546290949 0.2334513308517342 0 0.2457442494512444 0.24022391879071339 0 0.25511338863332461 0.22468137717712711 0 0.22783619495118521 0.20973527166224001 0 0.23007231546290949 0.2334513308517342 0 0.25242827713160498 0.21540237912569379 0 0.2457442494512444 0.24022391879071339 0 0.23628031136540401 0.25597328662156199 0 0.26221447651104962 0.2479993693513689 0 0.23007231546290949 0.2334513308517342 0 0.2457442494512444 0.24022391879071339 0 0.23628031136540401 0.25597328662156199 0 0.21557305570370441 0.24515722135805329 0 0.23007231546290949 0.2334513308517342 0 0.23628031136540401 0.25597328662156199 0 0.21557305570370441 0.24515722135805329 0 0.23007231546290949 0.2334513308517342 0 0.21023583046185859 0.14706018503428281 0 0.22521494488481819 0.12557893006429149 0 0.2001236667938262 0.1180422718546187 0 0.18002451345814399 0.12716596121819479 0 0.1903693880120208 0.14015559280000461 0 0.2001236667938262 0.1180422718546187 0 0.21023583046185859 0.14706018503428281 0 0.1903693880120208 0.14015559280000461 0 0.2001236667938262 0.1180422718546187 0 0.21023583046185859 0.14706018503428281 0 0.1903693880120208 0.14015559280000461 0 0.19050902449260759 0.164433536692701 0 0.18411838942066619 0.18828130780555291 0 0.20343121377691101 0.18825927067945539 0 0.19050902449260759 0.164433536692701 0 0.20343121377691101 0.18825927067945539 0 0.19050902449260759 0.164433536692701 0 0.20962662881846919 0.1707346457134423 0 0.20343121377691101 0.18825927067945539 0 0.20962662881846919 0.1707346457134423 0 0.2219787971027708 0.18678942035429349 0 0.21023583046185859 0.14706018503428281 0 0.20962662881846919 0.1707346457134423 0 0.2254160648188453 0.164078398330023 0 0.21023583046185859 0.14706018503428281 0 0.19050902449260759 0.164433536692701 0 0.20962662881846919 0.1707346457134423 0 0.20962662881846919 0.1707346457134423 0 0.2254160648188453 0.164078398330023 0 0.2219787971027708 0.18678942035429349 0 0.2254160648188453 0.164078398330023 0 0.2219787971027708 0.18678942035429349 0 0.23714843650665229 0.1758398884969993 0 0.24528107816237801 0.1907036486386274 0 0.2219787971027708 0.18678942035429349 0 0.23714843650665229 0.1758398884969993 0 0.24528107816237801 0.1907036486386274 0 0.23714843650665229 0.1758398884969993 0 0.25292738168467233 0.17649485219682931 0 0.2254160648188453 0.164078398330023 0 0.24653130607993951 0.16237692388552691 0 0.23688534306575301 0.1458043597726891 0 0.23714843650665229 0.1758398884969993 0 0.24653130607993951 0.16237692388552691 0 0.25292738168467233 0.17649485219682931 0 0.2254160648188453 0.164078398330023 0 0.23714843650665229 0.1758398884969993 0 0.24653130607993951 0.16237692388552691 0 0.24653130607993951 0.16237692388552691 0 0.2496536413094039 0.15044712256699261 0 0.23688534306575301 0.1458043597726891 0 0.2496536413094039 0.15044712256699261 0 0.23688534306575301 0.1458043597726891 0 0.25004344172447263 0.14019424959050239 0 0.21023583046185859 0.14706018503428281 0 0.2254160648188453 0.164078398330023 0 0.23688534306575301 0.1458043597726891 0 0.21023583046185859 0.14706018503428281 0 0.23688534306575301 0.1458043597726891 0 0.22521494488481819 0.12557893006429149 0 0.22521494488481819 0.12557893006429149 0 0.25030622297580962 0.13311558827396619 0 0.23688534306575301 0.1458043597726891 0 0.22521494488481819 0.12557893006429149 0 0.25030622297580962 0.13311558827396619 0 0.23688534306575301 0.1458043597726891 0 0.25004344172447263 0.14019424959050239 0 0.25030622297580962 0.13311558827396619 0 0.22521494488481819 0.12557893006429149 0 0.2369469616243938 0.1144798656387125 0 0.25030622297580962 0.13311558827396619 0 0.2369469616243938 0.1144798656387125 0 0.25094552198087999 0.11589449234768209 0 0.25030622297580962 0.13311558827396619 0 0.2369469616243938 0.1144798656387125 0 0.25158482098595109 0.098673396421397969 0 0.25094552198087999 0.11589449234768209 0 0.2369469616243938 0.1144798656387125 0 0.2308580048349978 0.09939168424622695 0 0.25158482098595109 0.098673396421397969 0 0.2308580048349978 0.09939168424622695 0 0.2177667053289645 0.10879872465146249 0 0.21723881235993189 0.092441087960636145 0 0.2369469616243938 0.1144798656387125 0 0.2308580048349978 0.09939168424622695 0 0.2177667053289645 0.10879872465146249 0 0.22521494488481819 0.12557893006429149 0 0.2369469616243938 0.1144798656387125 0 0.2177667053289645 0.10879872465146249 0 0.2177667053289645 0.10879872465146249 0 0.1970849337058638 0.1019164286603922 0 0.2001236667938262 0.1180422718546187 0 0.22521494488481819 0.12557893006429149 0 0.2177667053289645 0.10879872465146249 0 0.2001236667938262 0.1180422718546187 0 0.22521494488481819 0.12557893006429149 0 0.2001236667938262 0.1180422718546187 0 0.1970849337058638 0.1019164286603922 0 0.20420713705815571 0.090978010823124941 0 0.21723881235993189 0.092441087960636145 0 0.1970849337058638 0.1019164286603922 0 0.21723881235993189 0.092441087960636145 0 0.2177667053289645 0.10879872465146249 0 0.1970849337058638 0.1019164286603922 0 0.21723881235993189 0.092441087960636145 0 0.1970849337058638 0.1019164286603922 0 0.1916307843626972 0.08827444688259839 0 0.17503238870283441 0.11050561364494491 0 0.2001236667938262 0.1180422718546187 0 0.17503238870283441 0.11050561364494491 0 0.1970849337058638 0.1019164286603922 0 0.2001236667938262 0.1180422718546187 0 0.17503238870283441 0.11050561364494491 0 0.1916307843626972 0.08827444688259839 0 0.2082291800225603 0.066043280120252124 0 0.19067723801237901 0.065525043857756982 0 0.1916307843626972 0.08827444688259839 0 0.2082291800225603 0.066043280120252124 0 0.1916307843626972 0.08827444688259839 0 0.21087401780412959 0.081280079788873041 0 0.20420713705815571 0.090978010823124941 0 0.1970849337058638 0.1019164286603922 0 0.1916307843626972 0.08827444688259839 0 0.20420713705815571 0.090978010823124941 0 0.1916307843626972 0.08827444688259839 0 0.21087401780412959 0.081280079788873041 0 0.2082291800225603 0.066043280120252124 0 0.21087401780412959 0.081280079788873041 0 0.20420713705815571 0.090978010823124941 0 0.21723881235993189 0.092441087960636145 0 0.21087401780412959 0.081280079788873041 0 0.21723881235993189 0.092441087960636145 0 0.22613356481757629 0.0775902723280468 0 0.21087401780412959 0.081280079788873041 0 0.2082291800225603 0.066043280120252124 0 0.22613356481757629 0.0775902723280468 0 0.2082291800225603 0.066043280120252124 0 0.22613356481757629 0.0775902723280468 0 0.2082291800225603 0.066043280120252124 0 0.2259496113806885 0.070300708218039992 0 0.21450653174737461 0.057635669175196122 0 0.2259496113806885 0.070300708218039992 0 0.21450653174737461 0.057635669175196122 0 0.2082291800225603 0.066043280120252124 0 0.2259496113806885 0.070300708218039992 0 0.22613356481757629 0.0775902723280468 0 0.2259496113806885 0.070300708218039992 0 0.2248665156508784 0.061611733455129589 0 0.21450653174737461 0.057635669175196122 0 0.2259496113806885 0.070300708218039992 0 0.22613356481757629 0.0775902723280468 0 0.23739269101400209 0.082965747260884265 0 0.2259496113806885 0.070300708218039992 0 0.23739269101400209 0.082965747260884265 0 0.237967452106535 0.070105640596903412 0 0.2259496113806885 0.070300708218039992 0 0.23739269101400209 0.082965747260884265 0 0.2259496113806885 0.070300708218039992 0 0.2330718446673557 0.064441819436705627 0 0.2248665156508784 0.061611733455129589 0 0.2259496113806885 0.070300708218039992 0 0.2330718446673557 0.064441819436705627 0 0.237967452106535 0.070105640596903412 0 0.2308580048349978 0.09939168424622695 0 0.21723881235993189 0.092441087960636145 0 0.23739269101400209 0.082965747260884265 0 0.21723881235993189 0.092441087960636145 0 0.22613356481757629 0.0775902723280468 0 0.23739269101400209 0.082965747260884265 0 0.21723881235993189 0.092441087960636145 0 0.23739269101400209 0.082965747260884265 0 0.23739269101400209 0.082965747260884265 0 0.25158482098595109 0.098673396421397969 0 0.23739269101400209 0.082965747260884265 0 0.25243039498113262 0.075895774732197205 0 0.25158482098595109 0.098673396421397969 0 0.2308580048349978 0.09939168424622695 0 0.23739269101400209 0.082965747260884265 0 0.25158482098595109 0.098673396421397969 0 0.23739269101400209 0.082965747260884265 0 0.25243039498113262 0.075895774732197205 0 0.23934469018649959 0.064583282500140851 0 0.237967452106535 0.070105640596903412 0 0.24496427956833819 0.066036472520138348 0 0.2330718446673557 0.064441819436705627 0 0.23934469018649959 0.064583282500140851 0 0.2376257901407148 0.059976102198904507 0 0.2330718446673557 0.064441819436705627 0 0.23934469018649959 0.064583282500140851 0 0.237967452106535 0.070105640596903412 0 0.23739269101400209 0.082965747260884265 0 0.237967452106535 0.070105640596903412 0 0.24429048066179679 0.072622021298478806 0 0.24429048066179679 0.072622021298478806 0 0.24842415088314279 0.069033451464499671 0 0.25243039498113262 0.075895774732197205 0 0.23739269101400209 0.082965747260884265 0 0.24429048066179679 0.072622021298478806 0 0.25243039498113262 0.075895774732197205 0 0.24842415088314279 0.069033451464499671 0 0.24853219730195361 0.063845178725116872 0 0.25274476311700622 0.067427493409812952 0 0.237967452106535 0.070105640596903412 0 0.24429048066179679 0.072622021298478806 0 0.24496427956833819 0.066036472520138348 0 0.24429048066179679 0.072622021298478806 0 0.24842415088314279 0.069033451464499671 0 0.24496427956833819 0.066036472520138348 0 0.23934469018649959 0.064583282500140851 0 0.24496427956833819 0.066036472520138348 0 0.24309408444955441 0.062356377748052388 0 0.24496427956833819 0.066036472520138348 0 0.24602681454492631 0.062964227281045088 0 0.24309408444955441 0.062356377748052388 0 0.24496427956833819 0.066036472520138348 0 0.24602681454492631 0.062964227281045088 0 0.24853219730195361 0.063845178725116872 0 0.24842415088314279 0.069033451464499671 0 0.24496427956833819 0.066036472520138348 0 0.24853219730195361 0.063845178725116872 0 0.24751669685985911 0.059618880130872708 0 0.24309408444955441 0.062356377748052388 0 0.2376257901407148 0.059976102198904507 0 0.24751669685985911 0.059618880130872708 0 0.24426241142214139 0.049994713685017962 0 0.2310385276818335 0.053106641608170198 0 0.24751669685985911 0.059618880130872708 0 0.2376257901407148 0.059976102198904507 0 0.2310385276818335 0.053106641608170198 0 0.24751669685985911 0.059618880130872708 0 0.2310385276818335 0.053106641608170198 0 0.24853219730195361 0.063845178725116872 0 0.24751669685985911 0.059618880130872708 0 0.2530174900015254 0.0600809219264858 0 0.24602681454492631 0.062964227281045088 0 0.24853219730195361 0.063845178725116872 0 0.24751669685985911 0.059618880130872708 0 0.24602681454492631 0.062964227281045088 0 0.24751669685985911 0.059618880130872708 0 0.24309408444955441 0.062356377748052388 0 0.23934469018649959 0.064583282500140851 0 0.24309408444955441 0.062356377748052388 0 0.2376257901407148 0.059976102198904507 0 0.24426241142214139 0.049994713685017962 0 0.23928634064401511 0.040096757013566242 0 0.2310385276818335 0.053106641608170198 0 0.24751669685985911 0.059618880130872708 0 0.24426241142214139 0.049994713685017962 0 0.25102243244437311 0.053297338652025752 0 0.24426241142214139 0.049994713685017962 0 0.25174039047255609 0.044464402284776217 0 0.25102243244437311 0.053297338652025752 0 0.23928634064401511 0.040096757013566242 0 0.2320502206633881 0.021165953515508481 0 0.25044211127373811 0.032849993626191502 0 0.23928634064401511 0.040096757013566242 0 0.25044211127373811 0.032849993626191502 0 0.25174039047255609 0.044464402284776217 0 0.24426241142214139 0.049994713685017962 0 0.23928634064401511 0.040096757013566242 0 0.25174039047255609 0.044464402284776217 0 0.22618438235043381 0.038998837361733103 0 0.2320502206633881 0.021165953515508481 0 0.20963369093729961 0.03941564640516447 0 0.23928634064401511 0.040096757013566242 0 0.22618438235043381 0.038998837361733103 0 0.2320502206633881 0.021165953515508481 0 0.22618438235043381 0.038998837361733103 0 0.2310385276818335 0.053106641608170198 0 0.21456035850380811 0.046594403085467223 0 0.23928634064401511 0.040096757013566242 0 0.22618438235043381 0.038998837361733103 0 0.2310385276818335 0.053106641608170198 0 0.2310385276818335 0.053106641608170198 0 0.21456035850380811 0.046594403085467223 0 0.2248665156508784 0.061611733455129589 0 0.2310385276818335 0.053106641608170198 0 0.21456035850380811 0.046594403085467223 0 0.2248665156508784 0.061611733455129589 0 0.21456035850380811 0.046594403085467223 0 0.2330718446673557 0.064441819436705627 0 0.2248665156508784 0.061611733455129589 0 0.23150027442910881 0.059501590197602497 0 0.2248665156508784 0.061611733455129589 0 0.23150027442910881 0.059501590197602497 0 0.2310385276818335 0.053106641608170198 0 0.2330718446673557 0.064441819436705627 0 0.2376257901407148 0.059976102198904507 0 0.23150027442910881 0.059501590197602497 0 0.2376257901407148 0.059976102198904507 0 0.23150027442910881 0.059501590197602497 0 0.2310385276818335 0.053106641608170198 0 0.2320502206633881 0.021165953515508481 0 0.22999165343287109 0.0038227322559807589 0 0.25446675038947358 0.0029162606258486688 0 0.2320502206633881 0.021165953515508481 0 0.2600935707136679 0.019574361616358959 0 0.25446675038947358 0.0029162606258486688 0 0.22999165343287109 0.0038227322559807589 0 0.25446675038947358 0.0029162606258486688 0 0.24138147174972829 -0.0061427828714447699 0 0.2320502206633881 0.021165953515508481 0 0.25446675038947358 0.0029162606258486688 0 0.2320502206633881 0.021165953515508481 0 0.2600935707136679 0.019574361616358959 0 0.25044211127373811 0.032849993626191502 0 0.2320502206633881 0.021165953515508481 0 0.20963369093729961 0.03941564640516447 0 0.22999165343287109 0.0038227322559807589 0 0.21340461703840111 0.0096506044731711187 0 0.21351355446813719 -0.0021103410187178909 0 0.2320502206633881 0.021165953515508481 0 0.22999165343287109 0.0038227322559807589 0 0.21340461703840111 0.0096506044731711187 0 0.21340461703840111 0.0096506044731711187 0 0.1998105265397013 0.00335350757378736 0 0.21351355446813719 -0.0021103410187178909 0 0.21340461703840111 0.0096506044731711187 0 0.20371525389429951 0.01279949030761077 0 0.2082588668535221 0.02245160931237615 0 0.21340461703840111 0.0096506044731711187 0 0.20371525389429951 0.01279949030761077 0 0.1998105265397013 0.00335350757378736 0 0.2320502206633881 0.021165953515508481 0 0.2082588668535221 0.02245160931237615 0 0.20963369093729961 0.03941564640516447 0 0.2320502206633881 0.021165953515508481 0 0.21340461703840111 0.0096506044731711187 0 0.2082588668535221 0.02245160931237615 0 0.2082588668535221 0.02245160931237615 0 0.19338700514557339 0.015742239871108451 0 0.20963369093729961 0.03941564640516447 0 0.19338700514557339 0.015742239871108451 0 0.1989601287501698 0.040429129743079398 0 0.18048502430789731 0.01998114488410483 0 0.1989601287501698 0.040429129743079398 0 0.18048502430789731 0.01998114488410483 0 0.19338700514557339 0.015742239871108451 0 0.20963369093729961 0.03941564640516447 0 0.20371525389429951 0.01279949030761077 0 0.2082588668535221 0.02245160931237615 0 0.19338700514557339 0.015742239871108451 0 0.19338700514557339 0.015742239871108451 0 0.1998105265397013 0.00335350757378736 0 0.17714031935384769 -0.0079311666629475405 0 0.20371525389429951 0.01279949030761077 0 0.19338700514557339 0.015742239871108451 0 0.1998105265397013 0.00335350757378736 0 0.21450653174737461 0.057635669175196122 0 0.2029561920580818 0.044851916216142339 0 0.21450653174737461 0.057635669175196122 0 0.2029561920580818 0.044851916216142339 0 0.2021088015620611 0.053433964061651712 0 0.21450653174737461 0.057635669175196122 0 0.21456035850380811 0.046594403085467223 0 0.2029561920580818 0.044851916216142339 0 0.2082291800225603 0.066043280120252124 0 0.21450653174737461 0.057635669175196122 0 0.2021088015620611 0.053433964061651712 0 0.2248665156508784 0.061611733455129589 0 0.21450653174737461 0.057635669175196122 0 0.21456035850380811 0.046594403085467223 0 0.2082291800225603 0.066043280120252124 0 0.21450653174737461 0.057635669175196122 0 0.22618438235043381 0.038998837361733103 0 0.21456035850380811 0.046594403085467223 0 0.20963369093729961 0.03941564640516447 0 0.21456035850380811 0.046594403085467223 0 0.20963369093729961 0.03941564640516447 0 0.21456035850380811 0.046594403085467223 0 0.20530753189452691 0.042937648913457381 0 0.2029561920580818 0.044851916216142339 0 0.20963369093729961 0.03941564640516447 0 0.20530753189452691 0.042937648913457381 0 0.1989601287501698 0.040429129743079398 0 0.21456035850380811 0.046594403085467223 0 0.20530753189452691 0.042937648913457381 0 0.21456035850380811 0.046594403085467223 0 0.20963369093729961 0.03941564640516447 0 0.20530753189452691 0.042937648913457381 0 0.20963369093729961 0.03941564640516447 0 0.20530753189452691 0.042937648913457381 0 0.20530753189452691 0.042937648913457381 0 0.2029561920580818 0.044851916216142339 0 0.1989601287501698 0.040429129743079398 0 0.1774654858828027 0.031934360706524292 0 0.2029561920580818 0.044851916216142339 0 0.1989601287501698 0.040429129743079398 0 0.19971656766465989 0.047489351670260083 0 0.1989601287501698 0.040429129743079398 0 0.19133087755196571 0.045131483978966998 0 0.19971656766465989 0.047489351670260083 0 0.2029561920580818 0.044851916216142339 0 0.19971656766465989 0.047489351670260083 0 0.19338700514557339 0.015742239871108451 0 0.20963369093729961 0.03941564640516447 0 0.1989601287501698 0.040429129743079398 0 0.1989601287501698 0.040429129743079398 0 0.19133087755196571 0.045131483978966998 0 0.18298678422305309 0.040980100737508622 0 0.20530753189452691 0.042937648913457381 0 0.2029561920580818 0.044851916216142339 0 0.1989601287501698 0.040429129743079398 0 0.20530753189452691 0.042937648913457381 0 0.1989601287501698 0.040429129743079398 0 0.2029561920580818 0.044851916216142339 0 0.1989601287501698 0.040429129743079398 0 0.2082291800225603 0.066043280120252124 0 0.18513553631762919 0.051149603126408108 0 0.2021088015620611 0.053433964061651712 0 0.19971656766465989 0.047489351670260083 0 0.18513553631762919 0.051149603126408108 0 0.2082291800225603 0.066043280120252124 0 0.2021088015620611 0.053433964061651712 0 0.18513553631762919 0.051149603126408108 0 0.19067723801237901 0.065525043857756982 0 0.2082291800225603 0.066043280120252124 0 0.18513553631762919 0.051149603126408108 0 0.19133087755196571 0.045131483978966998 0 0.19971656766465989 0.047489351670260083 0 0.18513553631762919 0.051149603126408108 0 0.2029561920580818 0.044851916216142339 0 0.2021088015620611 0.053433964061651712 0 0.19971656766465989 0.047489351670260083 0 0.17734631865053521 0.060730067185729229 0 0.18513553631762919 0.051149603126408108 0 0.16725106424272049 0.052894846580172288 0 0.19067723801237901 0.065525043857756982 0 0.17734631865053521 0.060730067185729229 0 0.18513553631762919 0.051149603126408108 0 0.18298678422305309 0.040980100737508622 0 0.1774654858828027 0.031934360706524292 0 0.1620418926126978 0.036255926132564682 0 0.19133087755196571 0.045131483978966998 0 0.18513553631762919 0.051149603126408108 0 0.18298678422305309 0.040980100737508622 0 0.18513553631762919 0.051149603126408108 0 0.18298678422305309 0.040980100737508622 0 0.1620418926126978 0.036255926132564682 0 0.1989601287501698 0.040429129743079398 0 0.18298678422305309 0.040980100737508622 0 0.1774654858828027 0.031934360706524292 0 0.18513553631762919 0.051149603126408108 0 0.1620418926126978 0.036255926132564682 0 0.1620418926126978 0.036255926132564682 0 0.16725106424272049 0.052894846580172288 0 0.15541952745182569 0.04677658384696623 0 0.18513553631762919 0.051149603126408108 0 0.1620418926126978 0.036255926132564682 0 0.16725106424272049 0.052894846580172288 0 0.16725106424272049 0.052894846580172288 0 0.15507694825043991 0.057889849327421902 0 0.15541952745182569 0.04677658384696623 0 0.16725106424272049 0.052894846580172288 0 0.15507694825043991 0.057889849327421902 0 0.1653937448538241 0.067538194789913991 0 0.17734631865053521 0.060730067185729229 0 0.16725106424272049 0.052894846580172288 0 0.1653937448538241 0.067538194789913991 0 0.18048502430789731 0.01998114488410483 0 0.1657030786406338 0.0084270166623369204 0 0.17714031935384769 -0.0079311666629475405 0 0.19338700514557339 0.015742239871108451 0 0.17714031935384769 -0.0079311666629475405 0 0.19338700514557339 0.015742239871108451 0 0.18048502430789731 0.01998114488410483 0 0.17714031935384769 -0.0079311666629475405 0 0.1989601287501698 0.040429129743079398 0 0.1774654858828027 0.031934360706524292 0 0.18048502430789731 0.01998114488410483 0 0.1774654858828027 0.031934360706524292 0 0.18048502430789731 0.01998114488410483 0 0.16935520337559401 0.020657770454092759 0 0.1774654858828027 0.031934360706524292 0 0.15597084301543529 0.02343959166996953 0 0.1774654858828027 0.031934360706524292 0 0.1620418926126978 0.036255926132564682 0 0.15597084301543529 0.02343959166996953 0 0.1774654858828027 0.031934360706524292 0 0.16935520337559401 0.020657770454092759 0 0.15597084301543529 0.02343959166996953 0 0.16935520337559401 0.020657770454092759 0 0.1657030786406338 0.0084270166623369204 0 0.15597084301543529 0.02343959166996953 0 0.18048502430789731 0.01998114488410483 0 0.16935520337559401 0.020657770454092759 0 0.1657030786406338 0.0084270166623369204 0 0.1657030786406338 0.0084270166623369204 0 0.14883794818754281 0.01110572894874149 0 0.15480995508657039 -0.001084596553268768 0 0.1657030786406338 0.0084270166623369204 0 0.14883794818754281 0.01110572894874149 0 0.15597084301543529 0.02343959166996953 0 0.14883794818754281 0.01110572894874149 0 0.13464870039648349 0.00080453217212592717 0 0.15480995508657039 -0.001084596553268768 0 0.14883794818754281 0.01110572894874149 0 0.13894824890776639 0.02136224913872127 0 0.13464870039648349 0.00080453217212592717 0 0.1620418926126978 0.036255926132564682 0 0.13894824890776639 0.02136224913872127 0 0.14883794818754281 0.01110572894874149 0 0.15597084301543529 0.02343959166996953 0 0.13894824890776639 0.02136224913872127 0 0.1620418926126978 0.036255926132564682 0 0.15597084301543529 0.02343959166996953 0 0.13894824890776639 0.02136224913872127 0 0.11961069471150609 0.02296590295220987 0 0.13894824890776639 0.02136224913872127 0 0.12977361784467401 0.039215218793308727 0 0.1158546052028349 0.0064685721448778594 0 0.13894824890776639 0.02136224913872127 0 0.1158546052028349 0.0064685721448778594 0 0.13894824890776639 0.02136224913872127 0 0.13464870039648349 0.00080453217212592717 0 0.14278372382386809 0.048416123664777412 0 0.1428601767931531 0.062084067640591357 0 0.15507694825043991 0.057889849327421902 0 0.14278372382386809 0.048416123664777412 0 0.15507694825043991 0.057889849327421902 0 0.15541952745182569 0.04677658384696623 0 0.1620418926126978 0.036255926132564682 0 0.13894824890776639 0.02136224913872127 0 0.14579340212816641 0.038405220315267663 0 0.1620418926126978 0.036255926132564682 0 0.15541952745182569 0.04677658384696623 0 0.14579340212816641 0.038405220315267663 0 0.14278372382386809 0.048416123664777412 0 0.15541952745182569 0.04677658384696623 0 0.14579340212816641 0.038405220315267663 0 0.14278372382386809 0.048416123664777412 0 0.14579340212816641 0.038405220315267663 0 0.12977361784467401 0.039215218793308727 0 0.13894824890776639 0.02136224913872127 0 0.14579340212816641 0.038405220315267663 0 0.12977361784467401 0.039215218793308727 0 0.11550376979223601 0.054551475820320147 0 0.12977361784467401 0.039215218793308727 0 0.1326943019686847 0.054606112458038862 0 0.11550376979223601 0.054551475820320147 0 0.1326943019686847 0.054606112458038862 0 0.13255022158949201 0.068763676371196639 0 0.14278372382386809 0.048416123664777412 0 0.12977361784467401 0.039215218793308727 0 0.1326943019686847 0.054606112458038862 0 0.14278372382386809 0.048416123664777412 0 0.1428601767931531 0.062084067640591357 0 0.1326943019686847 0.054606112458038862 0 0.1428601767931531 0.062084067640591357 0 0.1326943019686847 0.054606112458038862 0 0.13255022158949201 0.068763676371196639 0 0.1207366242219714 0.074251990558816788 0 0.13255022158949201 0.068763676371196639 0 0.13578085374332971 0.077614708003019631 0 0.13255022158949201 0.068763676371196639 0 0.13578085374332971 0.077614708003019631 0 0.1430759120552613 0.073085192731263071 0 0.1428601767931531 0.062084067640591357 0 0.13255022158949201 0.068763676371196639 0 0.1430759120552613 0.073085192731263071 0 0.1428601767931531 0.062084067640591357 0 0.1430759120552613 0.073085192731263071 0 0.15260580868734391 0.069203578475014266 0 0.1430759120552613 0.073085192731263071 0 0.14969883640752091 0.076610515579137797 0 0.14563192422462459 0.083183778073064013 0 0.13578085374332971 0.077614708003019631 0 0.1430759120552613 0.073085192731263071 0 0.14563192422462459 0.083183778073064013 0 0.1430759120552613 0.073085192731263071 0 0.14969883640752091 0.076610515579137797 0 0.15260580868734391 0.069203578475014266 0 0.14969883640752091 0.076610515579137797 0 0.15260580868734391 0.069203578475014266 0 0.15677919641446331 0.080277826610221981 0 0.1428601767931531 0.062084067640591357 0 0.15507694825043991 0.057889849327421902 0 0.15260580868734391 0.069203578475014266 0 0.1506819444987289 0.088437751930635633 0 0.14868901735932749 0.09586058707093438 0 0.157853861938485 0.092527754269896317 0 0.1506819444987289 0.088437751930635633 0 0.15677919641446331 0.080277826610221981 0 0.157853861938485 0.092527754269896317 0 0.14969883640752091 0.076610515579137797 0 0.14563192422462459 0.083183778073064013 0 0.15677919641446331 0.080277826610221981 0 0.1506819444987289 0.088437751930635633 0 0.14563192422462459 0.083183778073064013 0 0.15677919641446331 0.080277826610221981 0 0.14563192422462459 0.083183778073064013 0 0.1444557225567443 0.090338813629061501 0 0.13888671887288589 0.088270852986767859 0 0.1506819444987289 0.088437751930635633 0 0.14563192422462459 0.083183778073064013 0 0.1444557225567443 0.090338813629061501 0 0.1444557225567443 0.090338813629061501 0 0.14209274384079601 0.094639397504520467 0 0.14868901735932749 0.09586058707093438 0 0.1506819444987289 0.088437751930635633 0 0.1444557225567443 0.090338813629061501 0 0.14868901735932749 0.09586058707093438 0 0.1444557225567443 0.090338813629061501 0 0.13888671887288589 0.088270852986767859 0 0.14209274384079601 0.094639397504520467 0 0.13888671887288589 0.088270852986767859 0 0.13668050292917741 0.098217611464673699 0 0.14209274384079601 0.094639397504520467 0 0.13888671887288589 0.088270852986767859 0 0.1300820653953097 0.084166932106396392 0 0.13668050292917741 0.098217611464673699 0 0.11116449005577619 0.086473750785835857 0 0.1300820653953097 0.084166932106396392 0 0.13668050292917741 0.098217611464673699 0 0.13578085374332971 0.077614708003019631 0 0.13888671887288589 0.088270852986767859 0 0.1300820653953097 0.084166932106396392 0 0.13578085374332971 0.077614708003019631 0 0.14563192422462459 0.083183778073064013 0 0.13888671887288589 0.088270852986767859 0 0.1207366242219714 0.074251990558816788 0 0.13578085374332971 0.077614708003019631 0 0.1300820653953097 0.084166932106396392 0 0.1216961693062274 0.1020981758197984 0 0.1302764983332621 0.10693497851168419 0 0.13668050292917741 0.098217611464673699 0 0.1302764983332621 0.10693497851168419 0 0.13758713408363871 0.1043360441680015 0 0.13668050292917741 0.098217611464673699 0 0.1302764983332621 0.10693497851168419 0 0.1360833458267342 0.1084620534226548 0 0.13758713408363871 0.1043360441680015 0 0.1360833458267342 0.1084620534226548 0 0.13758713408363871 0.1043360441680015 0 0.14314356584317489 0.10755645506983 0 0.13758713408363871 0.1043360441680015 0 0.13668050292917741 0.098217611464673699 0 0.14175175748584509 0.1005091223711649 0 0.13668050292917741 0.098217611464673699 0 0.14209274384079601 0.094639397504520467 0 0.14175175748584509 0.1005091223711649 0 0.12813823657366311 0.12049833089676459 0 0.13246275659848361 0.1130811342378658 0 0.13708322035591489 0.118794437000363 0 0.12212988809696081 0.1249307776834532 0 0.12788127083107459 0.1291064789800366 0 0.12813823657366311 0.12049833089676459 0 0.1197878353292403 0.1092484053650479 0 0.1302764983332621 0.10693497851168419 0 0.12624189261331301 0.1140678077034443 0 0.12813823657366311 0.12049833089676459 0 0.12624189261331301 0.1140678077034443 0 0.13246275659848361 0.1130811342378658 0 0.1302764983332621 0.10693497851168419 0 0.12624189261331301 0.1140678077034443 0 0.13246275659848361 0.1130811342378658 0 0.138866780176991 0.11235807520418389 0 0.13708322035591489 0.118794437000363 0 0.14572099158606311 0.1154247658161887 0 0.1360833458267342 0.1084620534226548 0 0.13246275659848361 0.1130811342378658 0 0.138866780176991 0.11235807520418389 0 0.1302764983332621 0.10693497851168419 0 0.1360833458267342 0.1084620534226548 0 0.13246275659848361 0.1130811342378658 0 0.1360833458267342 0.1084620534226548 0 0.138866780176991 0.11235807520418389 0 0.14314356584317489 0.10755645506983 0 0.13246275659848361 0.1130811342378658 0 0.138866780176991 0.11235807520418389 0 0.13708322035591489 0.118794437000363 0 0.13409394305489639 0.1257339851238449 0 0.14295710802469111 0.12768772724150559 0 0.13708322035591489 0.118794437000363 0 0.13409394305489639 0.1257339851238449 0 0.12813823657366311 0.12049833089676459 0 0.13708322035591489 0.118794437000363 0 0.14572099158606311 0.1154247658161887 0 0.15364605026385231 0.1227496740475859 0 0.15839207309433961 0.10550736800805539 0 0.14295710802469111 0.12768772724150559 0 0.13708322035591489 0.118794437000363 0 0.14572099158606311 0.1154247658161887 0 0.14295710802469111 0.12768772724150559 0 0.14572099158606311 0.1154247658161887 0 0.15364605026385231 0.1227496740475859 0 0.138866780176991 0.11235807520418389 0 0.14572099158606311 0.1154247658161887 0 0.14314356584317489 0.10755645506983 0 0.14572099158606311 0.1154247658161887 0 0.14314356584317489 0.10755645506983 0 0.15839207309433961 0.10550736800805539 0 0.14175175748584509 0.1005091223711649 0 0.15839207309433961 0.10550736800805539 0 0.14175175748584509 0.1005091223711649 0 0.14314356584317489 0.10755645506983 0 0.15839207309433961 0.10550736800805539 0 0.14175175748584509 0.1005091223711649 0 0.14868901735932749 0.09586058707093438 0 0.15839207309433961 0.10550736800805539 0 0.14209274384079601 0.094639397504520467 0 0.14175175748584509 0.1005091223711649 0 0.14868901735932749 0.09586058707093438 0 0.13758713408363871 0.1043360441680015 0 0.14175175748584509 0.1005091223711649 0 0.14314356584317489 0.10755645506983 0 0.14868901735932749 0.09586058707093438 0 0.15839207309433961 0.10550736800805539 0 0.157853861938485 0.092527754269896317 0 0.15839207309433961 0.10550736800805539 0 0.17503238870283441 0.11050561364494491 0 0.15839207309433961 0.10550736800805539 0 0.1705578526620479 0.095927182961129481 0 0.157853861938485 0.092527754269896317 0 0.15839207309433961 0.10550736800805539 0 0.1705578526620479 0.095927182961129481 0 0.17503238870283441 0.11050561364494491 0 0.16417220099380411 0.12505127510387981 0 0.15839207309433961 0.10550736800805539 0 0.17503238870283441 0.11050561364494491 0 0.16417220099380411 0.12505127510387981 0 0.15364605026385231 0.1227496740475859 0 0.15839207309433961 0.10550736800805539 0 0.16417220099380411 0.12505127510387981 0 0.17503238870283441 0.11050561364494491 0 0.18002451345814399 0.12716596121819479 0 0.16417220099380411 0.12505127510387981 0 0.17503238870283441 0.11050561364494491 0 0.18002451345814399 0.12716596121819479 0 0.2001236667938262 0.1180422718546187 0 0.17503238870283441 0.11050561364494491 0 0.1916307843626972 0.08827444688259839 0 0.1705578526620479 0.095927182961129481 0 0.17503238870283441 0.11050561364494491 0 0.1916307843626972 0.08827444688259839 0 0.17503238870283441 0.11050561364494491 0 0.1916307843626972 0.08827444688259839 0 0.17935943521264269 0.07135827912697662 0 0.16988015521188329 0.08282073200015258 0 0.1916307843626972 0.08827444688259839 0 0.1705578526620479 0.095927182961129481 0 0.16988015521188329 0.08282073200015258 0 0.19067723801237901 0.065525043857756982 0 0.1916307843626972 0.08827444688259839 0 0.17935943521264269 0.07135827912697662 0 0.19067723801237901 0.065525043857756982 0 0.17734631865053521 0.060730067185729229 0 0.17935943521264269 0.07135827912697662 0 0.17734631865053521 0.060730067185729229 0 0.17935943521264269 0.07135827912697662 0 0.1653937448538241 0.067538194789913991 0 0.17935943521264269 0.07135827912697662 0 0.1653937448538241 0.067538194789913991 0 0.16988015521188329 0.08282073200015258 0 0.15507694825043991 0.057889849327421902 0 0.15260580868734391 0.069203578475014266 0 0.1653937448538241 0.067538194789913991 0 0.15260580868734391 0.069203578475014266 0 0.1653937448538241 0.067538194789913991 0 0.15677919641446331 0.080277826610221981 0 0.1653937448538241 0.067538194789913991 0 0.15677919641446331 0.080277826610221981 0 0.16988015521188329 0.08282073200015258 0 0.15677919641446331 0.080277826610221981 0 0.157853861938485 0.092527754269896317 0 0.16988015521188329 0.08282073200015258 0 0.1705578526620479 0.095927182961129481 0 0.157853861938485 0.092527754269896317 0 0.16988015521188329 0.08282073200015258 0 0.099456207782380623 0.4822659283708195 0 0.1141892196830592 0.48396198267476093 0 0.11304725129434449 0.46767028325629811 0 0.099456207782380623 0.4822659283708195 0 0.11304725129434449 0.46767028325629811 0 0.096803680563272876 0.46646214520586099 0 0.099456207782380623 0.4822659283708195 0 0.10782601469385079 0.5 0 0.078267650747156567 0.50000000000000133 0 0.099456207782380623 0.4822659283708195 0 0.10782601469385079 0.5 0 0.1141892196830592 0.48396198267476093 0 0.10782601469385079 0.5 0 0.1249193769550877 0.49369376296818718 0 0.1141892196830592 0.48396198267476093 0 0.1249193769550877 0.49369376296818718 0 0.1141892196830592 0.48396198267476093 0 0.12569724768963239 0.47617993877849962 0 0.10782601469385079 0.5 0 0.1249193769550877 0.49369376296818718 0 0.13738437864054501 0.5 0 0.1141892196830592 0.48396198267476093 0 0.11304725129434449 0.46767028325629811 0 0.12569724768963239 0.47617993877849962 0 0.11304725129434449 0.46767028325629811 0 0.1267882431275838 0.46370707134437261 0 0.12569724768963239 0.47617993877849962 0 0.11304725129434449 0.46767028325629811 0 0.1221607865463437 0.4507156547582637 0 0.1004821270038239 0.44949914822431608 0 0.11304725129434449 0.46767028325629811 0 0.1221607865463437 0.4507156547582637 0 0.1267882431275838 0.46370707134437261 0 0.1221607865463437 0.4507156547582637 0 0.1004821270038239 0.44949914822431608 0 0.12259086230274099 0.42947812748907283 0 0.1004821270038239 0.44949914822431608 0 0.096803680563272876 0.46646214520586099 0 0.084307548883437972 0.45862843933572522 0 0.11304725129434449 0.46767028325629811 0 0.1004821270038239 0.44949914822431608 0 0.096803680563272876 0.46646214520586099 0 0.084307548883437972 0.45862843933572522 0 0.070120974899159305 0.46867166915081548 0 0.08254081050968877 0.47642281665818748 0 0.096803680563272876 0.46646214520586099 0 0.084307548883437972 0.45862843933572522 0 0.08254081050968877 0.47642281665818748 0 0.084307548883437972 0.45862843933572522 0 0.083205653112744402 0.44008551456546158 0 0.070599818540594342 0.45171728711773013 0 0.1004821270038239 0.44949914822431608 0 0.084307548883437972 0.45862843933572522 0 0.083205653112744402 0.44008551456546158 0 0.1004821270038239 0.44949914822431608 0 0.083205653112744402 0.44008551456546158 0 0.095892719888732866 0.42453745382262881 0 0.070599818540594342 0.45171728711773013 0 0.057347956450285731 0.44480695268810438 0 0.068330088192809502 0.43602814955066621 0 0.083205653112744402 0.44008551456546158 0 0.070599818540594342 0.45171728711773013 0 0.068330088192809502 0.43602814955066621 0 0.070599818540594342 0.45171728711773013 0 0.070120974899159305 0.46867166915081548 0 0.05832870883015126 0.45973880463956351 0 0.084307548883437972 0.45862843933572522 0 0.070599818540594342 0.45171728711773013 0 0.070120974899159305 0.46867166915081548 0 0.070120974899159305 0.46867166915081548 0 0.08254081050968877 0.47642281665818748 0 0.061557047466102868 0.48310025102256282 0 0.070120974899159305 0.46867166915081548 0 0.061557047466102868 0.48310025102256282 0 0.05832870883015126 0.45973880463956351 0 0.099456207782380623 0.4822659283708195 0 0.096803680563272876 0.46646214520586099 0 0.08254081050968877 0.47642281665818748 0 0.099456207782380623 0.4822659283708195 0 0.08254081050968877 0.47642281665818748 0 0.078267650747156567 0.50000000000000133 0 0.078267650747156567 0.50000000000000133 0 0.049166882519808157 0.5 0 0.061557047466102868 0.48310025102256282 0 0.08254081050968877 0.47642281665818748 0 0.078267650747156567 0.50000000000000133 0 0.061557047466102868 0.48310025102256282 0 0.078267650747156567 0.50000000000000133 0 0.061557047466102868 0.48310025102256282 0 0.049166882519808157 0.5 0 0.061557047466102868 0.48310025102256282 0 0.038208171894904559 0.48286056860770488 0 0.061557047466102868 0.48310025102256282 0 0.044846444185049857 0.46620050204512359 0 0.05832870883015126 0.45973880463956351 0 0.061557047466102868 0.48310025102256282 0 0.044846444185049857 0.46620050204512359 0 0.061557047466102868 0.48310025102256282 0 0.038208171894904559 0.48286056860770488 0 0.044846444185049857 0.46620050204512359 0 0.038208171894904559 0.48286056860770488 0 0.029572045059576241 0.469060477695939 0 0.044846444185049857 0.46620050204512359 0 0.049166882519808157 0.5 0 0.038208171894904559 0.48286056860770488 0 0.020066114292459799 0.5 0 0.038208171894904559 0.48286056860770488 0 0.020066114292459799 0.5 0 0.021055159894441029 0.48095839664786189 0 0.038208171894904559 0.48286056860770488 0 0.029572045059576241 0.469060477695939 0 0.021055159894441029 0.48095839664786189 0 0.029572045059576241 0.469060477695939 0 0.021055159894441029 0.48095839664786189 0 0.01561460841948897 0.46598216811131982 0 0.021055159894441029 0.48095839664786189 0 0.0030933759349822849 0.48266358315495572 0 0.01561460841948897 0.46598216811131982 0 0.0030933759349822849 0.48266358315495572 0 0.01561460841948897 0.46598216811131982 0 0.0036787250480955699 0.47408322248379448 0 0.0030933759349822849 0.48266358315495572 0 0.01561460841948897 0.46598216811131982 0 -0.0016340076521478781 0.48633642657919801 0 0.0036787250480955699 0.47408322248379448 0 0.0030933759349822849 0.48266358315495572 0 0.020066114292459799 0.5 0 0.021055159894441029 0.48095839664786189 0 0.0030933759349822849 0.48266358315495572 0 -0.0090346539348886701 0.5 0 -0.0016340076521478781 0.48633642657919801 0 0.020066114292459799 0.5 0 -0.0016340076521478781 0.48633642657919801 0 0.020066114292459799 0.5 0 0.0030933759349822849 0.48266358315495572 0 -0.0030841453677343121 0.43636499760021141 0 -0.002359076509941094 0.46135071208970457 0 0.010470448459028871 0.45111158928184719 0 -0.0030841453677343121 0.43636499760021141 0 0.010470448459028871 0.45111158928184719 0 0.017893296784651399 0.43894227458572882 0 -0.002359076509941094 0.46135071208970457 0 0.010470448459028871 0.45111158928184719 0 0.01561460841948897 0.46598216811131982 0 -0.002359076509941094 0.46135071208970457 0 0.0036787250480955699 0.47408322248379448 0 0.01561460841948897 0.46598216811131982 0 0.010470448459028871 0.45111158928184719 0 0.01561460841948897 0.46598216811131982 0 0.0281358409039968 0.44930075306768458 0 0.029572045059576241 0.469060477695939 0 0.01561460841948897 0.46598216811131982 0 0.0281358409039968 0.44930075306768458 0 0.01561460841948897 0.46598216811131982 0 0.0281358409039968 0.44930075306768458 0 0.010470448459028871 0.45111158928184719 0 0.0281358409039968 0.44930075306768458 0 0.017893296784651399 0.43894227458572882 0 0.0281358409039968 0.44930075306768458 0 0.017893296784651399 0.43894227458572882 0 0.03800042812263172 0.43615865433005307 0 0.0281358409039968 0.44930075306768458 0 0.017893296784651399 0.43894227458572882 0 0.0281358409039968 0.44930075306768458 0 0.04587361322417214 0.448769157871174 0 0.03800042812263172 0.43615865433005307 0 0.0281358409039968 0.44930075306768458 0 0.03800042812263172 0.43615865433005307 0 0.04587361322417214 0.448769157871174 0 0.049411209704934803 0.43621283219101809 0 0.03800042812263172 0.43615865433005307 0 0.029572045059576241 0.469060477695939 0 0.0281358409039968 0.44930075306768458 0 0.044846444185049857 0.46620050204512359 0 0.0281358409039968 0.44930075306768458 0 0.04587361322417214 0.448769157871174 0 0.044846444185049857 0.46620050204512359 0 0.0281358409039968 0.44930075306768458 0 0.044846444185049857 0.46620050204512359 0 0.04587361322417214 0.448769157871174 0 0.044846444185049857 0.46620050204512359 0 0.05832870883015126 0.45973880463956351 0 0.04587361322417214 0.448769157871174 0 0.057347956450285731 0.44480695268810438 0 0.049411209704934803 0.43621283219101809 0 0.04587361322417214 0.448769157871174 0 0.05832870883015126 0.45973880463956351 0 0.057347956450285731 0.44480695268810438 0 0.070599818540594342 0.45171728711773013 0 0.05832870883015126 0.45973880463956351 0 0.057347956450285731 0.44480695268810438 0 0.057347956450285731 0.44480695268810438 0 0.058238482531349368 0.43512174465279091 0 0.068330088192809502 0.43602814955066621 0 0.057347956450285731 0.44480695268810438 0 0.058238482531349368 0.43512174465279091 0 0.049411209704934803 0.43621283219101809 0 0.058238482531349368 0.43512174465279091 0 0.05412352915042095 0.42739076434297479 0 0.063786863135573219 0.4234822836218442 0 0.05412352915042095 0.42739076434297479 0 0.047865015341267358 0.42301655559242213 0 0.049411209704934803 0.43621283219101809 0 0.05412352915042095 0.42739076434297479 0 0.047865015341267358 0.42301655559242213 0 0.058238482531349368 0.43512174465279091 0 0.05412352915042095 0.42739076434297479 0 0.049411209704934803 0.43621283219101809 0 0.047865015341267358 0.42301655559242213 0 0.055388731832649349 0.41299308245440008 0 0.044385004541519633 0.40583709082877739 0 0.055388731832649349 0.41299308245440008 0 0.057103340742871267 0.4006394318358022 0 0.0691327228978319 0.40699071288372829 0 0.05412352915042095 0.42739076434297479 0 0.055388731832649349 0.41299308245440008 0 0.063786863135573219 0.4234822836218442 0 0.047865015341267358 0.42301655559242213 0 0.055388731832649349 0.41299308245440008 0 0.05412352915042095 0.42739076434297479 0 0.047865015341267358 0.42301655559242213 0 0.055388731832649349 0.41299308245440008 0 0.055388731832649349 0.41299308245440008 0 0.044385004541519633 0.40583709082877739 0 0.057103340742871267 0.4006394318358022 0 0.047865015341267358 0.42301655559242213 0 0.030398582533070099 0.41080889326869052 0 0.044385004541519633 0.40583709082877739 0 0.047865015341267358 0.42301655559242213 0 0.035686717363660143 0.42423985257235269 0 0.030398582533070099 0.41080889326869052 0 0.047865015341267358 0.42301655559242213 0 0.030398582533070099 0.41080889326869052 0 0.047865015341267358 0.42301655559242213 0 0.049411209704934803 0.43621283219101809 0 0.03800042812263172 0.43615865433005307 0 0.047865015341267358 0.42301655559242213 0 0.03800042812263172 0.43615865433005307 0 0.047865015341267358 0.42301655559242213 0 0.035686717363660143 0.42423985257235269 0 0.03800042812263172 0.43615865433005307 0 0.035686717363660143 0.42423985257235269 0 0.03800042812263172 0.43615865433005307 0 0.0264828434576714 0.42697530709824522 0 0.017893296784651399 0.43894227458572882 0 0.0264828434576714 0.42697530709824522 0 0.013451351612083251 0.42022136891186163 0 0.017893296784651399 0.43894227458572882 0 0.03800042812263172 0.43615865433005307 0 0.0264828434576714 0.42697530709824522 0 0.030398582533070099 0.41080889326869052 0 0.013451351612083251 0.42022136891186163 0 0.012932149724872831 0.39860123094495892 0 0.0264828434576714 0.42697530709824522 0 0.030398582533070099 0.41080889326869052 0 0.013451351612083251 0.42022136891186163 0 0.035686717363660143 0.42423985257235269 0 0.0264828434576714 0.42697530709824522 0 0.030398582533070099 0.41080889326869052 0 -0.0038092142255275289 0.41137928311071797 0 0.013451351612083251 0.42022136891186163 0 0.012932149724872831 0.39860123094495892 0 -0.0030841453677343121 0.43636499760021141 0 0.017893296784651399 0.43894227458572882 0 0.013451351612083251 0.42022136891186163 0 -0.0030841453677343121 0.43636499760021141 0 -0.0038092142255275289 0.41137928311071797 0 0.013451351612083251 0.42022136891186163 0 -0.0045342830833226501 0.3863935686212247 0 0.012932149724872831 0.39860123094495892 0 0.0079023355216259559 0.37348921158265391 0 0.012932149724872831 0.39860123094495892 0 0.025375843575522711 0.38021681034322929 0 0.0079023355216259559 0.37348921158265391 0 -0.0045342830833226501 0.3863935686212247 0 0.012932149724872831 0.39860123094495892 0 -0.0045342830833226501 0.3863935686212247 0 -0.0038092142255275289 0.41137928311071797 0 0.012932149724872831 0.39860123094495892 0 0.030398582533070099 0.41080889326869052 0 0.012932149724872831 0.39860123094495892 0 0.030398582533070099 0.41080889326869052 0 0.012932149724872831 0.39860123094495892 0 0.030218872497922818 0.39559608178221078 0 0.012932149724872831 0.39860123094495892 0 0.030218872497922818 0.39559608178221078 0 0.025375843575522711 0.38021681034322929 0 0.025375843575522711 0.38021681034322929 0 0.045236422390978262 0.39339421550307069 0 0.045418656597819553 0.37354288132317159 0 0.030218872497922818 0.39559608178221078 0 0.025375843575522711 0.38021681034322929 0 0.045236422390978262 0.39339421550307069 0 0.030398582533070099 0.41080889326869052 0 0.030218872497922818 0.39559608178221078 0 0.044385004541519633 0.40583709082877739 0 0.030218872497922818 0.39559608178221078 0 0.045236422390978262 0.39339421550307069 0 0.044385004541519633 0.40583709082877739 0 0.045236422390978262 0.39339421550307069 0 0.057103340742871267 0.4006394318358022 0 0.06607043693335328 0.38973814947632979 0 0.045236422390978262 0.39339421550307069 0 0.044385004541519633 0.40583709082877739 0 0.057103340742871267 0.4006394318358022 0 0.045236422390978262 0.39339421550307069 0 0.06607043693335328 0.38973814947632979 0 0.045418656597819553 0.37354288132317159 0 0.06607043693335328 0.38973814947632979 0 0.066778362586220691 0.36264744131756171 0 0.045418656597819553 0.37354288132317159 0 0.06607043693335328 0.38973814947632979 0 0.086713905658550791 0.37461406501925459 0 0.066778362586220691 0.36264744131756171 0 0.091303312773641829 0.3995757594209417 0 0.1025776524751303 0.38486691706586951 0 0.086713905658550791 0.37461406501925459 0 0.06607043693335328 0.38973814947632979 0 0.091303312773641829 0.3995757594209417 0 0.086713905658550791 0.37461406501925459 0 0.091303312773641829 0.3995757594209417 0 0.086713905658550791 0.37461406501925459 0 0.06607043693335328 0.38973814947632979 0 0.091303312773641829 0.3995757594209417 0 0.0691327228978319 0.40699071288372829 0 0.057103340742871267 0.4006394318358022 0 0.06607043693335328 0.38973814947632979 0 0.0691327228978319 0.40699071288372829 0 0.055388731832649349 0.41299308245440008 0 0.0691327228978319 0.40699071288372829 0 0.063786863135573219 0.4234822836218442 0 0.0691327228978319 0.40699071288372829 0 0.077714875811277062 0.4214876261871765 0 0.063786863135573219 0.4234822836218442 0 0.083205653112744402 0.44008551456546158 0 0.077714875811277062 0.4214876261871765 0 0.068330088192809502 0.43602814955066621 0 0.058238482531349368 0.43512174465279091 0 0.068330088192809502 0.43602814955066621 0 0.063786863135573219 0.4234822836218442 0 0.077714875811277062 0.4214876261871765 0 0.068330088192809502 0.43602814955066621 0 0.063786863135573219 0.4234822836218442 0 0.083205653112744402 0.44008551456546158 0 0.077714875811277062 0.4214876261871765 0 0.095892719888732866 0.42453745382262881 0 0.091303312773641829 0.3995757594209417 0 0.0691327228978319 0.40699071288372829 0 0.077714875811277062 0.4214876261871765 0 0.091303312773641829 0.3995757594209417 0 0.095892719888732866 0.42453745382262881 0 0.091303312773641829 0.3995757594209417 0 0.077714875811277062 0.4214876261871765 0 0.095892719888732866 0.42453745382262881 0 0.091303312773641829 0.3995757594209417 0 0.095892719888732866 0.42453745382262881 0 0.115428724103706 0.40267530492779557 0 0.1004821270038239 0.44949914822431608 0 0.095892719888732866 0.42453745382262881 0 0.12259086230274099 0.42947812748907283 0 0.1004821270038239 0.44949914822431608 0 0.095892719888732866 0.42453745382262881 0 0.095892719888732866 0.42453745382262881 0 0.12259086230274099 0.42947812748907283 0 0.115428724103706 0.40267530492779557 0 0.115428724103706 0.40267530492779557 0 0.119448870245615 0.38256434187866972 0 0.13692284990477191 0.38930777957628943 0 0.119448870245615 0.38256434187866972 0 0.1025776524751303 0.38486691706586951 0 0.1087205780393706 0.3656269003386084 0 0.115428724103706 0.40267530492779557 0 0.119448870245615 0.38256434187866972 0 0.1025776524751303 0.38486691706586951 0 0.1025776524751303 0.38486691706586951 0 0.1087205780393706 0.3656269003386084 0 0.086713905658550791 0.37461406501925459 0 0.091303312773641829 0.3995757594209417 0 0.115428724103706 0.40267530492779557 0 0.1025776524751303 0.38486691706586951 0 0.1087205780393706 0.3656269003386084 0 0.1202868522871179 0.34060046584014031 0 0.0915497208986496 0.34709204532757532 0 0.1087205780393706 0.3656269003386084 0 0.0915497208986496 0.34709204532757532 0 0.086713905658550791 0.37461406501925459 0 0.119448870245615 0.38256434187866972 0 0.1087205780393706 0.3656269003386084 0 0.13274728415341139 0.36410634055334368 0 0.1087205780393706 0.3656269003386084 0 0.1202868522871179 0.34060046584014031 0 0.13274728415341139 0.36410634055334368 0 0.1202868522871179 0.34060046584014031 0 0.1104734498024164 0.31171603628350752 0 0.14183880654046921 0.32250528078568202 0 0.1202868522871179 0.34060046584014031 0 0.1016552612267161 0.33013161519950079 0 0.1104734498024164 0.31171603628350752 0 0.1016552612267161 0.33013161519950079 0 0.081254576285268804 0.3210829637434266 0 0.1104734498024164 0.31171603628350752 0 0.1202868522871179 0.34060046584014031 0 0.1016552612267161 0.33013161519950079 0 0.0915497208986496 0.34709204532757532 0 0.081254576285268804 0.3210829637434266 0 0.072654821413094289 0.33942743407960763 0 0.0915497208986496 0.34709204532757532 0 0.1016552612267161 0.33013161519950079 0 0.081254576285268804 0.3210829637434266 0 0.0915497208986496 0.34709204532757532 0 0.081254576285268804 0.3210829637434266 0 0.06358813508901956 0.32234581427363851 0 0.071244474661197085 0.3036312559279935 0 0.081254576285268804 0.3210829637434266 0 0.06358813508901956 0.32234581427363851 0 0.072654821413094289 0.33942743407960763 0 0.06358813508901956 0.32234581427363851 0 0.072654821413094289 0.33942743407960763 0 0.055199983679349987 0.34246375673151652 0 0.072654821413094289 0.33942743407960763 0 0.066778362586220691 0.36264744131756171 0 0.055199983679349987 0.34246375673151652 0 0.072654821413094289 0.33942743407960763 0 0.0915497208986496 0.34709204532757532 0 0.066778362586220691 0.36264744131756171 0 0.0915497208986496 0.34709204532757532 0 0.086713905658550791 0.37461406501925459 0 0.066778362586220691 0.36264744131756171 0 0.066778362586220691 0.36264744131756171 0 0.044951457965310811 0.3555124197003488 0 0.045418656597819553 0.37354288132317159 0 0.066778362586220691 0.36264744131756171 0 0.044951457965310811 0.3555124197003488 0 0.055199983679349987 0.34246375673151652 0 0.044951457965310811 0.3555124197003488 0 0.021903196078839001 0.35746348141110651 0 0.035457090884324839 0.34144453771838768 0 0.044951457965310811 0.3555124197003488 0 0.035457090884324839 0.34144453771838768 0 0.055199983679349987 0.34246375673151652 0 0.044951457965310811 0.3555124197003488 0 0.045418656597819553 0.37354288132317159 0 0.021903196078839001 0.35746348141110651 0 0.025375843575522711 0.38021681034322929 0 0.021903196078839001 0.35746348141110651 0 0.0079023355216259559 0.37348921158265391 0 0.025375843575522711 0.38021681034322929 0 0.045418656597819553 0.37354288132317159 0 0.021903196078839001 0.35746348141110651 0 0.021903196078839001 0.35746348141110651 0 0.017151683724365509 0.3376665205351736 0 0.035457090884324839 0.34144453771838768 0 0.021903196078839001 0.35746348141110651 0 0.0095650341834115256 0.34490192427506011 0 0.017151683724365509 0.3376665205351736 0 0.021903196078839001 0.35746348141110651 0 0.0095650341834115256 0.34490192427506011 0 0.0061318462344260851 0.35417601161121459 0 -0.0050552824635438226 0.34569829691311771 0 0.0095650341834115256 0.34490192427506011 0 0.0061318462344260851 0.35417601161121459 0 0.021903196078839001 0.35746348141110651 0 0.0061318462344260851 0.35417601161121459 0 0.0079023355216259559 0.37348921158265391 0 -0.0052616759920083916 0.36132776784546622 0 0.0061318462344260851 0.35417601161121459 0 0.0079023355216259559 0.37348921158265391 0 0.0087281755863181168 0.33049580891976171 0 0.020410497070949891 0.30832150289807031 0 0.0056044744337335906 0.31412092038659428 0 0.0087281755863181168 0.33049580891976171 0 0.020410497070949891 0.30832150289807031 0 -0.003280447873963227 0.32161399115684158 0 0.0056044744337335906 0.31412092038659428 0 0.0087281755863181168 0.33049580891976171 0 0.0064742168078369342 0.3347740657525386 0 0.0087281755863181168 0.33049580891976171 0 -0.0050552824635438226 0.34569829691311771 0 0.0095650341834115256 0.34490192427506011 0 0.0064742168078369342 0.3347740657525386 0 0.0095650341834115256 0.34490192427506011 0 0.0064742168078369342 0.3347740657525386 0 0.017151683724365509 0.3376665205351736 0 0.0064742168078369342 0.3347740657525386 0 0.0087281755863181168 0.33049580891976171 0 0.017151683724365509 0.3376665205351736 0 0.0087281755863181168 0.33049580891976171 0 0.025353163704189718 0.33024288796319817 0 0.017151683724365509 0.3376665205351736 0 0.0087281755863181168 0.33049580891976171 0 0.025353163704189718 0.33024288796319817 0 0.025353163704189718 0.33024288796319817 0 0.017151683724365509 0.3376665205351736 0 0.035457090884324839 0.34144453771838768 0 0.0087281755863181168 0.33049580891976171 0 0.025353163704189718 0.33024288796319817 0 0.020410497070949891 0.30832150289807031 0 0.025353163704189718 0.33024288796319817 0 0.038017806832533571 0.30672300381527179 0 0.020410497070949891 0.30832150289807031 0 0.025353163704189718 0.33024288796319817 0 0.045812945845809312 0.32351293560108041 0 0.038017806832533571 0.30672300381527179 0 0.025353163704189718 0.33024288796319817 0 0.045812945845809312 0.32351293560108041 0 0.035457090884324839 0.34144453771838768 0 0.045812945845809312 0.32351293560108041 0 0.035457090884324839 0.34144453771838768 0 0.055199983679349987 0.34246375673151652 0 0.06358813508901956 0.32234581427363851 0 0.045812945845809312 0.32351293560108041 0 0.055199983679349987 0.34246375673151652 0 0.06358813508901956 0.32234581427363851 0 0.045812945845809312 0.32351293560108041 0 0.055148108477292443 0.3057593846019967 0 0.055148108477292443 0.3057593846019967 0 0.047586914097201803 0.29032131063477928 0 0.038017806832533571 0.30672300381527179 0 0.055148108477292443 0.3057593846019967 0 0.047586914097201803 0.29032131063477928 0 0.066935962560195753 0.28615893812798288 0 0.047586914097201803 0.29032131063477928 0 0.050578246113349837 0.27455429857722041 0 0.066935962560195753 0.28615893812798288 0 0.047586914097201803 0.29032131063477928 0 0.032092818555581597 0.28614719687637868 0 0.038017806832533571 0.30672300381527179 0 0.047586914097201803 0.29032131063477928 0 0.032092818555581597 0.28614719687637868 0 0.050578246113349837 0.27455429857722041 0 0.045812945845809312 0.32351293560108041 0 0.055148108477292443 0.3057593846019967 0 0.038017806832533571 0.30672300381527179 0 0.032092818555581597 0.28614719687637868 0 0.038017806832533571 0.30672300381527179 0 0.020410497070949891 0.30832150289807031 0 0.032092818555581597 0.28614719687637868 0 0.020410497070949891 0.30832150289807031 0 0.032092818555581597 0.28614719687637868 0 0.020410497070949891 0.30832150289807031 0 0.0083336089875100904 0.29343585490586271 0 0.032092818555581597 0.28614719687637868 0 0.0083336089875100904 0.29343585490586271 0 0.021382191810826279 0.2686960609189637 0 -0.0088759444352828343 0.31092800175718183 0 0.0056044744337335906 0.31412092038659428 0 0.0083336089875100904 0.29343585490586271 0 0.0056044744337335906 0.31412092038659428 0 0.020410497070949891 0.30832150289807031 0 0.0083336089875100904 0.29343585490586271 0 0.0073806355134042019 0.25529449578482938 0 3.3590645499582607e-05 0.27236849017123349 0 0.021382191810826279 0.2686960609189637 0 0.0083336089875100904 0.29343585490586271 0 3.3590645499582607e-05 0.27236849017123349 0 0.021382191810826279 0.2686960609189637 0 0.025149977659741599 0.24684982625080901 0 0.0073806355134042019 0.25529449578482938 0 0.021382191810826279 0.2686960609189637 0 0.025149977659741599 0.24684982625080901 0 0.021382191810826279 0.2686960609189637 0 0.043775140040213267 0.26397289085468728 0 0.025149977659741599 0.24684982625080901 0 0.045472231705318063 0.24424317023843681 0 0.050158093690384618 0.2598810672441918 0 0.025149977659741599 0.24684982625080901 0 0.050158093690384618 0.2598810672441918 0 0.025149977659741599 0.24684982625080901 0 0.043775140040213267 0.26397289085468728 0 0.050158093690384618 0.2598810672441918 0 0.032092818555581597 0.28614719687637868 0 0.043775140040213267 0.26397289085468728 0 0.032092818555581597 0.28614719687637868 0 0.021382191810826279 0.2686960609189637 0 0.043775140040213267 0.26397289085468728 0 0.032092818555581597 0.28614719687637868 0 0.043775140040213267 0.26397289085468728 0 0.050578246113349837 0.27455429857722041 0 0.050578246113349837 0.27455429857722041 0 0.063875668081316214 0.2678607518654692 0 0.066935962560195753 0.28615893812798288 0 0.043775140040213267 0.26397289085468728 0 0.050578246113349837 0.27455429857722041 0 0.050158093690384618 0.2598810672441918 0 0.050578246113349837 0.27455429857722041 0 0.056046126259945157 0.25263236173372139 0 0.063875668081316214 0.2678607518654692 0 0.050578246113349837 0.27455429857722041 0 0.050158093690384618 0.2598810672441918 0 0.056046126259945157 0.25263236173372139 0 0.045472231705318063 0.24424317023843681 0 0.050158093690384618 0.2598810672441918 0 0.056046126259945157 0.25263236173372139 0 0.050578246113349837 0.27455429857722041 0 0.056046126259945157 0.25263236173372139 0 0.078525547080241467 0.2465942846531784 0 0.067905867336300579 0.25358800162702 0 0.079567988853459573 0.27014218499250892 0 0.067905867336300579 0.25358800162702 0 0.079567988853459573 0.27014218499250892 0 0.063875668081316214 0.2678607518654692 0 0.056046126259945157 0.25263236173372139 0 0.067905867336300579 0.25358800162702 0 0.063875668081316214 0.2678607518654692 0 0.078525547080241467 0.2465942846531784 0 0.079567988853459573 0.27014218499250892 0 0.093798877441032588 0.2579700649065903 0 0.079567988853459573 0.27014218499250892 0 0.063875668081316214 0.2678607518654692 0 0.066935962560195753 0.28615893812798288 0 0.079567988853459573 0.27014218499250892 0 0.066935962560195753 0.28615893812798288 0 0.087430381393448858 0.29852998767476718 0 0.066935962560195753 0.28615893812798288 0 0.071244474661197085 0.3036312559279935 0 0.087430381393448858 0.29852998767476718 0 0.055148108477292443 0.3057593846019967 0 0.066935962560195753 0.28615893812798288 0 0.071244474661197085 0.3036312559279935 0 0.06358813508901956 0.32234581427363851 0 0.055148108477292443 0.3057593846019967 0 0.071244474661197085 0.3036312559279935 0 0.081254576285268804 0.3210829637434266 0 0.087430381393448858 0.29852998767476718 0 0.1104734498024164 0.31171603628350752 0 0.081254576285268804 0.3210829637434266 0 0.071244474661197085 0.3036312559279935 0 0.087430381393448858 0.29852998767476718 0 0.079567988853459573 0.27014218499250892 0 0.087430381393448858 0.29852998767476718 0 0.1079828451826004 0.27738565586056829 0 0.087430381393448858 0.29852998767476718 0 0.1104734498024164 0.31171603628350752 0 0.1079828451826004 0.27738565586056829 0 0.1104734498024164 0.31171603628350752 0 0.1079828451826004 0.27738565586056829 0 0.13401849175413849 0.29214957311260448 0 0.1079828451826004 0.27738565586056829 0 0.13401849175413849 0.29214957311260448 0 0.1100607559553454 0.25396994184181759 0 0.1079828451826004 0.27738565586056829 0 0.13366986361514199 0.26692500362740812 0 0.12787711237058769 0.24521089126939841 0 0.1100607559553454 0.25396994184181759 0 0.13366986361514199 0.26692500362740812 0 0.092857250133516089 0.24175825718487831 0 0.1100607559553454 0.25396994184181759 0 0.093798877441032588 0.2579700649065903 0 0.1100607559553454 0.25396994184181759 0 0.093798877441032588 0.2579700649065903 0 0.1079828451826004 0.27738565586056829 0 0.079567988853459573 0.27014218499250892 0 0.093798877441032588 0.2579700649065903 0 0.1079828451826004 0.27738565586056829 0 0.13366986361514199 0.26692500362740812 0 0.1558685034792309 0.28595093384994291 0 0.15959452244756481 0.26367036214955358 0 0.14702044576598061 0.2478904659134552 0 0.13366986361514199 0.26692500362740812 0 0.15959452244756481 0.26367036214955358 0 0.14702044576598061 0.2478904659134552 0 0.12787711237058769 0.24521089126939841 0 0.13366986361514199 0.26692500362740812 0 0.1079828451826004 0.27738565586056829 0 0.13366986361514199 0.26692500362740812 0 0.13401849175413849 0.29214957311260448 0 0.1104734498024164 0.31171603628350752 0 0.13401849175413849 0.29214957311260448 0 0.14183880654046921 0.32250528078568202 0 0.13401849175413849 0.29214957311260448 0 0.16005413832567669 0.30691349036464077 0 0.14183880654046921 0.32250528078568202 0 0.13401849175413849 0.29214957311260448 0 0.16005413832567669 0.30691349036464077 0 0.13401849175413849 0.29214957311260448 0 0.1558685034792309 0.28595093384994291 0 0.16005413832567669 0.30691349036464077 0 0.13366986361514199 0.26692500362740812 0 0.13401849175413849 0.29214957311260448 0 0.1558685034792309 0.28595093384994291 0 0.1558685034792309 0.28595093384994291 0 0.1700220001876428 0.28782965529906401 0 0.16005413832567669 0.30691349036464077 0 0.1558685034792309 0.28595093384994291 0 0.1700220001876428 0.28782965529906401 0 0.17370236977615991 0.27502287964280692 0 0.1700220001876428 0.28782965529906401 0 0.16005413832567669 0.30691349036464077 0 0.1764196225356903 0.29880027385689728 0 0.16005413832567669 0.30691349036464077 0 0.1764196225356903 0.29880027385689728 0 0.18686192329242929 0.31378732528256248 0 0.1764196225356903 0.29880027385689728 0 0.18674031124236579 0.30201460306836742 0 0.19086383386244751 0.2907864273273883 0 0.1764196225356903 0.29880027385689728 0 0.18674031124236579 0.30201460306836742 0 0.18686192329242929 0.31378732528256248 0 0.1700220001876428 0.28782965529906401 0 0.18013512871176271 0.28566990799825959 0 0.17370236977615991 0.27502287964280692 0 0.1700220001876428 0.28782965529906401 0 0.1764196225356903 0.29880027385689728 0 0.18013512871176271 0.28566990799825959 0 0.1764196225356903 0.29880027385689728 0 0.18013512871176271 0.28566990799825959 0 0.19086383386244751 0.2907864273273883 0 0.18013512871176271 0.28566990799825959 0 0.1896678171968729 0.27591030386514148 0 0.19086383386244751 0.2907864273273883 0 0.18251379545819379 0.26835647973838378 0 0.17370236977615991 0.27502287964280692 0 0.1896678171968729 0.27591030386514148 0 0.18013512871176271 0.28566990799825959 0 0.17370236977615991 0.27502287964280692 0 0.1896678171968729 0.27591030386514148 0 0.18251379545819379 0.26835647973838378 0 0.17370236977615991 0.27502287964280692 0 0.17699066645021869 0.2595722272450377 0 0.17370236977615991 0.27502287964280692 0 0.15959452244756481 0.26367036214955358 0 0.17699066645021869 0.2595722272450377 0 0.1558685034792309 0.28595093384994291 0 0.17370236977615991 0.27502287964280692 0 0.15959452244756481 0.26367036214955358 0 0.16774616909827719 0.2460930353984315 0 0.15959452244756481 0.26367036214955358 0 0.17699066645021869 0.2595722272450377 0 0.14702044576598061 0.2478904659134552 0 0.16774616909827719 0.2460930353984315 0 0.15959452244756481 0.26367036214955358 0 0.18692125413578081 0.24552837502103991 0 0.16774616909827719 0.2460930353984315 0 0.17699066645021869 0.2595722272450377 0 0.18692125413578081 0.24552837502103991 0 0.17699066645021869 0.2595722272450377 0 0.19242781921148469 0.26384338938458129 0 0.18251379545819379 0.26835647973838378 0 0.17699066645021869 0.2595722272450377 0 0.19242781921148469 0.26384338938458129 0 0.18692125413578081 0.24552837502103991 0 0.19242781921148469 0.26384338938458129 0 0.20107379594449931 0.25686311186437227 0 0.18692125413578081 0.24552837502103991 0 0.20107379594449931 0.25686311186437227 0 0.19242781921148469 0.26384338938458129 0 0.20107379594449931 0.25686311186437227 0 0.2008998280478862 0.26959186196165702 0 0.19242781921148469 0.26384338938458129 0 0.20107379594449931 0.25686311186437227 0 0.19242781921148469 0.26384338938458129 0 0.1896678171968729 0.27591030386514148 0 0.2008998280478862 0.26959186196165702 0 0.18251379545819379 0.26835647973838378 0 0.19242781921148469 0.26384338938458129 0 0.1896678171968729 0.27591030386514148 0 0.1896678171968729 0.27591030386514148 0 0.2008998280478862 0.26959186196165702 0 0.20354188417430641 0.281093168015905 0 0.2008998280478862 0.26959186196165702 0 0.2177878237122676 0.27024933667828532 0 0.20354188417430641 0.281093168015905 0 0.2177878237122676 0.27024933667828532 0 0.20354188417430641 0.281093168015905 0 0.2166033006779626 0.28924568688104418 0 0.21557305570370441 0.24515722135805329 0 0.20107379594449931 0.25686311186437227 0 0.2177878237122676 0.27024933667828532 0 0.20107379594449931 0.25686311186437227 0 0.2177878237122676 0.27024933667828532 0 0.20107379594449931 0.25686311186437227 0 0.2008998280478862 0.26959186196165702 0 0.2177878237122676 0.27024933667828532 0 0.21557305570370441 0.24515722135805329 0 0.20107379594449931 0.25686311186437227 0 0.21557305570370441 0.24515722135805329 0 0.2177878237122676 0.27024933667828532 0 0.23628031136540401 0.25597328662156199 0 0.2177878237122676 0.27024933667828532 0 0.23628031136540401 0.25597328662156199 0 0.23450185148003599 0.28363556149219821 0 0.2177878237122676 0.27024933667828532 0 0.23450185148003599 0.28363556149219821 0 0.2166033006779626 0.28924568688104418 0 0.2177878237122676 0.27024933667828532 0 0.23450185148003599 0.28363556149219821 0 0.23628031136540401 0.25597328662156199 0 0.23450185148003599 0.28363556149219821 0 0.25102838231212438 0.26850893423506528 0 0.23450185148003599 0.28363556149219821 0 0.25953152444998728 0.28294166139542631 0 0.25102838231212438 0.26850893423506528 0 0.23628031136540401 0.25597328662156199 0 0.25102838231212438 0.26850893423506528 0 0.26221447651104962 0.2479993693513689 0 0.2297645605960125 0.30261029929826411 0 0.25121587924780342 0.29702178630611242 0 0.2484846271056145 0.31037308609574782 0 0.2297645605960125 0.30261029929826411 0 0.23798581837376781 0.31938142953188831 0 0.2484846271056145 0.31037308609574782 0 0.2297645605960125 0.30261029929826411 0 0.25121587924780342 0.29702178630611242 0 0.23450185148003599 0.28363556149219821 0 0.2297645605960125 0.30261029929826411 0 0.25121587924780342 0.29702178630611242 0 0.23450185148003599 0.28363556149219821 0 0.25121587924780342 0.29702178630611242 0 0.23450185148003599 0.28363556149219821 0 0.25953152444998728 0.28294166139542631 0 0.25121587924780342 0.29702178630611242 0 0.23450185148003599 0.28363556149219821 0 0.2297645605960125 0.30261029929826411 0 0.2166033006779626 0.28924568688104418 0 0.2297645605960125 0.30261029929826411 0 0.20831324194422091 0.30819881229041318 0 0.2297645605960125 0.30261029929826411 0 0.20831324194422091 0.30819881229041318 0 0.21977364325038071 0.31928170538083578 0 0.20831324194422091 0.30819881229041318 0 0.2166033006779626 0.28924568688104418 0 0.20288664267638859 0.29424953150154581 0 0.2297645605960125 0.30261029929826411 0 0.20831324194422091 0.30819881229041318 0 0.2166033006779626 0.28924568688104418 0 0.20354188417430641 0.281093168015905 0 0.2166033006779626 0.28924568688104418 0 0.20288664267638859 0.29424953150154581 0 0.20354188417430641 0.281093168015905 0 0.20288664267638859 0.29424953150154581 0 0.19086383386244751 0.2907864273273883 0 0.20288664267638859 0.29424953150154581 0 0.19086383386244751 0.2907864273273883 0 0.19511095272300569 0.3019235629929784 0 0.1896678171968729 0.27591030386514148 0 0.20354188417430641 0.281093168015905 0 0.19086383386244751 0.2907864273273883 0 0.20831324194422091 0.30819881229041318 0 0.18686192329242929 0.31378732528256248 0 0.20831324194422091 0.30819881229041318 0 0.19511095272300569 0.3019235629929784 0 0.18686192329242929 0.31378732528256248 0 0.20831324194422091 0.30819881229041318 0 0.20288664267638859 0.29424953150154581 0 0.19511095272300569 0.3019235629929784 0 0.18674031124236579 0.30201460306836742 0 0.19086383386244751 0.2907864273273883 0 0.19511095272300569 0.3019235629929784 0 0.18674031124236579 0.30201460306836742 0 0.19511095272300569 0.3019235629929784 0 0.18686192329242929 0.31378732528256248 0 0.20141288137377081 0.31920030670374799 0 0.18686192329242929 0.31378732528256248 0 0.18608978489721489 0.32167740761667712 0 0.20831324194422091 0.30819881229041318 0 0.20141288137377081 0.31920030670374799 0 0.18686192329242929 0.31378732528256248 0 0.20141288137377081 0.31920030670374799 0 0.21212543146875301 0.33644132486871342 0 0.18608978489721489 0.32167740761667712 0 0.21212543146875301 0.33644132486871342 0 0.18608978489721489 0.32167740761667712 0 0.19231113454718349 0.34165597013868199 0 0.21212543146875301 0.33644132486871342 0 0.18608978489721489 0.32167740761667712 0 0.20831324194422091 0.30819881229041318 0 0.20141288137377081 0.31920030670374799 0 0.21977364325038071 0.31928170538083578 0 0.20141288137377081 0.31920030670374799 0 0.21212543146875301 0.33644132486871342 0 0.21977364325038071 0.31928170538083578 0 0.21977364325038071 0.31928170538083578 0 0.2290399257457596 0.32985805959198788 0 0.23798581837376781 0.31938142953188831 0 0.2297645605960125 0.30261029929826411 0 0.21977364325038071 0.31928170538083578 0 0.23798581837376781 0.31938142953188831 0 0.21212543146875301 0.33644132486871342 0 0.21977364325038071 0.31928170538083578 0 0.2290399257457596 0.32985805959198788 0 0.21212543146875301 0.33644132486871342 0 0.23060518033342339 0.33807106122714048 0 0.2290399257457596 0.32985805959198788 0 0.21212543146875301 0.33644132486871342 0 0.23060518033342339 0.33807106122714048 0 0.23816107804029091 0.35120524212074949 0 0.23060518033342339 0.33807106122714048 0 0.2290399257457596 0.32985805959198788 0 0.2430942860788903 0.33477961832711151 0 0.23060518033342339 0.33807106122714048 0 0.2430942860788903 0.33477961832711151 0 0.23816107804029091 0.35120524212074949 0 0.2484846271056145 0.31037308609574782 0 0.23798581837376781 0.31938142953188831 0 0.25508783524565293 0.32209220201309929 0 0.2430942860788903 0.33477961832711151 0 0.23798581837376781 0.31938142953188831 0 0.25508783524565293 0.32209220201309929 0 0.2290399257457596 0.32985805959198788 0 0.2430942860788903 0.33477961832711151 0 0.23798581837376781 0.31938142953188831 0 0.23439037865920059 0.35560025357312369 0 0.2386764282036242 0.37725286527910618 0 0.24311907173897271 0.36013203008567057 0 0.23439037865920059 0.35560025357312369 0 0.2386764282036242 0.37725286527910618 0 0.2492643002430574 0.365916522193315 0 0.24311907173897271 0.36013203008567057 0 0.2386764282036242 0.37725286527910618 0 0.2492643002430574 0.365916522193315 0 0.2386764282036242 0.37725286527910618 0 0.25383912625151372 0.37755129754335942 0 0.24311907173897271 0.36013203008567057 0 0.23816107804029091 0.35120524212074949 0 0.2641967246118288 0.36596915937278562 0 0.2430942860788903 0.33477961832711151 0 0.23816107804029091 0.35120524212074949 0 0.26173146881309822 0.35734024057335978 0 0.24311907173897271 0.36013203008567057 0 0.23816107804029091 0.35120524212074949 0 0.23439037865920059 0.35560025357312369 0 0.21212543146875301 0.33644132486871342 0 0.23816107804029091 0.35120524212074949 0 0.21848510057545151 0.35453686872473111 0 0.23816107804029091 0.35120524212074949 0 0.23439037865920059 0.35560025357312369 0 0.21848510057545151 0.35453686872473111 0 0.21212543146875301 0.33644132486871342 0 0.23816107804029091 0.35120524212074949 0 0.23439037865920059 0.35560025357312369 0 0.22513916990612379 0.36868200325308897 0 0.2386764282036242 0.37725286527910618 0 0.23439037865920059 0.35560025357312369 0 0.22513916990612379 0.36868200325308897 0 0.21848510057545151 0.35453686872473111 0 0.22513916990612379 0.36868200325308897 0 0.20931495008602691 0.36890180222237801 0 0.21961872799640589 0.38146559318592133 0 0.22513916990612379 0.36868200325308897 0 0.20931495008602691 0.36890180222237801 0 0.21848510057545151 0.35453686872473111 0 0.20931495008602691 0.36890180222237801 0 0.21848510057545151 0.35453686872473111 0 0.2018014651714847 0.35413555731190122 0 0.21212543146875301 0.33644132486871342 0 0.21848510057545151 0.35453686872473111 0 0.2018014651714847 0.35413555731190122 0 0.19231113454718349 0.34165597013868199 0 0.2018014651714847 0.35413555731190122 0 0.1832131523033072 0.3569188224833833 0 0.19231113454718349 0.34165597013868199 0 0.21212543146875301 0.33644132486871342 0 0.2018014651714847 0.35413555731190122 0 0.20931495008602691 0.36890180222237801 0 0.2018014651714847 0.35413555731190122 0 0.19217836357317111 0.36996972767433872 0 0.20931495008602691 0.36890180222237801 0 0.19217836357317111 0.36996972767433872 0 0.20289108470775991 0.38370682355227331 0 0.2018014651714847 0.35413555731190122 0 0.19217836357317111 0.36996972767433872 0 0.1832131523033072 0.3569188224833833 0 0.19217836357317111 0.36996972767433872 0 0.17197644233242751 0.37002706837148541 0 0.1832131523033072 0.3569188224833833 0 0.17197644233242751 0.37002706837148541 0 0.16866852787741549 0.35230522619665788 0 0.1832131523033072 0.3569188224833833 0 0.17197644233242751 0.37002706837148541 0 0.16866852787741549 0.35230522619665788 0 0.15186920095361911 0.35620033980905319 0 0.17197644233242751 0.37002706837148541 0 0.15186920095361911 0.35620033980905319 0 0.15185568245476189 0.37707061606136422 0 0.16866852787741549 0.35230522619665788 0 0.1579580049025659 0.33927316190663209 0 0.15186920095361911 0.35620033980905319 0 0.16866852787741549 0.35230522619665788 0 0.1832131523033072 0.3569188224833833 0 0.17832583889515771 0.33910673841273542 0 0.19231113454718349 0.34165597013868199 0 0.1832131523033072 0.3569188224833833 0 0.17832583889515771 0.33910673841273542 0 0.17832583889515771 0.33910673841273542 0 0.18608978489721489 0.32167740761667712 0 0.16647560889869609 0.32578562508456149 0 0.19231113454718349 0.34165597013868199 0 0.17832583889515771 0.33910673841273542 0 0.18608978489721489 0.32167740761667712 0 0.16005413832567669 0.30691349036464077 0 0.18608978489721489 0.32167740761667712 0 0.16005413832567669 0.30691349036464077 0 0.18686192329242929 0.31378732528256248 0 0.18608978489721489 0.32167740761667712 0 0.16005413832567669 0.30691349036464077 0 0.18608978489721489 0.32167740761667712 0 0.16647560889869609 0.32578562508456149 0 0.17832583889515771 0.33910673841273542 0 0.16647560889869609 0.32578562508456149 0 0.1579580049025659 0.33927316190663209 0 0.16866852787741549 0.35230522619665788 0 0.17832583889515771 0.33910673841273542 0 0.1579580049025659 0.33927316190663209 0 0.16647560889869609 0.32578562508456149 0 0.1579580049025659 0.33927316190663209 0 0.14183880654046921 0.32250528078568202 0 0.1579580049025659 0.33927316190663209 0 0.14183880654046921 0.32250528078568202 0 0.14054269679001921 0.34363296691054102 0 0.16005413832567669 0.30691349036464077 0 0.16647560889869609 0.32578562508456149 0 0.14183880654046921 0.32250528078568202 0 0.1202868522871179 0.34060046584014031 0 0.14183880654046921 0.32250528078568202 0 0.14054269679001921 0.34363296691054102 0 0.1202868522871179 0.34060046584014031 0 0.14054269679001921 0.34363296691054102 0 0.13274728415341139 0.36410634055334368 0 0.13274728415341139 0.36410634055334368 0 0.15186920095361911 0.35620033980905319 0 0.15185568245476189 0.37707061606136422 0 0.14054269679001921 0.34363296691054102 0 0.13274728415341139 0.36410634055334368 0 0.15186920095361911 0.35620033980905319 0 0.1579580049025659 0.33927316190663209 0 0.14054269679001921 0.34363296691054102 0 0.15186920095361911 0.35620033980905319 0 0.15352992747694119 0.40026604784697911 0 0.13692284990477191 0.38930777957628943 0 0.1397509022148696 0.40843688002483958 0 0.15352992747694119 0.40026604784697911 0 0.15185568245476189 0.37707061606136422 0 0.13692284990477191 0.38930777957628943 0 0.13274728415341139 0.36410634055334368 0 0.15185568245476189 0.37707061606136422 0 0.13692284990477191 0.38930777957628943 0 0.119448870245615 0.38256434187866972 0 0.13274728415341139 0.36410634055334368 0 0.13692284990477191 0.38930777957628943 0 0.115428724103706 0.40267530492779557 0 0.13692284990477191 0.38930777957628943 0 0.1397509022148696 0.40843688002483958 0 0.12259086230274099 0.42947812748907283 0 0.1397509022148696 0.40843688002483958 0 0.14363603346764281 0.42707530835579988 0 0.12259086230274099 0.42947812748907283 0 0.115428724103706 0.40267530492779557 0 0.1397509022148696 0.40843688002483958 0 0.12259086230274099 0.42947812748907283 0 0.14363603346764281 0.42707530835579988 0 0.13510526379757609 0.44116740875256688 0 0.14363603346764281 0.42707530835579988 0 0.16526304614212209 0.42908608809292892 0 0.1507341445198021 0.44370602134863157 0 0.14363603346764281 0.42707530835579988 0 0.15527295380072001 0.4153931176925994 0 0.16526304614212209 0.42908608809292892 0 0.14363603346764281 0.42707530835579988 0 0.1507341445198021 0.44370602134863157 0 0.13510526379757609 0.44116740875256688 0 0.1397509022148696 0.40843688002483958 0 0.14363603346764281 0.42707530835579988 0 0.15527295380072001 0.4153931176925994 0 0.15352992747694119 0.40026604784697911 0 0.1397509022148696 0.40843688002483958 0 0.15527295380072001 0.4153931176925994 0 0.15527295380072001 0.4153931176925994 0 0.1711416470664554 0.41062619466687539 0 0.16526304614212209 0.42908608809292892 0 0.15352992747694119 0.40026604784697911 0 0.15527295380072001 0.4153931176925994 0 0.1711416470664554 0.41062619466687539 0 0.16526304614212209 0.42908608809292892 0 0.1809560021812836 0.43814832633623357 0 0.16598328874466911 0.44273574664910909 0 0.16526304614212209 0.42908608809292892 0 0.18469425222239219 0.42125941149134333 0 0.1809560021812836 0.43814832633623357 0 0.1711416470664554 0.41062619466687539 0 0.16526304614212209 0.42908608809292892 0 0.18469425222239219 0.42125941149134333 0 0.1711416470664554 0.41062619466687539 0 0.18469425222239219 0.42125941149134333 0 0.1843100454414533 0.40126956181167389 0 0.1711416470664554 0.41062619466687539 0 0.1843100454414533 0.40126956181167389 0 0.16952276405911931 0.3912061138884545 0 0.1843100454414533 0.40126956181167389 0 0.16952276405911931 0.3912061138884545 0 0.18589276442329861 0.38606835492789338 0 0.15352992747694119 0.40026604784697911 0 0.1711416470664554 0.41062619466687539 0 0.16952276405911931 0.3912061138884545 0 0.15352992747694119 0.40026604784697911 0 0.15185568245476189 0.37707061606136422 0 0.16952276405911931 0.3912061138884545 0 0.17197644233242751 0.37002706837148541 0 0.15185568245476189 0.37707061606136422 0 0.16952276405911931 0.3912061138884545 0 0.17197644233242751 0.37002706837148541 0 0.16952276405911931 0.3912061138884545 0 0.18589276442329861 0.38606835492789338 0 0.19217836357317111 0.36996972767433872 0 0.17197644233242751 0.37002706837148541 0 0.18589276442329861 0.38606835492789338 0 0.18589276442329861 0.38606835492789338 0 0.20289108470775991 0.38370682355227331 0 0.19700705340585539 0.39579078134538831 0 0.19217836357317111 0.36996972767433872 0 0.18589276442329861 0.38606835492789338 0 0.20289108470775991 0.38370682355227331 0 0.19700705340585539 0.39579078134538831 0 0.21316338490038089 0.39704202397260657 0 0.19877798755638451 0.41086714246249401 0 0.1843100454414533 0.40126956181167389 0 0.19700705340585539 0.39579078134538831 0 0.19877798755638451 0.41086714246249401 0 0.1843100454414533 0.40126956181167389 0 0.18589276442329861 0.38606835492789338 0 0.19700705340585539 0.39579078134538831 0 0.20289108470775991 0.38370682355227331 0 0.19700705340585539 0.39579078134538831 0 0.21316338490038089 0.39704202397260657 0 0.20931495008602691 0.36890180222237801 0 0.20289108470775991 0.38370682355227331 0 0.21961872799640589 0.38146559318592133 0 0.20289108470775991 0.38370682355227331 0 0.21316338490038089 0.39704202397260657 0 0.21961872799640589 0.38146559318592133 0 0.22513916990612379 0.36868200325308897 0 0.21961872799640589 0.38146559318592133 0 0.2386764282036242 0.37725286527910618 0 0.21961872799640589 0.38146559318592133 0 0.22852735017452019 0.39320804083607441 0 0.2386764282036242 0.37725286527910618 0 0.21316338490038089 0.39704202397260657 0 0.21961872799640589 0.38146559318592133 0 0.22852735017452019 0.39320804083607441 0 0.21316338490038089 0.39704202397260657 0 0.22852735017452019 0.39320804083607441 0 0.22983145469658259 0.40925978250573319 0 0.21316338490038089 0.39704202397260657 0 0.22983145469658259 0.40925978250573319 0 0.22852735017452019 0.39320804083607441 0 0.2429624777480478 0.39890547698508871 0 0.22983145469658259 0.40925978250573319 0 0.2429624777480478 0.39890547698508871 0 0.2386764282036242 0.37725286527910618 0 0.22852735017452019 0.39320804083607441 0 0.2429624777480478 0.39890547698508871 0 0.2386764282036242 0.37725286527910618 0 0.2429624777480478 0.39890547698508871 0 0.2386764282036242 0.37725286527910618 0 0.25341304662754638 0.38974012394171498 0 0.2386764282036242 0.37725286527910618 0 0.25383912625151372 0.37755129754335942 0 0.25341304662754638 0.38974012394171498 0 0.24649952449278431 0.42147754103885982 0 0.22996656543308741 0.44177288309861867 0 0.24946733303660301 0.43176723098649622 0 0.24649952449278431 0.42147754103885982 0 0.22996656543308741 0.44177288309861867 0 0.24649952449278431 0.42147754103885982 0 0.22738899126970491 0.42458926785457718 0 0.22996656543308741 0.44177288309861867 0 0.24946733303660301 0.43176723098649622 0 0.24649952449278431 0.42147754103885982 0 0.2429624777480478 0.39890547698508871 0 0.24649952449278431 0.42147754103885982 0 0.24649952449278431 0.42147754103885982 0 0.22983145469658259 0.40925978250573319 0 0.22738899126970491 0.42458926785457718 0 0.24649952449278431 0.42147754103885982 0 0.22983145469658259 0.40925978250573319 0 0.2429624777480478 0.39890547698508871 0 0.24649952449278431 0.42147754103885982 0 0.22983145469658259 0.40925978250573319 0 0.21316338490038089 0.39704202397260657 0 0.22983145469658259 0.40925978250573319 0 0.21370806227123909 0.41789950377956148 0 0.22983145469658259 0.40925978250573319 0 0.22738899126970491 0.42458926785457718 0 0.21370806227123909 0.41789950377956148 0 0.22738899126970491 0.42458926785457718 0 0.21739304288862979 0.43200563017257382 0 0.22996656543308741 0.44177288309861867 0 0.22738899126970491 0.42458926785457718 0 0.21739304288862979 0.43200563017257382 0 0.21370806227123909 0.41789950377956148 0 0.21739304288862979 0.43200563017257382 0 0.1999317510848099 0.43097584272053618 0 0.2111195299095035 0.44359306409302351 0 0.21739304288862979 0.43200563017257382 0 0.21370806227123909 0.41789950377956148 0 0.1999317510848099 0.43097584272053618 0 0.21370806227123909 0.41789950377956148 0 0.19877798755638451 0.41086714246249401 0 0.1999317510848099 0.43097584272053618 0 0.21316338490038089 0.39704202397260657 0 0.21370806227123909 0.41789950377956148 0 0.19877798755638451 0.41086714246249401 0 0.18469425222239219 0.42125941149134333 0 0.19877798755638451 0.41086714246249401 0 0.1999317510848099 0.43097584272053618 0 0.18469425222239219 0.42125941149134333 0 0.1843100454414533 0.40126956181167389 0 0.19877798755638451 0.41086714246249401 0 0.18469425222239219 0.42125941149134333 0 0.1999317510848099 0.43097584272053618 0 0.1809560021812836 0.43814832633623357 0 0.1999317510848099 0.43097584272053618 0 0.19479511809318301 0.4526549487178691 0 0.2111195299095035 0.44359306409302351 0 0.1999317510848099 0.43097584272053618 0 0.19479511809318301 0.4526549487178691 0 0.1809560021812836 0.43814832633623357 0 0.19479511809318301 0.4526549487178691 0 0.213169792932182 0.46047172596691099 0 0.19211155850092579 0.47790980627879082 0 0.19479511809318301 0.4526549487178691 0 0.19211155850092579 0.47790980627879082 0 0.18348770279874721 0.46143911161818069 0 0.213169792932182 0.46047172596691099 0 0.2111195299095035 0.44359306409302351 0 0.22996656543308741 0.44177288309861867 0 0.19479511809318301 0.4526549487178691 0 0.213169792932182 0.46047172596691099 0 0.2111195299095035 0.44359306409302351 0 0.21739304288862979 0.43200563017257382 0 0.2111195299095035 0.44359306409302351 0 0.22996656543308741 0.44177288309861867 0 0.22996656543308741 0.44177288309861867 0 0.22854105436186559 0.46372788353366717 0 0.24141841662185301 0.45603819576859073 0 0.213169792932182 0.46047172596691099 0 0.22854105436186559 0.46372788353366717 0 0.221321310837439 0.47674074212904899 0 0.213169792932182 0.46047172596691099 0 0.22996656543308741 0.44177288309861867 0 0.22854105436186559 0.46372788353366717 0 0.24141841662185301 0.45603819576859073 0 0.23645949407781469 0.47608243786178739 0 0.25047151807745072 0.47036873115219768 0 0.22854105436186559 0.46372788353366717 0 0.24141841662185301 0.45603819576859073 0 0.23645949407781469 0.47608243786178739 0 0.24141841662185301 0.45603819576859073 0 0.25047151807745072 0.47036873115219768 0 0.25477099823403621 0.45804476415031298 0 0.24141841662185301 0.45603819576859073 0 0.25282491994113748 0.44831200937164878 0 0.25477099823403621 0.45804476415031298 0 0.22996656543308741 0.44177288309861867 0 0.24141841662185301 0.45603819576859073 0 0.24583280085865111 0.44361242472787987 0 0.24946733303660301 0.43176723098649622 0 0.22996656543308741 0.44177288309861867 0 0.24583280085865111 0.44361242472787987 0 0.24141841662185301 0.45603819576859073 0 0.24583280085865111 0.44361242472787987 0 0.25282491994113748 0.44831200937164878 0 0.24904418528453851 0.48634810883828161 0 0.23645949407781469 0.47608243786178739 0 0.23352830384551029 0.49999999999999978 0 0.24904418528453851 0.48634810883828161 0 0.23352830384551029 0.49999999999999978 0 0.25181722630913472 0.5 0 0.24904418528453851 0.48634810883828161 0 0.23645949407781469 0.47608243786178739 0 0.25047151807745072 0.47036873115219768 0 0.23645949407781469 0.47608243786178739 0 0.221321310837439 0.47674074212904899 0 0.23352830384551029 0.49999999999999978 0 0.22854105436186559 0.46372788353366717 0 0.23645949407781469 0.47608243786178739 0 0.221321310837439 0.47674074212904899 0 0.23352830384551029 0.49999999999999978 0 0.2128199311732181 0.48895490313939532 0 0.21702906166474581 0.5 0 0.23352830384551029 0.49999999999999978 0 0.2128199311732181 0.48895490313939532 0 0.221321310837439 0.47674074212904899 0 0.23352830384551029 0.49999999999999978 0 0.2128199311732181 0.48895490313939532 0 0.2128199311732181 0.48895490313939532 0 0.21702906166474581 0.5 0 0.20052981948398141 0.49999999999999989 0 0.213169792932182 0.46047172596691099 0 0.221321310837439 0.47674074212904899 0 0.19211155850092579 0.47790980627879082 0 0.221321310837439 0.47674074212904899 0 0.2128199311732181 0.48895490313939532 0 0.19211155850092579 0.47790980627879082 0 0.2128199311732181 0.48895490313939532 0 0.19211155850092579 0.47790980627879082 0 0.2128199311732181 0.48895490313939532 0 0.20052981948398141 0.49999999999999989 0 0.19295831529489699 0.4905304616351287 0 0.2128199311732181 0.48895490313939532 0 0.19211155850092579 0.47790980627879082 0 0.19295831529489699 0.4905304616351287 0 0.20052981948398141 0.49999999999999989 0 0.1839227339461352 0.49861489743603538 0 0.20052981948398141 0.49999999999999989 0 0.19295831529489699 0.4905304616351287 0 0.1839227339461352 0.49861489743603538 0 0.19211155850092579 0.47790980627879082 0 0.19295831529489699 0.4905304616351287 0 0.1809625144841838 0.48570342190566712 0 0.1839227339461352 0.49861489743603538 0 0.1809625144841838 0.48570342190566712 0 0.16731564840828889 0.49722979487207219 0 0.1839227339461352 0.49861489743603538 0 0.16731564840828889 0.49722979487207219 0 0.1839227339461352 0.49861489743603538 0 0.1669427425872391 0.49999999999999922 0 0.16731564840828889 0.49722979487207219 0 0.19295831529489699 0.4905304616351287 0 0.1839227339461352 0.49861489743603538 0 0.1809625144841838 0.48570342190566712 0 0.1809625144841838 0.48570342190566712 0 0.16731564840828889 0.49722979487207219 0 0.16935941711846161 0.48204725214512889 0 0.16731564840828889 0.49722979487207219 0 0.157708884996551 0.48584061526662409 0 0.14611751268168829 0.49546177892012921 0 0.16731564840828889 0.49722979487207219 0 0.14611751268168829 0.49546177892012921 0 0.1669427425872391 0.49999999999999922 0 0.16731564840828889 0.49722979487207219 0 0.14611751268168829 0.49546177892012921 0 0.1669427425872391 0.49999999999999922 0 0.16731564840828889 0.49722979487207219 0 0.16731564840828889 0.49722979487207219 0 0.16935941711846161 0.48204725214512889 0 0.16731564840828889 0.49722979487207219 0 0.157708884996551 0.48584061526662409 0 0.16935941711846161 0.48204725214512889 0 0.16382575626869561 0.4735735187060508 0 0.15802571703479451 0.46684670821381258 0 0.1531189490294651 0.47544631339495541 0 0.157708884996551 0.48584061526662409 0 0.16382575626869561 0.4735735187060508 0 0.1531189490294651 0.47544631339495541 0 0.157708884996551 0.48584061526662409 0 0.16382575626869561 0.4735735187060508 0 0.16935941711846161 0.48204725214512889 0 0.16935941711846161 0.48204725214512889 0 0.17140318582863401 0.46686470941818559 0 0.16382575626869561 0.4735735187060508 0 0.16935941711846161 0.48204725214512889 0 0.17140318582863401 0.46686470941818559 0 0.1809625144841838 0.48570342190566712 0 0.16935941711846161 0.48204725214512889 0 0.17140318582863401 0.46686470941818559 0 0.19211155850092579 0.47790980627879082 0 0.1809625144841838 0.48570342190566712 0 0.17140318582863401 0.46686470941818559 0 0.19211155850092579 0.47790980627879082 0 0.17140318582863401 0.46686470941818559 0 0.19479511809318301 0.4526549487178691 0 0.18348770279874721 0.46143911161818069 0 0.17341546959919829 0.45191605883299152 0 0.19211155850092579 0.47790980627879082 0 0.18348770279874721 0.46143911161818069 0 0.17140318582863401 0.46686470941818559 0 0.18348770279874721 0.46143911161818069 0 0.17341546959919829 0.45191605883299152 0 0.17140318582863401 0.46686470941818559 0 0.17341546959919829 0.45191605883299152 0 0.17140318582863401 0.46686470941818559 0 0.19479511809318301 0.4526549487178691 0 0.1809560021812836 0.43814832633623357 0 0.17341546959919829 0.45191605883299152 0 0.1809560021812836 0.43814832633623357 0 0.17341546959919829 0.45191605883299152 0 0.16598328874466911 0.44273574664910909 0 0.17341546959919829 0.45191605883299152 0 0.16598328874466911 0.44273574664910909 0 0.15954778128093949 0.4508222386347599 0 0.16598328874466911 0.44273574664910909 0 0.15954778128093949 0.4508222386347599 0 0.1507341445198021 0.44370602134863157 0 0.16526304614212209 0.42908608809292892 0 0.16598328874466911 0.44273574664910909 0 0.1507341445198021 0.44370602134863157 0 0.16382575626869561 0.4735735187060508 0 0.1651762257979181 0.46354347419730452 0 0.17140318582863401 0.46686470941818559 0 0.1651762257979181 0.46354347419730452 0 0.17140318582863401 0.46686470941818559 0 0.17341546959919829 0.45191605883299152 0 0.1651762257979181 0.46354347419730452 0 0.17140318582863401 0.46686470941818559 0 0.17341546959919829 0.45191605883299152 0 0.15954778128093949 0.4508222386347599 0 0.1651762257979181 0.46354347419730452 0 0.15954778128093949 0.4508222386347599 0 0.1651762257979181 0.46354347419730452 0 0.1582471669695637 0.45974252444074731 0 0.16382575626869561 0.4735735187060508 0 0.1651762257979181 0.46354347419730452 0 0.15802571703479451 0.46684670821381258 0 0.1651762257979181 0.46354347419730452 0 0.1582471669695637 0.45974252444074731 0 0.15802571703479451 0.46684670821381258 0 0.14976048710833001 0.46192771033000529 0 0.1507341445198021 0.44370602134863157 0 0.136404492151351 0.45486193181106682 0 0.1582471669695637 0.45974252444074731 0 0.15802571703479451 0.46684670821381258 0 0.14976048710833001 0.46192771033000529 0 0.15802571703479451 0.46684670821381258 0 0.14976048710833001 0.46192771033000529 0 0.1531189490294651 0.47544631339495541 0 0.15954778128093949 0.4508222386347599 0 0.1582471669695637 0.45974252444074731 0 0.14976048710833001 0.46192771033000529 0 0.14976048710833001 0.46192771033000529 0 0.136404492151351 0.45486193181106682 0 0.13663143795624749 0.46910754811773492 0 0.15954778128093949 0.4508222386347599 0 0.14976048710833001 0.46192771033000529 0 0.1507341445198021 0.44370602134863157 0 0.1507341445198021 0.44370602134863157 0 0.13510526379757609 0.44116740875256688 0 0.136404492151351 0.45486193181106682 0 0.1221607865463437 0.4507156547582637 0 0.12259086230274099 0.42947812748907283 0 0.13510526379757609 0.44116740875256688 0 0.1221607865463437 0.4507156547582637 0 0.13510526379757609 0.44116740875256688 0 0.136404492151351 0.45486193181106682 0 0.136404492151351 0.45486193181106682 0 0.1267882431275838 0.46370707134437261 0 0.13663143795624749 0.46910754811773492 0 0.1221607865463437 0.4507156547582637 0 0.136404492151351 0.45486193181106682 0 0.1267882431275838 0.46370707134437261 0 0.1267882431275838 0.46370707134437261 0 0.12569724768963239 0.47617993877849962 0 0.13663143795624749 0.46910754811773492 0 0.12569724768963239 0.47617993877849962 0 0.13663143795624749 0.46910754811773492 0 0.1364132019148096 0.48384982340983701 0 0.13663143795624749 0.46910754811773492 0 0.1364132019148096 0.48384982340983701 0 0.14361111091913481 0.47574478002545789 0 0.1249193769550877 0.49369376296818718 0 0.1364132019148096 0.48384982340983701 0 0.14611751268168829 0.49546177892012921 0 0.1249193769550877 0.49369376296818718 0 0.14611751268168829 0.49546177892012921 0 0.1249193769550877 0.49369376296818718 0 0.12569724768963239 0.47617993877849962 0 0.1364132019148096 0.48384982340983701 0 0.1249193769550877 0.49369376296818718 0 0.13738437864054501 0.5 0 0.14611751268168829 0.49546177892012921 0 0.1364132019148096 0.48384982340983701 0 0.14611751268168829 0.49546177892012921 0 0.14718343377546941 0.48347361591025501 0 0.1669427425872391 0.49999999999999922 0 0.13738437864054501 0.5 0 0.14611751268168829 0.49546177892012921 0 0.157708884996551 0.48584061526662409 0 0.14611751268168829 0.49546177892012921 0 0.14718343377546941 0.48347361591025501 0 0.157708884996551 0.48584061526662409 0 0.1531189490294651 0.47544631339495541 0 0.14718343377546941 0.48347361591025501 0 0.14976048710833001 0.46192771033000529 0 0.1531189490294651 0.47544631339495541 0 0.14361111091913481 0.47574478002545789 0 0.14976048710833001 0.46192771033000529 0 0.13663143795624749 0.46910754811773492 0 0.14361111091913481 0.47574478002545789 0 0.1364132019148096 0.48384982340983701 0 0.14361111091913481 0.47574478002545789 0 0.14718343377546941 0.48347361591025501 0 0.1531189490294651 0.47544631339495541 0 0.14361111091913481 0.47574478002545789 0 0.14718343377546941 0.48347361591025501 0 0.35832214194920592 0.47929915408112939 0 0.34611268429232461 0.46591887339206078 0 0.3375369348076922 0.4829399206954248 0 0.35832214194920592 0.47929915408112939 0 0.35850557312216419 0.5 0 0.3375369348076922 0.4829399206954248 0 0.35850557312216419 0.5 0 0.37801407526051067 0.48065415083330842 0 0.38797204790529932 0.5 0 0.35832214194920592 0.47929915408112939 0 0.35850557312216419 0.5 0 0.37801407526051067 0.48065415083330842 0 0.35832214194920592 0.47929915408112939 0 0.36980735363827261 0.46050290225189661 0 0.37801407526051067 0.48065415083330842 0 0.36980735363827261 0.46050290225189661 0 0.34502769605759259 0.44546544446971242 0 0.36959298495063608 0.43610817863788948 0 0.35832214194920592 0.47929915408112939 0 0.36980735363827261 0.46050290225189661 0 0.34611268429232461 0.46591887339206078 0 0.36980735363827261 0.46050290225189661 0 0.34502769605759259 0.44546544446971242 0 0.34611268429232461 0.46591887339206078 0 0.36980735363827261 0.46050290225189661 0 0.34611268429232461 0.46591887339206078 0 0.34611268429232461 0.46591887339206078 0 0.3317687487832644 0.45597005559148451 0 0.32241801494637662 0.47133484453222518 0 0.34502769605759259 0.44546544446971242 0 0.34611268429232461 0.46591887339206078 0 0.3317687487832644 0.45597005559148451 0 0.34611268429232461 0.46591887339206078 0 0.32241801494637662 0.47133484453222518 0 0.34502769605759259 0.44546544446971242 0 0.3317687487832644 0.45597005559148451 0 0.32480939915707069 0.44218818576869201 0 0.34502769605759259 0.44546544446971242 0 0.32480939915707069 0.44218818576869201 0 0.33523501366627878 0.43221560569608392 0 0.3107318966111981 0.4514989769174147 0 0.3227404476219688 0.42624713816244092 0 0.3317687487832644 0.45597005559148451 0 0.32480939915707069 0.44218818576869201 0 0.3107318966111981 0.4514989769174147 0 0.32480939915707069 0.44218818576869201 0 0.3107318966111981 0.4514989769174147 0 0.3227404476219688 0.42624713816244092 0 0.3317687487832644 0.45597005559148451 0 0.32241801494637662 0.47133484453222518 0 0.3107318966111981 0.4514989769174147 0 0.32241801494637662 0.47133484453222518 0 0.3375369348076922 0.4829399206954248 0 0.31372501333874958 0.48784291822244708 0 0.34611268429232461 0.46591887339206078 0 0.32241801494637662 0.47133484453222518 0 0.3375369348076922 0.4829399206954248 0 0.35850557312216419 0.5 0 0.3375369348076922 0.4829399206954248 0 0.32903909833902928 0.5 0 0.32903909833902928 0.5 0 0.31372501333874958 0.48784291822244708 0 0.29957262355589431 0.5 0 0.3375369348076922 0.4829399206954248 0 0.32903909833902928 0.5 0 0.31372501333874958 0.48784291822244708 0 0.31372501333874958 0.48784291822244708 0 0.30130976803097798 0.48891801032572652 0 0.29957262355589431 0.5 0 0.31372501333874958 0.48784291822244708 0 0.30130976803097798 0.48891801032572652 0 0.29872334560042851 0.47675081567238892 0 0.30130976803097798 0.48891801032572652 0 0.29957262355589431 0.5 0 0.28978827390519868 0.49553967616935518 0 0.32241801494637662 0.47133484453222518 0 0.29872334560042851 0.47675081567238892 0 0.32241801494637662 0.47133484453222518 0 0.31372501333874958 0.48784291822244708 0 0.29872334560042851 0.47675081567238892 0 0.29872334560042851 0.47675081567238892 0 0.28397488520641462 0.48012192141307769 0 0.28978827390519868 0.49553967616935518 0 0.29872334560042851 0.47675081567238892 0 0.28929399795500932 0.47058792179259418 0 0.29703527816799058 0.46117092995693892 0 0.29872334560042851 0.47675081567238892 0 0.28929399795500932 0.47058792179259418 0 0.28397488520641462 0.48012192141307769 0 0.29872334560042851 0.47675081567238892 0 0.28397488520641462 0.48012192141307769 0 0.28929399795500932 0.47058792179259418 0 0.28397488520641462 0.48012192141307769 0 0.27920072977811172 0.47805830749059319 0 0.28397488520641462 0.48012192141307769 0 0.28978827390519868 0.49553967616935518 0 0.27010614877275918 0.50000000000000067 0 0.29957262355589431 0.5 0 0.28978827390519868 0.49553967616935518 0 0.27010614877275918 0.50000000000000067 0 0.30130976803097798 0.48891801032572652 0 0.29872334560042851 0.47675081567238892 0 0.28978827390519868 0.49553967616935518 0 0.29872334560042851 0.47675081567238892 0 0.28978827390519868 0.49553967616935518 0 0.28397488520641462 0.48012192141307769 0 0.27010614877275918 0.50000000000000067 0 0.27920072977811172 0.47805830749059319 0 0.27010614877275918 0.50000000000000067 0 0.26909437115437917 0.48384867389528768 0 0.26130641782501518 0.49139676135406141 0 0.27010614877275918 0.50000000000000067 0 0.27920072977811172 0.47805830749059319 0 0.26909437115437917 0.48384867389528768 0 0.27010614877275918 0.50000000000000067 0 0.27920072977811172 0.47805830749059319 0 0.27920072977811172 0.47805830749059319 0 0.27306774476234302 0.47644699960251641 0 0.26909437115437917 0.48384867389528768 0 0.27920072977811172 0.47805830749059319 0 0.27306774476234302 0.47644699960251641 0 0.27643472525740193 0.46726539210963169 0 0.26824582816420722 0.47348896141386071 0 0.27306774476234302 0.47644699960251641 0 0.27643472525740193 0.46726539210963169 0 0.26824582816420722 0.47348896141386071 0 0.26909437115437917 0.48384867389528768 0 0.25993240985832161 0.47939275616227872 0 0.26824582816420722 0.47348896141386071 0 0.27306774476234302 0.47644699960251641 0 0.26909437115437917 0.48384867389528768 0 0.24904418528453851 0.48634810883828161 0 0.25993240985832161 0.47939275616227872 0 0.25047151807745072 0.47036873115219768 0 0.26824582816420722 0.47348896141386071 0 0.25993240985832161 0.47939275616227872 0 0.26165523792153211 0.46576309323832682 0 0.25993240985832161 0.47939275616227872 0 0.25047151807745072 0.47036873115219768 0 0.26165523792153211 0.46576309323832682 0 0.27010614877275918 0.50000000000000067 0 0.25181722630913472 0.5 0 0.26130641782501518 0.49139676135406141 0 0.24904418528453851 0.48634810883828161 0 0.25993240985832161 0.47939275616227872 0 0.26130641782501518 0.49139676135406141 0 0.24904418528453851 0.48634810883828161 0 0.25181722630913472 0.5 0 0.26130641782501518 0.49139676135406141 0 0.26909437115437917 0.48384867389528768 0 0.25993240985832161 0.47939275616227872 0 0.26130641782501518 0.49139676135406141 0 0.26490489917960358 0.45079530358348557 0 0.25548676926057468 0.44017180441404491 0 0.26331147225899149 0.43380076267102891 0 0.24946733303660301 0.43176723098649622 0 0.24583280085865111 0.44361242472787987 0 0.25548676926057468 0.44017180441404491 0 0.24583280085865111 0.44361242472787987 0 0.25548676926057468 0.44017180441404491 0 0.25282491994113748 0.44831200937164878 0 0.26490489917960358 0.45079530358348557 0 0.25548676926057468 0.44017180441404491 0 0.25282491994113748 0.44831200937164878 0 0.26490489917960358 0.45079530358348557 0 0.25282491994113748 0.44831200937164878 0 0.25477099823403621 0.45804476415031298 0 0.25047151807745072 0.47036873115219768 0 0.25477099823403621 0.45804476415031298 0 0.26165523792153211 0.46576309323832682 0 0.26490489917960358 0.45079530358348557 0 0.25477099823403621 0.45804476415031298 0 0.26165523792153211 0.46576309323832682 0 0.26490489917960358 0.45079530358348557 0 0.27160577401557351 0.46248804296782559 0 0.27679169795675967 0.45600994403837303 0 0.26490489917960358 0.45079530358348557 0 0.26165523792153211 0.46576309323832682 0 0.27160577401557351 0.46248804296782559 0 0.26824582816420722 0.47348896141386071 0 0.27160577401557351 0.46248804296782559 0 0.27643472525740193 0.46726539210963169 0 0.26824582816420722 0.47348896141386071 0 0.26165523792153211 0.46576309323832682 0 0.27160577401557351 0.46248804296782559 0 0.27160577401557351 0.46248804296782559 0 0.27643472525740193 0.46726539210963169 0 0.27679169795675967 0.45600994403837303 0 0.27643472525740193 0.46726539210963169 0 0.27679169795675967 0.45600994403837303 0 0.28829531078346382 0.45611661498118572 0 0.27903440424894049 0.4453257315987294 0 0.26331147225899149 0.43380076267102891 0 0.26490489917960358 0.45079530358348557 0 0.27903440424894049 0.4453257315987294 0 0.26331147225899149 0.43380076267102891 0 0.26490489917960358 0.45079530358348557 0 0.27679169795675967 0.45600994403837303 0 0.27903440424894049 0.4453257315987294 0 0.27903440424894049 0.4453257315987294 0 0.2917470315179379 0.44281751567604499 0 0.28179675760275558 0.42932557237874241 0 0.27679169795675967 0.45600994403837303 0 0.27903440424894049 0.4453257315987294 0 0.28829531078346382 0.45611661498118572 0 0.27903440424894049 0.4453257315987294 0 0.2917470315179379 0.44281751567604499 0 0.28829531078346382 0.45611661498118572 0 0.2917470315179379 0.44281751567604499 0 0.28829531078346382 0.45611661498118572 0 0.29813183988985342 0.45090032042111128 0 0.27920072977811172 0.47805830749059319 0 0.27643472525740193 0.46726539210963169 0 0.28829531078346382 0.45611661498118572 0 0.28929399795500932 0.47058792179259418 0 0.27920072977811172 0.47805830749059319 0 0.28829531078346382 0.45611661498118572 0 0.27920072977811172 0.47805830749059319 0 0.28829531078346382 0.45611661498118572 0 0.28829531078346382 0.45611661498118572 0 0.29703527816799058 0.46117092995693892 0 0.29813183988985342 0.45090032042111128 0 0.28929399795500932 0.47058792179259418 0 0.28829531078346382 0.45611661498118572 0 0.29703527816799058 0.46117092995693892 0 0.29872334560042851 0.47675081567238892 0 0.29703527816799058 0.46117092995693892 0 0.3107318966111981 0.4514989769174147 0 0.29872334560042851 0.47675081567238892 0 0.3107318966111981 0.4514989769174147 0 0.32241801494637662 0.47133484453222518 0 0.29872334560042851 0.47675081567238892 0 0.3107318966111981 0.4514989769174147 0 0.29703527816799058 0.46117092995693892 0 0.29813183988985342 0.45090032042111128 0 0.3107318966111981 0.4514989769174147 0 0.30159082278473881 0.44219288247638061 0 0.3107318966111981 0.4514989769174147 0 0.30884109342504262 0.43428586920116352 0 0.2917470315179379 0.44281751567604499 0 0.30159082278473881 0.44219288247638061 0 0.29850225247966211 0.43146173016616862 0 0.2917470315179379 0.44281751567604499 0 0.30159082278473881 0.44219288247638061 0 0.29813183988985342 0.45090032042111128 0 0.30159082278473881 0.44219288247638061 0 0.29813183988985342 0.45090032042111128 0 0.3107318966111981 0.4514989769174147 0 0.30884109342504262 0.43428586920116352 0 0.29850225247966211 0.43146173016616862 0 0.30862162828234507 0.42004495563460759 0 0.29850225247966211 0.43146173016616862 0 0.30862162828234507 0.42004495563460759 0 0.29547148538100448 0.41817397575591742 0 0.30159082278473881 0.44219288247638061 0 0.30884109342504262 0.43428586920116352 0 0.29850225247966211 0.43146173016616862 0 0.30862162828234507 0.42004495563460759 0 0.30304430461131138 0.40735012112542651 0 0.3196782615082488 0.40265332564926309 0 0.30862162828234507 0.42004495563460759 0 0.30304430461131138 0.40735012112542651 0 0.29547148538100448 0.41817397575591742 0 0.30304430461131138 0.40735012112542651 0 0.29062365375375682 0.40708788978866228 0 0.29547148538100448 0.41817397575591742 0 0.29062365375375682 0.40708788978866228 0 0.29547148538100448 0.41817397575591742 0 0.28288479604298378 0.41446876034122271 0 0.29547148538100448 0.41817397575591742 0 0.28288479604298378 0.41446876034122271 0 0.28179675760275558 0.42932557237874241 0 0.29062365375375682 0.40708788978866228 0 0.28288479604298378 0.41446876034122271 0 0.28001120465417539 0.40182109974822727 0 0.29850225247966211 0.43146173016616862 0 0.29547148538100448 0.41817397575591742 0 0.28179675760275558 0.42932557237874241 0 0.2917470315179379 0.44281751567604499 0 0.29850225247966211 0.43146173016616862 0 0.28179675760275558 0.42932557237874241 0 0.28179675760275558 0.42932557237874241 0 0.27042562322166658 0.41684269204638819 0 0.26331147225899149 0.43380076267102891 0 0.27903440424894049 0.4453257315987294 0 0.28179675760275558 0.42932557237874241 0 0.26331147225899149 0.43380076267102891 0 0.27042562322166658 0.41684269204638819 0 0.26380858941988822 0.4002294757553399 0 0.28001120465417539 0.40182109974822727 0 0.28288479604298378 0.41446876034122271 0 0.28179675760275558 0.42932557237874241 0 0.27042562322166658 0.41684269204638819 0 0.28288479604298378 0.41446876034122271 0 0.27042562322166658 0.41684269204638819 0 0.28001120465417539 0.40182109974822727 0 0.24649952449278431 0.42147754103885982 0 0.25492995388566009 0.41993008507457552 0 0.26380858941988822 0.4002294757553399 0 0.27042562322166658 0.41684269204638819 0 0.25492995388566009 0.41993008507457552 0 0.26380858941988822 0.4002294757553399 0 0.24649952449278431 0.42147754103885982 0 0.26380858941988822 0.4002294757553399 0 0.2429624777480478 0.39890547698508871 0 0.24649952449278431 0.42147754103885982 0 0.26380858941988822 0.4002294757553399 0 0.24946733303660301 0.43176723098649622 0 0.24649952449278431 0.42147754103885982 0 0.26331147225899149 0.43380076267102891 0 0.24649952449278431 0.42147754103885982 0 0.25492995388566009 0.41993008507457552 0 0.26331147225899149 0.43380076267102891 0 0.24649952449278431 0.42147754103885982 0 0.26331147225899149 0.43380076267102891 0 0.27042562322166658 0.41684269204638819 0 0.25492995388566009 0.41993008507457552 0 0.26331147225899149 0.43380076267102891 0 0.24946733303660301 0.43176723098649622 0 0.25548676926057468 0.44017180441404491 0 0.26331147225899149 0.43380076267102891 0 0.26350653962281989 0.38010735630523079 0 0.25341304662754638 0.38974012394171498 0 0.26380858941988822 0.4002294757553399 0 0.26350653962281989 0.38010735630523079 0 0.25383912625151372 0.37755129754335942 0 0.25710864090743918 0.37145542319719338 0 0.26350653962281989 0.38010735630523079 0 0.25383912625151372 0.37755129754335942 0 0.25341304662754638 0.38974012394171498 0 0.2429624777480478 0.39890547698508871 0 0.25341304662754638 0.38974012394171498 0 0.26380858941988822 0.4002294757553399 0 0.26380858941988822 0.4002294757553399 0 0.28001120465417539 0.40182109974822727 0 0.28036865154730628 0.37990086281960789 0 0.26350653962281989 0.38010735630523079 0 0.28036865154730628 0.37990086281960789 0 0.2641967246118288 0.36596915937278562 0 0.26380858941988822 0.4002294757553399 0 0.28036865154730628 0.37990086281960789 0 0.26350653962281989 0.38010735630523079 0 0.26380858941988822 0.4002294757553399 0 0.28036865154730628 0.37990086281960789 0 0.28036865154730628 0.37990086281960789 0 0.29170647807930872 0.39362549197251728 0 0.2987730087010142 0.37934426936791982 0 0.28036865154730628 0.37990086281960789 0 0.29170647807930872 0.39362549197251728 0 0.28001120465417539 0.40182109974822727 0 0.28036865154730628 0.37990086281960789 0 0.29170647807930872 0.39362549197251728 0 0.29062365375375682 0.40708788978866228 0 0.28001120465417539 0.40182109974822727 0 0.29170647807930872 0.39362549197251728 0 0.30304430461131138 0.40735012112542651 0 0.29062365375375682 0.40708788978866228 0 0.29170647807930872 0.39362549197251728 0 0.30304430461131138 0.40735012112542651 0 0.30637452063024528 0.39219955594670219 0 0.3196782615082488 0.40265332564926309 0 0.30304430461131138 0.40735012112542651 0 0.29170647807930872 0.39362549197251728 0 0.30304430461131138 0.40735012112542651 0 0.29170647807930872 0.39362549197251728 0 0.30637452063024528 0.39219955594670219 0 0.30637452063024528 0.39219955594670219 0 0.2987730087010142 0.37934426936791982 0 0.31661607539452802 0.37905951313608538 0 0.29170647807930872 0.39362549197251728 0 0.30637452063024528 0.39219955594670219 0 0.2987730087010142 0.37934426936791982 0 0.31661607539452802 0.37905951313608538 0 0.32905198958534931 0.38831461949406398 0 0.3196782615082488 0.40265332564926309 0 0.31661607539452802 0.37905951313608538 0 0.32905198958534931 0.38831461949406398 0 0.33389487655237682 0.3658352592629312 0 0.32905198958534931 0.38831461949406398 0 0.34270248502322931 0.38427053755298168 0 0.33389487655237682 0.3658352592629312 0 0.32905198958534931 0.38831461949406398 0 0.34270248502322931 0.38427053755298168 0 0.33272146632259869 0.40525883785771122 0 0.34270248502322931 0.38427053755298168 0 0.33272146632259869 0.40525883785771122 0 0.34270248502322931 0.38427053755298168 0 0.33272146632259869 0.40525883785771122 0 0.34670895149724801 0.40816004440777182 0 0.31661607539452802 0.37905951313608538 0 0.3196782615082488 0.40265332564926309 0 0.32905198958534931 0.38831461949406398 0 0.33272146632259869 0.40525883785771122 0 0.3196782615082488 0.40265332564926309 0 0.30637452063024528 0.39219955594670219 0 0.31661607539452802 0.37905951313608538 0 0.3196782615082488 0.40265332564926309 0 0.3196782615082488 0.40265332564926309 0 0.3227404476219688 0.42624713816244092 0 0.30862162828234507 0.42004495563460759 0 0.3196782615082488 0.40265332564926309 0 0.3227404476219688 0.42624713816244092 0 0.33272146632259869 0.40525883785771122 0 0.3196782615082488 0.40265332564926309 0 0.3227404476219688 0.42624713816244092 0 0.33272146632259869 0.40525883785771122 0 0.3227404476219688 0.42624713816244092 0 0.32480939915707069 0.44218818576869201 0 0.3227404476219688 0.42624713816244092 0 0.3107318966111981 0.4514989769174147 0 0.30884109342504262 0.43428586920116352 0 0.3227404476219688 0.42624713816244092 0 0.32480939915707069 0.44218818576869201 0 0.3227404476219688 0.42624713816244092 0 0.33523501366627878 0.43221560569608392 0 0.30884109342504262 0.43428586920116352 0 0.30862162828234507 0.42004495563460759 0 0.3227404476219688 0.42624713816244092 0 0.34502769605759259 0.44546544446971242 0 0.33523501366627878 0.43221560569608392 0 0.34795858503051302 0.425881111768525 0 0.3227404476219688 0.42624713816244092 0 0.33523501366627878 0.43221560569608392 0 0.33659904832278342 0.4201421825902541 0 0.33523501366627878 0.43221560569608392 0 0.33659904832278342 0.4201421825902541 0 0.34795858503051302 0.425881111768525 0 0.33272146632259869 0.40525883785771122 0 0.3227404476219688 0.42624713816244092 0 0.33659904832278342 0.4201421825902541 0 0.33272146632259869 0.40525883785771122 0 0.33659904832278342 0.4201421825902541 0 0.34670895149724801 0.40816004440777182 0 0.33659904832278342 0.4201421825902541 0 0.34670895149724801 0.40816004440777182 0 0.34795858503051302 0.425881111768525 0 0.34670895149724801 0.40816004440777182 0 0.34795858503051302 0.425881111768525 0 0.36336601300371613 0.41450991002864218 0 0.34670895149724801 0.40816004440777182 0 0.36336601300371613 0.41450991002864218 0 0.35690611128064731 0.3988976866485166 0 0.34502769605759259 0.44546544446971242 0 0.34795858503051302 0.425881111768525 0 0.36959298495063608 0.43610817863788948 0 0.34795858503051302 0.425881111768525 0 0.36959298495063608 0.43610817863788948 0 0.36336601300371613 0.41450991002864218 0 0.36959298495063608 0.43610817863788948 0 0.36336601300371613 0.41450991002864218 0 0.38530342098431941 0.41064856824057122 0 0.36336601300371613 0.41450991002864218 0 0.3736470799201031 0.39378130610698531 0 0.38530342098431941 0.41064856824057122 0 0.3736470799201031 0.39378130610698531 0 0.3601059063978746 0.38125551426405008 0 0.35690611128064731 0.3988976866485166 0 0.36336601300371613 0.41450991002864218 0 0.3736470799201031 0.39378130610698531 0 0.35690611128064731 0.3988976866485166 0 0.3736470799201031 0.39378130610698531 0 0.3601059063978746 0.38125551426405008 0 0.37414389550204002 0.36898578533419818 0 0.34270248502322931 0.38427053755298168 0 0.3601059063978746 0.38125551426405008 0 0.35690611128064731 0.3988976866485166 0 0.34270248502322931 0.38427053755298168 0 0.3601059063978746 0.38125551426405008 0 0.35268350372385993 0.36328223724825232 0 0.34270248502322931 0.38427053755298168 0 0.34670895149724801 0.40816004440777182 0 0.35690611128064731 0.3988976866485166 0 0.35268350372385993 0.36328223724825232 0 0.36266452242448938 0.34229393694352239 0 0.35030182712711511 0.35130594720886232 0 0.35268350372385993 0.36328223724825232 0 0.36266452242448938 0.34229393694352239 0 0.35030182712711511 0.35130594720886232 0 0.35146565257524442 0.34420791440797271 0 0.36266452242448938 0.34229393694352239 0 0.35030182712711511 0.35130594720886232 0 0.35146565257524442 0.34420791440797271 0 0.34269927497721508 0.34493512072036142 0 0.35030182712711511 0.35130594720886232 0 0.35268350372385993 0.36328223724825232 0 0.33389487655237682 0.3658352592629312 0 0.34270248502322931 0.38427053755298168 0 0.35268350372385993 0.36328223724825232 0 0.3601059063978746 0.38125551426405008 0 0.35268350372385993 0.36328223724825232 0 0.37414389550204002 0.36898578533419818 0 0.35268350372385993 0.36328223724825232 0 0.37414389550204002 0.36898578533419818 0 0.36300645299402812 0.35604351837507042 0 0.37414389550204002 0.36898578533419818 0 0.37228166628853332 0.35471301169251829 0 0.36300645299402812 0.35604351837507042 0 0.35268350372385993 0.36328223724825232 0 0.36300645299402812 0.35604351837507042 0 0.36266452242448938 0.34229393694352239 0 0.37228166628853332 0.35471301169251829 0 0.36300645299402812 0.35604351837507042 0 0.36840829020790361 0.34668560051738673 0 0.36300645299402812 0.35604351837507042 0 0.36840829020790361 0.34668560051738673 0 0.36266452242448938 0.34229393694352239 0 0.36840829020790361 0.34668560051738673 0 0.36266452242448938 0.34229393694352239 0 0.36587418437400321 0.34278907974668538 0 0.37228166628853332 0.35471301169251829 0 0.36840829020790361 0.34668560051738673 0 0.37486749369974542 0.34694596905823039 0 0.37486749369974542 0.34694596905823039 0 0.37256750073976291 0.34304532959464751 0 0.37670219357667811 0.34177383067972761 0 0.36840829020790361 0.34668560051738673 0 0.37486749369974542 0.34694596905823039 0 0.37256750073976291 0.34304532959464751 0 0.36124897776362869 0.33531944770056321 0 0.36266452242448938 0.34229393694352239 0 0.36411885078159001 0.32644375487552563 0 0.37256750073976291 0.34304532959464751 0 0.36916640720496519 0.34145859007673351 0 0.37369311900952262 0.33836265764115908 0 0.37256750073976291 0.34304532959464751 0 0.37369311900952262 0.33836265764115908 0 0.37670219357667811 0.34177383067972761 0 0.36266452242448938 0.34229393694352239 0 0.37014896644917339 0.316543878568457 0 0.36770298492566261 0.33637877995368609 0 0.36266452242448938 0.34229393694352239 0 0.37368960646642962 0.31911015363466272 0 0.36770298492566261 0.33637877995368609 0 0.36985494237623989 0.33311962493185521 0 0.37368960646642962 0.31911015363466272 0 0.36266452242448938 0.34229393694352239 0 0.37368960646642962 0.31911015363466272 0 0.36266452242448938 0.34229393694352239 0 0.37014896644917339 0.316543878568457 0 0.36411885078159001 0.32644375487552563 0 0.36840829020790361 0.34668560051738673 0 0.36916640720496519 0.34145859007673351 0 0.36587418437400321 0.34278907974668538 0 0.36840829020790361 0.34668560051738673 0 0.37256750073976291 0.34304532959464751 0 0.36916640720496519 0.34145859007673351 0 0.36916640720496519 0.34145859007673351 0 0.36587418437400321 0.34278907974668538 0 0.36708394454210669 0.33994961910346172 0 0.36916640720496519 0.34145859007673351 0 0.37010024416019238 0.33739894816112592 0 0.36708394454210669 0.33994961910346172 0 0.36916640720496519 0.34145859007673351 0 0.37010024416019238 0.33739894816112592 0 0.37369311900952262 0.33836265764115908 0 0.36770298492566261 0.33637877995368609 0 0.37010024416019238 0.33739894816112592 0 0.36708394454210669 0.33994961910346172 0 0.37010024416019238 0.33739894816112592 0 0.37369311900952262 0.33836265764115908 0 0.3722735272100694 0.33425106354392481 0 0.3722735272100694 0.33425106354392481 0 0.37245621682226088 0.32924087979990557 0 0.375263113682131 0.33313320718557798 0 0.37369311900952262 0.33836265764115908 0 0.3722735272100694 0.33425106354392481 0 0.375263113682131 0.33313320718557798 0 0.3722735272100694 0.33425106354392481 0 0.37245621682226088 0.32924087979990557 0 0.36985494237623989 0.33311962493185521 0 0.37245621682226088 0.32924087979990557 0 0.37577016905582622 0.32787937856968757 0 0.375263113682131 0.33313320718557798 0 0.37010024416019238 0.33739894816112592 0 0.3722735272100694 0.33425106354392481 0 0.36985494237623989 0.33311962493185521 0 0.36770298492566261 0.33637877995368609 0 0.37010024416019238 0.33739894816112592 0 0.36985494237623989 0.33311962493185521 0 0.36128237795215928 0.33126347269122047 0 0.36124897776362869 0.33531944770056321 0 0.36411885078159001 0.32644375487552563 0 0.36150631125237548 0.32912422255951068 0 0.36128237795215928 0.33126347269122047 0 0.36411885078159001 0.32644375487552563 0 0.36150631125237548 0.32912422255951068 0 0.35994194411877378 0.32646204206530971 0 0.35835984371964152 0.33045614064968309 0 0.36128237795215928 0.33126347269122047 0 0.35899626180536931 0.33430086833413269 0 0.35835984371964152 0.33045614064968309 0 0.36150631125237548 0.32912422255951068 0 0.36128237795215928 0.33126347269122047 0 0.35835984371964152 0.33045614064968309 0 0.36128237795215928 0.33126347269122047 0 0.36124897776362869 0.33531944770056321 0 0.35899626180536931 0.33430086833413269 0 0.36124897776362869 0.33531944770056321 0 0.36001134864139028 0.33778823672905661 0 0.35899626180536931 0.33430086833413269 0 0.36124897776362869 0.33531944770056321 0 0.36001134864139028 0.33778823672905661 0 0.36266452242448938 0.34229393694352239 0 0.36001134864139028 0.33778823672905661 0 0.36266452242448938 0.34229393694352239 0 0.3582225103283424 0.33883319475427592 0 0.36266452242448938 0.34229393694352239 0 0.36587418437400321 0.34278907974668538 0 0.36708394454210669 0.33994961910346172 0 0.36770298492566261 0.33637877995368609 0 0.36266452242448938 0.34229393694352239 0 0.36708394454210669 0.33994961910346172 0 0.36266452242448938 0.34229393694352239 0 0.37368960646642962 0.31911015363466272 0 0.37014896644917339 0.316543878568457 0 0.37014896644917339 0.316543878568457 0 0.36604953812300478 0.31497278055865852 0 0.36630954626425261 0.31087512405144152 0 0.37499251130121058 0.31593455150060828 0 0.37014896644917339 0.316543878568457 0 0.37695808612291098 0.31120865645681561 0 0.37499251130121058 0.31593455150060828 0 0.37368960646642962 0.31911015363466272 0 0.37014896644917339 0.316543878568457 0 0.37014896644917339 0.316543878568457 0 0.36646072203027302 0.32009490443849897 0 0.3659238024377004 0.31770243144255911 0 0.37014896644917339 0.316543878568457 0 0.3659238024377004 0.31770243144255911 0 0.36604953812300478 0.31497278055865852 0 0.37245621682226088 0.32924087979990557 0 0.36985494237623989 0.33311962493185521 0 0.37368960646642962 0.31911015363466272 0 0.37245621682226088 0.32924087979990557 0 0.37368960646642962 0.31911015363466272 0 0.37506056064123422 0.32471797871916308 0 0.37245621682226088 0.32924087979990557 0 0.37577016905582622 0.32787937856968757 0 0.37506056064123422 0.32471797871916308 0 0.37014896644917339 0.316543878568457 0 0.36411885078159001 0.32644375487552563 0 0.36646072203027302 0.32009490443849897 0 0.36411885078159001 0.32644375487552563 0 0.35994194411877378 0.32646204206530971 0 0.36132202517978662 0.32303080634539388 0 0.36150631125237548 0.32912422255951068 0 0.36411885078159001 0.32644375487552563 0 0.35994194411877378 0.32646204206530971 0 0.36132202517978662 0.32303080634539388 0 0.36348301458407639 0.32047903077872458 0 0.35962675317161102 0.31893041505789499 0 0.36411885078159001 0.32644375487552563 0 0.36132202517978662 0.32303080634539388 0 0.36348301458407639 0.32047903077872458 0 0.36411885078159001 0.32644375487552563 0 0.36348301458407639 0.32047903077872458 0 0.36646072203027302 0.32009490443849897 0 0.36348301458407639 0.32047903077872458 0 0.36646072203027302 0.32009490443849897 0 0.3659238024377004 0.31770243144255911 0 0.3659238024377004 0.31770243144255911 0 0.36344593390349789 0.31667187251247519 0 0.36604953812300478 0.31497278055865852 0 0.36348301458407639 0.32047903077872458 0 0.3659238024377004 0.31770243144255911 0 0.36344593390349789 0.31667187251247519 0 0.36348301458407639 0.32047903077872458 0 0.36344593390349789 0.31667187251247519 0 0.35962675317161102 0.31893041505789499 0 0.36344593390349789 0.31667187251247519 0 0.35962675317161102 0.31893041505789499 0 0.35878641637012221 0.31305233625990619 0 0.36344593390349789 0.31667187251247519 0 0.36331333565659901 0.31283202127524651 0 0.35878641637012221 0.31305233625990619 0 0.36331333565659901 0.31283202127524651 0 0.36604953812300478 0.31497278055865852 0 0.36630954626425261 0.31087512405144152 0 0.36344593390349789 0.31667187251247519 0 0.36331333565659901 0.31283202127524651 0 0.36604953812300478 0.31497278055865852 0 0.35878641637012221 0.31305233625990619 0 0.35512602374864599 0.31718053618965047 0 0.35090510471213721 0.31152713165908658 0 0.35512602374864599 0.31718053618965047 0 0.34983435518440159 0.31943204998396652 0 0.35090510471213721 0.31152713165908658 0 0.35962675317161102 0.31893041505789499 0 0.35878641637012221 0.31305233625990619 0 0.35512602374864599 0.31718053618965047 0 0.35962675317161102 0.31893041505789499 0 0.35512602374864599 0.31718053618965047 0 0.35673455485560862 0.32229528426682241 0 0.35512602374864599 0.31718053618965047 0 0.35673455485560862 0.32229528426682241 0 0.34983435518440159 0.31943204998396652 0 0.35673455485560862 0.32229528426682241 0 0.35060422568955008 0.32587015674736058 0 0.34983435518440159 0.31943204998396652 0 0.35994194411877378 0.32646204206530971 0 0.36132202517978662 0.32303080634539388 0 0.35673455485560862 0.32229528426682241 0 0.36132202517978662 0.32303080634539388 0 0.35962675317161102 0.31893041505789499 0 0.35673455485560862 0.32229528426682241 0 0.35994194411877378 0.32646204206530971 0 0.35673455485560862 0.32229528426682241 0 0.35627338036128769 0.32705738058013539 0 0.35994194411877378 0.32646204206530971 0 0.35627338036128769 0.32705738058013539 0 0.35835984371964152 0.33045614064968309 0 0.35627338036128769 0.32705738058013539 0 0.35060422568955008 0.32587015674736058 0 0.35398721241228231 0.33095327650953749 0 0.35673455485560862 0.32229528426682241 0 0.35627338036128769 0.32705738058013539 0 0.35060422568955008 0.32587015674736058 0 0.35060422568955008 0.32587015674736058 0 0.34514221143703899 0.32919058107390442 0 0.34284551192874652 0.32364904383841531 0 0.35060422568955008 0.32587015674736058 0 0.34983435518440159 0.31943204998396652 0 0.34284551192874652 0.32364904383841531 0 0.34983435518440159 0.31943204998396652 0 0.34480088275632298 0.31606258733578418 0 0.35090510471213721 0.31152713165908658 0 0.34983435518440159 0.31943204998396652 0 0.34480088275632298 0.31606258733578418 0 0.34284551192874652 0.32364904383841531 0 0.35146565257524442 0.34420791440797271 0 0.36266452242448938 0.34229393694352239 0 0.35562031764263757 0.34031424282986023 0 0.35302683950207769 0.33602013814058929 0 0.35562031764263757 0.34031424282986023 0 0.35672120529774148 0.33684362974708199 0 0.35202203774268331 0.33965573310897551 0 0.35302683950207769 0.33602013814058929 0 0.35562031764263757 0.34031424282986023 0 0.35146565257524442 0.34420791440797271 0 0.35202203774268331 0.33965573310897551 0 0.35562031764263757 0.34031424282986023 0 0.36266452242448938 0.34229393694352239 0 0.35562031764263757 0.34031424282986023 0 0.3582225103283424 0.33883319475427592 0 0.35562031764263757 0.34031424282986023 0 0.3582225103283424 0.33883319475427592 0 0.35672120529774148 0.33684362974708199 0 0.36001134864139028 0.33778823672905661 0 0.3582225103283424 0.33883319475427592 0 0.35672120529774148 0.33684362974708199 0 0.36001134864139028 0.33778823672905661 0 0.35672120529774148 0.33684362974708199 0 0.35899626180536931 0.33430086833413269 0 0.35899626180536931 0.33430086833413269 0 0.35641212776078268 0.33381706902087938 0 0.35835984371964152 0.33045614064968309 0 0.35672120529774148 0.33684362974708199 0 0.35899626180536931 0.33430086833413269 0 0.35641212776078268 0.33381706902087938 0 0.35627338036128769 0.32705738058013539 0 0.35835984371964152 0.33045614064968309 0 0.35398721241228231 0.33095327650953749 0 0.35641212776078268 0.33381706902087938 0 0.35835984371964152 0.33045614064968309 0 0.35398721241228231 0.33095327650953749 0 0.35302683950207769 0.33602013814058929 0 0.35641212776078268 0.33381706902087938 0 0.35398721241228231 0.33095327650953749 0 0.35302683950207769 0.33602013814058929 0 0.35398721241228231 0.33095327650953749 0 0.34924685744035389 0.33249877391857741 0 0.35302683950207769 0.33602013814058929 0 0.35672120529774148 0.33684362974708199 0 0.35641212776078268 0.33381706902087938 0 0.35302683950207769 0.33602013814058929 0 0.34924685744035389 0.33249877391857741 0 0.34788509595764172 0.33882226599831611 0 0.35060422568955008 0.32587015674736058 0 0.34924685744035389 0.33249877391857741 0 0.34514221143703899 0.32919058107390442 0 0.35060422568955008 0.32587015674736058 0 0.35398721241228231 0.33095327650953749 0 0.34924685744035389 0.33249877391857741 0 0.34924685744035389 0.33249877391857741 0 0.34514221143703899 0.32919058107390442 0 0.34474234507332802 0.33433591834825649 0 0.34924685744035389 0.33249877391857741 0 0.34474234507332802 0.33433591834825649 0 0.34788509595764172 0.33882226599831611 0 0.34474234507332802 0.33433591834825649 0 0.34788509595764172 0.33882226599831611 0 0.34057592936449049 0.33809639891542392 0 0.35146565257524442 0.34420791440797271 0 0.34788509595764172 0.33882226599831611 0 0.34269927497721508 0.34493512072036142 0 0.35202203774268331 0.33965573310897551 0 0.35302683950207769 0.33602013814058929 0 0.34788509595764172 0.33882226599831611 0 0.35146565257524442 0.34420791440797271 0 0.35202203774268331 0.33965573310897551 0 0.34788509595764172 0.33882226599831611 0 0.34057592936449049 0.33809639891542392 0 0.33318390910610529 0.34358855052096038 0 0.34269927497721508 0.34493512072036142 0 0.34788509595764172 0.33882226599831611 0 0.34057592936449049 0.33809639891542392 0 0.34269927497721508 0.34493512072036142 0 0.34474234507332802 0.33433591834825649 0 0.34057592936449049 0.33809639891542392 0 0.33946855119551672 0.33096103471374028 0 0.34514221143703899 0.32919058107390442 0 0.34474234507332802 0.33433591834825649 0 0.33946855119551672 0.33096103471374028 0 0.34057592936449049 0.33809639891542392 0 0.33946855119551672 0.33096103471374028 0 0.33283637980140879 0.33469331179832718 0 0.33946855119551672 0.33096103471374028 0 0.33283637980140879 0.33469331179832718 0 0.33464693517381472 0.32630086361949601 0 0.33283637980140879 0.33469331179832718 0 0.33464693517381472 0.32630086361949601 0 0.3250964778074269 0.32978689602061512 0 0.34057592936449049 0.33809639891542392 0 0.33283637980140879 0.33469331179832718 0 0.33318390910610529 0.34358855052096038 0 0.33283637980140879 0.33469331179832718 0 0.33318390910610529 0.34358855052096038 0 0.32611481079287369 0.33974729713420021 0 0.34480088275632298 0.31606258733578418 0 0.33769186663180051 0.31814262317354819 0 0.34192449374142192 0.30753297203612773 0 0.34480088275632298 0.31606258733578418 0 0.33769186663180051 0.31814262317354819 0 0.34284551192874652 0.32364904383841531 0 0.33946855119551672 0.33096103471374028 0 0.34284551192874652 0.32364904383841531 0 0.33464693517381472 0.32630086361949601 0 0.33769186663180051 0.31814262317354819 0 0.34284551192874652 0.32364904383841531 0 0.33464693517381472 0.32630086361949601 0 0.34514221143703899 0.32919058107390442 0 0.33946855119551672 0.33096103471374028 0 0.34284551192874652 0.32364904383841531 0 0.33769186663180051 0.31814262317354819 0 0.33464693517381472 0.32630086361949601 0 0.32994282367798861 0.32057227217232959 0 0.33464693517381472 0.32630086361949601 0 0.32994282367798861 0.32057227217232959 0 0.3250964778074269 0.32978689602061512 0 0.33769186663180051 0.31814262317354819 0 0.32994282367798861 0.32057227217232959 0 0.32867162081685902 0.31028670060733149 0 0.32176892132522322 0.32006025561378759 0 0.31440941436971798 0.31242774502049953 0 0.32867162081685902 0.31028670060733149 0 0.32994282367798861 0.32057227217232959 0 0.32176892132522322 0.32006025561378759 0 0.32867162081685902 0.31028670060733149 0 0.32176892132522322 0.32006025561378759 0 0.31484893044661 0.32778579360563193 0 0.3250964778074269 0.32978689602061512 0 0.32994282367798861 0.32057227217232959 0 0.32176892132522322 0.32006025561378759 0 0.3250964778074269 0.32978689602061512 0 0.32176892132522322 0.32006025561378759 0 0.31484893044661 0.32778579360563193 0 0.31440941436971798 0.31242774502049953 0 0.32611481079287369 0.33974729713420021 0 0.3250964778074269 0.32978689602061512 0 0.31767498628904178 0.33862919533695518 0 0.32611481079287369 0.33974729713420021 0 0.31767498628904178 0.33862919533695518 0 0.32336406622478242 0.34852958887145069 0 0.33283637980140879 0.33469331179832718 0 0.32611481079287369 0.33974729713420021 0 0.3250964778074269 0.32978689602061512 0 0.31484893044661 0.32778579360563193 0 0.31767498628904178 0.33862919533695518 0 0.30654896287530792 0.34033791233229299 0 0.31484893044661 0.32778579360563193 0 0.3250964778074269 0.32978689602061512 0 0.31767498628904178 0.33862919533695518 0 0.31767498628904178 0.33862919533695518 0 0.31315570067328902 0.3464643712977632 0 0.32336406622478242 0.34852958887145069 0 0.31315570067328902 0.3464643712977632 0 0.31355388928080707 0.35546570062290778 0 0.32336406622478242 0.34852958887145069 0 0.32336406622478242 0.34852958887145069 0 0.33442175170730049 0.35218858713626039 0 0.32437013183195901 0.3602157298059272 0 0.31355388928080707 0.35546570062290778 0 0.32336406622478242 0.34852958887145069 0 0.32437013183195901 0.3602157298059272 0 0.33318390910610529 0.34358855052096038 0 0.32611481079287369 0.33974729713420021 0 0.32336406622478242 0.34852958887145069 0 0.35030182712711511 0.35130594720886232 0 0.33442175170730049 0.35218858713626039 0 0.33389487655237682 0.3658352592629312 0 0.33318390910610529 0.34358855052096038 0 0.32336406622478242 0.34852958887145069 0 0.33442175170730049 0.35218858713626039 0 0.35030182712711511 0.35130594720886232 0 0.33442175170730049 0.35218858713626039 0 0.34269927497721508 0.34493512072036142 0 0.33318390910610529 0.34358855052096038 0 0.33442175170730049 0.35218858713626039 0 0.34269927497721508 0.34493512072036142 0 0.34270248502322931 0.38427053755298168 0 0.35268350372385993 0.36328223724825232 0 0.33389487655237682 0.3658352592629312 0 0.33442175170730049 0.35218858713626039 0 0.33389487655237682 0.3658352592629312 0 0.32437013183195901 0.3602157298059272 0 0.31661607539452802 0.37905951313608538 0 0.33389487655237682 0.3658352592629312 0 0.32437013183195901 0.3602157298059272 0 0.31661607539452802 0.37905951313608538 0 0.31355388928080707 0.35546570062290778 0 0.32437013183195901 0.3602157298059272 0 0.31661607539452802 0.37905951313608538 0 0.31355388928080707 0.35546570062290778 0 0.31661607539452802 0.37905951313608538 0 0.31355388928080707 0.35546570062290778 0 0.30541822204374358 0.36584678197342768 0 0.2987730087010142 0.37934426936791982 0 0.31661607539452802 0.37905951313608538 0 0.30541822204374358 0.36584678197342768 0 0.30541822204374358 0.36584678197342768 0 0.30393955747459928 0.35096595789874813 0 0.29215410451095353 0.36543341035917859 0 0.2987730087010142 0.37934426936791982 0 0.30541822204374358 0.36584678197342768 0 0.29215410451095353 0.36543341035917859 0 0.31315570067328902 0.3464643712977632 0 0.30393955747459928 0.35096595789874813 0 0.30654896287530792 0.34033791233229299 0 0.31315570067328902 0.3464643712977632 0 0.31355388928080707 0.35546570062290778 0 0.30393955747459928 0.35096595789874813 0 0.31355388928080707 0.35546570062290778 0 0.30541822204374358 0.36584678197342768 0 0.30393955747459928 0.35096595789874813 0 0.30393955747459928 0.35096595789874813 0 0.29215410451095353 0.36543341035917859 0 0.30393955747459928 0.35096595789874813 0 0.29720735802849829 0.34424744790442102 0 0.29027641861796738 0.35164951467646482 0 0.30393955747459928 0.35096595789874813 0 0.29720735802849829 0.34424744790442102 0 0.30654896287530792 0.34033791233229299 0 0.29720735802849829 0.34424744790442102 0 0.29027641861796738 0.35164951467646482 0 0.28998304713239348 0.34105976447064218 0 0.30393955747459928 0.35096595789874813 0 0.29027641861796738 0.35164951467646482 0 0.29215410451095353 0.36543341035917859 0 0.29027641861796738 0.35164951467646482 0 0.29215410451095353 0.36543341035917859 0 0.27920137084664282 0.3573603676334649 0 0.29027641861796738 0.35164951467646482 0 0.27920137084664282 0.3573603676334649 0 0.28068773357058369 0.34198453751068081 0 0.29027641861796738 0.35164951467646482 0 0.28068773357058369 0.34198453751068081 0 0.28998304713239348 0.34105976447064218 0 0.28036865154730628 0.37990086281960789 0 0.29215410451095353 0.36543341035917859 0 0.27920137084664282 0.3573603676334649 0 0.28036865154730628 0.37990086281960789 0 0.2987730087010142 0.37934426936791982 0 0.29215410451095353 0.36543341035917859 0 0.28036865154730628 0.37990086281960789 0 0.29215410451095353 0.36543341035917859 0 0.28036865154730628 0.37990086281960789 0 0.27920137084664282 0.3573603676334649 0 0.26173146881309822 0.35734024057335978 0 0.28036865154730628 0.37990086281960789 0 0.26173146881309822 0.35734024057335978 0 0.28036865154730628 0.37990086281960789 0 0.26173146881309822 0.35734024057335978 0 0.2641967246118288 0.36596915937278562 0 0.27920137084664282 0.3573603676334649 0 0.27030047393074008 0.3474963096498429 0 0.26173146881309822 0.35734024057335978 0 0.27920137084664282 0.3573603676334649 0 0.27030047393074008 0.3474963096498429 0 0.28068773357058369 0.34198453751068081 0 0.2430942860788903 0.33477961832711151 0 0.26173146881309822 0.35734024057335978 0 0.27030047393074008 0.3474963096498429 0 0.26173146881309822 0.35734024057335978 0 0.26240083601839698 0.33727672217147331 0 0.23816107804029091 0.35120524212074949 0 0.26173146881309822 0.35734024057335978 0 0.2641967246118288 0.36596915937278562 0 0.23816107804029091 0.35120524212074949 0 0.2641967246118288 0.36596915937278562 0 0.2492643002430574 0.365916522193315 0 0.24311907173897271 0.36013203008567057 0 0.2641967246118288 0.36596915937278562 0 0.2492643002430574 0.365916522193315 0 0.25710864090743918 0.37145542319719338 0 0.2641967246118288 0.36596915937278562 0 0.2492643002430574 0.365916522193315 0 0.25383912625151372 0.37755129754335942 0 0.25710864090743918 0.37145542319719338 0 0.26350653962281989 0.38010735630523079 0 0.25710864090743918 0.37145542319719338 0 0.2641967246118288 0.36596915937278562 0 0.2484846271056145 0.31037308609574782 0 0.25508783524565293 0.32209220201309929 0 0.26836904206483531 0.31075971332937607 0 0.25508783524565293 0.32209220201309929 0 0.26240083601839698 0.33727672217147331 0 0.26677092012209491 0.32204036282613252 0 0.25508783524565293 0.32209220201309929 0 0.26677092012209491 0.32204036282613252 0 0.26836904206483531 0.31075971332937607 0 0.2430942860788903 0.33477961832711151 0 0.25508783524565293 0.32209220201309929 0 0.26240083601839698 0.33727672217147331 0 0.2430942860788903 0.33477961832711151 0 0.26173146881309822 0.35734024057335978 0 0.26240083601839698 0.33727672217147331 0 0.26240083601839698 0.33727672217147331 0 0.27184092000699639 0.33891315949469752 0 0.27388917516664008 0.32964775149744319 0 0.26240083601839698 0.33727672217147331 0 0.27388917516664008 0.32964775149744319 0 0.26677092012209491 0.32204036282613252 0 0.27030047393074008 0.3474963096498429 0 0.26240083601839698 0.33727672217147331 0 0.27184092000699639 0.33891315949469752 0 0.27030047393074008 0.3474963096498429 0 0.27184092000699639 0.33891315949469752 0 0.28068773357058369 0.34198453751068081 0 0.27184092000699639 0.33891315949469752 0 0.28068773357058369 0.34198453751068081 0 0.27388917516664008 0.32964775149744319 0 0.28068773357058369 0.34198453751068081 0 0.27388917516664008 0.32964775149744319 0 0.28570907475377572 0.33188311037056872 0 0.27388917516664008 0.32964775149744319 0 0.26677092012209491 0.32204036282613252 0 0.28178409254690689 0.31684790712797722 0 0.27388917516664008 0.32964775149744319 0 0.28178409254690689 0.31684790712797722 0 0.28570907475377572 0.33188311037056872 0 0.26677092012209491 0.32204036282613252 0 0.28178409254690689 0.31684790712797722 0 0.26836904206483531 0.31075971332937607 0 0.28178409254690689 0.31684790712797722 0 0.29262159606390598 0.32453461147271162 0 0.29660332646403359 0.30785121346786842 0 0.28178409254690689 0.31684790712797722 0 0.29262159606390598 0.32453461147271162 0 0.28570907475377572 0.33188311037056872 0 0.28068773357058369 0.34198453751068081 0 0.28570907475377572 0.33188311037056872 0 0.28998304713239348 0.34105976447064218 0 0.29262159606390598 0.32453461147271162 0 0.28570907475377572 0.33188311037056872 0 0.29603465069114282 0.33553421189107618 0 0.29720735802849829 0.34424744790442102 0 0.29603465069114282 0.33553421189107618 0 0.28998304713239348 0.34105976447064218 0 0.28570907475377572 0.33188311037056872 0 0.29603465069114282 0.33553421189107618 0 0.28998304713239348 0.34105976447064218 0 0.29720735802849829 0.34424744790442102 0 0.29603465069114282 0.33553421189107618 0 0.30654896287530792 0.34033791233229299 0 0.29603465069114282 0.33553421189107618 0 0.30654896287530792 0.34033791233229299 0 0.30445412428221041 0.32558903425911379 0 0.29262159606390598 0.32453461147271162 0 0.29603465069114282 0.33553421189107618 0 0.30445412428221041 0.32558903425911379 0 0.31484893044661 0.32778579360563193 0 0.30654896287530792 0.34033791233229299 0 0.30445412428221041 0.32558903425911379 0 0.31767498628904178 0.33862919533695518 0 0.31315570067328902 0.3464643712977632 0 0.30654896287530792 0.34033791233229299 0 0.30445412428221041 0.32558903425911379 0 0.29660332646403359 0.30785121346786842 0 0.31440941436971798 0.31242774502049953 0 0.29262159606390598 0.32453461147271162 0 0.30445412428221041 0.32558903425911379 0 0.29660332646403359 0.30785121346786842 0 0.31484893044661 0.32778579360563193 0 0.30445412428221041 0.32558903425911379 0 0.31440941436971798 0.31242774502049953 0 0.30822946874662033 0.29998271616579031 0 0.29660332646403359 0.30785121346786842 0 0.31440941436971798 0.31242774502049953 0 0.30822946874662033 0.29998271616579031 0 0.30055108247350393 0.28416894361273021 0 0.29660332646403359 0.30785121346786842 0 0.30822946874662033 0.29998271616579031 0 0.30055108247350393 0.28416894361273021 0 0.32109763140443309 0.29547610107375327 0 0.30055108247350393 0.28416894361273021 0 0.29660332646403359 0.30785121346786842 0 0.27430616976337108 0.29100628718303567 0 0.30055108247350393 0.28416894361273021 0 0.27430616976337108 0.29100628718303567 0 0.28443506245096839 0.27205148705280008 0 0.30055108247350393 0.28416894361273021 0 0.27430616976337108 0.29100628718303567 0 0.28178409254690689 0.31684790712797722 0 0.29660332646403359 0.30785121346786842 0 0.27430616976337108 0.29100628718303567 0 0.28178409254690689 0.31684790712797722 0 0.26836904206483531 0.31075971332937607 0 0.27430616976337108 0.29100628718303567 0 0.28178409254690689 0.31684790712797722 0 0.27430616976337108 0.29100628718303567 0 0.27430616976337108 0.29100628718303567 0 0.25121587924780342 0.29702178630611242 0 0.27430616976337108 0.29100628718303567 0 0.25953152444998728 0.28294166139542631 0 0.25121587924780342 0.29702178630611242 0 0.26836904206483531 0.31075971332937607 0 0.27430616976337108 0.29100628718303567 0 0.25121587924780342 0.29702178630611242 0 0.26836904206483531 0.31075971332937607 0 0.25121587924780342 0.29702178630611242 0 0.2484846271056145 0.31037308609574782 0 0.26836904206483531 0.31075971332937607 0 0.25121587924780342 0.29702178630611242 0 0.25102838231212438 0.26850893423506528 0 0.26790857605335527 0.26889798384773289 0 0.26221447651104962 0.2479993693513689 0 0.26790857605335527 0.26889798384773289 0 0.26221447651104962 0.2479993693513689 0 0.25953152444998728 0.28294166139542631 0 0.25102838231212438 0.26850893423506528 0 0.26790857605335527 0.26889798384773289 0 0.27430616976337108 0.29100628718303567 0 0.26790857605335527 0.26889798384773289 0 0.28443506245096839 0.27205148705280008 0 0.27430616976337108 0.29100628718303567 0 0.25953152444998728 0.28294166139542631 0 0.26790857605335527 0.26889798384773289 0 0.27430616976337108 0.29100628718303567 0 0.26790857605335527 0.26889798384773289 0 0.26790857605335527 0.26889798384773289 0 0.28119448123381058 0.25405304303149878 0 0.26221447651104962 0.2479993693513689 0 0.26790857605335527 0.26889798384773289 0 0.28119448123381058 0.25405304303149878 0 0.28443506245096839 0.27205148705280008 0 0.28119448123381058 0.25405304303149878 0 0.28443506245096839 0.27205148705280008 0 0.2982150027308012 0.26213117758900317 0 0.28119448123381058 0.25405304303149878 0 0.2982150027308012 0.26213117758900317 0 0.30328699804120918 0.24394477185791469 0 0.30055108247350393 0.28416894361273021 0 0.28443506245096839 0.27205148705280008 0 0.2982150027308012 0.26213117758900317 0 0.30055108247350393 0.28416894361273021 0 0.2982150027308012 0.26213117758900317 0 0.31879452400631653 0.25919465198291952 0 0.2982150027308012 0.26213117758900317 0 0.31879452400631653 0.25919465198291952 0 0.30328699804120918 0.24394477185791469 0 0.31879452400631653 0.25919465198291952 0 0.33092809789354199 0.24744869965648561 0 0.31845456220733243 0.24449663650262579 0 0.31879452400631653 0.25919465198291952 0 0.33565265393095528 0.25675142138279861 0 0.33982225619875311 0.26765994074234428 0 0.31879452400631653 0.25919465198291952 0 0.33982225619875311 0.26765994074234428 0 0.31879452400631653 0.25919465198291952 0 0.33565265393095528 0.25675142138279861 0 0.33092809789354199 0.24744869965648561 0 0.33565265393095528 0.25675142138279861 0 0.33982225619875311 0.26765994074234428 0 0.34536281311255052 0.25941060478944128 0 0.33565265393095528 0.25675142138279861 0 0.3433555784436142 0.25004320974280247 0 0.33092809789354199 0.24744869965648561 0 0.33565265393095528 0.25675142138279861 0 0.3433555784436142 0.25004320974280247 0 0.34536281311255052 0.25941060478944128 0 0.31879452400631653 0.25919465198291952 0 0.33982225619875311 0.26765994074234428 0 0.32679599518363661 0.27733160004242491 0 0.33982225619875311 0.26765994074234428 0 0.32679599518363661 0.27733160004242491 0 0.34056182851336592 0.28206143899133118 0 0.30055108247350393 0.28416894361273021 0 0.32679599518363661 0.27733160004242491 0 0.30055108247350393 0.28416894361273021 0 0.31879452400631653 0.25919465198291952 0 0.32679599518363661 0.27733160004242491 0 0.32679599518363661 0.27733160004242491 0 0.32109763140443309 0.29547610107375327 0 0.33248404658197278 0.28876668272462419 0 0.30055108247350393 0.28416894361273021 0 0.32679599518363661 0.27733160004242491 0 0.32109763140443309 0.29547610107375327 0 0.32109763140443309 0.29547610107375327 0 0.31440941436971798 0.31242774502049953 0 0.32867162081685902 0.31028670060733149 0 0.30822946874662033 0.29998271616579031 0 0.32109763140443309 0.29547610107375327 0 0.31440941436971798 0.31242774502049953 0 0.32867162081685902 0.31028670060733149 0 0.33472549883669622 0.29791121211074773 0 0.34192449374142192 0.30753297203612773 0 0.32109763140443309 0.29547610107375327 0 0.32867162081685902 0.31028670060733149 0 0.33472549883669622 0.29791121211074773 0 0.33472549883669622 0.29791121211074773 0 0.34281583705185747 0.29966479619329672 0 0.34192449374142192 0.30753297203612773 0 0.33769186663180051 0.31814262317354819 0 0.32867162081685902 0.31028670060733149 0 0.34192449374142192 0.30753297203612773 0 0.32679599518363661 0.27733160004242491 0 0.33248404658197278 0.28876668272462419 0 0.34056182851336592 0.28206143899133118 0 0.32109763140443309 0.29547610107375327 0 0.33472549883669622 0.29791121211074773 0 0.33248404658197278 0.28876668272462419 0 0.33472549883669622 0.29791121211074773 0 0.33248404658197278 0.28876668272462419 0 0.34417327957572558 0.29277050597204329 0 0.33472549883669622 0.29791121211074773 0 0.34281583705185747 0.29966479619329672 0 0.34417327957572558 0.29277050597204329 0 0.33248404658197278 0.28876668272462419 0 0.34056182851336592 0.28206143899133118 0 0.34417327957572558 0.29277050597204329 0 0.34056182851336592 0.28206143899133118 0 0.34979868535227071 0.28728326233729501 0 0.34417327957572558 0.29277050597204329 0 0.34056182851336592 0.28206143899133118 0 0.34979868535227071 0.28728326233729501 0 0.35183199075491411 0.27966461044832719 0 0.34417327957572558 0.29277050597204329 0 0.35334053836337709 0.29410458558147129 0 0.34972900846361488 0.30172704795696642 0 0.34979868535227071 0.28728326233729501 0 0.34417327957572558 0.29277050597204329 0 0.35334053836337709 0.29410458558147129 0 0.34979868535227071 0.28728326233729501 0 0.35334053836337709 0.29410458558147129 0 0.35722235408413222 0.28831366276426512 0 0.35334053836337709 0.29410458558147129 0 0.35826071325737319 0.3003277240158499 0 0.36091512844171192 0.29433704443458902 0 0.35334053836337709 0.29410458558147129 0 0.35722235408413222 0.28831366276426512 0 0.36091512844171192 0.29433704443458902 0 0.34979868535227071 0.28728326233729501 0 0.35722235408413222 0.28831366276426512 0 0.35183199075491411 0.27966461044832719 0 0.35722235408413222 0.28831366276426512 0 0.36152496379752869 0.28359539021876212 0 0.35183199075491411 0.27966461044832719 0 0.34480088275632298 0.31606258733578418 0 0.34192449374142192 0.30753297203612773 0 0.35090510471213721 0.31152713165908658 0 0.34192449374142192 0.30753297203612773 0 0.35090510471213721 0.31152713165908658 0 0.34972900846361488 0.30172704795696642 0 0.34281583705185747 0.29966479619329672 0 0.34417327957572558 0.29277050597204329 0 0.34972900846361488 0.30172704795696642 0 0.34281583705185747 0.29966479619329672 0 0.34192449374142192 0.30753297203612773 0 0.34972900846361488 0.30172704795696642 0 0.34972900846361488 0.30172704795696642 0 0.35826071325737319 0.3003277240158499 0 0.35721607615581658 0.30656573559573969 0 0.35334053836337709 0.29410458558147129 0 0.34972900846361488 0.30172704795696642 0 0.35826071325737319 0.3003277240158499 0 0.35090510471213721 0.31152713165908658 0 0.34972900846361488 0.30172704795696642 0 0.35721607615581658 0.30656573559573969 0 0.35878641637012221 0.31305233625990619 0 0.35090510471213721 0.31152713165908658 0 0.35721607615581658 0.30656573559573969 0 0.37014896644917339 0.316543878568457 0 0.37763341047385651 0.29079382019339128 0 0.37014896644917339 0.316543878568457 0 0.37108481648816682 0.30013899891886681 0 0.36845835323010317 0.30596496181531441 0 0.37014896644917339 0.316543878568457 0 0.37763341047385651 0.29079382019339128 0 0.37695808612291098 0.31120865645681561 0 0.37014896644917339 0.316543878568457 0 0.37108481648816682 0.30013899891886681 0 0.37763341047385651 0.29079382019339128 0 0.36630954626425261 0.31087512405144152 0 0.36228941999803421 0.30896529616435242 0 0.36543096483439103 0.3064802843427199 0 0.36331333565659901 0.31283202127524651 0 0.36630954626425261 0.31087512405144152 0 0.36228941999803421 0.30896529616435242 0 0.36331333565659901 0.31283202127524651 0 0.35878641637012221 0.31305233625990619 0 0.36228941999803421 0.30896529616435242 0 0.35878641637012221 0.31305233625990619 0 0.35721607615581658 0.30656573559573969 0 0.36228941999803421 0.30896529616435242 0 0.35721607615581658 0.30656573559573969 0 0.36228941999803421 0.30896529616435242 0 0.36268018070702418 0.30398627546106088 0 0.36630954626425261 0.31087512405144152 0 0.36543096483439103 0.3064802843427199 0 0.36845835323010317 0.30596496181531441 0 0.36228941999803421 0.30896529616435242 0 0.36543096483439103 0.3064802843427199 0 0.36268018070702418 0.30398627546106088 0 0.36543096483439103 0.3064802843427199 0 0.36607900901995372 0.30349396637540749 0 0.36845835323010317 0.30596496181531441 0 0.36607900901995372 0.30349396637540749 0 0.36268018070702418 0.30398627546106088 0 0.36558719123160882 0.29969948119116269 0 0.36607900901995372 0.30349396637540749 0 0.36558719123160882 0.29969948119116269 0 0.36823835509664099 0.30133882906677939 0 0.36543096483439103 0.3064802843427199 0 0.36607900901995372 0.30349396637540749 0 0.36268018070702418 0.30398627546106088 0 0.35826071325737319 0.3003277240158499 0 0.35721607615581658 0.30656573559573969 0 0.36268018070702418 0.30398627546106088 0 0.35826071325737319 0.3003277240158499 0 0.36268018070702418 0.30398627546106088 0 0.36558719123160882 0.29969948119116269 0 0.35826071325737319 0.3003277240158499 0 0.36558719123160882 0.29969948119116269 0 0.36091512844171192 0.29433704443458902 0 0.36871223371641282 0.29817542324200702 0 0.37108481648816682 0.30013899891886681 0 0.37014933742706652 0.29575476169949788 0 0.36558719123160882 0.29969948119116269 0 0.36871223371641282 0.29817542324200702 0 0.36734652779664789 0.29411680932906442 0 0.36558719123160882 0.29969948119116269 0 0.36871223371641282 0.29817542324200702 0 0.36823835509664099 0.30133882906677939 0 0.36871223371641282 0.29817542324200702 0 0.37108481648816682 0.30013899891886681 0 0.36823835509664099 0.30133882906677939 0 0.37108481648816682 0.30013899891886681 0 0.36823835509664099 0.30133882906677939 0 0.36845835323010317 0.30596496181531441 0 0.36607900901995372 0.30349396637540749 0 0.36823835509664099 0.30133882906677939 0 0.36845835323010317 0.30596496181531441 0 0.37014896644917339 0.316543878568457 0 0.36630954626425261 0.31087512405144152 0 0.36845835323010317 0.30596496181531441 0 0.36812955944888692 0.28419813691800921 0 0.36084998839118931 0.2761252295017701 0 0.37969218042614078 0.28371066929036243 0 0.36152496379752869 0.28359539021876212 0 0.36812955944888692 0.28419813691800921 0 0.36084998839118931 0.2761252295017701 0 0.36414496955441777 0.28941104037434479 0 0.36911771796651938 0.28986917351547109 0 0.36812955944888692 0.28419813691800921 0 0.36152496379752869 0.28359539021876212 0 0.36414496955441777 0.28941104037434479 0 0.36812955944888692 0.28419813691800921 0 0.35722235408413222 0.28831366276426512 0 0.36152496379752869 0.28359539021876212 0 0.36414496955441777 0.28941104037434479 0 0.35722235408413222 0.28831366276426512 0 0.36091512844171192 0.29433704443458902 0 0.36414496955441777 0.28941104037434479 0 0.36558719123160882 0.29969948119116269 0 0.36091512844171192 0.29433704443458902 0 0.36734652779664789 0.29411680932906442 0 0.36091512844171192 0.29433704443458902 0 0.36414496955441777 0.28941104037434479 0 0.36734652779664789 0.29411680932906442 0 0.36414496955441777 0.28941104037434479 0 0.36911771796651938 0.28986917351547109 0 0.36734652779664789 0.29411680932906442 0 0.36911771796651938 0.28986917351547109 0 0.37026464520563152 0.29279186409727531 0 0.36734652779664789 0.29411680932906442 0 0.37108481648816682 0.30013899891886681 0 0.37306860395079622 0.29341917559567809 0 0.37763341047385651 0.29079382019339128 0 0.36911771796651938 0.28986917351547109 0 0.37026464520563152 0.29279186409727531 0 0.37237913536365119 0.29056320862162688 0 0.36871223371641282 0.29817542324200702 0 0.36734652779664789 0.29411680932906442 0 0.37014933742706652 0.29575476169949788 0 0.37026464520563152 0.29279186409727531 0 0.36734652779664789 0.29411680932906442 0 0.37014933742706652 0.29575476169949788 0 0.37108481648816682 0.30013899891886681 0 0.37014933742706652 0.29575476169949788 0 0.37306860395079622 0.29341917559567809 0 0.37026464520563152 0.29279186409727531 0 0.37014933742706652 0.29575476169949788 0 0.37306860395079622 0.29341917559567809 0 0.36911771796651938 0.28986917351547109 0 0.37237913536365119 0.29056320862162688 0 0.37333201972158658 0.2878654242033048 0 0.37306860395079622 0.29341917559567809 0 0.37237913536365119 0.29056320862162688 0 0.37763341047385651 0.29079382019339128 0 0.37237913536365119 0.29056320862162688 0 0.37333201972158658 0.2878654242033048 0 0.37763341047385651 0.29079382019339128 0 0.37026464520563152 0.29279186409727531 0 0.37306860395079622 0.29341917559567809 0 0.37237913536365119 0.29056320862162688 0 0.37333201972158658 0.2878654242033048 0 0.36812955944888692 0.28419813691800921 0 0.37969218042614078 0.28371066929036243 0 0.36911771796651938 0.28986917351547109 0 0.37333201972158658 0.2878654242033048 0 0.36812955944888692 0.28419813691800921 0 0.36084998839118931 0.2761252295017701 0 0.37969218042614078 0.28371066929036243 0 0.36084998839118931 0.2761252295017701 0 0.37017340450925651 0.266060206293324 0 0.3539366042426153 0.26554047293381039 0 0.36084998839118931 0.2761252295017701 0 0.38460708535355081 0.26680105137204091 0 0.36084998839118931 0.2761252295017701 0 0.37017340450925651 0.266060206293324 0 0.38460708535355081 0.26680105137204091 0 0.3539366042426153 0.26554047293381039 0 0.38129994004966872 0.25577407136566988 0 0.37169426656027921 0.24972740256563611 0 0.37017340450925651 0.266060206293324 0 0.3539366042426153 0.26554047293381039 0 0.38129994004966872 0.25577407136566988 0 0.3539366042426153 0.26554047293381039 0 0.37169426656027921 0.24972740256563611 0 0.36205361842742478 0.24882498742118489 0 0.3539366042426153 0.26554047293381039 0 0.38129994004966872 0.25577407136566988 0 0.3539366042426153 0.26554047293381039 0 0.35175757775775729 0.2532797976346674 0 0.36205361842742478 0.24882498742118489 0 0.3433555784436142 0.25004320974280247 0 0.35175757775775729 0.2532797976346674 0 0.34536281311255052 0.25941060478944128 0 0.33982225619875311 0.26765994074234428 0 0.3539366042426153 0.26554047293381039 0 0.34536281311255052 0.25941060478944128 0 0.3539366042426153 0.26554047293381039 0 0.35175757775775729 0.2532797976346674 0 0.34536281311255052 0.25941060478944128 0 0.33982225619875311 0.26765994074234428 0 0.36084998839118931 0.2761252295017701 0 0.33982225619875311 0.26765994074234428 0 0.36084998839118931 0.2761252295017701 0 0.3539366042426153 0.26554047293381039 0 0.33982225619875311 0.26765994074234428 0 0.36084998839118931 0.2761252295017701 0 0.35183199075491411 0.27966461044832719 0 0.33982225619875311 0.26765994074234428 0 0.34056182851336592 0.28206143899133118 0 0.35183199075491411 0.27966461044832719 0 0.36152496379752869 0.28359539021876212 0 0.36084998839118931 0.2761252295017701 0 0.35183199075491411 0.27966461044832719 0 0.36084998839118931 0.2761252295017701 0 0.35183199075491411 0.27966461044832719 0 0.39945440726228237 0.27350419034528239 0 0.38460708535355081 0.26680105137204091 0 0.40768566828284042 0.25774317622192677 0 0.39945440726228237 0.27350419034528239 0 0.4092682188351508 0.26816031590002881 0 0.40768566828284042 0.25774317622192677 0 0.39945440726228237 0.27350419034528239 0 0.38460708535355081 0.26680105137204091 0 0.3904751567012596 0.27530993325585928 0 0.39945440726228237 0.27350419034528239 0 0.3904751567012596 0.27530993325585928 0 0.39488150240831521 0.28173053148540511 0 0.39945440726228237 0.27350419034528239 0 0.40366985246608472 0.28285995447659418 0 0.40929088926209078 0.279020096056181 0 0.39945440726228237 0.27350419034528239 0 0.4092682188351508 0.26816031590002881 0 0.40929088926209078 0.279020096056181 0 0.39945440726228237 0.27350419034528239 0 0.39488150240831521 0.28173053148540511 0 0.40366985246608472 0.28285995447659418 0 0.38783836144724232 0.2556839199238965 0 0.38129994004966872 0.25577407136566988 0 0.40866327585672191 0.24600766979752939 0 0.38460708535355081 0.26680105137204091 0 0.40768566828284042 0.25774317622192677 0 0.38783836144724232 0.2556839199238965 0 0.40768566828284042 0.25774317622192677 0 0.40866327585672191 0.24600766979752939 0 0.38783836144724232 0.2556839199238965 0 0.38460708535355081 0.26680105137204091 0 0.40768566828284042 0.25774317622192677 0 0.38129994004966872 0.25577407136566988 0 0.40866327585672191 0.24600766979752939 0 0.38783836144724232 0.2556839199238965 0 0.38129994004966872 0.25577407136566988 0 0.38460708535355081 0.26680105137204091 0 0.38783836144724232 0.2556839199238965 0 0.38460708535355081 0.26680105137204091 0 0.38129994004966872 0.25577407136566988 0 0.37169426656027921 0.24972740256563611 0 0.38106847269238292 0.24536179082341181 0 0.37017340450925651 0.266060206293324 0 0.38129994004966872 0.25577407136566988 0 0.38460708535355081 0.26680105137204091 0 0.36084998839118931 0.2761252295017701 0 0.38460708535355081 0.26680105137204091 0 0.37969218042614078 0.28371066929036243 0 0.38460708535355081 0.26680105137204091 0 0.3904751567012596 0.27530993325585928 0 0.37969218042614078 0.28371066929036243 0 0.38460708535355081 0.26680105137204091 0 0.37969218042614078 0.28371066929036243 0 0.3904751567012596 0.27530993325585928 0 0.37969218042614078 0.28371066929036243 0 0.39488150240831521 0.28173053148540511 0 0.37969218042614078 0.28371066929036243 0 0.37763341047385651 0.29079382019339128 0 0.40259214502479168 0.29292967641552992 0 0.37763341047385651 0.29079382019339128 0 0.4027243230010164 0.30147339632314252 0 0.37969218042614078 0.28371066929036243 0 0.37763341047385651 0.29079382019339128 0 0.37333201972158658 0.2878654242033048 0 0.37969218042614078 0.28371066929036243 0 0.37763341047385651 0.29079382019339128 0 0.37763341047385651 0.29079382019339128 0 0.37695808612291098 0.31120865645681561 0 0.38599374742651271 0.30414296713942529 0 0.37763341047385651 0.29079382019339128 0 0.38599374742651271 0.30414296713942529 0 0.4027243230010164 0.30147339632314252 0 0.37695808612291098 0.31120865645681561 0 0.38599374742651271 0.30414296713942529 0 0.38754735899376969 0.31282171123814728 0 0.38599374742651271 0.30414296713942529 0 0.4027243230010164 0.30147339632314252 0 0.38754735899376969 0.31282171123814728 0 0.4027243230010164 0.30147339632314252 0 0.3956366020903157 0.32248231082130752 0 0.38754735899376969 0.31282171123814728 0 0.37969218042614078 0.28371066929036243 0 0.40259214502479168 0.29292967641552992 0 0.37969218042614078 0.28371066929036243 0 0.39488150240831521 0.28173053148540511 0 0.40259214502479168 0.29292967641552992 0 0.37763341047385651 0.29079382019339128 0 0.4027243230010164 0.30147339632314252 0 0.40259214502479168 0.29292967641552992 0 0.4027243230010164 0.30147339632314252 0 0.40259214502479168 0.29292967641552992 0 0.41139710839419091 0.29189735433941028 0 0.40259214502479168 0.29292967641552992 0 0.40366985246608472 0.28285995447659418 0 0.41139710839419091 0.29189735433941028 0 0.39488150240831521 0.28173053148540511 0 0.40259214502479168 0.29292967641552992 0 0.40366985246608472 0.28285995447659418 0 0.40366985246608472 0.28285995447659418 0 0.41139710839419091 0.29189735433941028 0 0.40929088926209078 0.279020096056181 0 0.41139710839419091 0.29189735433941028 0 0.42781523552817591 0.31215297245289481 0 0.42226183937510081 0.28327127115801121 0 0.41139710839419091 0.29189735433941028 0 0.42226183937510081 0.28327127115801121 0 0.40929088926209078 0.279020096056181 0 0.4027243230010164 0.30147339632314252 0 0.41139710839419091 0.29189735433941028 0 0.42781523552817591 0.31215297245289481 0 0.4027243230010164 0.30147339632314252 0 0.42781523552817591 0.31215297245289481 0 0.41357021602424721 0.32279281759874212 0 0.4027243230010164 0.30147339632314252 0 0.42781523552817591 0.31215297245289481 0 0.42781523552817591 0.31215297245289481 0 0.42226183937510081 0.28327127115801121 0 0.42781523552817591 0.31215297245289481 0 0.42226183937510081 0.28327127115801121 0 0.44120727567718632 0.28746005308771089 0 0.42226183937510081 0.28327127115801121 0 0.43023391716603732 0.27040224467912161 0 0.44120727567718632 0.28746005308771089 0 0.42226183937510081 0.28327127115801121 0 0.43023391716603732 0.27040224467912161 0 0.41664462513020523 0.25422696758609492 0 0.43023391716603732 0.27040224467912161 0 0.43692075095235122 0.26433370861442979 0 0.44373838257505849 0.27050131303512348 0 0.42226183937510081 0.28327127115801121 0 0.4092682188351508 0.26816031590002881 0 0.41664462513020523 0.25422696758609492 0 0.42226183937510081 0.28327127115801121 0 0.41664462513020523 0.25422696758609492 0 0.42226183937510081 0.28327127115801121 0 0.4092682188351508 0.26816031590002881 0 0.40929088926209078 0.279020096056181 0 0.40768566828284042 0.25774317622192677 0 0.41664462513020523 0.25422696758609492 0 0.40866327585672191 0.24600766979752939 0 0.40768566828284042 0.25774317622192677 0 0.41664462513020523 0.25422696758609492 0 0.4092682188351508 0.26816031590002881 0 0.40768566828284042 0.25774317622192677 0 0.41664462513020523 0.25422696758609492 0 0.42749544465446981 0.25699566217507153 0 0.45166362976964691 0.25106894999712381 0 0.43076425121212841 0.2486853010718087 0 0.41664462513020523 0.25422696758609492 0 0.42749544465446981 0.25699566217507153 0 0.43076425121212841 0.2486853010718087 0 0.43023391716603732 0.27040224467912161 0 0.41664462513020523 0.25422696758609492 0 0.42749544465446981 0.25699566217507153 0 0.41664462513020523 0.25422696758609492 0 0.43076425121212841 0.2486853010718087 0 0.42749544465446981 0.25699566217507153 0 0.43692075095235122 0.26433370861442979 0 0.44456450099631911 0.26043047377218492 0 0.43023391716603732 0.27040224467912161 0 0.42749544465446981 0.25699566217507153 0 0.43692075095235122 0.26433370861442979 0 0.42749544465446981 0.25699566217507153 0 0.45166362976964691 0.25106894999712381 0 0.42749544465446981 0.25699566217507153 0 0.44456450099631911 0.26043047377218492 0 0.45166362976964691 0.25106894999712381 0 0.43692075095235122 0.26433370861442979 0 0.44456450099631911 0.26043047377218492 0 0.44373838257505849 0.27050131303512348 0 0.44456450099631911 0.26043047377218492 0 0.44373838257505849 0.27050131303512348 0 0.45508065662597141 0.26402805921732958 0 0.44456450099631911 0.26043047377218492 0 0.45166362976964691 0.25106894999712381 0 0.45508065662597141 0.26402805921732958 0 0.44373838257505849 0.27050131303512348 0 0.45472874274978531 0.27586911806656422 0 0.44120727567718632 0.28746005308771089 0 0.43023391716603732 0.27040224467912161 0 0.44373838257505849 0.27050131303512348 0 0.44120727567718632 0.28746005308771089 0 0.44373838257505849 0.27050131303512348 0 0.45472874274978531 0.27586911806656422 0 0.45508065662597141 0.26402805921732958 0 0.45472874274978531 0.27586911806656422 0 0.46665275363318931 0.27127710252775639 0 0.46192346945889701 0.28817835066990299 0 0.45472874274978531 0.27586911806656422 0 0.46665275363318931 0.27127710252775639 0 0.45508065662597141 0.26402805921732958 0 0.45166362976964691 0.25106894999712381 0 0.46652816171208539 0.25830808769848879 0 0.47583181488482379 0.2451422378191761 0 0.45166362976964691 0.25106894999712381 0 0.45508065662597141 0.26402805921732958 0 0.46652816171208539 0.25830808769848879 0 0.46665275363318931 0.27127710252775639 0 0.45508065662597141 0.26402805921732958 0 0.46652816171208539 0.25830808769848879 0 0.46665275363318931 0.27127710252775639 0 0.46652816171208539 0.25830808769848879 0 0.48341195364679568 0.26002408893105827 0 0.46652816171208539 0.25830808769848879 0 0.48341195364679568 0.26002408893105827 0 0.47583181488482379 0.2451422378191761 0 0.46665275363318931 0.27127710252775639 0 0.48341195364679568 0.26002408893105827 0 0.48138518434246891 0.28130646820503019 0 0.46665275363318931 0.27127710252775639 0 0.48138518434246891 0.28130646820503019 0 0.46192346945889701 0.28817835066990299 0 0.5 0.26671351767664991 0 0.5 0.29421150971207138 0 0.48138518434246891 0.28130646820503019 0 0.48341195364679568 0.26002408893105827 0 0.5 0.26671351767664991 0 0.48138518434246891 0.28130646820503019 0 0.48341195364679568 0.26002408893105827 0 0.5 0.26671351767664991 0 0.50000000000000067 0.2392155256412283 0 0.5 0.29421150971207138 0 0.47556093647901088 0.30733800586058863 0 0.5 0.32170950174749302 0 0.5 0.29421150971207138 0 0.48138518434246891 0.28130646820503019 0 0.47556093647901088 0.30733800586058863 0 0.48138518434246891 0.28130646820503019 0 0.47556093647901088 0.30733800586058863 0 0.46192346945889701 0.28817835066990299 0 0.47556093647901088 0.30733800586058863 0 0.45214514511688908 0.30370412902975941 0 0.45421880844117613 0.32339126307769928 0 0.47556093647901088 0.30733800586058863 0 0.46192346945889701 0.28817835066990299 0 0.45214514511688908 0.30370412902975941 0 0.46192346945889701 0.28817835066990299 0 0.44120727567718632 0.28746005308771089 0 0.45214514511688908 0.30370412902975941 0 0.45472874274978531 0.27586911806656422 0 0.46192346945889701 0.28817835066990299 0 0.44120727567718632 0.28746005308771089 0 0.42781523552817591 0.31215297245289481 0 0.44120727567718632 0.28746005308771089 0 0.45214514511688908 0.30370412902975941 0 0.42781523552817591 0.31215297245289481 0 0.45421880844117613 0.32339126307769928 0 0.43298436918619881 0.33903622913929549 0 0.42781523552817591 0.31215297245289481 0 0.45214514511688908 0.30370412902975941 0 0.45421880844117613 0.32339126307769928 0 0.42781523552817591 0.31215297245289481 0 0.45421880844117613 0.32339126307769928 0 0.45421880844117613 0.32339126307769928 0 0.45970761232660212 0.34692044601787542 0 0.43298436918619881 0.33903622913929549 0 0.45421880844117613 0.32339126307769928 0 0.48062238135417568 0.33462955370250519 0 0.45421880844117613 0.32339126307769928 0 0.48062238135417568 0.33462955370250519 0 0.45970761232660212 0.34692044601787542 0 0.47556093647901088 0.30733800586058863 0 0.45421880844117613 0.32339126307769928 0 0.48062238135417568 0.33462955370250519 0 0.48062238135417568 0.33462955370250519 0 0.5 0.32170950174749302 0 0.5 0.34920749378291471 0 0.47556093647901088 0.30733800586058863 0 0.48062238135417568 0.33462955370250519 0 0.5 0.32170950174749302 0 0.5 0.34920749378291471 0 0.48254603458521478 0.3522402998402685 0 0.5 0.37670548581833618 0 0.48062238135417568 0.33462955370250519 0 0.5 0.34920749378291471 0 0.48254603458521478 0.3522402998402685 0 0.48254603458521478 0.3522402998402685 0 0.46972057754862501 0.36630584452178799 0 0.45970761232660212 0.34692044601787542 0 0.48062238135417568 0.33462955370250519 0 0.48254603458521478 0.3522402998402685 0 0.45970761232660212 0.34692044601787542 0 0.48254603458521478 0.3522402998402685 0 0.46972057754862501 0.36630584452178799 0 0.5 0.37670548581833618 0 0.46972057754862501 0.36630584452178799 0 0.43815350284422228 0.36591948582569622 0 0.45848938469160699 0.38276388730883248 0 0.46972057754862501 0.36630584452178799 0 0.45970761232660212 0.34692044601787542 0 0.43815350284422228 0.36591948582569622 0 0.45970761232660212 0.34692044601787542 0 0.43815350284422228 0.36591948582569622 0 0.43298436918619881 0.33903622913929549 0 0.43815350284422228 0.36591948582569622 0 0.4167242930516859 0.35972934744593471 0 0.42344095457037051 0.38268701701273461 0 0.4167242930516859 0.35972934744593471 0 0.40101385701800268 0.38518895784325291 0 0.4167242930516859 0.35972934744593471 0 0.40181680918128981 0.35947395412181382 0 0.40101385701800268 0.38518895784325291 0 0.4167242930516859 0.35972934744593471 0 0.40869055031553031 0.33881917925707022 0 0.40181680918128981 0.35947395412181382 0 0.4167242930516859 0.35972934744593471 0 0.43298436918619881 0.33903622913929549 0 0.40869055031553031 0.33881917925707022 0 0.43815350284422228 0.36591948582569622 0 0.4167242930516859 0.35972934744593471 0 0.43298436918619881 0.33903622913929549 0 0.43815350284422228 0.36591948582569622 0 0.43298436918619881 0.33903622913929549 0 0.42781523552817591 0.31215297245289481 0 0.43298436918619881 0.33903622913929549 0 0.42781523552817591 0.31215297245289481 0 0.43298436918619881 0.33903622913929549 0 0.41357021602424721 0.32279281759874212 0 0.43298436918619881 0.33903622913929549 0 0.41357021602424721 0.32279281759874212 0 0.40869055031553031 0.33881917925707022 0 0.40869055031553031 0.33881917925707022 0 0.39369601167170543 0.33564153172070438 0 0.39209274976778918 0.34814598654190299 0 0.40869055031553031 0.33881917925707022 0 0.39369601167170543 0.33564153172070438 0 0.3956366020903157 0.32248231082130752 0 0.39369601167170543 0.33564153172070438 0 0.3956366020903157 0.32248231082130752 0 0.38362385659697051 0.32926172455430031 0 0.39369601167170543 0.33564153172070438 0 0.38635485741833753 0.33883185827426582 0 0.39209274976778918 0.34814598654190299 0 0.41357021602424721 0.32279281759874212 0 0.40869055031553031 0.33881917925707022 0 0.3956366020903157 0.32248231082130752 0 0.4027243230010164 0.30147339632314252 0 0.41357021602424721 0.32279281759874212 0 0.3956366020903157 0.32248231082130752 0 0.3956366020903157 0.32248231082130752 0 0.38754735899376969 0.31282171123814728 0 0.38479800915553353 0.32074741934569512 0 0.38754735899376969 0.31282171123814728 0 0.38479800915553353 0.32074741934569512 0 0.37917338616632867 0.3168755173424983 0 0.3956366020903157 0.32248231082130752 0 0.38479800915553353 0.32074741934569512 0 0.38362385659697051 0.32926172455430031 0 0.38479800915553353 0.32074741934569512 0 0.37832625022041982 0.32264150287239662 0 0.38362385659697051 0.32926172455430031 0 0.37577016905582622 0.32787937856968757 0 0.37832625022041982 0.32264150287239662 0 0.38362385659697051 0.32926172455430031 0 0.37577016905582622 0.32787937856968757 0 0.37506056064123422 0.32471797871916308 0 0.37832625022041982 0.32264150287239662 0 0.37368960646642962 0.31911015363466272 0 0.37506056064123422 0.32471797871916308 0 0.37832625022041982 0.32264150287239662 0 0.37695808612291098 0.31120865645681561 0 0.38754735899376969 0.31282171123814728 0 0.37917338616632867 0.3168755173424983 0 0.38479800915553353 0.32074741934569512 0 0.37832625022041982 0.32264150287239662 0 0.37917338616632867 0.3168755173424983 0 0.37368960646642962 0.31911015363466272 0 0.37832625022041982 0.32264150287239662 0 0.37917338616632867 0.3168755173424983 0 0.37499251130121058 0.31593455150060828 0 0.37368960646642962 0.31911015363466272 0 0.37917338616632867 0.3168755173424983 0 0.37499251130121058 0.31593455150060828 0 0.37695808612291098 0.31120865645681561 0 0.37917338616632867 0.3168755173424983 0 0.38635485741833753 0.33883185827426582 0 0.3795813787571668 0.3363772241379393 0 0.38278029029805521 0.34473282441648212 0 0.39369601167170543 0.33564153172070438 0 0.38635485741833753 0.33883185827426582 0 0.38362385659697051 0.32926172455430031 0 0.38635485741833753 0.33883185827426582 0 0.38362385659697051 0.32926172455430031 0 0.3795813787571668 0.3363772241379393 0 0.37577016905582622 0.32787937856968757 0 0.38362385659697051 0.32926172455430031 0 0.37868435463470768 0.3315773541462857 0 0.38362385659697051 0.32926172455430031 0 0.37868435463470768 0.3315773541462857 0 0.3795813787571668 0.3363772241379393 0 0.37577016905582622 0.32787937856968757 0 0.37868435463470768 0.3315773541462857 0 0.375263113682131 0.33313320718557798 0 0.37868435463470768 0.3315773541462857 0 0.375263113682131 0.33313320718557798 0 0.3795813787571668 0.3363772241379393 0 0.37369311900952262 0.33836265764115908 0 0.3795813787571668 0.3363772241379393 0 0.37670219357667811 0.34177383067972761 0 0.3795813787571668 0.3363772241379393 0 0.37670219357667811 0.34177383067972761 0 0.38278029029805521 0.34473282441648212 0 0.37369311900952262 0.33836265764115908 0 0.375263113682131 0.33313320718557798 0 0.3795813787571668 0.3363772241379393 0 0.3809821990389497 0.35490418517770578 0 0.39056259575344082 0.36548629952090861 0 0.39209274976778918 0.34814598654190299 0 0.37486749369974542 0.34694596905823039 0 0.37670219357667811 0.34177383067972761 0 0.38278029029805521 0.34473282441648212 0 0.37486749369974542 0.34694596905823039 0 0.38278029029805521 0.34473282441648212 0 0.3809821990389497 0.35490418517770578 0 0.38278029029805521 0.34473282441648212 0 0.3809821990389497 0.35490418517770578 0 0.39209274976778918 0.34814598654190299 0 0.38635485741833753 0.33883185827426582 0 0.38278029029805521 0.34473282441648212 0 0.39209274976778918 0.34814598654190299 0 0.37228166628853332 0.35471301169251829 0 0.37486749369974542 0.34694596905823039 0 0.3809821990389497 0.35490418517770578 0 0.37414389550204002 0.36898578533419818 0 0.3809821990389497 0.35490418517770578 0 0.39056259575344082 0.36548629952090861 0 0.37414389550204002 0.36898578533419818 0 0.39056259575344082 0.36548629952090861 0 0.40101385701800268 0.38518895784325291 0 0.37414389550204002 0.36898578533419818 0 0.37228166628853332 0.35471301169251829 0 0.3809821990389497 0.35490418517770578 0 0.39056259575344082 0.36548629952090861 0 0.40181680918128981 0.35947395412181382 0 0.40101385701800268 0.38518895784325291 0 0.39056259575344082 0.36548629952090861 0 0.40181680918128981 0.35947395412181382 0 0.39209274976778918 0.34814598654190299 0 0.40869055031553031 0.33881917925707022 0 0.40181680918128981 0.35947395412181382 0 0.39209274976778918 0.34814598654190299 0 0.40101385701800268 0.38518895784325291 0 0.38530342098431941 0.41064856824057122 0 0.40101385701800268 0.38518895784325291 0 0.38530342098431941 0.41064856824057122 0 0.41521715527738928 0.40390661881175682 0 0.3736470799201031 0.39378130610698531 0 0.37414389550204002 0.36898578533419818 0 0.40101385701800268 0.38518895784325291 0 0.3736470799201031 0.39378130610698531 0 0.40101385701800268 0.38518895784325291 0 0.38530342098431941 0.41064856824057122 0 0.36959298495063608 0.43610817863788948 0 0.38530342098431941 0.41064856824057122 0 0.36959298495063608 0.43610817863788948 0 0.38530342098431941 0.41064856824057122 0 0.3889231515195431 0.43141286456833011 0 0.3889231515195431 0.43141286456833011 0 0.40362265567455102 0.42304679086704539 0 0.39942544658573009 0.43872588670818857 0 0.40362265567455102 0.42304679086704539 0 0.41248490446316177 0.43293377153942381 0 0.39942544658573009 0.43872588670818857 0 0.38530342098431941 0.41064856824057122 0 0.3889231515195431 0.43141286456833011 0 0.40362265567455102 0.42304679086704539 0 0.38530342098431941 0.41064856824057122 0 0.40362265567455102 0.42304679086704539 0 0.41521715527738928 0.40390661881175682 0 0.40362265567455102 0.42304679086704539 0 0.42233359500988371 0.42307221464191669 0 0.41521715527738928 0.40390661881175682 0 0.40362265567455102 0.42304679086704539 0 0.41248490446316177 0.43293377153942381 0 0.42233359500988371 0.42307221464191669 0 0.41248490446316177 0.43293377153942381 0 0.42233359500988371 0.42307221464191669 0 0.42326813014219627 0.43909650749986368 0 0.42233359500988371 0.42307221464191669 0 0.43681876433844857 0.43497208046478802 0 0.42326813014219627 0.43909650749986368 0 0.42233359500988371 0.42307221464191669 0 0.43681876433844857 0.43497208046478802 0 0.43655617137350622 0.42038510460191503 0 0.42233359500988371 0.42307221464191669 0 0.42830887421762198 0.41018013153495869 0 0.41521715527738928 0.40390661881175682 0 0.42233359500988371 0.42307221464191669 0 0.42830887421762198 0.41018013153495869 0 0.43655617137350622 0.42038510460191503 0 0.42830887421762198 0.41018013153495869 0 0.43655617137350622 0.42038510460191503 0 0.439625884597032 0.40642404903869822 0 0.42978568865087441 0.39901034440009059 0 0.42344095457037051 0.38268701701273461 0 0.4433226365022459 0.39280274251209668 0 0.42978568865087441 0.39901034440009059 0 0.41521715527738928 0.40390661881175682 0 0.42344095457037051 0.38268701701273461 0 0.42830887421762198 0.41018013153495869 0 0.42978568865087441 0.39901034440009059 0 0.439625884597032 0.40642404903869822 0 0.42830887421762198 0.41018013153495869 0 0.42978568865087441 0.39901034440009059 0 0.41521715527738928 0.40390661881175682 0 0.4167242930516859 0.35972934744593471 0 0.40101385701800268 0.38518895784325291 0 0.42344095457037051 0.38268701701273461 0 0.40101385701800268 0.38518895784325291 0 0.41521715527738928 0.40390661881175682 0 0.42344095457037051 0.38268701701273461 0 0.43815350284422228 0.36591948582569622 0 0.42344095457037051 0.38268701701273461 0 0.4433226365022459 0.39280274251209668 0 0.43815350284422228 0.36591948582569622 0 0.4433226365022459 0.39280274251209668 0 0.43815350284422228 0.36591948582569622 0 0.4433226365022459 0.39280274251209668 0 0.45848938469160699 0.38276388730883248 0 0.4433226365022459 0.39280274251209668 0 0.4587292321942566 0.40377894109977869 0 0.44849177016026981 0.41968599919849731 0 0.4433226365022459 0.39280274251209668 0 0.44849177016026981 0.41968599919849731 0 0.42978568865087441 0.39901034440009059 0 0.4433226365022459 0.39280274251209668 0 0.439625884597032 0.40642404903869822 0 0.4433226365022459 0.39280274251209668 0 0.4587292321942566 0.40377894109977869 0 0.45848938469160699 0.38276388730883248 0 0.4587292321942566 0.40377894109977869 0 0.45848938469160699 0.38276388730883248 0 0.47720201034463561 0.39055994944820821 0 0.46972057754862501 0.36630584452178799 0 0.45848938469160699 0.38276388730883248 0 0.47720201034463561 0.39055994944820821 0 0.46972057754862501 0.36630584452178799 0 0.47720201034463561 0.39055994944820821 0 0.5 0.37670548581833618 0 0.47720201034463561 0.39055994944820821 0 0.5 0.40420347785375749 0 0.47329291580914951 0.41490179660840648 0 0.4587292321942566 0.40377894109977869 0 0.47720201034463561 0.39055994944820821 0 0.47329291580914951 0.41490179660840648 0 0.47720201034463561 0.39055994944820821 0 0.5 0.40420347785375749 0 0.5 0.37670548581833618 0 0.48546521128148462 0.42572005307568972 0 0.49999999999999828 0.43170146988917901 0 0.48502495584706629 0.44181750450007778 0 0.49999999999999828 0.43170146988917901 0 0.48502495584706629 0.44181750450007778 0 0.5 0.40420347785375749 0 0.48546521128148462 0.42572005307568972 0 0.47329291580914951 0.41490179660840648 0 0.5 0.40420347785375749 0 0.48546521128148462 0.42572005307568972 0 0.49999999999999828 0.43170146988917901 0 0.48546521128148462 0.42572005307568972 0 0.47462076711180717 0.43403653248997731 0 0.48502495584706629 0.44181750450007778 0 0.47329291580914951 0.41490179660840648 0 0.47462076711180717 0.43403653248997731 0 0.45927084092720188 0.43580976915473651 0 0.48546521128148462 0.42572005307568972 0 0.47329291580914951 0.41490179660840648 0 0.47462076711180717 0.43403653248997731 0 0.45927084092720188 0.43580976915473651 0 0.44849177016026981 0.41968599919849731 0 0.47329291580914951 0.41490179660840648 0 0.45927084092720188 0.43580976915473651 0 0.44849177016026981 0.41968599919849731 0 0.45927084092720188 0.43580976915473651 0 0.44849177016026981 0.41968599919849731 0 0.45165089640657707 0.43611575462809582 0 0.4587292321942566 0.40377894109977869 0 0.47329291580914951 0.41490179660840648 0 0.44849177016026981 0.41968599919849731 0 0.4433226365022459 0.39280274251209668 0 0.44849177016026981 0.41968599919849731 0 0.439625884597032 0.40642404903869822 0 0.43655617137350622 0.42038510460191503 0 0.44849177016026981 0.41968599919849731 0 0.439625884597032 0.40642404903869822 0 0.44849177016026981 0.41968599919849731 0 0.439625884597032 0.40642404903869822 0 0.44849177016026981 0.41968599919849731 0 0.45165089640657707 0.43611575462809582 0 0.44386952542921521 0.4295111469185629 0 0.44849177016026981 0.41968599919849731 0 0.45165089640657707 0.43611575462809582 0 0.45165089640657707 0.43611575462809582 0 0.44386952542921521 0.4295111469185629 0 0.44519082659473158 0.43782150968735878 0 0.43655617137350622 0.42038510460191503 0 0.44849177016026981 0.41968599919849731 0 0.44386952542921521 0.4295111469185629 0 0.43681876433844857 0.43497208046478802 0 0.43655617137350622 0.42038510460191503 0 0.44386952542921521 0.4295111469185629 0 0.43681876433844857 0.43497208046478802 0 0.44386952542921521 0.4295111469185629 0 0.44519082659473158 0.43782150968735878 0 0.43681876433844857 0.43497208046478802 0 0.44519082659473158 0.43782150968735878 0 0.44362096681603608 0.44566090358066651 0 0.43681876433844857 0.43497208046478802 0 0.44362096681603608 0.44566090358066651 0 0.43343701099378978 0.44857281610427868 0 0.44362096681603608 0.44566090358066651 0 0.44110505044236059 0.45564825146568327 0 0.43343701099378978 0.44857281610427868 0 0.44362096681603608 0.44566090358066651 0 0.45255374853073171 0.45216262504332899 0 0.45221828903371142 0.44335246171580328 0 0.44362096681603608 0.44566090358066651 0 0.45255374853073171 0.45216262504332899 0 0.44110505044236059 0.45564825146568327 0 0.44519082659473158 0.43782150968735878 0 0.44362096681603608 0.44566090358066651 0 0.45221828903371142 0.44335246171580328 0 0.45165089640657707 0.43611575462809582 0 0.44519082659473158 0.43782150968735878 0 0.45221828903371142 0.44335246171580328 0 0.45255374853073171 0.45216262504332899 0 0.44518446721829791 0.46873079822848901 0 0.44110505044236059 0.45564825146568327 0 0.44518446721829791 0.46873079822848901 0 0.44110505044236059 0.45564825146568327 0 0.43072905865294731 0.46311411437165317 0 0.47284597636140308 0.45611600571247141 0 0.46302896313844299 0.47272331085799019 0 0.45255374853073171 0.45216262504332899 0 0.44518446721829791 0.46873079822848901 0 0.47004991169413368 0.45193353911097589 0 0.47004991169413368 0.45193353911097589 0 0.47284597636140308 0.45611600571247141 0 0.46302896313844299 0.47272331085799019 0 0.44518446721829791 0.46873079822848901 0 0.47004991169413368 0.45193353911097589 0 0.46302896313844299 0.47272331085799019 0 0.44518446721829791 0.46873079822848901 0 0.47004991169413368 0.45193353911097589 0 0.45927084092720188 0.43580976915473651 0 0.47004991169413368 0.45193353911097589 0 0.45927084092720188 0.43580976915473651 0 0.45930684530103161 0.44617181272829648 0 0.47004991169413368 0.45193353911097589 0 0.47462076711180717 0.43403653248997731 0 0.45927084092720188 0.43580976915473651 0 0.47004991169413368 0.45193353911097589 0 0.45255374853073171 0.45216262504332899 0 0.45930684530103161 0.44617181272829648 0 0.47004991169413368 0.45193353911097589 0 0.45927084092720188 0.43580976915473651 0 0.45221828903371142 0.44335246171580328 0 0.45930684530103161 0.44617181272829648 0 0.45927084092720188 0.43580976915473651 0 0.45165089640657707 0.43611575462809582 0 0.45221828903371142 0.44335246171580328 0 0.45255374853073171 0.45216262504332899 0 0.45221828903371142 0.44335246171580328 0 0.45930684530103161 0.44617181272829648 0 0.47462076711180717 0.43403653248997731 0 0.47004991169413368 0.45193353911097589 0 0.48502495584706629 0.44181750450007778 0 0.48189680466807888 0.45106209462173341 0 0.47450081081676521 0.45331654521044668 0 0.48502495584706629 0.44181750450007778 0 0.47004991169413368 0.45193353911097589 0 0.48502495584706629 0.44181750450007778 0 0.47004991169413368 0.45193353911097589 0 0.47450081081676521 0.45331654521044668 0 0.48502495584706629 0.44181750450007778 0 0.47284597636140308 0.45611600571247141 0 0.48050552008400071 0.46757346096286262 0 0.46302896313844299 0.47272331085799019 0 0.47004991169413368 0.45193353911097589 0 0.47284597636140308 0.45611600571247141 0 0.47004991169413368 0.45193353911097589 0 0.47450081081676521 0.45331654521044668 0 0.47284597636140308 0.45611600571247141 0 0.47450081081676521 0.45331654521044668 0 0.47284597636140308 0.45611600571247141 0 0.47951191807974908 0.45654698881850991 0 0.47450081081676521 0.45331654521044668 0 0.47284597636140308 0.45611600571247141 0 0.47284597636140308 0.45611600571247141 0 0.48050552008400071 0.46757346096286262 0 0.47284597636140308 0.45611600571247141 0 0.48050552008400071 0.46757346096286262 0 0.47951191807974908 0.45654698881850991 0 0.48189680466807888 0.45106209462173341 0 0.47951191807974908 0.45654698881850991 0 0.4878104784684959 0.4546668375850359 0 0.48050552008400071 0.46757346096286262 0 0.47951191807974908 0.45654698881850991 0 0.4878104784684959 0.4546668375850359 0 0.48189680466807888 0.45106209462173341 0 0.47450081081676521 0.45331654521044668 0 0.47951191807974908 0.45654698881850991 0 0.48050552008400071 0.46757346096286262 0 0.4878104784684959 0.4546668375850359 0 0.49999999999999928 0.46182898591187349 0 0.48050552008400071 0.46757346096286262 0 0.49999999999999928 0.46182898591187349 0 0.49999999999999828 0.43170146988917901 0 0.4878104784684959 0.4546668375850359 0 0.49999999999999928 0.46182898591187349 0 0.49999999999999828 0.43170146988917901 0 0.4878104784684959 0.4546668375850359 0 0.48502495584706629 0.44181750450007778 0 0.48189680466807888 0.45106209462173341 0 0.4878104784684959 0.4546668375850359 0 0.48502495584706629 0.44181750450007778 0 0.49999999999999928 0.46182898591187349 0 0.5 0.5 0 0.49753071700976492 0.4930404390193398 0 0.5 0.5 0 0.47501141284236448 0.48698608464618232 0 0.44690499747156931 0.4999999999999995 0 0.5 0.5 0 0.49753071700976492 0.4930404390193398 0 0.47501141284236448 0.48698608464618232 0 0.49753071700976492 0.4930404390193398 0 0.48901811854688337 0.4803069499911008 0 0.47501141284236448 0.48698608464618232 0 0.49753071700976492 0.4930404390193398 0 0.48901811854688337 0.4803069499911008 0 0.48050552008400071 0.46757346096286262 0 0.49999999999999928 0.46182898591187349 0 0.48901811854688337 0.4803069499911008 0 0.49999999999999928 0.46182898591187349 0 0.49753071700976492 0.4930404390193398 0 0.48901811854688337 0.4803069499911008 0 0.48050552008400071 0.46757346096286262 0 0.48901811854688337 0.4803069499911008 0 0.48050552008400071 0.46757346096286262 0 0.46302896313844299 0.47272331085799019 0 0.48901811854688337 0.4803069499911008 0 0.47689100365292297 0.47689745161453417 0 0.47501141284236448 0.48698608464618232 0 0.48050552008400071 0.46757346096286262 0 0.47689100365292297 0.47689745161453417 0 0.46302896313844299 0.47272331085799019 0 0.48050552008400071 0.46757346096286262 0 0.48901811854688337 0.4803069499911008 0 0.47689100365292297 0.47689745161453417 0 0.47689100365292297 0.47689745161453417 0 0.47501141284236448 0.48698608464618232 0 0.46302896313844299 0.47272331085799019 0 0.47501141284236448 0.48698608464618232 0 0.45496698030500621 0.48636165542899479 0 0.44690499747156931 0.4999999999999995 0 0.47501141284236448 0.48698608464618232 0 0.45496698030500621 0.48636165542899479 0 0.46302896313844299 0.47272331085799019 0 0.45496698030500621 0.48636165542899479 0 0.46302896313844299 0.47272331085799019 0 0.46302896313844299 0.47272331085799019 0 0.43620850627812668 0.48062654530969717 0 0.44518446721829791 0.46873079822848901 0 0.46302896313844299 0.47272331085799019 0 0.43620850627812668 0.48062654530969717 0 0.45496698030500621 0.48636165542899479 0 0.46302896313844299 0.47272331085799019 0 0.43620850627812668 0.48062654530969717 0 0.45496698030500621 0.48636165542899479 0 0.44690499747156931 0.4999999999999995 0 0.43620850627812668 0.48062654530969717 0 0.45496698030500621 0.48636165542899479 0 0.44690499747156931 0.4999999999999995 0 0.42031902274246069 0.48552805734600057 0 0.41743852268843429 0.5 0 0.43620850627812668 0.48062654530969717 0 0.44690499747156931 0.4999999999999995 0 0.41743852268843429 0.5 0 0.43620850627812668 0.48062654530969717 0 0.42031902274246069 0.48552805734600057 0 0.41743852268843429 0.5 0 0.40134209412993838 0.48520307466421098 0 0.42031902274246069 0.48552805734600057 0 0.40973563488985532 0.47579104778557152 0 0.40134209412993838 0.48520307466421098 0 0.42031902274246069 0.48552805734600057 0 0.40973563488985532 0.47579104778557152 0 0.41789473538963601 0.46705380048502582 0 0.44518446721829791 0.46873079822848901 0 0.42031902274246069 0.48552805734600057 0 0.43072905865294731 0.46311411437165317 0 0.44518446721829791 0.46873079822848901 0 0.42031902274246069 0.48552805734600057 0 0.43620850627812668 0.48062654530969717 0 0.44518446721829791 0.46873079822848901 0 0.42031902274246069 0.48552805734600057 0 0.42031902274246069 0.48552805734600057 0 0.43072905865294731 0.46311411437165317 0 0.41789473538963601 0.46705380048502582 0 0.44110505044236059 0.45564825146568327 0 0.43072905865294731 0.46311411437165317 0 0.43343701099378978 0.44857281610427868 0 0.43072905865294731 0.46311411437165317 0 0.43343701099378978 0.44857281610427868 0 0.42053980660522761 0.45341513910658388 0 0.43072905865294731 0.46311411437165317 0 0.41789473538963601 0.46705380048502582 0 0.42053980660522761 0.45341513910658388 0 0.43681876433844857 0.43497208046478802 0 0.43343701099378978 0.44857281610427868 0 0.42326813014219627 0.43909650749986368 0 0.43343701099378978 0.44857281610427868 0 0.42326813014219627 0.43909650749986368 0 0.42053980660522761 0.45341513910658388 0 0.41248490446316177 0.43293377153942381 0 0.42326813014219627 0.43909650749986368 0 0.41215324011006321 0.44426916471351768 0 0.42326813014219627 0.43909650749986368 0 0.41215324011006321 0.44426916471351768 0 0.42053980660522761 0.45341513910658388 0 0.41215324011006321 0.44426916471351768 0 0.42053980660522761 0.45341513910658388 0 0.40575666434273311 0.45838443146516472 0 0.41248490446316177 0.43293377153942381 0 0.41215324011006321 0.44426916471351768 0 0.39942544658573009 0.43872588670818857 0 0.40973563488985532 0.47579104778557152 0 0.41789473538963601 0.46705380048502582 0 0.40575666434273311 0.45838443146516472 0 0.41789473538963601 0.46705380048502582 0 0.42053980660522761 0.45341513910658388 0 0.40575666434273311 0.45838443146516472 0 0.40973563488985532 0.47579104778557152 0 0.40575666434273311 0.45838443146516472 0 0.39457326129307041 0.46924519202038539 0 0.40575666434273311 0.45838443146516472 0 0.38748492612950952 0.44892285829301931 0 0.39457326129307041 0.46924519202038539 0 0.40575666434273311 0.45838443146516472 0 0.39942544658573009 0.43872588670818857 0 0.38748492612950952 0.44892285829301931 0 0.3889231515195431 0.43141286456833011 0 0.39942544658573009 0.43872588670818857 0 0.38748492612950952 0.44892285829301931 0 0.41215324011006321 0.44426916471351768 0 0.40575666434273311 0.45838443146516472 0 0.39942544658573009 0.43872588670818857 0 0.36980735363827261 0.46050290225189661 0 0.36959298495063608 0.43610817863788948 0 0.38748492612950952 0.44892285829301931 0 0.36959298495063608 0.43610817863788948 0 0.3889231515195431 0.43141286456833011 0 0.38748492612950952 0.44892285829301931 0 0.36980735363827261 0.46050290225189661 0 0.38748492612950952 0.44892285829301931 0 0.39457326129307041 0.46924519202038539 0 0.36980735363827261 0.46050290225189661 0 0.37801407526051067 0.48065415083330842 0 0.39457326129307041 0.46924519202038539 0 0.37801407526051067 0.48065415083330842 0 0.38797204790529932 0.5 0 0.40134209412993838 0.48520307466421098 0 0.41743852268843429 0.5 0 0.38797204790529932 0.5 0 0.40134209412993838 0.48520307466421098 0 0.40973563488985532 0.47579104778557152 0 0.40134209412993838 0.48520307466421098 0 0.39457326129307041 0.46924519202038539 0 0.37801407526051067 0.48065415083330842 0 0.40134209412993838 0.48520307466421098 0 0.39457326129307041 0.46924519202038539 0 0.33471388977496319 0.083869725553476451 0 0.32003772732572838 0.080925826065863432 0 0.34163206045391592 0.099703108374672819 0 0.32003772732572838 0.080925826065863432 0 0.34163206045391592 0.099703108374672819 0 0.33471388977496319 0.083869725553476451 0 0.34163206045391592 0.099703108374672819 0 0.35085433501378249 0.086695181415402722 0 0.33471388977496319 0.083869725553476451 0 0.34209731100959018 0.06531632876058778 0 0.3490795063897344 0.076610282135673974 0 0.33471388977496319 0.083869725553476451 0 0.34209731100959018 0.06531632876058778 0 0.32721969837032222 0.069259436753723466 0 0.33471388977496319 0.083869725553476451 0 0.32721969837032222 0.069259436753723466 0 0.32003772732572838 0.080925826065863432 0 0.31518448171420999 0.065085558788002928 0 0.32721969837032222 0.069259436753723466 0 0.32003772732572838 0.080925826065863432 0 0.32003772732572838 0.080925826065863432 0 0.31657863646219547 0.093324099257994786 0 0.34163206045391592 0.099703108374672819 0 0.32003772732572838 0.080925826065863432 0 0.31657863646219547 0.093324099257994786 0 0.30227411453462139 0.089652133027170247 0 0.33471388977496319 0.083869725553476451 0 0.32003772732572838 0.080925826065863432 0 0.31657863646219547 0.093324099257994786 0 0.32025759602694659 0.1047776340902011 0 0.34163206045391592 0.099703108374672819 0 0.31657863646219547 0.093324099257994786 0 0.32025759602694659 0.1047776340902011 0 0.30640852481201453 0.1024735992044304 0 0.32025759602694659 0.1047776340902011 0 0.31114536757858358 0.11742006929579971 0 0.30640852481201453 0.1024735992044304 0 0.32606950933900308 0.1158177097477945 0 0.31114536757858358 0.11742006929579971 0 0.3195478300457561 0.1332621056988223 0 0.32025759602694659 0.1047776340902011 0 0.32606950933900308 0.1158177097477945 0 0.31114536757858358 0.11742006929579971 0 0.33761965874988609 0.1186889285033586 0 0.34163206045391592 0.099703108374672819 0 0.34956654336434939 0.1234914401014125 0 0.32606950933900308 0.1158177097477945 0 0.33761965874988609 0.1186889285033586 0 0.34163206045391592 0.099703108374672819 0 0.32606950933900308 0.1158177097477945 0 0.33761965874988609 0.1186889285033586 0 0.33436770153514289 0.13112975471366969 0 0.33761965874988609 0.1186889285033586 0 0.34956654336434939 0.1234914401014125 0 0.33436770153514289 0.13112975471366969 0 0.32025759602694659 0.1047776340902011 0 0.32606950933900308 0.1158177097477945 0 0.34163206045391592 0.099703108374672819 0 0.34163206045391592 0.099703108374672819 0 0.35755874922647762 0.098360434014750309 0 0.36322639358210312 0.11848039068348271 0 0.34163206045391592 0.099703108374672819 0 0.36322639358210312 0.11848039068348271 0 0.34163206045391592 0.099703108374672819 0 0.35755874922647762 0.098360434014750309 0 0.35085433501378249 0.086695181415402722 0 0.34163206045391592 0.099703108374672819 0 0.34956654336434939 0.1234914401014125 0 0.36322639358210312 0.11848039068348271 0 0.36322639358210312 0.11848039068348271 0 0.37045299287494049 0.09679375479102828 0 0.38005682511468147 0.12140739343396729 0 0.35755874922647762 0.098360434014750309 0 0.36322639358210312 0.11848039068348271 0 0.37045299287494049 0.09679375479102828 0 0.35755874922647762 0.098360434014750309 0 0.37045299287494049 0.09679375479102828 0 0.35979627253246887 0.087956112087811941 0 0.37045299287494049 0.09679375479102828 0 0.36986657419494789 0.075759843690150083 0 0.37682589963749002 0.081332762740894418 0 0.37045299287494049 0.09679375479102828 0 0.35979627253246887 0.087956112087811941 0 0.36084916063519962 0.072180116148089279 0 0.37045299287494049 0.09679375479102828 0 0.36084916063519962 0.072180116148089279 0 0.36986657419494789 0.075759843690150083 0 0.37045299287494049 0.09679375479102828 0 0.36084916063519962 0.072180116148089279 0 0.35755874922647762 0.098360434014750309 0 0.35979627253246887 0.087956112087811941 0 0.35085433501378249 0.086695181415402722 0 0.35979627253246887 0.087956112087811941 0 0.35560274156159061 0.081403828627082772 0 0.36084916063519962 0.072180116148089279 0 0.33471388977496319 0.083869725553476451 0 0.35085433501378249 0.086695181415402722 0 0.3490795063897344 0.076610282135673974 0 0.35979627253246887 0.087956112087811941 0 0.35560274156159061 0.081403828627082772 0 0.35085433501378249 0.086695181415402722 0 0.35560274156159061 0.081403828627082772 0 0.35085433501378249 0.086695181415402722 0 0.3490795063897344 0.076610282135673974 0 0.34209731100959018 0.06531632876058778 0 0.3490795063897344 0.076610282135673974 0 0.36084916063519962 0.072180116148089279 0 0.36448270712015302 0.068442951443566186 0 0.36084916063519962 0.072180116148089279 0 0.35124532839545858 0.047566477505150237 0 0.35560274156159061 0.081403828627082772 0 0.3490795063897344 0.076610282135673974 0 0.36084916063519962 0.072180116148089279 0 0.36448270712015302 0.068442951443566186 0 0.36084916063519962 0.072180116148089279 0 0.36986657419494789 0.075759843690150083 0 0.36986657419494789 0.075759843690150083 0 0.37596532967213542 0.069868995675824025 0 0.37682589963749002 0.081332762740894418 0 0.36448270712015302 0.068442951443566186 0 0.36986657419494789 0.075759843690150083 0 0.37084641292541748 0.06878424193773866 0 0.36986657419494789 0.075759843690150083 0 0.37084641292541748 0.06878424193773866 0 0.37596532967213542 0.069868995675824025 0 0.36448270712015302 0.068442951443566186 0 0.37084641292541748 0.06878424193773866 0 0.37307104071443398 0.061065176941414383 0 0.37084641292541748 0.06878424193773866 0 0.37307104071443398 0.061065176941414383 0 0.37596532967213542 0.069868995675824025 0 0.36448270712015302 0.068442951443566186 0 0.37307104071443398 0.061065176941414383 0 0.37146335928247548 0.04052602251159599 0 0.36448270712015302 0.068442951443566186 0 0.37146335928247548 0.04052602251159599 0 0.35124532839545858 0.047566477505150237 0 0.36448270712015302 0.068442951443566186 0 0.37146335928247548 0.04052602251159599 0 0.37146335928247548 0.04052602251159599 0 0.35572529983931911 0.032753521421585163 0 0.36312657459820519 0.022962182453169309 0 0.37146335928247548 0.04052602251159599 0 0.35572529983931911 0.032753521421585163 0 0.35124532839545858 0.047566477505150237 0 0.35572529983931911 0.032753521421585163 0 0.35124532839545858 0.047566477505150237 0 0.3321968515854315 0.028027004478648001 0 0.36084916063519962 0.072180116148089279 0 0.35124532839545858 0.047566477505150237 0 0.34209731100959018 0.06531632876058778 0 0.36084916063519962 0.072180116148089279 0 0.35124532839545858 0.047566477505150237 0 0.36312657459820519 0.022962182453169309 0 0.35936362748920009 0.0091271431172253586 0 0.37844401144479839 0.012609093579625891 0 0.35936362748920009 0.0091271431172253586 0 0.37844401144479839 0.012609093579625891 0 0.36665723294200347 -0.001883505129568449 0 0.35936362748920009 0.0091271431172253586 0 0.36665723294200347 -0.001883505129568449 0 0.35531676971978082 -0.0033532784323768001 0 0.37146335928247548 0.04052602251159599 0 0.36312657459820519 0.022962182453169309 0 0.37844401144479839 0.012609093579625891 0 0.37146335928247548 0.04052602251159599 0 0.37844401144479839 0.012609093579625891 0 0.35572529983931911 0.032753521421585163 0 0.35063657493523293 0.0197951316358141 0 0.3321968515854315 0.028027004478648001 0 0.35572529983931911 0.032753521421585163 0 0.36312657459820519 0.022962182453169309 0 0.35063657493523293 0.0197951316358141 0 0.36312657459820519 0.022962182453169309 0 0.35063657493523293 0.0197951316358141 0 0.35936362748920009 0.0091271431172253586 0 0.35936362748920009 0.0091271431172253586 0 0.33689267375143878 0.0039255003288513873 0 0.35531676971978082 -0.0033532784323768001 0 0.35063657493523293 0.0197951316358141 0 0.35936362748920009 0.0091271431172253586 0 0.33689267375143878 0.0039255003288513873 0 0.33689267375143878 0.0039255003288513873 0 0.3321968515854315 0.028027004478648001 0 0.30352242257352219 0.0039185454548519476 0 0.35063657493523293 0.0197951316358141 0 0.33689267375143878 0.0039255003288513873 0 0.3321968515854315 0.028027004478648001 0 0.3321968515854315 0.028027004478648001 0 0.32406508202711942 0.05109974460068676 0 0.30086563814790429 0.035038583275740692 0 0.34209731100959018 0.06531632876058778 0 0.32721969837032222 0.069259436753723466 0 0.32406508202711942 0.05109974460068676 0 0.34209731100959018 0.06531632876058778 0 0.35124532839545858 0.047566477505150237 0 0.32406508202711942 0.05109974460068676 0 0.35124532839545858 0.047566477505150237 0 0.3321968515854315 0.028027004478648001 0 0.32406508202711942 0.05109974460068676 0 0.31518448171420999 0.065085558788002928 0 0.32721969837032222 0.069259436753723466 0 0.32406508202711942 0.05109974460068676 0 0.31518448171420999 0.065085558788002928 0 0.32406508202711942 0.05109974460068676 0 0.29882370077581188 0.062479238108283437 0 0.32406508202711942 0.05109974460068676 0 0.29882370077581188 0.062479238108283437 0 0.30086563814790429 0.035038583275740692 0 0.32406508202711942 0.05109974460068676 0 0.30086563814790429 0.035038583275740692 0 0.30086563814790429 0.035038583275740692 0 0.28350496565293731 0.043820562147367653 0 0.27766619426868899 0.018977421950794569 0 0.29882370077581188 0.062479238108283437 0 0.30086563814790429 0.035038583275740692 0 0.28350496565293731 0.043820562147367653 0 0.29882370077581188 0.062479238108283437 0 0.28350496565293731 0.043820562147367653 0 0.28339325744793759 0.061338593161917712 0 0.3321968515854315 0.028027004478648001 0 0.30086563814790429 0.035038583275740692 0 0.30352242257352219 0.0039185454548519476 0 0.30086563814790429 0.035038583275740692 0 0.27766619426868899 0.018977421950794569 0 0.30086563814790429 0.035038583275740692 0 0.30352242257352219 0.0039185454548519476 0 0.27766619426868899 0.018977421950794569 0 0.30352242257352219 0.0039185454548519476 0 0.27766619426868899 0.018977421950794569 0 0.27708695819087842 -0.0025378708656911609 0 0.27766619426868899 0.018977421950794569 0 0.25446675038947358 0.0029162606258486688 0 0.27766619426868899 0.018977421950794569 0 0.26047117107291767 -0.0019720443344692288 0 0.27708695819087842 -0.0025378708656911609 0 0.27766619426868899 0.018977421950794569 0 0.2600935707136679 0.019574361616358959 0 0.26464981823601458 0.038183209123269009 0 0.2600935707136679 0.019574361616358959 0 0.26464981823601458 0.038183209123269009 0 0.25044211127373811 0.032849993626191502 0 0.27766619426868899 0.018977421950794569 0 0.2600935707136679 0.019574361616358959 0 0.25446675038947358 0.0029162606258486688 0 0.27766619426868899 0.018977421950794569 0 0.25446675038947358 0.0029162606258486688 0 0.26047117107291767 -0.0019720443344692288 0 0.25446675038947358 0.0029162606258486688 0 0.26047117107291767 -0.0019720443344692288 0 0.28339325744793759 0.061338593161917712 0 0.2699795556074106 0.054659435659755229 0 0.26514968559830832 0.069915803624621298 0 0.28350496565293731 0.043820562147367653 0 0.28339325744793759 0.061338593161917712 0 0.2699795556074106 0.054659435659755229 0 0.28350496565293731 0.043820562147367653 0 0.27766619426868899 0.018977421950794569 0 0.26464981823601458 0.038183209123269009 0 0.28350496565293731 0.043820562147367653 0 0.2699795556074106 0.054659435659755229 0 0.26464981823601458 0.038183209123269009 0 0.26464981823601458 0.038183209123269009 0 0.25174039047255609 0.044464402284776217 0 0.2585751734657834 0.052327775232976027 0 0.26464981823601458 0.038183209123269009 0 0.25044211127373811 0.032849993626191502 0 0.25174039047255609 0.044464402284776217 0 0.25174039047255609 0.044464402284776217 0 0.25102243244437311 0.053297338652025752 0 0.2585751734657834 0.052327775232976027 0 0.2699795556074106 0.054659435659755229 0 0.26464981823601458 0.038183209123269009 0 0.2585751734657834 0.052327775232976027 0 0.2699795556074106 0.054659435659755229 0 0.2585751734657834 0.052327775232976027 0 0.26000268679747079 0.061003988239662958 0 0.2699795556074106 0.054659435659755229 0 0.26000268679747079 0.061003988239662958 0 0.26514968559830832 0.069915803624621298 0 0.2585751734657834 0.052327775232976027 0 0.26000268679747079 0.061003988239662958 0 0.2530174900015254 0.0600809219264858 0 0.25102243244437311 0.053297338652025752 0 0.2585751734657834 0.052327775232976027 0 0.2530174900015254 0.0600809219264858 0 0.24751669685985911 0.059618880130872708 0 0.25102243244437311 0.053297338652025752 0 0.2530174900015254 0.0600809219264858 0 0.24853219730195361 0.063845178725116872 0 0.2530174900015254 0.0600809219264858 0 0.25274476311700622 0.067427493409812952 0 0.2530174900015254 0.0600809219264858 0 0.25274476311700622 0.067427493409812952 0 0.26000268679747079 0.061003988239662958 0 0.2530174900015254 0.0600809219264858 0 0.25274476311700622 0.067427493409812952 0 0.25274476311700622 0.067427493409812952 0 0.25243039498113262 0.075895774732197205 0 0.24842415088314279 0.069033451464499671 0 0.25274476311700622 0.067427493409812952 0 0.25243039498113262 0.075895774732197205 0 0.25274476311700622 0.067427493409812952 0 0.25243039498113262 0.075895774732197205 0 0.26514968559830832 0.069915803624621298 0 0.25243039498113262 0.075895774732197205 0 0.26514968559830832 0.069915803624621298 0 0.26417250328098718 0.085299079350852347 0 0.25243039498113262 0.075895774732197205 0 0.26514968559830832 0.069915803624621298 0 0.26000268679747079 0.061003988239662958 0 0.25274476311700622 0.067427493409812952 0 0.26514968559830832 0.069915803624621298 0 0.25274476311700622 0.067427493409812952 0 0.26514968559830832 0.069915803624621298 0 0.25243039498113262 0.075895774732197205 0 0.26417250328098718 0.085299079350852347 0 0.25158482098595109 0.098673396421397969 0 0.25243039498113262 0.075895774732197205 0 0.25158482098595109 0.098673396421397969 0 0.26417250328098718 0.085299079350852347 0 0.27563544099652842 0.091217529053328833 0 0.26597619666038957 0.098681263799979324 0 0.26417250328098718 0.085299079350852347 0 0.27658940398852799 0.081360569412953818 0 0.27563544099652842 0.091217529053328833 0 0.26514968559830832 0.069915803624621298 0 0.26417250328098718 0.085299079350852347 0 0.27658940398852799 0.081360569412953818 0 0.27658940398852799 0.081360569412953818 0 0.27563544099652842 0.091217529053328833 0 0.28742128170162778 0.087331448045782731 0 0.28339325744793759 0.061338593161917712 0 0.26514968559830832 0.069915803624621298 0 0.29259370646201821 0.075420814845242989 0 0.26514968559830832 0.069915803624621298 0 0.27658940398852799 0.081360569412953818 0 0.29259370646201821 0.075420814845242989 0 0.28339325744793759 0.061338593161917712 0 0.26514968559830832 0.069915803624621298 0 0.26514968559830832 0.069915803624621298 0 0.29259370646201821 0.075420814845242989 0 0.29882370077581188 0.062479238108283437 0 0.28339325744793759 0.061338593161917712 0 0.29259370646201821 0.075420814845242989 0 0.27658940398852799 0.081360569412953818 0 0.29259370646201821 0.075420814845242989 0 0.28742128170162778 0.087331448045782731 0 0.27563544099652842 0.091217529053328833 0 0.28742128170162778 0.087331448045782731 0 0.29001374252644291 0.099006193890217781 0 0.28742128170162778 0.087331448045782731 0 0.30227411453462139 0.089652133027170247 0 0.29001374252644291 0.099006193890217781 0 0.29259370646201821 0.075420814845242989 0 0.28742128170162778 0.087331448045782731 0 0.30227411453462139 0.089652133027170247 0 0.32003772732572838 0.080925826065863432 0 0.29259370646201821 0.075420814845242989 0 0.30227411453462139 0.089652133027170247 0 0.32003772732572838 0.080925826065863432 0 0.29259370646201821 0.075420814845242989 0 0.32003772732572838 0.080925826065863432 0 0.29882370077581188 0.062479238108283437 0 0.29259370646201821 0.075420814845242989 0 0.32003772732572838 0.080925826065863432 0 0.29882370077581188 0.062479238108283437 0 0.31518448171420999 0.065085558788002928 0 0.32003772732572838 0.080925826065863432 0 0.29882370077581188 0.062479238108283437 0 0.29818169174329712 0.11066146566519899 0 0.31114536757858358 0.11742006929579971 0 0.294250496481684 0.12267566802032639 0 0.31114536757858358 0.11742006929579971 0 0.294250496481684 0.12267566802032639 0 0.30313841955192899 0.13260249050964579 0 0.29818169174329712 0.11066146566519899 0 0.31114536757858358 0.11742006929579971 0 0.30640852481201453 0.1024735992044304 0 0.30227411453462139 0.089652133027170247 0 0.30640852481201453 0.1024735992044304 0 0.29001374252644291 0.099006193890217781 0 0.29818169174329712 0.11066146566519899 0 0.30640852481201453 0.1024735992044304 0 0.29001374252644291 0.099006193890217781 0 0.31657863646219547 0.093324099257994786 0 0.30227411453462139 0.089652133027170247 0 0.30640852481201453 0.1024735992044304 0 0.29818169174329712 0.11066146566519899 0 0.29001374252644291 0.099006193890217781 0 0.28729541733308872 0.1128284558108848 0 0.29001374252644291 0.099006193890217781 0 0.28729541733308872 0.1128284558108848 0 0.27577858748266387 0.1072301355245756 0 0.29818169174329712 0.11066146566519899 0 0.28729541733308872 0.1128284558108848 0 0.294250496481684 0.12267566802032639 0 0.28729541733308872 0.1128284558108848 0 0.294250496481684 0.12267566802032639 0 0.28067449336876182 0.1220521091494646 0 0.28067449336876182 0.1220521091494646 0 0.26956705708048567 0.1198361090660386 0 0.27577858748266387 0.1072301355245756 0 0.28729541733308872 0.1128284558108848 0 0.28067449336876182 0.1220521091494646 0 0.27577858748266387 0.1072301355245756 0 0.26956705708048567 0.1198361090660386 0 0.27577858748266387 0.1072301355245756 0 0.26270963055581759 0.11098617864974181 0 0.27563544099652842 0.091217529053328833 0 0.27577858748266387 0.1072301355245756 0 0.26597619666038957 0.098681263799979324 0 0.27563544099652842 0.091217529053328833 0 0.29001374252644291 0.099006193890217781 0 0.27577858748266387 0.1072301355245756 0 0.27577858748266387 0.1072301355245756 0 0.26597619666038957 0.098681263799979324 0 0.26270963055581759 0.11098617864974181 0 0.25158482098595109 0.098673396421397969 0 0.25094552198087999 0.11589449234768209 0 0.25158482098595109 0.098673396421397969 0 0.26270963055581759 0.11098617864974181 0 0.25094552198087999 0.11589449234768209 0 0.26417250328098718 0.085299079350852347 0 0.26597619666038957 0.098681263799979324 0 0.25158482098595109 0.098673396421397969 0 0.26597619666038957 0.098681263799979324 0 0.25158482098595109 0.098673396421397969 0 0.26270963055581759 0.11098617864974181 0 0.25158482098595109 0.098673396421397969 0 0.26270963055581759 0.11098617864974181 0 0.25094552198087999 0.11589449234768209 0 0.25030622297580962 0.13311558827396619 0 0.26022612795132161 0.12333036834530881 0 0.25094552198087999 0.11589449234768209 0 0.25030622297580962 0.13311558827396619 0 0.26956705708048567 0.1198361090660386 0 0.26022612795132161 0.12333036834530881 0 0.26270963055581759 0.11098617864974181 0 0.26022612795132161 0.12333036834530881 0 0.26270963055581759 0.11098617864974181 0 0.25094552198087999 0.11589449234768209 0 0.26956705708048567 0.1198361090660386 0 0.26022612795132161 0.12333036834530881 0 0.26675796828336718 0.1380571931171293 0 0.26022612795132161 0.12333036834530881 0 0.25030622297580962 0.13311558827396619 0 0.26675796828336718 0.1380571931171293 0 0.25030622297580962 0.13311558827396619 0 0.26675796828336718 0.1380571931171293 0 0.25030622297580962 0.13311558827396619 0 0.26675796828336718 0.1380571931171293 0 0.25638724149227848 0.14295410589973731 0 0.25004344172447263 0.14019424959050239 0 0.25030622297580962 0.13311558827396619 0 0.25638724149227848 0.14295410589973731 0 0.25004344172447263 0.14019424959050239 0 0.25030622297580962 0.13311558827396619 0 0.26675796828336718 0.1380571931171293 0 0.28320971359092417 0.1429987979602943 0 0.26675796828336718 0.1380571931171293 0 0.28666270206708028 0.1324408374186071 0 0.28320971359092417 0.1429987979602943 0 0.28067449336876182 0.1220521091494646 0 0.26956705708048567 0.1198361090660386 0 0.26675796828336718 0.1380571931171293 0 0.28067449336876182 0.1220521091494646 0 0.26675796828336718 0.1380571931171293 0 0.28666270206708028 0.1324408374186071 0 0.26675796828336718 0.1380571931171293 0 0.27436529468354132 0.15433220537778311 0 0.26010861073109098 0.15248373785575309 0 0.26675796828336718 0.1380571931171293 0 0.27436529468354132 0.15433220537778311 0 0.28320971359092417 0.1429987979602943 0 0.26675796828336718 0.1380571931171293 0 0.26010861073109098 0.15248373785575309 0 0.25638724149227848 0.14295410589973731 0 0.2496536413094039 0.15044712256699261 0 0.25004344172447263 0.14019424959050239 0 0.25638724149227848 0.14295410589973731 0 0.24653130607993951 0.16237692388552691 0 0.2496536413094039 0.15044712256699261 0 0.26010861073109098 0.15248373785575309 0 0.2496536413094039 0.15044712256699261 0 0.26010861073109098 0.15248373785575309 0 0.25638724149227848 0.14295410589973731 0 0.24653130607993951 0.16237692388552691 0 0.25292738168467233 0.17649485219682931 0 0.26638423851283249 0.16867758561061549 0 0.24653130607993951 0.16237692388552691 0 0.26010861073109098 0.15248373785575309 0 0.26638423851283249 0.16867758561061549 0 0.24528107816237801 0.1907036486386274 0 0.25292738168467233 0.17649485219682931 0 0.26633433714882182 0.18577592949096661 0 0.25292738168467233 0.17649485219682931 0 0.26633433714882182 0.18577592949096661 0 0.26638423851283249 0.16867758561061549 0 0.27723266788850742 0.181048228772968 0 0.26638423851283249 0.16867758561061549 0 0.28391425324491287 0.17071999404263091 0 0.26633433714882182 0.18577592949096661 0 0.27723266788850742 0.181048228772968 0 0.26638423851283249 0.16867758561061549 0 0.27436529468354132 0.15433220537778311 0 0.26010861073109098 0.15248373785575309 0 0.26638423851283249 0.16867758561061549 0 0.27436529468354132 0.15433220537778311 0 0.26638423851283249 0.16867758561061549 0 0.28391425324491287 0.17071999404263091 0 0.27436529468354132 0.15433220537778311 0 0.28391425324491287 0.17071999404263091 0 0.29097703849613438 0.15773848939083679 0 0.28391425324491287 0.17071999404263091 0 0.2931647794093819 0.16879209887591959 0 0.29097703849613438 0.15773848939083679 0 0.2931647794093819 0.16879209887591959 0 0.29097703849613438 0.15773848939083679 0 0.30040947706207388 0.16512632217721829 0 0.28391425324491287 0.17071999404263091 0 0.28743664533084129 0.187357279865842 0 0.29743995151898561 0.17866098634217961 0 0.27723266788850742 0.181048228772968 0 0.28391425324491287 0.17071999404263091 0 0.28743664533084129 0.187357279865842 0 0.28391425324491287 0.17071999404263091 0 0.2931647794093819 0.16879209887591959 0 0.29743995151898561 0.17866098634217961 0 0.28743664533084129 0.187357279865842 0 0.29743995151898561 0.17866098634217961 0 0.29971043857951379 0.19298806906372529 0 0.29743995151898561 0.17866098634217961 0 0.30929675685570829 0.1858318568065235 0 0.29971043857951379 0.19298806906372529 0 0.29743995151898561 0.17866098634217961 0 0.3101655001798202 0.17563615506282959 0 0.30040947706207388 0.16512632217721829 0 0.29743995151898561 0.17866098634217961 0 0.3101655001798202 0.17563615506282959 0 0.30929675685570829 0.1858318568065235 0 0.30040947706207388 0.16512632217721829 0 0.30453528129870422 0.15487579661148021 0 0.32848741365188411 0.1727716232507491 0 0.29097703849613438 0.15773848939083679 0 0.30040947706207388 0.16512632217721829 0 0.30453528129870422 0.15487579661148021 0 0.2931647794093819 0.16879209887591959 0 0.29743995151898561 0.17866098634217961 0 0.30040947706207388 0.16512632217721829 0 0.29097703849613438 0.15773848939083679 0 0.30453528129870422 0.15487579661148021 0 0.29618567382365713 0.14404403195872001 0 0.30453528129870422 0.15487579661148021 0 0.30873747279203018 0.14281046260302349 0 0.29618567382365713 0.14404403195872001 0 0.30453528129870422 0.15487579661148021 0 0.30873747279203018 0.14281046260302349 0 0.32007589174333823 0.14676000458717811 0 0.30873747279203018 0.14281046260302349 0 0.30313841955192899 0.13260249050964579 0 0.3195478300457561 0.1332621056988223 0 0.31114536757858358 0.11742006929579971 0 0.30313841955192899 0.13260249050964579 0 0.3195478300457561 0.1332621056988223 0 0.30873747279203018 0.14281046260302349 0 0.30313841955192899 0.13260249050964579 0 0.29618567382365713 0.14404403195872001 0 0.294250496481684 0.12267566802032639 0 0.30313841955192899 0.13260249050964579 0 0.28666270206708028 0.1324408374186071 0 0.30313841955192899 0.13260249050964579 0 0.28666270206708028 0.1324408374186071 0 0.29618567382365713 0.14404403195872001 0 0.294250496481684 0.12267566802032639 0 0.28067449336876182 0.1220521091494646 0 0.28666270206708028 0.1324408374186071 0 0.28666270206708028 0.1324408374186071 0 0.28320971359092417 0.1429987979602943 0 0.29618567382365713 0.14404403195872001 0 0.27436529468354132 0.15433220537778311 0 0.29097703849613438 0.15773848939083679 0 0.28320971359092417 0.1429987979602943 0 0.29097703849613438 0.15773848939083679 0 0.28320971359092417 0.1429987979602943 0 0.29618567382365713 0.14404403195872001 0 0.28119448123381058 0.25405304303149878 0 0.26221447651104962 0.2479993693513689 0 0.28440499104296979 0.23439140090611099 0 0.26221447651104962 0.2479993693513689 0 0.26853130556434218 0.23400660741274959 0 0.28440499104296979 0.23439140090611099 0 0.26221447651104962 0.2479993693513689 0 0.28440499104296979 0.23439140090611099 0 0.2457442494512444 0.24022391879071339 0 0.26221447651104962 0.2479993693513689 0 0.25511338863332461 0.22468137717712711 0 0.26221447651104962 0.2479993693513689 0 0.25511338863332461 0.22468137717712711 0 0.26853130556434218 0.23400660741274959 0 0.26221447651104962 0.2479993693513689 0 0.25511338863332461 0.22468137717712711 0 0.25511338863332461 0.22468137717712711 0 0.25242827713160498 0.21540237912569379 0 0.25511338863332461 0.22468137717712711 0 0.2794126892910288 0.21617120911671081 0 0.25511338863332461 0.22468137717712711 0 0.26853130556434218 0.23400660741274959 0 0.2794126892910288 0.21617120911671081 0 0.26853130556434218 0.23400660741274959 0 0.2794126892910288 0.21617120911671081 0 0.28440499104296979 0.23439140090611099 0 0.25511338863332461 0.22468137717712711 0 0.2794126892910288 0.21617120911671081 0 0.26644318031571418 0.20408753099865831 0 0.2794126892910288 0.21617120911671081 0 0.26644318031571418 0.20408753099865831 0 0.27722953884408802 0.19656269719262509 0 0.24528107816237801 0.1907036486386274 0 0.26644318031571418 0.20408753099865831 0 0.25242827713160498 0.21540237912569379 0 0.25511338863332461 0.22468137717712711 0 0.26644318031571418 0.20408753099865831 0 0.25242827713160498 0.21540237912569379 0 0.26644318031571418 0.20408753099865831 0 0.25242827713160498 0.21540237912569379 0 0.24528107816237801 0.1907036486386274 0 0.26633433714882182 0.18577592949096661 0 0.26644318031571418 0.20408753099865831 0 0.26633433714882182 0.18577592949096661 0 0.26644318031571418 0.20408753099865831 0 0.27722953884408802 0.19656269719262509 0 0.27723266788850742 0.181048228772968 0 0.28743664533084129 0.187357279865842 0 0.27722953884408802 0.19656269719262509 0 0.26633433714882182 0.18577592949096661 0 0.27723266788850742 0.181048228772968 0 0.27722953884408802 0.19656269719262509 0 0.28743664533084129 0.187357279865842 0 0.27722953884408802 0.19656269719262509 0 0.28939512316467059 0.2005252056429343 0 0.28743664533084129 0.187357279865842 0 0.28939512316467059 0.2005252056429343 0 0.29971043857951379 0.19298806906372529 0 0.30929675685570829 0.1858318568065235 0 0.29971043857951379 0.19298806906372529 0 0.31162694501442678 0.19735313208654229 0 0.29971043857951379 0.19298806906372529 0 0.31162694501442678 0.19735313208654229 0 0.30371198994873311 0.20766104105629449 0 0.28939512316467059 0.2005252056429343 0 0.29971043857951379 0.19298806906372529 0 0.30371198994873311 0.20766104105629449 0 0.2794126892910288 0.21617120911671081 0 0.30371198994873311 0.20766104105629449 0 0.2794126892910288 0.21617120911671081 0 0.30371198994873311 0.20766104105629449 0 0.30659550557489001 0.220783432460853 0 0.2794126892910288 0.21617120911671081 0 0.27722953884408802 0.19656269719262509 0 0.28939512316467059 0.2005252056429343 0 0.2794126892910288 0.21617120911671081 0 0.28939512316467059 0.2005252056429343 0 0.30371198994873311 0.20766104105629449 0 0.30659550557489001 0.220783432460853 0 0.28440499104296979 0.23439140090611099 0 0.2794126892910288 0.21617120911671081 0 0.30659550557489001 0.220783432460853 0 0.28440499104296979 0.23439140090611099 0 0.30659550557489001 0.220783432460853 0 0.30328699804120918 0.24394477185791469 0 0.28440499104296979 0.23439140090611099 0 0.30659550557489001 0.220783432460853 0 0.30328699804120918 0.24394477185791469 0 0.31607427666693672 0.2331905299380852 0 0.28119448123381058 0.25405304303149878 0 0.30328699804120918 0.24394477185791469 0 0.28440499104296979 0.23439140090611099 0 0.3433555784436142 0.25004320974280247 0 0.34183468199228573 0.23727684870966961 0 0.33092809789354199 0.24744869965648561 0 0.34183468199228573 0.23727684870966961 0 0.3288410404878227 0.2348757256337824 0 0.33092809789354199 0.24744869965648561 0 0.3288410404878227 0.2348757256337824 0 0.33092809789354199 0.24744869965648561 0 0.31845456220733243 0.24449663650262579 0 0.31879452400631653 0.25919465198291952 0 0.30328699804120918 0.24394477185791469 0 0.31845456220733243 0.24449663650262579 0 0.30328699804120918 0.24394477185791469 0 0.31845456220733243 0.24449663650262579 0 0.31607427666693672 0.2331905299380852 0 0.3288410404878227 0.2348757256337824 0 0.31845456220733243 0.24449663650262579 0 0.31607427666693672 0.2331905299380852 0 0.3288410404878227 0.2348757256337824 0 0.31607427666693672 0.2331905299380852 0 0.32372534117020862 0.22390137225637691 0 0.30659550557489001 0.220783432460853 0 0.31607427666693672 0.2331905299380852 0 0.32372534117020862 0.22390137225637691 0 0.3288410404878227 0.2348757256337824 0 0.32372534117020862 0.22390137225637691 0 0.33832986301458301 0.22348170923356889 0 0.34183468199228573 0.23727684870966961 0 0.3288410404878227 0.2348757256337824 0 0.33832986301458301 0.22348170923356889 0 0.32372534117020862 0.22390137225637691 0 0.33832986301458301 0.22348170923356889 0 0.32878602010681029 0.20717546401559489 0 0.33832986301458301 0.22348170923356889 0 0.32878602010681029 0.20717546401559489 0 0.35089693608391498 0.21212819010674691 0 0.32878602010681029 0.20717546401559489 0 0.35097653463873058 0.19356749557033681 0 0.35089693608391498 0.21212819010674691 0 0.30659550557489001 0.220783432460853 0 0.32372534117020862 0.22390137225637691 0 0.32878602010681029 0.20717546401559489 0 0.31162694501442678 0.19735313208654229 0 0.30371198994873311 0.20766104105629449 0 0.32878602010681029 0.20717546401559489 0 0.30371198994873311 0.20766104105629449 0 0.30659550557489001 0.220783432460853 0 0.32878602010681029 0.20717546401559489 0 0.30659550557489001 0.220783432460853 0 0.32878602010681029 0.20717546401559489 0 0.32878602010681029 0.20717546401559489 0 0.31972446529152482 0.19052244909679969 0 0.3336272658304279 0.18895925974375941 0 0.31162694501442678 0.19735313208654229 0 0.32878602010681029 0.20717546401559489 0 0.31972446529152482 0.19052244909679969 0 0.30929675685570829 0.1858318568065235 0 0.31162694501442678 0.19735313208654229 0 0.31972446529152482 0.19052244909679969 0 0.32878602010681029 0.20717546401559489 0 0.3336272658304279 0.18895925974375941 0 0.35097653463873058 0.19356749557033681 0 0.32878602010681029 0.20717546401559489 0 0.35097653463873058 0.19356749557033681 0 0.3336272658304279 0.18895925974375941 0 0.35097653463873058 0.19356749557033681 0 0.35656535024169428 0.1804169243242798 0 0.35097653463873058 0.19356749557033681 0 0.35896651107905142 0.20360726904620211 0 0.35089693608391498 0.21212819010674691 0 0.35097653463873058 0.19356749557033681 0 0.36405518175537521 0.19484170215684679 0 0.35896651107905142 0.20360726904620211 0 0.35097653463873058 0.19356749557033681 0 0.36405518175537521 0.19484170215684679 0 0.35656535024169428 0.1804169243242798 0 0.36405518175537521 0.19484170215684679 0 0.35656535024169428 0.1804169243242798 0 0.38464328683150451 0.18806222539781059 0 0.36405518175537521 0.19484170215684679 0 0.36923798170140371 0.20928007436804161 0 0.38464328683150451 0.18806222539781059 0 0.36405518175537521 0.19484170215684679 0 0.36923798170140371 0.20928007436804161 0 0.35896651107905142 0.20360726904620211 0 0.36923798170140371 0.20928007436804161 0 0.36132702422268731 0.21787493872225441 0 0.35896651107905142 0.20360726904620211 0 0.36923798170140371 0.20928007436804161 0 0.36132702422268731 0.21787493872225441 0 0.37292139258550783 0.22672254500020811 0 0.36132702422268731 0.21787493872225441 0 0.35896651107905142 0.20360726904620211 0 0.35089693608391498 0.21212819010674691 0 0.34183468199228573 0.23727684870966961 0 0.33832986301458301 0.22348170923356889 0 0.35524969613090918 0.22837961108452459 0 0.36132702422268731 0.21787493872225441 0 0.35089693608391498 0.21212819010674691 0 0.35524969613090918 0.22837961108452459 0 0.33832986301458301 0.22348170923356889 0 0.35089693608391498 0.21212819010674691 0 0.35524969613090918 0.22837961108452459 0 0.36132702422268731 0.21787493872225441 0 0.35524969613090918 0.22837961108452459 0 0.37292139258550783 0.22672254500020811 0 0.35524969613090918 0.22837961108452459 0 0.37292139258550783 0.22672254500020811 0 0.36587213359177301 0.2378375665458646 0 0.37292139258550783 0.22672254500020811 0 0.36587213359177301 0.2378375665458646 0 0.3757768555661396 0.240133652284411 0 0.36587213359177301 0.2378375665458646 0 0.37169426656027921 0.24972740256563611 0 0.3757768555661396 0.240133652284411 0 0.36587213359177301 0.2378375665458646 0 0.37169426656027921 0.24972740256563611 0 0.36205361842742478 0.24882498742118489 0 0.36587213359177301 0.2378375665458646 0 0.36205361842742478 0.24882498742118489 0 0.35356337405553911 0.24205426642971811 0 0.35175757775775729 0.2532797976346674 0 0.36205361842742478 0.24882498742118489 0 0.35356337405553911 0.24205426642971811 0 0.35524969613090918 0.22837961108452459 0 0.36587213359177301 0.2378375665458646 0 0.35356337405553911 0.24205426642971811 0 0.34183468199228573 0.23727684870966961 0 0.35524969613090918 0.22837961108452459 0 0.35356337405553911 0.24205426642971811 0 0.3433555784436142 0.25004320974280247 0 0.34183468199228573 0.23727684870966961 0 0.35356337405553911 0.24205426642971811 0 0.3433555784436142 0.25004320974280247 0 0.35175757775775729 0.2532797976346674 0 0.35356337405553911 0.24205426642971811 0 0.33379856680907583 0.1437068241164389 0 0.32007589174333823 0.14676000458717811 0 0.33365817402274128 0.15789089208148979 0 0.33379856680907583 0.1437068241164389 0 0.33365817402274128 0.15789089208148979 0 0.34780073530519279 0.14835628742565241 0 0.33379856680907583 0.1437068241164389 0 0.34780073530519279 0.14835628742565241 0 0.34586764947947463 0.1362539899128139 0 0.33379856680907583 0.1437068241164389 0 0.33436770153514289 0.13112975471366969 0 0.34586764947947463 0.1362539899128139 0 0.34956654336434939 0.1234914401014125 0 0.33436770153514289 0.13112975471366969 0 0.34586764947947463 0.1362539899128139 0 0.33379856680907583 0.1437068241164389 0 0.33436770153514289 0.13112975471366969 0 0.3195478300457561 0.1332621056988223 0 0.32606950933900308 0.1158177097477945 0 0.33436770153514289 0.13112975471366969 0 0.3195478300457561 0.1332621056988223 0 0.30873747279203018 0.14281046260302349 0 0.3195478300457561 0.1332621056988223 0 0.32007589174333823 0.14676000458717811 0 0.30453528129870422 0.15487579661148021 0 0.32007589174333823 0.14676000458717811 0 0.33365817402274128 0.15789089208148979 0 0.33379856680907583 0.1437068241164389 0 0.3195478300457561 0.1332621056988223 0 0.32007589174333823 0.14676000458717811 0 0.30453528129870422 0.15487579661148021 0 0.33365817402274128 0.15789089208148979 0 0.30453528129870422 0.15487579661148021 0 0.32848741365188411 0.1727716232507491 0 0.33365817402274128 0.15789089208148979 0 0.30040947706207388 0.16512632217721829 0 0.32848741365188411 0.1727716232507491 0 0.3101655001798202 0.17563615506282959 0 0.30040947706207388 0.16512632217721829 0 0.32848741365188411 0.1727716232507491 0 0.3101655001798202 0.17563615506282959 0 0.31983557186529732 0.18171103000860481 0 0.32848741365188411 0.1727716232507491 0 0.3336272658304279 0.18895925974375941 0 0.31983557186529732 0.18171103000860481 0 0.32848741365188411 0.1727716232507491 0 0.3101655001798202 0.17563615506282959 0 0.30929675685570829 0.1858318568065235 0 0.31983557186529732 0.18171103000860481 0 0.30929675685570829 0.1858318568065235 0 0.31972446529152482 0.19052244909679969 0 0.31983557186529732 0.18171103000860481 0 0.31972446529152482 0.19052244909679969 0 0.3336272658304279 0.18895925974375941 0 0.31983557186529732 0.18171103000860481 0 0.32848741365188411 0.1727716232507491 0 0.34507730906385942 0.16855187839241309 0 0.35656535024169428 0.1804169243242798 0 0.3336272658304279 0.18895925974375941 0 0.32848741365188411 0.1727716232507491 0 0.35656535024169428 0.1804169243242798 0 0.32848741365188411 0.1727716232507491 0 0.35656535024169428 0.1804169243242798 0 0.32848741365188411 0.1727716232507491 0 0.33365817402274128 0.15789089208148979 0 0.34507730906385942 0.16855187839241309 0 0.33365817402274128 0.15789089208148979 0 0.34507730906385942 0.16855187839241309 0 0.36278106674677829 0.1609059875514994 0 0.34507730906385942 0.16855187839241309 0 0.35656535024169428 0.1804169243242798 0 0.36278106674677829 0.1609059875514994 0 0.33365817402274128 0.15789089208148979 0 0.36278106674677829 0.1609059875514994 0 0.35656535024169428 0.1804169243242798 0 0.37356219856206202 0.1741215612114578 0 0.38464328683150451 0.18806222539781059 0 0.35656535024169428 0.1804169243242798 0 0.38464328683150451 0.18806222539781059 0 0.35656535024169428 0.1804169243242798 0 0.37356219856206202 0.1741215612114578 0 0.36278106674677829 0.1609059875514994 0 0.36278106674677829 0.1609059875514994 0 0.36531512046589693 0.1378839500987098 0 0.37680076681991098 0.15092733218095339 0 0.36278106674677829 0.1609059875514994 0 0.34780073530519279 0.14835628742565241 0 0.36531512046589693 0.1378839500987098 0 0.34780073530519279 0.14835628742565241 0 0.34586764947947463 0.1362539899128139 0 0.36531512046589693 0.1378839500987098 0 0.33365817402274128 0.15789089208148979 0 0.36278106674677829 0.1609059875514994 0 0.34780073530519279 0.14835628742565241 0 0.34956654336434939 0.1234914401014125 0 0.34586764947947463 0.1362539899128139 0 0.36531512046589693 0.1378839500987098 0 0.34956654336434939 0.1234914401014125 0 0.36322639358210312 0.11848039068348271 0 0.36531512046589693 0.1378839500987098 0 0.36322639358210312 0.11848039068348271 0 0.36531512046589693 0.1378839500987098 0 0.38482072671029011 0.13725767299229241 0 0.36322639358210312 0.11848039068348271 0 0.38482072671029011 0.13725767299229241 0 0.36322639358210312 0.11848039068348271 0 0.38482072671029011 0.13725767299229241 0 0.38005682511468147 0.12140739343396729 0 0.38482072671029011 0.13725767299229241 0 0.39398634319161102 0.12556361147638159 0 0.38005682511468147 0.12140739343396729 0 0.38482072671029011 0.13725767299229241 0 0.39398634319161102 0.12556361147638159 0 0.40386822996399702 0.1370092008917044 0 0.39398634319161102 0.12556361147638159 0 0.40386822996399702 0.1370092008917044 0 0.40630256149234217 0.12337914253670321 0 0.38482072671029011 0.13725767299229241 0 0.40641505983847698 0.15603495530110209 0 0.38482072671029011 0.13725767299229241 0 0.40386822996399702 0.1370092008917044 0 0.40641505983847698 0.15603495530110209 0 0.38482072671029011 0.13725767299229241 0 0.39190395947081519 0.16392108302150901 0 0.40641505983847698 0.15603495530110209 0 0.36531512046589693 0.1378839500987098 0 0.38482072671029011 0.13725767299229241 0 0.37680076681991098 0.15092733218095339 0 0.38482072671029011 0.13725767299229241 0 0.37680076681991098 0.15092733218095339 0 0.39190395947081519 0.16392108302150901 0 0.36278106674677829 0.1609059875514994 0 0.39190395947081519 0.16392108302150901 0 0.36278106674677829 0.1609059875514994 0 0.37680076681991098 0.15092733218095339 0 0.39190395947081519 0.16392108302150901 0 0.37356219856206202 0.1741215612114578 0 0.36278106674677829 0.1609059875514994 0 0.39190395947081519 0.16392108302150901 0 0.37356219856206202 0.1741215612114578 0 0.39190395947081519 0.16392108302150901 0 0.38464328683150451 0.18806222539781059 0 0.4059128807594603 0.17981630131623391 0 0.39190395947081519 0.16392108302150901 0 0.38464328683150451 0.18806222539781059 0 0.39190395947081519 0.16392108302150901 0 0.42102685219485209 0.16693617849151851 0 0.40641505983847698 0.15603495530110209 0 0.4059128807594603 0.17981630131623391 0 0.39190395947081519 0.16392108302150901 0 0.42102685219485209 0.16693617849151851 0 0.42102685219485209 0.16693617849151851 0 0.40641505983847698 0.15603495530110209 0 0.41490094777653419 0.14712571815411829 0 0.39190395947081519 0.16392108302150901 0 0.42102685219485209 0.16693617849151851 0 0.4059128807594603 0.17981630131623391 0 0.42102685219485209 0.16693617849151851 0 0.42759287120751482 0.1799189573059411 0 0.4059128807594603 0.17981630131623391 0 0.42759287120751482 0.1799189573059411 0 0.42045703890892938 0.19185412915784311 0 0.42102685219485209 0.16693617849151851 0 0.42759287120751482 0.1799189573059411 0 0.45014974491888898 0.16995127396152809 0 0.42759287120751482 0.1799189573059411 0 0.42045703890892938 0.19185412915784311 0 0.43799329450951457 0.1898848624547933 0 0.42102685219485209 0.16693617849151851 0 0.45014974491888898 0.16995127396152809 0 0.42102685219485209 0.16693617849151851 0 0.43641214087317609 0.15776157540708571 0 0.42820809332857229 0.14540676379554701 0 0.42102685219485209 0.16693617849151851 0 0.43641214087317609 0.15776157540708571 0 0.45014974491888898 0.16995127396152809 0 0.43641214087317609 0.15776157540708571 0 0.42820809332857229 0.14540676379554701 0 0.44305345270963392 0.14224085277467549 0 0.42820809332857229 0.14540676379554701 0 0.43267139290449452 0.12562392175117529 0 0.41815906511665779 0.13368892679480551 0 0.42820809332857229 0.14540676379554701 0 0.43267139290449452 0.12562392175117529 0 0.44305345270963392 0.14224085277467549 0 0.43267139290449452 0.12562392175117529 0 0.41815906511665779 0.13368892679480551 0 0.41840244549433692 0.1204435227777134 0 0.41815906511665779 0.13368892679480551 0 0.41840244549433692 0.1204435227777134 0 0.40630256149234217 0.12337914253670321 0 0.40386822996399702 0.1370092008917044 0 0.41815906511665779 0.13368892679480551 0 0.40630256149234217 0.12337914253670321 0 0.40386822996399702 0.1370092008917044 0 0.41815906511665779 0.13368892679480551 0 0.41490094777653419 0.14712571815411829 0 0.42102685219485209 0.16693617849151851 0 0.42820809332857229 0.14540676379554701 0 0.41490094777653419 0.14712571815411829 0 0.40386822996399702 0.1370092008917044 0 0.40641505983847698 0.15603495530110209 0 0.41490094777653419 0.14712571815411829 0 0.42820809332857229 0.14540676379554701 0 0.41815906511665779 0.13368892679480551 0 0.41490094777653419 0.14712571815411829 0 0.39196586341458151 0.242441409442547 0 0.40329821407583749 0.23025496453590971 0 0.40866327585672191 0.24600766979752939 0 0.38129994004966872 0.25577407136566988 0 0.39196586341458151 0.242441409442547 0 0.40866327585672191 0.24600766979752939 0 0.38129994004966872 0.25577407136566988 0 0.39196586341458151 0.242441409442547 0 0.38106847269238292 0.24536179082341181 0 0.37169426656027921 0.24972740256563611 0 0.38106847269238292 0.24536179082341181 0 0.3757768555661396 0.240133652284411 0 0.37292139258550783 0.22672254500020811 0 0.3757768555661396 0.240133652284411 0 0.38460543787124563 0.238732418458795 0 0.38106847269238292 0.24536179082341181 0 0.3757768555661396 0.240133652284411 0 0.38460543787124563 0.238732418458795 0 0.39196586341458151 0.242441409442547 0 0.38106847269238292 0.24536179082341181 0 0.38460543787124563 0.238732418458795 0 0.39196586341458151 0.242441409442547 0 0.38460543787124563 0.238732418458795 0 0.38844350160088592 0.2284985707660753 0 0.37292139258550783 0.22672254500020811 0 0.38460543787124563 0.238732418458795 0 0.38844350160088592 0.2284985707660753 0 0.37292139258550783 0.22672254500020811 0 0.38844350160088592 0.2284985707660753 0 0.38369130631537601 0.21297307403445409 0 0.38844350160088592 0.2284985707660753 0 0.39679964264504158 0.21937630878092959 0 0.38369130631537601 0.21297307403445409 0 0.38844350160088592 0.2284985707660753 0 0.39679964264504158 0.21937630878092959 0 0.40329821407583749 0.23025496453590971 0 0.39196586341458151 0.242441409442547 0 0.38844350160088592 0.2284985707660753 0 0.40329821407583749 0.23025496453590971 0 0.39679964264504158 0.21937630878092959 0 0.40329821407583749 0.23025496453590971 0 0.41066806580544729 0.2160617609406458 0 0.39598296716959969 0.20626700748070109 0 0.40513352984814438 0.19492560706685999 0 0.41066806580544729 0.2160617609406458 0 0.39679964264504158 0.21937630878092959 0 0.39598296716959969 0.20626700748070109 0 0.41066806580544729 0.2160617609406458 0 0.39679964264504158 0.21937630878092959 0 0.39598296716959969 0.20626700748070109 0 0.38369130631537601 0.21297307403445409 0 0.36923798170140371 0.20928007436804161 0 0.37292139258550783 0.22672254500020811 0 0.38369130631537601 0.21297307403445409 0 0.36923798170140371 0.20928007436804161 0 0.38369130631537601 0.21297307403445409 0 0.38464328683150451 0.18806222539781059 0 0.39598296716959969 0.20626700748070109 0 0.38369130631537601 0.21297307403445409 0 0.38464328683150451 0.18806222539781059 0 0.39598296716959969 0.20626700748070109 0 0.38464328683150451 0.18806222539781059 0 0.40513352984814438 0.19492560706685999 0 0.4059128807594603 0.17981630131623391 0 0.38464328683150451 0.18806222539781059 0 0.40513352984814438 0.19492560706685999 0 0.40513352984814438 0.19492560706685999 0 0.42045703890892938 0.19185412915784311 0 0.42444067869502011 0.20693424997503959 0 0.4059128807594603 0.17981630131623391 0 0.40513352984814438 0.19492560706685999 0 0.42045703890892938 0.19185412915784311 0 0.42045703890892938 0.19185412915784311 0 0.42444067869502011 0.20693424997503959 0 0.43799329450951457 0.1898848624547933 0 0.42444067869502011 0.20693424997503959 0 0.44184419378540352 0.2076794424592901 0 0.43799329450951457 0.1898848624547933 0 0.42444067869502011 0.20693424997503959 0 0.4302098735549707 0.2206458244329694 0 0.44184419378540352 0.2076794424592901 0 0.42444067869502011 0.20693424997503959 0 0.41066806580544729 0.2160617609406458 0 0.4302098735549707 0.2206458244329694 0 0.40513352984814438 0.19492560706685999 0 0.42444067869502011 0.20693424997503959 0 0.41066806580544729 0.2160617609406458 0 0.41066806580544729 0.2160617609406458 0 0.41777320819135039 0.22984229758728861 0 0.4302098735549707 0.2206458244329694 0 0.40329821407583749 0.23025496453590971 0 0.41066806580544729 0.2160617609406458 0 0.41777320819135039 0.22984229758728861 0 0.4302098735549707 0.2206458244329694 0 0.43602661166377499 0.2362412682293889 0 0.44584438813649652 0.2203436080528294 0 0.41777320819135039 0.22984229758728861 0 0.4302098735549707 0.2206458244329694 0 0.43602661166377499 0.2362412682293889 0 0.43602661166377499 0.2362412682293889 0 0.43076425121212841 0.2486853010718087 0 0.40866327585672191 0.24600766979752939 0 0.43602661166377499 0.2362412682293889 0 0.40866327585672191 0.24600766979752939 0 0.41777320819135039 0.22984229758728861 0 0.43602661166377499 0.2362412682293889 0 0.40866327585672191 0.24600766979752939 0 0.41664462513020523 0.25422696758609492 0 0.43076425121212841 0.2486853010718087 0 0.40866327585672191 0.24600766979752939 0 0.40329821407583749 0.23025496453590971 0 0.41777320819135039 0.22984229758728861 0 0.40866327585672191 0.24600766979752939 0 0.45166362976964691 0.25106894999712381 0 0.45384283414141641 0.23962742592169059 0 0.47583181488482379 0.2451422378191761 0 0.45166362976964691 0.25106894999712381 0 0.47583181488482379 0.2451422378191761 0 0.45384283414141641 0.23962742592169059 0 0.47692141707070451 0.23056955077157251 0 0.45166362976964691 0.25106894999712381 0 0.43076425121212841 0.2486853010718087 0 0.45384283414141641 0.23962742592169059 0 0.43602661166377499 0.2362412682293889 0 0.43076425121212841 0.2486853010718087 0 0.45384283414141641 0.23962742592169059 0 0.43076425121212841 0.2486853010718087 0 0.45384283414141641 0.23962742592169059 0 0.43602661166377499 0.2362412682293889 0 0.46338994747082818 0.22647486666124839 0 0.43602661166377499 0.2362412682293889 0 0.44584438813649652 0.2203436080528294 0 0.46338994747082818 0.22647486666124839 0 0.43602661166377499 0.2362412682293889 0 0.45384283414141641 0.23962742592169059 0 0.46338994747082818 0.22647486666124839 0 0.44584438813649652 0.2203436080528294 0 0.46338994747082818 0.22647486666124839 0 0.4574246187180494 0.20998202225832771 0 0.45384283414141641 0.23962742592169059 0 0.46338994747082818 0.22647486666124839 0 0.47692141707070451 0.23056955077157251 0 0.46338994747082818 0.22647486666124839 0 0.4574246187180494 0.20998202225832771 0 0.47311107537994651 0.21060674662752529 0 0.4574246187180494 0.20998202225832771 0 0.46861366351278472 0.19789432193598561 0 0.47311107537994651 0.21060674662752529 0 0.44584438813649652 0.2203436080528294 0 0.4574246187180494 0.20998202225832771 0 0.44184419378540352 0.2076794424592901 0 0.4302098735549707 0.2206458244329694 0 0.44584438813649652 0.2203436080528294 0 0.44184419378540352 0.2076794424592901 0 0.4574246187180494 0.20998202225832771 0 0.44184419378540352 0.2076794424592901 0 0.45120510308892831 0.19507838461398491 0 0.44184419378540352 0.2076794424592901 0 0.43799329450951457 0.1898848624547933 0 0.45120510308892831 0.19507838461398491 0 0.4574246187180494 0.20998202225832771 0 0.45120510308892831 0.19507838461398491 0 0.46861366351278472 0.19789432193598561 0 0.45120510308892831 0.19507838461398491 0 0.46861366351278472 0.19789432193598561 0 0.45014974491888898 0.16995127396152809 0 0.46861366351278472 0.19789432193598561 0 0.48377650321145821 0.20030440734603891 0 0.47890777313388699 0.17818810929941131 0 0.46861366351278472 0.19789432193598561 0 0.48377650321145821 0.20030440734603891 0 0.47311107537994651 0.21060674662752529 0 0.48377650321145821 0.20030440734603891 0 0.5 0.19442179120654851 0 0.47890777313388699 0.17818810929941131 0 0.48377650321145821 0.20030440734603891 0 0.5 0.19442179120654851 0 0.49075328327788142 0.2167084650931079 0 0.5 0.19442179120654851 0 0.49075328327788142 0.2167084650931079 0 0.49999999999999339 0.2215116756214566 0 0.48377650321145821 0.20030440734603891 0 0.49075328327788142 0.2167084650931079 0 0.47311107537994651 0.21060674662752529 0 0.46338994747082818 0.22647486666124839 0 0.49075328327788142 0.2167084650931079 0 0.47311107537994651 0.21060674662752529 0 0.46338994747082818 0.22647486666124839 0 0.49075328327788142 0.2167084650931079 0 0.46338994747082818 0.22647486666124839 0 0.49075328327788142 0.2167084650931079 0 0.47692141707070451 0.23056955077157251 0 0.47692141707070451 0.23056955077157251 0 0.49999999999999339 0.2215116756214566 0 0.50000000000000067 0.2392155256412283 0 0.49075328327788142 0.2167084650931079 0 0.47692141707070451 0.23056955077157251 0 0.49999999999999339 0.2215116756214566 0 0.47692141707070451 0.23056955077157251 0 0.49999999999999339 0.2215116756214566 0 0.50000000000000067 0.2392155256412283 0 0.47583181488482379 0.2451422378191761 0 0.48341195364679568 0.26002408893105827 0 0.50000000000000067 0.2392155256412283 0 0.47583181488482379 0.2451422378191761 0 0.47692141707070451 0.23056955077157251 0 0.50000000000000067 0.2392155256412283 0 0.47583181488482379 0.2451422378191761 0 0.45384283414141641 0.23962742592169059 0 0.47692141707070451 0.23056955077157251 0 0.47583181488482379 0.2451422378191761 0 0.46053260521531592 0.14091734283165991 0 0.45014974491888898 0.16995127396152809 0 0.47759274938693741 0.15337993901402261 0 0.46053260521531592 0.14091734283165991 0 0.47596637305353268 0.1236489788231635 0 0.45094723062946279 0.12208098845927939 0 0.46053260521531592 0.14091734283165991 0 0.44305345270963392 0.14224085277467549 0 0.45094723062946279 0.12208098845927939 0 0.43267139290449452 0.12562392175117529 0 0.44305345270963392 0.14224085277467549 0 0.45094723062946279 0.12208098845927939 0 0.46053260521531592 0.14091734283165991 0 0.44305345270963392 0.14224085277467549 0 0.45014974491888898 0.16995127396152809 0 0.43641214087317609 0.15776157540708571 0 0.44305345270963392 0.14224085277467549 0 0.45014974491888898 0.16995127396152809 0 0.42759287120751482 0.1799189573059411 0 0.43799329450951457 0.1898848624547933 0 0.45014974491888898 0.16995127396152809 0 0.43799329450951457 0.1898848624547933 0 0.45120510308892831 0.19507838461398491 0 0.45014974491888898 0.16995127396152809 0 0.46861366351278472 0.19789432193598561 0 0.45014974491888898 0.16995127396152809 0 0.47890777313388699 0.17818810929941131 0 0.45014974491888898 0.16995127396152809 0 0.47890777313388699 0.17818810929941131 0 0.47759274938693741 0.15337993901402261 0 0.5 0.19442179120654851 0 0.47890777313388699 0.17818810929941131 0 0.5 0.16733190679164031 0 0.47890777313388699 0.17818810929941131 0 0.5 0.16733190679164031 0 0.47759274938693741 0.15337993901402261 0 0.5 0.16733190679164031 0 0.47759274938693741 0.15337993901402261 0 0.5 0.14024202237673219 0 0.46053260521531592 0.14091734283165991 0 0.47759274938693741 0.15337993901402261 0 0.47596637305353268 0.1236489788231635 0 0.5 0.14024202237673219 0 0.5 0.11315213796182411 0 0.47596637305353268 0.1236489788231635 0 0.47759274938693741 0.15337993901402261 0 0.5 0.14024202237673219 0 0.47596637305353268 0.1236489788231635 0 0.5 0.11315213796182411 0 0.48146508414057748 0.097867616362435003 0 0.47596637305353268 0.1236489788231635 0 0.5 0.11315213796182411 0 0.48146508414057748 0.097867616362435003 0 0.5 0.08606225354691599 0 0.48146508414057748 0.097867616362435003 0 0.46684480345772023 0.083704774648097419 0 0.46085076100455152 0.1051260388446932 0 0.48146508414057748 0.097867616362435003 0 0.47596637305353268 0.1236489788231635 0 0.46085076100455152 0.1051260388446932 0 0.5 0.08606225354691599 0 0.48297411160829701 0.071419164250366693 0 0.5 0.058972369132007867 0 0.48146508414057748 0.097867616362435003 0 0.5 0.08606225354691599 0 0.48297411160829701 0.071419164250366693 0 0.48146508414057748 0.097867616362435003 0 0.48297411160829701 0.071419164250366693 0 0.46684480345772023 0.083704774648097419 0 0.48297411160829701 0.071419164250366693 0 0.46368779630991369 0.062884433647911922 0 0.46684480345772023 0.083704774648097419 0 0.46368779630991369 0.062884433647911922 0 0.4455316944648699 0.078385408113317706 0 0.46368779630991369 0.062884433647911922 0 0.46684480345772023 0.083704774648097419 0 0.4455316944648699 0.078385408113317706 0 0.46684480345772023 0.083704774648097419 0 0.4455316944648699 0.078385408113317706 0 0.46085076100455152 0.1051260388446932 0 0.4455316944648699 0.078385408113317706 0 0.46085076100455152 0.1051260388446932 0 0.43655847815144871 0.087567909291679069 0 0.4455316944648699 0.078385408113317706 0 0.43655847815144871 0.087567909291679069 0 0.43300293116684879 0.070359854062556224 0 0.4455316944648699 0.078385408113317706 0 0.43300293116684879 0.070359854062556224 0 0.44432728466234178 0.059795406129610977 0 0.46368779630991369 0.062884433647911922 0 0.4455316944648699 0.078385408113317706 0 0.44432728466234178 0.059795406129610977 0 0.47596637305353268 0.1236489788231635 0 0.46085076100455152 0.1051260388446932 0 0.45094723062946279 0.12208098845927939 0 0.46085076100455152 0.1051260388446932 0 0.43655847815144871 0.087567909291679069 0 0.46085076100455152 0.1051260388446932 0 0.43845481143497073 0.110031162788742 0 0.43302597451412722 0.09911942802672713 0 0.46085076100455152 0.1051260388446932 0 0.43302597451412722 0.09911942802672713 0 0.43655847815144871 0.087567909291679069 0 0.43267139290449452 0.12562392175117529 0 0.45094723062946279 0.12208098845927939 0 0.43845481143497073 0.110031162788742 0 0.46085076100455152 0.1051260388446932 0 0.45094723062946279 0.12208098845927939 0 0.43845481143497073 0.110031162788742 0 0.43267139290449452 0.12562392175117529 0 0.43845481143497073 0.110031162788742 0 0.42512360996164289 0.1101942667169049 0 0.43267139290449452 0.12562392175117529 0 0.42512360996164289 0.1101942667169049 0 0.41840244549433692 0.1204435227777134 0 0.42512360996164289 0.1101942667169049 0 0.41840244549433692 0.1204435227777134 0 0.41145911669595331 0.1096997076075869 0 0.41840244549433692 0.1204435227777134 0 0.41145911669595331 0.1096997076075869 0 0.40630256149234217 0.12337914253670321 0 0.41145911669595331 0.1096997076075869 0 0.41782870111656589 0.098086010242617663 0 0.40188519574572068 0.098349840232826835 0 0.41782870111656589 0.098086010242617663 0 0.41132824907511162 0.087668761689670915 0 0.40188519574572068 0.098349840232826835 0 0.42512360996164289 0.1101942667169049 0 0.41145911669595331 0.1096997076075869 0 0.41782870111656589 0.098086010242617663 0 0.41782870111656589 0.098086010242617663 0 0.43302597451412722 0.09911942802672713 0 0.42198136315300161 0.08812274721924529 0 0.42512360996164289 0.1101942667169049 0 0.41782870111656589 0.098086010242617663 0 0.43302597451412722 0.09911942802672713 0 0.43845481143497073 0.110031162788742 0 0.42512360996164289 0.1101942667169049 0 0.43302597451412722 0.09911942802672713 0 0.43655847815144871 0.087567909291679069 0 0.42198136315300161 0.08812274721924529 0 0.41226619529834591 0.070009779738664735 0 0.43655847815144871 0.087567909291679069 0 0.41226619529834591 0.070009779738664735 0 0.43302597451412722 0.09911942802672713 0 0.43655847815144871 0.087567909291679069 0 0.42198136315300161 0.08812274721924529 0 0.43300293116684879 0.070359854062556224 0 0.41226619529834591 0.070009779738664735 0 0.42739758089851382 0.054541393999090262 0 0.43655847815144871 0.087567909291679069 0 0.43300293116684879 0.070359854062556224 0 0.41226619529834591 0.070009779738664735 0 0.42198136315300161 0.08812274721924529 0 0.41226619529834591 0.070009779738664735 0 0.41132824907511162 0.087668761689670915 0 0.41226619529834591 0.070009779738664735 0 0.41132824907511162 0.087668761689670915 0 0.39992923875424519 0.082621500021195282 0 0.41782870111656589 0.098086010242617663 0 0.42198136315300161 0.08812274721924529 0 0.41132824907511162 0.087668761689670915 0 0.41132824907511162 0.087668761689670915 0 0.39992923875424519 0.082621500021195282 0 0.40188519574572068 0.098349840232826835 0 0.39992923875424519 0.082621500021195282 0 0.38759228221014619 0.095233220303727467 0 0.40188519574572068 0.098349840232826835 0 0.39992923875424519 0.082621500021195282 0 0.38759228221014619 0.095233220303727467 0 0.41226619529834591 0.070009779738664735 0 0.39707386889515511 0.070908779594843374 0 0.39683376059791597 0.058855427163935138 0 0.41226619529834591 0.070009779738664735 0 0.39683376059791597 0.058855427163935138 0 0.41226619529834591 0.070009779738664735 0 0.39992923875424519 0.082621500021195282 0 0.41226619529834591 0.070009779738664735 0 0.39992923875424519 0.082621500021195282 0 0.39707386889515511 0.070908779594843374 0 0.39992923875424519 0.082621500021195282 0 0.39707386889515511 0.070908779594843374 0 0.38583977896057609 0.075316135258006081 0 0.39707386889515511 0.070908779594843374 0 0.38282045226763678 0.060547433734587333 0 0.39683376059791597 0.058855427163935138 0 0.39707386889515511 0.070908779594843374 0 0.38583977896057609 0.075316135258006081 0 0.38282045226763678 0.060547433734587333 0 0.38583977896057609 0.075316135258006081 0 0.37596532967213542 0.069868995675824025 0 0.37682589963749002 0.081332762740894418 0 0.37307104071443398 0.061065176941414383 0 0.37596532967213542 0.069868995675824025 0 0.38282045226763678 0.060547433734587333 0 0.38583977896057609 0.075316135258006081 0 0.37596532967213542 0.069868995675824025 0 0.38282045226763678 0.060547433734587333 0 0.39992923875424519 0.082621500021195282 0 0.38412803848747967 0.086259474622970303 0 0.38759228221014619 0.095233220303727467 0 0.39992923875424519 0.082621500021195282 0 0.38583977896057609 0.075316135258006081 0 0.38412803848747967 0.086259474622970303 0 0.37045299287494049 0.09679375479102828 0 0.38412803848747967 0.086259474622970303 0 0.38759228221014619 0.095233220303727467 0 0.38583977896057609 0.075316135258006081 0 0.38412803848747967 0.086259474622970303 0 0.37682589963749002 0.081332762740894418 0 0.37045299287494049 0.09679375479102828 0 0.38412803848747967 0.086259474622970303 0 0.37682589963749002 0.081332762740894418 0 0.37045299287494049 0.09679375479102828 0 0.38005682511468147 0.12140739343396729 0 0.37045299287494049 0.09679375479102828 0 0.38759228221014619 0.095233220303727467 0 0.38890959528695412 0.1083938038889192 0 0.37045299287494049 0.09679375479102828 0 0.38890959528695412 0.1083938038889192 0 0.38005682511468147 0.12140739343396729 0 0.39398634319161102 0.12556361147638159 0 0.38890959528695412 0.1083938038889192 0 0.38005682511468147 0.12140739343396729 0 0.39398634319161102 0.12556361147638159 0 0.38890959528695412 0.1083938038889192 0 0.39948393258462489 0.11301500309558379 0 0.39398634319161102 0.12556361147638159 0 0.40630256149234217 0.12337914253670321 0 0.39948393258462489 0.11301500309558379 0 0.41145911669595331 0.1096997076075869 0 0.40630256149234217 0.12337914253670321 0 0.39948393258462489 0.11301500309558379 0 0.41145911669595331 0.1096997076075869 0 0.39948393258462489 0.11301500309558379 0 0.40188519574572068 0.098349840232826835 0 0.38759228221014619 0.095233220303727467 0 0.38890959528695412 0.1083938038889192 0 0.40188519574572068 0.098349840232826835 0 0.38890959528695412 0.1083938038889192 0 0.39948393258462489 0.11301500309558379 0 0.40188519574572068 0.098349840232826835 0 0.3912475249538237 0.025882868266216091 0 0.40325323122183843 0.024352223252143548 0 0.39536881189699241 0.01378873843063998 0 0.3912475249538237 0.025882868266216091 0 0.40325323122183843 0.024352223252143548 0 0.39805180056669343 0.032772735105760037 0 0.40325323122183843 0.024352223252143548 0 0.39805180056669343 0.032772735105760037 0 0.40655765028286611 0.035582104639029083 0 0.40325323122183843 0.024352223252143548 0 0.39536881189699241 0.01378873843063998 0 0.40720094273855439 0.01372602960598159 0 0.40060323373222451 0.0042547197705496897 0 0.39536881189699241 0.01378873843063998 0 0.40720094273855439 0.01372602960598159 0 0.40060323373222451 0.0042547197705496897 0 0.41081432206005303 0.0037114498956348132 0 0.4046584776842293 -0.0050702490882302163 0 0.40060323373222451 0.0042547197705496897 0 0.41081432206005303 0.0037114498956348132 0 0.40720094273855439 0.01372602960598159 0 0.40060323373222451 0.0042547197705496897 0 0.39025836247721268 0.0036292771787240202 0 0.39531848553630572 -0.0042569273994520467 0 0.40060323373222451 0.0042547197705496897 0 0.39536881189699241 0.01378873843063998 0 0.39025836247721268 0.0036292771787240202 0 0.37844401144479839 0.012609093579625891 0 0.38356146703633898 -0.0078565650350033434 0 0.37844401144479839 0.012609093579625891 0 0.39025836247721268 0.0036292771787240202 0 0.38356146703633898 -0.0078565650350033434 0 0.39536881189699241 0.01378873843063998 0 0.37844401144479839 0.012609093579625891 0 0.39025836247721268 0.0036292771787240202 0 0.3912475249538237 0.025882868266216091 0 0.37844401144479839 0.012609093579625891 0 0.38063223185621792 0.036578263657106522 0 0.37844401144479839 0.012609093579625891 0 0.38063223185621792 0.036578263657106522 0 0.37146335928247548 0.04052602251159599 0 0.37844401144479839 0.012609093579625891 0 0.38063223185621792 0.036578263657106522 0 0.3912475249538237 0.025882868266216091 0 0.39536881189699241 0.01378873843063998 0 0.37844401144479839 0.012609093579625891 0 0.37146335928247548 0.04052602251159599 0 0.38063223185621792 0.036578263657106522 0 0.38282045226763678 0.060547433734587333 0 0.3912475249538237 0.025882868266216091 0 0.38063223185621792 0.036578263657106522 0 0.3908528121234538 0.035995570554822158 0 0.38063223185621792 0.036578263657106522 0 0.38791705742610771 0.044539104287684539 0 0.3908528121234538 0.035995570554822158 0 0.38791705742610771 0.044539104287684539 0 0.38282045226763678 0.060547433734587333 0 0.39079668350586277 0.051215399393808793 0 0.37307104071443398 0.061065176941414383 0 0.37146335928247548 0.04052602251159599 0 0.38282045226763678 0.060547433734587333 0 0.38063223185621792 0.036578263657106522 0 0.38791705742610771 0.044539104287684539 0 0.38282045226763678 0.060547433734587333 0 0.38063223185621792 0.036578263657106522 0 0.38282045226763678 0.060547433734587333 0 0.38282045226763678 0.060547433734587333 0 0.39683376059791597 0.058855427163935138 0 0.39079668350586277 0.051215399393808793 0 0.41226619529834591 0.070009779738664735 0 0.39683376059791597 0.058855427163935138 0 0.40948896714378957 0.05055434744181983 0 0.39683376059791597 0.058855427163935138 0 0.39079668350586277 0.051215399393808793 0 0.39674782008621368 0.04348041067995833 0 0.39683376059791597 0.058855427163935138 0 0.39674782008621368 0.04348041067995833 0 0.40948896714378957 0.05055434744181983 0 0.3908528121234538 0.035995570554822158 0 0.39805180056669343 0.032772735105760037 0 0.39674782008621368 0.04348041067995833 0 0.3912475249538237 0.025882868266216091 0 0.3908528121234538 0.035995570554822158 0 0.39805180056669343 0.032772735105760037 0 0.38791705742610771 0.044539104287684539 0 0.3908528121234538 0.035995570554822158 0 0.39674782008621368 0.04348041067995833 0 0.38791705742610771 0.044539104287684539 0 0.39079668350586277 0.051215399393808793 0 0.39674782008621368 0.04348041067995833 0 0.39674782008621368 0.04348041067995833 0 0.40655765028286611 0.035582104639029083 0 0.40948896714378957 0.05055434744181983 0 0.39805180056669343 0.032772735105760037 0 0.39674782008621368 0.04348041067995833 0 0.40655765028286611 0.035582104639029083 0 0.40655765028286611 0.035582104639029083 0 0.41713079569888262 0.040856968430241461 0 0.41557099838193923 0.024039796491718179 0 0.41713079569888262 0.040856968430241461 0 0.42755741698364552 0.032815777208855347 0 0.41557099838193923 0.024039796491718179 0 0.40655765028286611 0.035582104639029083 0 0.41713079569888262 0.040856968430241461 0 0.40948896714378957 0.05055434744181983 0 0.41226619529834591 0.070009779738664735 0 0.40948896714378957 0.05055434744181983 0 0.42739758089851382 0.054541393999090262 0 0.41713079569888262 0.040856968430241461 0 0.40948896714378957 0.05055434744181983 0 0.42739758089851382 0.054541393999090262 0 0.41226619529834591 0.070009779738664735 0 0.42739758089851382 0.054541393999090262 0 0.43300293116684879 0.070359854062556224 0 0.42739758089851382 0.054541393999090262 0 0.44432728466234178 0.059795406129610977 0 0.41713079569888262 0.040856968430241461 0 0.42739758089851382 0.054541393999090262 0 0.42755741698364552 0.032815777208855347 0 0.42739758089851382 0.054541393999090262 0 0.42755741698364552 0.032815777208855347 0 0.44252896649868317 0.039073008259517338 0 0.42739758089851382 0.054541393999090262 0 0.44252896649868317 0.039073008259517338 0 0.42755741698364552 0.032815777208855347 0 0.4358194844604939 0.024219735287320941 0 0.44252896649868317 0.039073008259517338 0 0.42755741698364552 0.032815777208855347 0 0.41557099838193923 0.024039796491718179 0 0.4265644217351573 0.014684511896395219 0 0.4358194844604939 0.024219735287320941 0 0.4265644217351573 0.014684511896395219 0 0.44548351627008242 0.01642882659412407 0 0.42755741698364552 0.032815777208855347 0 0.4358194844604939 0.024219735287320941 0 0.4265644217351573 0.014684511896395219 0 0.41557099838193923 0.024039796491718179 0 0.4165272652869268 0.01155925859927168 0 0.4265644217351573 0.014684511896395219 0 0.41557099838193923 0.024039796491718179 0 0.40720094273855439 0.01372602960598159 0 0.4165272652869268 0.01155925859927168 0 0.40325323122183843 0.024352223252143548 0 0.41557099838193923 0.024039796491718179 0 0.40720094273855439 0.01372602960598159 0 0.40325323122183843 0.024352223252143548 0 0.40655765028286611 0.035582104639029083 0 0.41557099838193923 0.024039796491718179 0 0.41081432206005303 0.0037114498956348132 0 0.40720094273855439 0.01372602960598159 0 0.4165272652869268 0.01155925859927168 0 0.4165272652869268 0.01155925859927168 0 0.42248564151892998 0.0016345051066286029 0 0.4265644217351573 0.014684511896395219 0 0.41081432206005303 0.0037114498956348132 0 0.4165272652869268 0.01155925859927168 0 0.42248564151892998 0.0016345051066286029 0 0.42248564151892998 0.0016345051066286029 0 0.4265644217351573 0.014684511896395219 0 0.4382820622288856 -0.0014159552958160841 0 0.4265644217351573 0.014684511896395219 0 0.44548351627008242 0.01642882659412407 0 0.4382820622288856 -0.0014159552958160841 0 0.45100246047295739 0.0046664116742636159 0 0.44548351627008242 0.01642882659412407 0 0.4382820622288856 -0.0014159552958160841 0 0.45100246047295739 0.0046664116742636159 0 0.44548351627008242 0.01642882659412407 0 0.4580470330794123 0.0188547641718908 0 0.4358194844604939 0.024219735287320941 0 0.4514029071021442 0.02821869916314456 0 0.44548351627008242 0.01642882659412407 0 0.4358194844604939 0.024219735287320941 0 0.4514029071021442 0.02821869916314456 0 0.44252896649868317 0.039073008259517338 0 0.4514029071021442 0.02821869916314456 0 0.44548351627008242 0.01642882659412407 0 0.4580470330794123 0.0188547641718908 0 0.4514029071021442 0.02821869916314456 0 0.4580470330794123 0.0188547641718908 0 0.46553563141862692 0.027383902935855992 0 0.4580470330794123 0.0188547641718908 0 0.46553563141862692 0.027383902935855992 0 0.471035018561343 0.01684384088441979 0 0.4580470330794123 0.0188547641718908 0 0.4620271672997433 0.0081957990277541914 0 0.471035018561343 0.01684384088441979 0 0.4620271672997433 0.0081957990277541914 0 0.47207727543944228 0.0077163925679632076 0 0.45540766643685782 -0.0078732224449345398 0 0.4620271672997433 0.0081957990277541914 0 0.47207727543944228 0.0077163925679632076 0 0.471035018561343 0.01684384088441979 0 0.45100246047295739 0.0046664116742636159 0 0.4620271672997433 0.0081957990277541914 0 0.45540766643685782 -0.0078732224449345398 0 0.45100246047295739 0.0046664116742636159 0 0.4580470330794123 0.0188547641718908 0 0.4620271672997433 0.0081957990277541914 0 0.42739758089851382 0.054541393999090262 0 0.44432728466234178 0.059795406129610977 0 0.44252896649868317 0.039073008259517338 0 0.44432728466234178 0.059795406129610977 0 0.44252896649868317 0.039073008259517338 0 0.46100281088556699 0.043351957730158222 0 0.4514029071021442 0.02821869916314456 0 0.44252896649868317 0.039073008259517338 0 0.46100281088556699 0.043351957730158222 0 0.4514029071021442 0.02821869916314456 0 0.46553563141862692 0.027383902935855992 0 0.46100281088556699 0.043351957730158222 0 0.46553563141862692 0.027383902935855992 0 0.46100281088556699 0.043351957730158222 0 0.4764725540003833 0.035303178421407518 0 0.46368779630991369 0.062884433647911922 0 0.44432728466234178 0.059795406129610977 0 0.46100281088556699 0.043351957730158222 0 0.48297411160829701 0.071419164250366693 0 0.46368779630991369 0.062884433647911922 0 0.48184389815495748 0.047383459182506117 0 0.46368779630991369 0.062884433647911922 0 0.46100281088556699 0.043351957730158222 0 0.48184389815495748 0.047383459182506117 0 0.46368779630991369 0.062884433647911922 0 0.48184389815495748 0.047383459182506117 0 0.46100281088556699 0.043351957730158222 0 0.48184389815495748 0.047383459182506117 0 0.4764725540003833 0.035303178421407518 0 0.48184389815495748 0.047383459182506117 0 0.50000000000000089 0.031882484717099757 0 0.48184389815495748 0.047383459182506117 0 0.50000000000000089 0.031882484717099757 0 0.5 0.058972369132007867 0 0.48184389815495748 0.047383459182506117 0 0.4764725540003833 0.035303178421407518 0 0.50000000000000089 0.031882484717099757 0 0.48297411160829701 0.071419164250366693 0 0.48184389815495748 0.047383459182506117 0 0.5 0.058972369132007867 0 0.48173822001607031 0.002441982684480838 0 0.47207727543944228 0.0077163925679632076 0 0.45540766643685782 -0.0078732224449345398 0 0.48073089036299149 0.01447516008145705 0 0.48088876464914698 0.0066420825236524483 0 0.47207727543944228 0.0077163925679632076 0 0.48088876464914698 0.0066420825236524483 0 0.48173822001607031 0.002441982684480838 0 0.48944624590280772 0.014576472087587141 0 0.48073089036299149 0.01447516008145705 0 0.48088876464914698 0.0066420825236524483 0 0.48944624590280772 0.014576472087587141 0 0.48088876464914698 0.0066420825236524483 0 0.48173822001607031 0.002441982684480838 0 0.47207727543944228 0.0077163925679632076 0 0.48088876464914698 0.0066420825236524483 0 0.48173822001607031 0.002441982684480838 0 0.48073089036299149 0.01447516008145705 0 0.47207727543944228 0.0077163925679632076 0 0.471035018561343 0.01684384088441979 0 0.46553563141862692 0.027383902935855992 0 0.471035018561343 0.01684384088441979 0 0.48098968552297122 0.023479159592672289 0 0.46553563141862692 0.027383902935855992 0 0.4764725540003833 0.035303178421407518 0 0.48098968552297122 0.023479159592672289 0 0.48073089036299149 0.01447516008145705 0 0.471035018561343 0.01684384088441979 0 0.48098968552297122 0.023479159592672289 0 0.48073089036299149 0.01447516008145705 0 0.48098968552297122 0.023479159592672289 0 0.48944624590280772 0.014576472087587141 0 0.50000000000000089 0.031882484717099757 0 0.50000000000000044 0.0095961811708810997 0 0.48944624590280772 0.014576472087587141 0 0.4764725540003833 0.035303178421407518 0 0.50000000000000089 0.031882484717099757 0 0.48098968552297122 0.023479159592672289 0 0.50000000000000089 0.031882484717099757 0 0.48098968552297122 0.023479159592672289 0 0.48944624590280772 0.014576472087587141 0 0.48173822001607031 0.002441982684480838 0 0.50000000000000044 0.0095961811708810997 0 0.48944624590280772 0.014576472087587141 0 0.48173822001607031 0.002441982684480838 0 0.50000000000000044 0.0095961811708810997 0 0.48173822001607031 0.002441982684480838 0 0.50000000000000044 0.0095961811708810997 0 0.5 -0.01553848795347695 0 0.48173822001607031 0.002441982684480838 0 0.5 -0.01553848795347695 0 0.48723509010938909 -0.024737082977995831 0 0.48173822001607031 0.002441982684480838 0 0.48723509010938909 -0.024737082977995831 0 0.48173822001607031 0.002441982684480838 0 0.46944239540012012 -0.021901386132034111 0 0.45540766643685782 -0.0078732224449345398 0 0.48173822001607031 0.002441982684480838 0 0.46944239540012012 -0.021901386132034111 0 0.48723509010938909 -0.024737082977995831 0 0.46944239540012012 -0.021901386132034111 0 0.48723509010938909 -0.024737082977995831 0 0.47311684284700922 -0.039980301183512167 0 0.5 -0.01553848795347695 0 0.48723509010938909 -0.024737082977995831 0 0.5 -0.040673157077835087 0 0.48723509010938909 -0.024737082977995831 0 0.49273196020270971 -0.051916148640471983 0 0.48034048547664182 -0.050194577481915269 0 0.48723509010938909 -0.024737082977995831 0 0.49273196020270971 -0.051916148640471983 0 0.48723509010938909 -0.024737082977995831 0 0.5 -0.040673157077835087 0 0.49273196020270971 -0.051916148640471983 0 0.5 -0.040673157077835087 0 0.49273196020270971 -0.051916148640471983 0 0.5 -0.065807826202193331 0 0.49273196020270971 -0.051916148640471983 0 0.48384360039889979 -0.062204599920787272 0 0.48034048547664182 -0.050194577481915269 0 0.48034048547664182 -0.050194577481915269 0 0.47035120232490191 -0.060528185902064997 0 0.47311684284700922 -0.039980301183512167 0 0.47035120232490191 -0.060528185902064997 0 0.47311684284700922 -0.039980301183512167 0 0.48384360039889979 -0.062204599920787272 0 0.48034048547664182 -0.050194577481915269 0 0.47035120232490191 -0.060528185902064997 0 0.48723509010938909 -0.024737082977995831 0 0.48034048547664182 -0.050194577481915269 0 0.47311684284700922 -0.039980301183512167 0 0.46944239540012012 -0.021901386132034111 0 0.47311684284700922 -0.039980301183512167 0 0.44971415759127392 -0.039358306738208573 0 0.47035120232490191 -0.060528185902064997 0 0.47311684284700922 -0.039980301183512167 0 0.44971415759127392 -0.039358306738208573 0 0.47035120232490191 -0.060528185902064997 0 0.44971415759127392 -0.039358306738208573 0 0.47035120232490191 -0.060528185902064997 0 0.43963483674523918 -0.055334607978488382 0 0.44971415759127392 -0.039358306738208573 0 0.43963483674523918 -0.055334607978488382 0 0.44971415759127392 -0.039358306738208573 0 0.42419530264354072 -0.042652000491910397 0 0.46944239540012012 -0.021901386132034111 0 0.44971415759127392 -0.039358306738208573 0 0.45540766643685782 -0.0078732224449345398 0 0.44971415759127392 -0.039358306738208573 0 0.42907711285764621 -0.01818842757435184 0 0.44971415759127392 -0.039358306738208573 0 0.45540766643685782 -0.0078732224449345398 0 0.42907711285764621 -0.01818842757435184 0 0.45540766643685782 -0.0078732224449345398 0 0.42907711285764621 -0.01818842757435184 0 0.45100246047295739 0.0046664116742636159 0 0.4382820622288856 -0.0014159552958160841 0 0.45540766643685782 -0.0078732224449345398 0 0.4382820622288856 -0.0014159552958160841 0 0.45540766643685782 -0.0078732224449345398 0 0.42907711285764621 -0.01818842757435184 0 0.48173822001607031 0.002441982684480838 0 0.45540766643685782 -0.0078732224449345398 0 0.47129126618897188 -0.1223351355815797 0 0.47148248434309947 -0.114916285604633 0 0.48087269318342413 -0.1216818802472065 0 0.47148248434309947 -0.114916285604633 0 0.48087269318342413 -0.1216818802472065 0 0.47838814501791832 -0.1066654575105275 0 0.48087269318342413 -0.1216818802472065 0 0.48924328608656842 -0.1141618265083332 0 0.47838814501791832 -0.1066654575105275 0 0.5 -0.1122204549214597 0 0.48924328608656842 -0.1141618265083332 0 0.5 -0.13349841451636779 0 0.48087269318342413 -0.1216818802472065 0 0.48924328608656842 -0.1141618265083332 0 0.5 -0.13349841451636779 0 0.5 -0.1122204549214597 0 0.48924328608656842 -0.1141618265083332 0 0.48827073793524339 -0.097774102912636218 0 0.48924328608656842 -0.1141618265083332 0 0.48827073793524339 -0.097774102912636218 0 0.47838814501791832 -0.1066654575105275 0 0.5 -0.1122204549214597 0 0.48827073793524339 -0.097774102912636218 0 0.50000000000000266 -0.090942495326551576 0 0.47652975213937199 -0.091635549067057065 0 0.46683976751390588 -0.086617099886465918 0 0.46456669494636288 -0.10350535152343909 0 0.48827073793524339 -0.097774102912636218 0 0.47838814501791832 -0.1066654575105275 0 0.47652975213937199 -0.091635549067057065 0 0.47148248434309947 -0.114916285604633 0 0.47838814501791832 -0.1066654575105275 0 0.46456669494636288 -0.10350535152343909 0 0.47838814501791832 -0.1066654575105275 0 0.47652975213937199 -0.091635549067057065 0 0.46456669494636288 -0.10350535152343909 0 0.48827073793524339 -0.097774102912636218 0 0.47652975213937199 -0.091635549067057065 0 0.48517560116245317 -0.075735340614307423 0 0.47652975213937199 -0.091635549067057065 0 0.48517560116245317 -0.075735340614307423 0 0.46683976751390588 -0.086617099886465918 0 0.47652975213937199 -0.091635549067057065 0 0.46683976751390588 -0.086617099886465918 0 0.50000000000000266 -0.090942495326551576 0 0.49822883029603021 -0.079095214302948247 0 0.5 -0.065807826202193331 0 0.48827073793524339 -0.097774102912636218 0 0.50000000000000266 -0.090942495326551576 0 0.48517560116245317 -0.075735340614307423 0 0.50000000000000266 -0.090942495326551576 0 0.48517560116245317 -0.075735340614307423 0 0.50000000000000266 -0.090942495326551576 0 0.49822883029603021 -0.079095214302948247 0 0.48517560116245317 -0.075735340614307423 0 0.49273196020270971 -0.051916148640471983 0 0.49822883029603021 -0.079095214302948247 0 0.48384360039889979 -0.062204599920787272 0 0.49822883029603021 -0.079095214302948247 0 0.48517560116245317 -0.075735340614307423 0 0.49273196020270971 -0.051916148640471983 0 0.48384360039889979 -0.062204599920787272 0 0.49822883029603021 -0.079095214302948247 0 0.49273196020270971 -0.051916148640471983 0 0.49822883029603021 -0.079095214302948247 0 0.5 -0.065807826202193331 0 0.47035120232490191 -0.060528185902064997 0 0.48517560116245317 -0.075735340614307423 0 0.47035120232490191 -0.060528185902064997 0 0.48517560116245317 -0.075735340614307423 0 0.46683976751390588 -0.086617099886465918 0 0.48384360039889979 -0.062204599920787272 0 0.47035120232490191 -0.060528185902064997 0 0.48517560116245317 -0.075735340614307423 0 0.47035120232490191 -0.060528185902064997 0 0.46683976751390588 -0.086617099886465918 0 0.47035120232490191 -0.060528185902064997 0 0.44249197108241189 -0.074007360679063244 0 0.46683976751390588 -0.086617099886465918 0 0.47035120232490191 -0.060528185902064997 0 0.43963483674523918 -0.055334607978488382 0 0.44249197108241189 -0.074007360679063244 0 0.44249197108241189 -0.074007360679063244 0 0.46683976751390588 -0.086617099886465918 0 0.4490662803509099 -0.094083529251462475 0 0.44249197108241189 -0.074007360679063244 0 0.4490662803509099 -0.094083529251462475 0 0.42834270349958448 -0.099226311759436261 0 0.44249197108241189 -0.074007360679063244 0 0.46683976751390588 -0.086617099886465918 0 0.46683976751390588 -0.086617099886465918 0 0.46456669494636288 -0.10350535152343909 0 0.4490662803509099 -0.094083529251462475 0 0.46683976751390588 -0.086617099886465918 0 0.46456669494636288 -0.10350535152343909 0 0.46456669494636288 -0.10350535152343909 0 0.4490662803509099 -0.094083529251462475 0 0.44386094964032902 -0.11054798122052439 0 0.4490662803509099 -0.094083529251462475 0 0.44386094964032902 -0.11054798122052439 0 0.42834270349958448 -0.099226311759436261 0 0.44386094964032902 -0.11054798122052439 0 0.46257396642688631 -0.12529077885077469 0 0.45239247298790419 -0.125419693033265 0 0.44386094964032902 -0.11054798122052439 0 0.42916935431308728 -0.1205456085246996 0 0.4435038969132965 -0.12540022695152131 0 0.44386094964032902 -0.11054798122052439 0 0.45239247298790419 -0.125419693033265 0 0.4435038969132965 -0.12540022695152131 0 0.44386094964032902 -0.11054798122052439 0 0.46229362237882032 -0.1203936031604123 0 0.46257396642688631 -0.12529077885077469 0 0.46456669494636288 -0.10350535152343909 0 0.46229362237882032 -0.1203936031604123 0 0.46456669494636288 -0.10350535152343909 0 0.44386094964032902 -0.11054798122052439 0 0.46229362237882032 -0.1203936031604123 0 0.44386094964032902 -0.11054798122052439 0 0.46257396642688631 -0.12529077885077469 0 0.47148248434309947 -0.114916285604633 0 0.46456669494636288 -0.10350535152343909 0 0.46229362237882032 -0.1203936031604123 0 0.47129126618897188 -0.1223351355815797 0 0.46229362237882032 -0.1203936031604123 0 0.46257396642688631 -0.12529077885077469 0 0.47129126618897188 -0.1223351355815797 0 0.47148248434309947 -0.114916285604633 0 0.46229362237882032 -0.1203936031604123 0 0.44386094964032902 -0.11054798122052439 0 0.42916935431308728 -0.1205456085246996 0 0.42834270349958448 -0.099226311759436261 0 0.41143930547928681 -0.11934523636421419 0 0.42916935431308728 -0.1205456085246996 0 0.42834270349958448 -0.099226311759436261 0 0.41143930547928681 -0.11934523636421419 0 0.40555832972599831 -0.095826118330896617 0 0.41143930547928681 -0.11934523636421419 0 0.42834270349958448 -0.099226311759436261 0 0.40555832972599831 -0.095826118330896617 0 0.42834270349958448 -0.099226311759436261 0 0.41884290658632428 -0.080552882507727325 0 0.40555832972599831 -0.095826118330896617 0 0.41884290658632428 -0.080552882507727325 0 0.39967735397270959 -0.072307000297579083 0 0.40555832972599831 -0.095826118330896617 0 0.44249197108241189 -0.074007360679063244 0 0.42834270349958448 -0.099226311759436261 0 0.41884290658632428 -0.080552882507727325 0 0.44249197108241189 -0.074007360679063244 0 0.41814417465091752 -0.061397621471661459 0 0.43963483674523918 -0.055334607978488382 0 0.44249197108241189 -0.074007360679063244 0 0.41814417465091752 -0.061397621471661459 0 0.44249197108241189 -0.074007360679063244 0 0.41884290658632428 -0.080552882507727325 0 0.41814417465091752 -0.061397621471661459 0 0.41884290658632428 -0.080552882507727325 0 0.39967735397270959 -0.072307000297579083 0 0.41814417465091752 -0.061397621471661459 0 0.39967735397270959 -0.072307000297579083 0 0.38669795957132042 -0.057310603286660967 0 0.37240766699872252 -0.068318548019290964 0 0.39967735397270959 -0.072307000297579083 0 0.37781097748786241 -0.089314889372882261 0 0.37240766699872252 -0.068318548019290964 0 0.39967735397270959 -0.072307000297579083 0 0.37781097748786241 -0.089314889372882261 0 0.40555832972599831 -0.095826118330896617 0 0.39967735397270959 -0.072307000297579083 0 0.40555832972599831 -0.095826118330896617 0 0.40555832972599831 -0.095826118330896617 0 0.38953803654933628 -0.10754997095337659 0 0.39823574772599779 -0.11763079726210079 0 0.37781097748786241 -0.089314889372882261 0 0.40555832972599831 -0.095826118330896617 0 0.38953803654933628 -0.10754997095337659 0 0.37781097748786241 -0.089314889372882261 0 0.38953803654933628 -0.10754997095337659 0 0.37644505785585192 -0.1058120404938334 0 0.38953803654933628 -0.10754997095337659 0 0.37644505785585192 -0.1058120404938334 0 0.37720890243704291 -0.12310924361699779 0 0.38953803654933628 -0.10754997095337659 0 0.37720890243704291 -0.12310924361699779 0 0.38918813321375051 -0.12739880168557821 0 0.38953803654933628 -0.10754997095337659 0 0.39823574772599779 -0.11763079726210079 0 0.38918813321375051 -0.12739880168557821 0 0.41143930547928681 -0.11934523636421419 0 0.39823574772599779 -0.11763079726210079 0 0.40257569972698831 -0.13396225485532559 0 0.41143930547928681 -0.11934523636421419 0 0.40555832972599831 -0.095826118330896617 0 0.39823574772599779 -0.11763079726210079 0 0.42011428296152808 -0.02169968792975261 0 0.41401194260749391 -0.028450411104576211 0 0.41343304557213612 -0.018371446868227208 0 0.42011428296152808 -0.02169968792975261 0 0.41343304557213612 -0.018371446868227208 0 0.41928481904255338 -0.01548900553927589 0 0.42011428296152808 -0.02169968792975261 0 0.41928481904255338 -0.01548900553927589 0 0.42542521438275183 -0.0144422395697206 0 0.42011428296152808 -0.02169968792975261 0 0.41401194260749391 -0.028450411104576211 0 0.42742255973229643 -0.030069766767760062 0 0.41401194260749391 -0.028450411104576211 0 0.40522076275047969 -0.019933987949522329 0 0.40044964155059998 -0.029094842751199331 0 0.41401194260749391 -0.028450411104576211 0 0.41343304557213612 -0.018371446868227208 0 0.40522076275047969 -0.019933987949522329 0 0.41343304557213612 -0.018371446868227208 0 0.40806592415966281 -0.01253819616599721 0 0.40522076275047969 -0.019933987949522329 0 0.40806592415966281 -0.01253819616599721 0 0.4135204533098043 -0.0054466611181140526 0 0.41498054603746559 -0.011947546426581419 0 0.41343304557213612 -0.018371446868227208 0 0.40806592415966281 -0.01253819616599721 0 0.41498054603746559 -0.011947546426581419 0 0.41081432206005303 0.0037114498956348132 0 0.4135204533098043 -0.0054466611181140526 0 0.4046584776842293 -0.0050702490882302163 0 0.40806592415966281 -0.01253819616599721 0 0.4135204533098043 -0.0054466611181140526 0 0.4046584776842293 -0.0050702490882302163 0 0.41081432206005303 0.0037114498956348132 0 0.42248564151892998 0.0016345051066286029 0 0.4135204533098043 -0.0054466611181140526 0 0.42248564151892998 0.0016345051066286029 0 0.4135204533098043 -0.0054466611181140526 0 0.42119781252485211 -0.0083000839364812864 0 0.41343304557213612 -0.018371446868227208 0 0.41498054603746559 -0.011947546426581419 0 0.41928481904255338 -0.01548900553927589 0 0.4135204533098043 -0.0054466611181140526 0 0.41498054603746559 -0.011947546426581419 0 0.42119781252485211 -0.0083000839364812864 0 0.41498054603746559 -0.011947546426581419 0 0.42119781252485211 -0.0083000839364812864 0 0.41928481904255338 -0.01548900553927589 0 0.42542521438275183 -0.0144422395697206 0 0.42820760236351979 -0.0076976995852137747 0 0.42907711285764621 -0.01818842757435184 0 0.4382820622288856 -0.0014159552958160841 0 0.42820760236351979 -0.0076976995852137747 0 0.42907711285764621 -0.01818842757435184 0 0.42119781252485211 -0.0083000839364812864 0 0.41928481904255338 -0.01548900553927589 0 0.42542521438275183 -0.0144422395697206 0 0.42248564151892998 0.0016345051066286029 0 0.4382820622288856 -0.0014159552958160841 0 0.42820760236351979 -0.0076976995852137747 0 0.42119781252485211 -0.0083000839364812864 0 0.42542521438275183 -0.0144422395697206 0 0.42820760236351979 -0.0076976995852137747 0 0.42248564151892998 0.0016345051066286029 0 0.42119781252485211 -0.0083000839364812864 0 0.42820760236351979 -0.0076976995852137747 0 0.44971415759127392 -0.039358306738208573 0 0.42907711285764621 -0.01818842757435184 0 0.42742255973229643 -0.030069766767760062 0 0.42011428296152808 -0.02169968792975261 0 0.42907711285764621 -0.01818842757435184 0 0.42742255973229643 -0.030069766767760062 0 0.42011428296152808 -0.02169968792975261 0 0.42542521438275183 -0.0144422395697206 0 0.42907711285764621 -0.01818842757435184 0 0.42011428296152808 -0.02169968792975261 0 0.42907711285764621 -0.01818842757435184 0 0.42542521438275183 -0.0144422395697206 0 0.42907711285764621 -0.01818842757435184 0 0.44971415759127392 -0.039358306738208573 0 0.42742255973229643 -0.030069766767760062 0 0.42419530264354072 -0.042652000491910397 0 0.41401194260749391 -0.028450411104576211 0 0.42742255973229643 -0.030069766767760062 0 0.42419530264354072 -0.042652000491910397 0 0.43963483674523918 -0.055334607978488382 0 0.42419530264354072 -0.042652000491910397 0 0.41814417465091752 -0.061397621471661459 0 0.41814417465091752 -0.061397621471661459 0 0.41107184061272262 -0.047596707948501772 0 0.39379637821942232 -0.04878788226426127 0 0.42419530264354072 -0.042652000491910397 0 0.41814417465091752 -0.061397621471661459 0 0.41107184061272262 -0.047596707948501772 0 0.41401194260749391 -0.028450411104576211 0 0.42419530264354072 -0.042652000491910397 0 0.40815150693701141 -0.037549327566173699 0 0.42419530264354072 -0.042652000491910397 0 0.41107184061272262 -0.047596707948501772 0 0.40815150693701141 -0.037549327566173699 0 0.41401194260749391 -0.028450411104576211 0 0.40815150693701141 -0.037549327566173699 0 0.40044964155059998 -0.029094842751199331 0 0.41107184061272262 -0.047596707948501772 0 0.40815150693701141 -0.037549327566173699 0 0.39379637821942232 -0.04878788226426127 0 0.40815150693701141 -0.037549327566173699 0 0.39379637821942232 -0.04878788226426127 0 0.40044964155059998 -0.029094842751199331 0 0.39379637821942232 -0.04878788226426127 0 0.38867892262788012 -0.028322223649632432 0 0.39379637821942232 -0.04878788226426127 0 0.38867892262788012 -0.028322223649632432 0 0.40044964155059998 -0.029094842751199331 0 0.39967735397270959 -0.072307000297579083 0 0.39379637821942232 -0.04878788226426127 0 0.38669795957132042 -0.057310603286660967 0 0.41814417465091752 -0.061397621471661459 0 0.39379637821942232 -0.04878788226426127 0 0.39967735397270959 -0.072307000297579083 0 0.39379637821942232 -0.04878788226426127 0 0.39967735397270959 -0.072307000297579083 0 0.41814417465091752 -0.061397621471661459 0 0.39379637821942232 -0.04878788226426127 0 0.39379637821942232 -0.04878788226426127 0 0.38896036142985008 -0.046283306103098283 0 0.38669795957132042 -0.057310603286660967 0 0.37839056082150663 -0.050608978831784571 0 0.37240766699872252 -0.068318548019290964 0 0.38669795957132042 -0.057310603286660967 0 0.37839056082150663 -0.050608978831784571 0 0.38896036142985008 -0.046283306103098283 0 0.39379637821942232 -0.04878788226426127 0 0.38669795957132042 -0.057310603286660967 0 0.38896036142985008 -0.046283306103098283 0 0.39379637821942232 -0.04878788226426127 0 0.38896036142985008 -0.046283306103098283 0 0.38867892262788012 -0.028322223649632432 0 0.3834615598562825 -0.037386722635115492 0 0.38896036142985008 -0.046283306103098283 0 0.38867892262788012 -0.028322223649632432 0 0.37839056082150663 -0.050608978831784571 0 0.3834615598562825 -0.037386722635115492 0 0.38896036142985008 -0.046283306103098283 0 0.37839056082150663 -0.050608978831784571 0 0.3834615598562825 -0.037386722635115492 0 0.37356965880113402 -0.040783236975350308 0 0.38867892262788012 -0.028322223649632432 0 0.38356146703633898 -0.0078565650350033434 0 0.3834615598562825 -0.037386722635115492 0 0.37600683512296651 -0.014087071697862221 0 0.37356965880113402 -0.040783236975350308 0 0.3834615598562825 -0.037386722635115492 0 0.38867892262788012 -0.028322223649632432 0 0.37600683512296651 -0.014087071697862221 0 0.38867892262788012 -0.028322223649632432 0 0.37600683512296651 -0.014087071697862221 0 0.38356146703633898 -0.0078565650350033434 0 0.38867892262788012 -0.028322223649632432 0 0.39658225960386179 -0.014459285545308009 0 0.38356146703633898 -0.0078565650350033434 0 0.38867892262788012 -0.028322223649632432 0 0.40044964155059998 -0.029094842751199331 0 0.39658225960386179 -0.014459285545308009 0 0.40522076275047969 -0.019933987949522329 0 0.40044964155059998 -0.029094842751199331 0 0.39658225960386179 -0.014459285545308009 0 0.40806592415966281 -0.01253819616599721 0 0.40522076275047969 -0.019933987949522329 0 0.39658225960386179 -0.014459285545308009 0 0.40060323373222451 0.0042547197705496897 0 0.4046584776842293 -0.0050702490882302163 0 0.39531848553630572 -0.0042569273994520467 0 0.40806592415966281 -0.01253819616599721 0 0.4046584776842293 -0.0050702490882302163 0 0.39658225960386179 -0.014459285545308009 0 0.4046584776842293 -0.0050702490882302163 0 0.39658225960386179 -0.014459285545308009 0 0.39531848553630572 -0.0042569273994520467 0 0.39658225960386179 -0.014459285545308009 0 0.39531848553630572 -0.0042569273994520467 0 0.38356146703633898 -0.0078565650350033434 0 0.39025836247721268 0.0036292771787240202 0 0.39531848553630572 -0.0042569273994520467 0 0.38356146703633898 -0.0078565650350033434 0 0.37844401144479839 0.012609093579625891 0 0.37600683512296651 -0.014087071697862221 0 0.37844401144479839 0.012609093579625891 0 0.37600683512296651 -0.014087071697862221 0 0.38356146703633898 -0.0078565650350033434 0 0.37600683512296651 -0.014087071697862221 0 0.36665723294200347 -0.001883505129568449 0 0.35850646790810559 -0.01395473468271459 0 0.37844401144479839 0.012609093579625891 0 0.37600683512296651 -0.014087071697862221 0 0.36665723294200347 -0.001883505129568449 0 0.36665723294200347 -0.001883505129568449 0 0.35531676971978082 -0.0033532784323768001 0 0.35850646790810559 -0.01395473468271459 0 0.37600683512296651 -0.014087071697862221 0 0.37356965880113402 -0.040783236975350308 0 0.37600683512296651 -0.014087071697862221 0 0.36404947753274258 -0.026706798856440471 0 0.35850646790810559 -0.01395473468271459 0 0.37600683512296651 -0.014087071697862221 0 0.36404947753274258 -0.026706798856440471 0 0.37356965880113402 -0.040783236975350308 0 0.34748556133762742 -0.02738266599094942 0 0.35850646790810559 -0.01395473468271459 0 0.34370628527030811 -0.0115647124322744 0 0.36404947753274258 -0.026706798856440471 0 0.34748556133762742 -0.02738266599094942 0 0.35850646790810559 -0.01395473468271459 0 0.36404947753274258 -0.026706798856440471 0 0.34748556133762742 -0.02738266599094942 0 0.36012817770438982 -0.039413746555128387 0 0.33689267375143878 0.0039255003288513873 0 0.35531676971978082 -0.0033532784323768001 0 0.34370628527030811 -0.0115647124322744 0 0.35531676971978082 -0.0033532784323768001 0 0.35850646790810559 -0.01395473468271459 0 0.34370628527030811 -0.0115647124322744 0 0.33689267375143878 0.0039255003288513873 0 0.34370628527030811 -0.0115647124322744 0 0.32469666258817742 -0.019557632270551 0 0.33689267375143878 0.0039255003288513873 0 0.30352242257352219 0.0039185454548519476 0 0.32469666258817742 -0.019557632270551 0 0.34748556133762742 -0.02738266599094942 0 0.34370628527030811 -0.0115647124322744 0 0.32469666258817742 -0.019557632270551 0 0.34748556133762742 -0.02738266599094942 0 0.32469666258817742 -0.019557632270551 0 0.33457477032001748 -0.043965109755099818 0 0.31326255248553708 -0.043768501277314603 0 0.32924913997341337 -0.063603686862235317 0 0.31014365419524398 -0.06072536978512106 0 0.31326255248553708 -0.043768501277314603 0 0.32924913997341337 -0.063603686862235317 0 0.31326255248553708 -0.043768501277314603 0 0.33457477032001748 -0.043965109755099818 0 0.32924913997341337 -0.063603686862235317 0 0.32469666258817742 -0.019557632270551 0 0.31326255248553708 -0.043768501277314603 0 0.33457477032001748 -0.043965109755099818 0 0.33457477032001748 -0.043965109755099818 0 0.34313363496153881 -0.061193084728204693 0 0.35029003257871461 -0.048624574981710279 0 0.33457477032001748 -0.043965109755099818 0 0.34313363496153881 -0.061193084728204693 0 0.32924913997341337 -0.063603686862235317 0 0.35029003257871461 -0.048624574981710279 0 0.36524615827173029 -0.053571455971191423 0 0.35631850447425872 -0.066333179594821989 0 0.34313363496153881 -0.061193084728204693 0 0.35029003257871461 -0.048624574981710279 0 0.35631850447425872 -0.066333179594821989 0 0.35029003257871461 -0.048624574981710279 0 0.36012817770438982 -0.039413746555128387 0 0.36524615827173029 -0.053571455971191423 0 0.34748556133762742 -0.02738266599094942 0 0.33457477032001748 -0.043965109755099818 0 0.35029003257871461 -0.048624574981710279 0 0.34748556133762742 -0.02738266599094942 0 0.35029003257871461 -0.048624574981710279 0 0.36012817770438982 -0.039413746555128387 0 0.36404947753274258 -0.026706798856440471 0 0.36012817770438982 -0.039413746555128387 0 0.37356965880113402 -0.040783236975350308 0 0.36012817770438982 -0.039413746555128387 0 0.37356965880113402 -0.040783236975350308 0 0.36524615827173029 -0.053571455971191423 0 0.37839056082150663 -0.050608978831784571 0 0.36524615827173029 -0.053571455971191423 0 0.37240766699872252 -0.068318548019290964 0 0.37839056082150663 -0.050608978831784571 0 0.37356965880113402 -0.040783236975350308 0 0.36524615827173029 -0.053571455971191423 0 0.36524615827173029 -0.053571455971191423 0 0.37240766699872252 -0.068318548019290964 0 0.35631850447425872 -0.066333179594821989 0 0.37240766699872252 -0.068318548019290964 0 0.36259903827425999 -0.08213590949324566 0 0.35631850447425872 -0.066333179594821989 0 0.37781097748786241 -0.089314889372882261 0 0.37240766699872252 -0.068318548019290964 0 0.36259903827425999 -0.08213590949324566 0 0.37781097748786241 -0.089314889372882261 0 0.36259903827425999 -0.08213590949324566 0 0.3612223149491664 -0.1032740580320769 0 0.34523572746128989 -0.083438872447156087 0 0.3612223149491664 -0.1032740580320769 0 0.36259903827425999 -0.08213590949324566 0 0.34523572746128989 -0.083438872447156087 0 0.3612223149491664 -0.1032740580320769 0 0.34313363496153881 -0.061193084728204693 0 0.34523572746128989 -0.083438872447156087 0 0.35631850447425872 -0.066333179594821989 0 0.36259903827425999 -0.08213590949324566 0 0.34523572746128989 -0.083438872447156087 0 0.35631850447425872 -0.066333179594821989 0 0.37720890243704291 -0.12310924361699779 0 0.36253108037134668 -0.1248744885805331 0 0.3612223149491664 -0.1032740580320769 0 0.37644505785585192 -0.1058120404938334 0 0.37720890243704291 -0.12310924361699779 0 0.3612223149491664 -0.1032740580320769 0 0.37720890243704291 -0.12310924361699779 0 0.3612223149491664 -0.1032740580320769 0 0.37781097748786241 -0.089314889372882261 0 0.37644505785585192 -0.1058120404938334 0 0.3612223149491664 -0.1032740580320769 0 0.34523572746128989 -0.083438872447156087 0 0.3612223149491664 -0.1032740580320769 0 0.33932087337301742 -0.1007066993955318 0 0.3612223149491664 -0.1032740580320769 0 0.34941185211170689 -0.1127717253903176 0 0.33932087337301742 -0.1007066993955318 0 0.36253108037134668 -0.1248744885805331 0 0.33587402752894302 -0.122350175475488 0 0.36253108037134668 -0.1248744885805331 0 0.34941185211170689 -0.1127717253903176 0 0.33587402752894302 -0.122350175475488 0 0.36253108037134668 -0.1248744885805331 0 0.3612223149491664 -0.1032740580320769 0 0.34941185211170689 -0.1127717253903176 0 0.34941185211170689 -0.1127717253903176 0 0.33587402752894302 -0.122350175475488 0 0.33932087337301742 -0.1007066993955318 0 0.33587402752894302 -0.122350175475488 0 0.33932087337301742 -0.1007066993955318 0 0.31943204723016899 -0.10139701157958859 0 0.33932087337301742 -0.1007066993955318 0 0.31943204723016899 -0.10139701157958859 0 0.32474927095682959 -0.081008353448563344 0 0.33587402752894302 -0.122350175475488 0 0.31943204723016899 -0.10139701157958859 0 0.3092169746865393 -0.1198258623704429 0 0.33587402752894302 -0.122350175475488 0 0.3092169746865393 -0.1198258623704429 0 0.34523572746128989 -0.083438872447156087 0 0.32924913997341337 -0.063603686862235317 0 0.32474927095682959 -0.081008353448563344 0 0.34523572746128989 -0.083438872447156087 0 0.32924913997341337 -0.063603686862235317 0 0.34313363496153881 -0.061193084728204693 0 0.34523572746128989 -0.083438872447156087 0 0.32924913997341337 -0.063603686862235317 0 0.34523572746128989 -0.083438872447156087 0 0.33932087337301742 -0.1007066993955318 0 0.32474927095682959 -0.081008353448563344 0 0.31943204723016899 -0.10139701157958859 0 0.32474927095682959 -0.081008353448563344 0 0.31117343018006932 -0.08835554327446378 0 0.32474927095682959 -0.081008353448563344 0 0.30201438303726968 -0.075929904193525521 0 0.32474927095682959 -0.081008353448563344 0 0.30201438303726968 -0.075929904193525521 0 0.31117343018006932 -0.08835554327446378 0 0.32924913997341337 -0.063603686862235317 0 0.32474927095682959 -0.081008353448563344 0 0.31014365419524398 -0.06072536978512106 0 0.32474927095682959 -0.081008353448563344 0 0.30201438303726968 -0.075929904193525521 0 0.31014365419524398 -0.06072536978512106 0 0.30201438303726968 -0.075929904193525521 0 0.31014365419524398 -0.06072536978512106 0 0.29222542489931519 -0.060978945333093171 0 0.31117343018006932 -0.08835554327446378 0 0.29442961060618023 -0.089764156713605506 0 0.30306705175182019 -0.101009202806625 0 0.30201438303726968 -0.075929904193525521 0 0.31117343018006932 -0.08835554327446378 0 0.29442961060618023 -0.089764156713605506 0 0.29442961060618023 -0.089764156713605506 0 0.28691460331806928 -0.079185378374353493 0 0.27734124638624891 -0.089737863242296378 0 0.30201438303726968 -0.075929904193525521 0 0.29442961060618023 -0.089764156713605506 0 0.28691460331806928 -0.079185378374353493 0 0.30201438303726968 -0.075929904193525521 0 0.27927949511770961 -0.070851454938488739 0 0.29222542489931519 -0.060978945333093171 0 0.30201438303726968 -0.075929904193525521 0 0.27927949511770961 -0.070851454938488739 0 0.30201438303726968 -0.075929904193525521 0 0.28691460331806928 -0.079185378374353493 0 0.27927949511770961 -0.070851454938488739 0 0.28691460331806928 -0.079185378374353493 0 0.27927949511770961 -0.070851454938488739 0 0.27809334201771629 -0.079209584513290715 0 0.28691460331806928 -0.079185378374353493 0 0.27927949511770961 -0.070851454938488739 0 0.27927949511770961 -0.070851454938488739 0 0.27868582307562201 -0.055886184139343542 0 0.29222542489931519 -0.060978945333093171 0 0.31943204723016899 -0.10139701157958859 0 0.3092169746865393 -0.1198258623704429 0 0.30306705175182019 -0.101009202806625 0 0.3092169746865393 -0.1198258623704429 0 0.30306705175182019 -0.101009202806625 0 0.28879183359809052 -0.10393054527906551 0 0.31943204723016899 -0.10139701157958859 0 0.31117343018006932 -0.08835554327446378 0 0.30306705175182019 -0.101009202806625 0 0.28879183359809052 -0.10393054527906551 0 0.28255992184413548 -0.11730154926539781 0 0.27267591943638608 -0.1048970298088977 0 0.29442961060618023 -0.089764156713605506 0 0.28879183359809052 -0.10393054527906551 0 0.27734124638624891 -0.089737863242296378 0 0.29442961060618023 -0.089764156713605506 0 0.30306705175182019 -0.101009202806625 0 0.28879183359809052 -0.10393054527906551 0 0.3092169746865393 -0.1198258623704429 0 0.28255992184413548 -0.11730154926539781 0 0.3092169746865393 -0.1198258623704429 0 0.28879183359809052 -0.10393054527906551 0 0.28255992184413548 -0.11730154926539781 0 0.3092169746865393 -0.1198258623704429 0 0.28255992184413548 -0.11730154926539781 0 0.28721398294742878 -0.13035474923543569 0 0.28255992184413548 -0.11730154926539781 0 0.26776517015272971 -0.1222840496799191 0 0.28721398294742878 -0.13035474923543569 0 0.28255992184413548 -0.11730154926539781 0 0.26776517015272971 -0.1222840496799191 0 0.27267591943638608 -0.1048970298088977 0 0.26776517015272971 -0.1222840496799191 0 0.27267591943638608 -0.1048970298088977 0 0.26047800574605201 -0.11084537767631369 0 0.28879183359809052 -0.10393054527906551 0 0.27267591943638608 -0.1048970298088977 0 0.27734124638624891 -0.089737863242296378 0 0.27267591943638608 -0.1048970298088977 0 0.27734124638624891 -0.089737863242296378 0 0.26256105175446781 -0.092679464148907056 0 0.25771864553297669 -0.099620140202181948 0 0.26047800574605201 -0.11084537767631369 0 0.24375228786211539 -0.116580291014256 0 0.27267591943638608 -0.1048970298088977 0 0.25771864553297669 -0.099620140202181948 0 0.26256105175446781 -0.092679464148907056 0 0.25771864553297669 -0.099620140202181948 0 0.25304747237378489 -0.090741332181114118 0 0.24292322406264641 -0.096552741650977186 0 0.25771864553297669 -0.099620140202181948 0 0.26256105175446781 -0.092679464148907056 0 0.25304747237378489 -0.090741332181114118 0 0.27267591943638608 -0.1048970298088977 0 0.25771864553297669 -0.099620140202181948 0 0.26047800574605201 -0.11084537767631369 0 0.26776517015272971 -0.1222840496799191 0 0.26153006621115998 -0.13421007507225571 0 0.24375228786211539 -0.116580291014256 0 0.26776517015272971 -0.1222840496799191 0 0.24375228786211539 -0.116580291014256 0 0.26776517015272971 -0.1222840496799191 0 0.26047800574605201 -0.11084537767631369 0 0.24375228786211539 -0.116580291014256 0 0.27927949511770961 -0.070851454938488739 0 0.25811154610651499 -0.066123023671663908 0 0.26329678137076351 -0.053405898285071182 0 0.27927949511770961 -0.070851454938488739 0 0.25811154610651499 -0.066123023671663908 0 0.26883802324883782 -0.077063641498024305 0 0.27927949511770961 -0.070851454938488739 0 0.25811154610651499 -0.066123023671663908 0 0.26883802324883782 -0.077063641498024305 0 0.27927949511770961 -0.070851454938488739 0 0.27809334201771629 -0.079209584513290715 0 0.26883802324883782 -0.077063641498024305 0 0.27809334201771629 -0.079209584513290715 0 0.27734124638624891 -0.089737863242296378 0 0.26883802324883782 -0.077063641498024305 0 0.27734124638624891 -0.089737863242296378 0 0.25202197504294188 -0.078400955310045109 0 0.28691460331806928 -0.079185378374353493 0 0.27809334201771629 -0.079209584513290715 0 0.27734124638624891 -0.089737863242296378 0 0.27734124638624891 -0.089737863242296378 0 0.26256105175446781 -0.092679464148907056 0 0.25202197504294188 -0.078400955310045109 0 0.27734124638624891 -0.089737863242296378 0 0.25202197504294188 -0.078400955310045109 0 0.26256105175446781 -0.092679464148907056 0 0.25304747237378489 -0.090741332181114118 0 0.25202197504294188 -0.078400955310045109 0 0.25304747237378489 -0.090741332181114118 0 0.25202197504294188 -0.078400955310045109 0 0.24624903761231479 -0.086847438891893419 0 0.26883802324883782 -0.077063641498024305 0 0.25202197504294188 -0.078400955310045109 0 0.25811154610651499 -0.066123023671663908 0 0.25811154610651499 -0.066123023671663908 0 0.26329678137076351 -0.053405898285071182 0 0.24870160087168189 -0.052882304334001928 0 0.26329678137076351 -0.053405898285071182 0 0.24870160087168189 -0.052882304334001928 0 0.24731406762381819 -0.035960341631652723 0 0.27927949511770961 -0.070851454938488739 0 0.26329678137076351 -0.053405898285071182 0 0.27868582307562201 -0.055886184139343542 0 0.27927949511770961 -0.070851454938488739 0 0.26329678137076351 -0.053405898285071182 0 0.26329678137076351 -0.053405898285071182 0 0.27868582307562201 -0.055886184139343542 0 0.27337213238318842 -0.044040078526876879 0 0.27868582307562201 -0.055886184139343542 0 0.27337213238318842 -0.044040078526876879 0 0.28525528160713332 -0.050154543613187753 0 0.26329678137076351 -0.053405898285071182 0 0.27337213238318842 -0.044040078526876879 0 0.26311483972878968 -0.036713614733010089 0 0.27337213238318842 -0.044040078526876879 0 0.27217486102646721 -0.027861542379398439 0 0.28494473946257981 -0.034556038004921102 0 0.27337213238318842 -0.044040078526876879 0 0.26311483972878968 -0.036713614733010089 0 0.27217486102646721 -0.027861542379398439 0 0.27337213238318842 -0.044040078526876879 0 0.28525528160713332 -0.050154543613187753 0 0.28494473946257981 -0.034556038004921102 0 0.26311483972878968 -0.036713614733010089 0 0.25941635623971138 -0.02230021284205122 0 0.24731406762381819 -0.035960341631652723 0 0.26329678137076351 -0.053405898285071182 0 0.24731406762381819 -0.035960341631652723 0 0.26329678137076351 -0.053405898285071182 0 0.26311483972878968 -0.036713614733010089 0 0.24731406762381819 -0.035960341631652723 0 0.25941635623971138 -0.02230021284205122 0 0.24731406762381819 -0.035960341631652723 0 0.2482857443068576 -0.021714794414400052 0 0.25941635623971138 -0.02230021284205122 0 0.25508119948702751 -0.010083838205662381 0 0.2482857443068576 -0.021714794414400052 0 0.26311483972878968 -0.036713614733010089 0 0.25941635623971138 -0.02230021284205122 0 0.27217486102646721 -0.027861542379398439 0 0.2541426920980116 -0.0036136263454906951 0 0.25508119948702751 -0.010083838205662381 0 0.24138147174972829 -0.0061427828714447699 0 0.2541426920980116 -0.0036136263454906951 0 0.25508119948702751 -0.010083838205662381 0 0.26047117107291767 -0.0019720443344692288 0 0.25446675038947358 0.0029162606258486688 0 0.2541426920980116 -0.0036136263454906951 0 0.26047117107291767 -0.0019720443344692288 0 0.25941635623971138 -0.02230021284205122 0 0.25508119948702751 -0.010083838205662381 0 0.26474460583379889 -0.01023883548432745 0 0.25941635623971138 -0.02230021284205122 0 0.26474460583379889 -0.01023883548432745 0 0.27166734417845928 -0.01430021117376327 0 0.25508119948702751 -0.010083838205662381 0 0.26474460583379889 -0.01023883548432745 0 0.26047117107291767 -0.0019720443344692288 0 0.26474460583379889 -0.01023883548432745 0 0.26047117107291767 -0.0019720443344692288 0 0.27708695819087842 -0.0025378708656911609 0 0.26474460583379889 -0.01023883548432745 0 0.27166734417845928 -0.01430021117376327 0 0.27708695819087842 -0.0025378708656911609 0 0.27166734417845928 -0.01430021117376327 0 0.27708695819087842 -0.0025378708656911609 0 0.28469269166600031 -0.01545933141113482 0 0.27217486102646721 -0.027861542379398439 0 0.28469269166600031 -0.01545933141113482 0 0.28494473946257981 -0.034556038004921102 0 0.25941635623971138 -0.02230021284205122 0 0.27166734417845928 -0.01430021117376327 0 0.27217486102646721 -0.027861542379398439 0 0.27166734417845928 -0.01430021117376327 0 0.27217486102646721 -0.027861542379398439 0 0.28469269166600031 -0.01545933141113482 0 0.28469269166600031 -0.01545933141113482 0 0.29727596499766062 -0.023933315692393788 0 0.28494473946257981 -0.034556038004921102 0 0.30352242257352219 0.0039185454548519476 0 0.28469269166600031 -0.01545933141113482 0 0.29727596499766062 -0.023933315692393788 0 0.30352242257352219 0.0039185454548519476 0 0.27708695819087842 -0.0025378708656911609 0 0.28469269166600031 -0.01545933141113482 0 0.30352242257352219 0.0039185454548519476 0 0.32469666258817742 -0.019557632270551 0 0.29727596499766062 -0.023933315692393788 0 0.32469666258817742 -0.019557632270551 0 0.31326255248553708 -0.043768501277314603 0 0.29727596499766062 -0.023933315692393788 0 0.31326255248553708 -0.043768501277314603 0 0.29727596499766062 -0.023933315692393788 0 0.2968975050950291 -0.045887416406534938 0 0.31326255248553708 -0.043768501277314603 0 0.29727596499766062 -0.023933315692393788 0 0.31326255248553708 -0.043768501277314603 0 0.2968975050950291 -0.045887416406534938 0 0.31014365419524398 -0.06072536978512106 0 0.2968975050950291 -0.045887416406534938 0 0.31014365419524398 -0.06072536978512106 0 0.29222542489931519 -0.060978945333093171 0 0.2968975050950291 -0.045887416406534938 0 0.29222542489931519 -0.060978945333093171 0 0.28525528160713332 -0.050154543613187753 0 0.27868582307562201 -0.055886184139343542 0 0.29222542489931519 -0.060978945333093171 0 0.28525528160713332 -0.050154543613187753 0 0.2968975050950291 -0.045887416406534938 0 0.28525528160713332 -0.050154543613187753 0 0.28494473946257981 -0.034556038004921102 0 0.29727596499766062 -0.023933315692393788 0 0.2968975050950291 -0.045887416406534938 0 0.28494473946257981 -0.034556038004921102 0 0.29579617193404978 -0.19432558104056491 0 0.30588539897632072 -0.22256652654210629 0 0.2776594049058328 -0.2175861504380624 0 0.29579617193404978 -0.19432558104056491 0 0.2776594049058328 -0.2175861504380624 0 0.2764107852420567 -0.19644220614923899 0 0.29579617193404978 -0.19432558104056491 0 0.2764107852420567 -0.19644220614923899 0 0.2792899687438003 -0.18116405860585089 0 0.29579617193404978 -0.19432558104056491 0 0.31045946319455608 -0.20263901644370941 0 0.31057073564158039 -0.17760626025882659 0 0.29579617193404978 -0.19432558104056491 0 0.30588539897632072 -0.22256652654210629 0 0.31045946319455608 -0.20263901644370941 0 0.30588539897632072 -0.22256652654210629 0 0.32020032842118662 -0.2136972324735969 0 0.29579617193404978 -0.19432558104056491 0 0.31045946319455608 -0.20263901644370941 0 0.30588539897632072 -0.22256652654210629 0 0.29681701546221179 -0.23419681124085551 0 0.31597462601859122 -0.25080747204364812 0 0.30111904597271899 -0.2536098058489899 0 0.30588539897632072 -0.22256652654210629 0 0.29681701546221179 -0.23419681124085551 0 0.31597462601859122 -0.25080747204364812 0 0.30588539897632072 -0.22256652654210629 0 0.31597462601859122 -0.25080747204364812 0 0.29681701546221179 -0.23419681124085551 0 0.31597462601859122 -0.25080747204364812 0 0.29681701546221179 -0.23419681124085551 0 0.30111904597271899 -0.2536098058489899 0 0.28456511698073272 -0.25518130134833977 0 0.29681701546221179 -0.23419681124085551 0 0.27830026498091959 -0.23745462562099759 0 0.28456511698073272 -0.25518130134833977 0 0.30588539897632072 -0.22256652654210629 0 0.29681701546221179 -0.23419681124085551 0 0.2776594049058328 -0.2175861504380624 0 0.29681701546221179 -0.23419681124085551 0 0.27830026498091959 -0.23745462562099759 0 0.2776594049058328 -0.2175861504380624 0 0.29681701546221179 -0.23419681124085551 0 0.2776594049058328 -0.2175861504380624 0 0.26584409390649738 -0.23415831621220631 0 0.27830026498091959 -0.23745462562099759 0 0.2776594049058328 -0.2175861504380624 0 0.26584409390649738 -0.23415831621220631 0 0.25658827463044448 -0.2222138965281123 0 0.2776594049058328 -0.2175861504380624 0 0.27830026498091959 -0.23745462562099759 0 0.28456511698073272 -0.25518130134833977 0 0.26629969424128969 -0.25192769388052821 0 0.26584409390649738 -0.23415831621220631 0 0.27830026498091959 -0.23745462562099759 0 0.26629969424128969 -0.25192769388052821 0 0.26584409390649738 -0.23415831621220631 0 0.25037283077400019 -0.2416092145933311 0 0.26629969424128969 -0.25192769388052821 0 0.25037283077400019 -0.2416092145933311 0 0.25658827463044448 -0.2222138965281123 0 0.2446094219978813 -0.2276121794933563 0 0.26584409390649738 -0.23415831621220631 0 0.25037283077400019 -0.2416092145933311 0 0.25658827463044448 -0.2222138965281123 0 0.25658827463044448 -0.2222138965281123 0 0.2776594049058328 -0.2175861504380624 0 0.25850179434945381 -0.20097548963526929 0 0.25658827463044448 -0.2222138965281123 0 0.25850179434945381 -0.20097548963526929 0 0.23907695871134879 -0.21289681242661959 0 0.2776594049058328 -0.2175861504380624 0 0.25850179434945381 -0.20097548963526929 0 0.2776594049058328 -0.2175861504380624 0 0.2764107852420567 -0.19644220614923899 0 0.25850179434945381 -0.20097548963526929 0 0.2764107852420567 -0.19644220614923899 0 0.25850179434945381 -0.20097548963526929 0 0.26539786460737957 -0.18100391429238191 0 0.25850179434945381 -0.20097548963526929 0 0.26539786460737957 -0.18100391429238191 0 0.23934418379307471 -0.18436482883247621 0 0.26539786460737957 -0.18100391429238191 0 0.25449645062408999 -0.16331052089379791 0 0.23934418379307471 -0.18436482883247621 0 0.26539786460737957 -0.18100391429238191 0 0.25449645062408999 -0.16331052089379791 0 0.27043371620885309 -0.16438603764101259 0 0.25449645062408999 -0.16331052089379791 0 0.27043371620885309 -0.16438603764101259 0 0.2633734196266177 -0.15149826902969399 0 0.27043371620885309 -0.16438603764101259 0 0.2792899687438003 -0.18116405860585089 0 0.28570694489177878 -0.1660846355390232 0 0.27043371620885309 -0.16438603764101259 0 0.27930784456020519 -0.15183985913025491 0 0.28570694489177878 -0.1660846355390232 0 0.26539786460737957 -0.18100391429238191 0 0.27043371620885309 -0.16438603764101259 0 0.2792899687438003 -0.18116405860585089 0 0.2764107852420567 -0.19644220614923899 0 0.26539786460737957 -0.18100391429238191 0 0.2792899687438003 -0.18116405860585089 0 0.26153006621115998 -0.13421007507225571 0 0.24375228786211539 -0.116580291014256 0 0.24955680073527009 -0.143898101237383 0 0.26153006621115998 -0.13421007507225571 0 0.24375228786211539 -0.116580291014256 0 0.25449645062408999 -0.16331052089379791 0 0.2633734196266177 -0.15149826902969399 0 0.24955680073527009 -0.143898101237383 0 0.26153006621115998 -0.13421007507225571 0 0.2633734196266177 -0.15149826902969399 0 0.24955680073527009 -0.143898101237383 0 0.27043371620885309 -0.16438603764101259 0 0.2633734196266177 -0.15149826902969399 0 0.27930784456020519 -0.15183985913025491 0 0.27561771784950778 -0.13784369003748159 0 0.28570694489177878 -0.1660846355390232 0 0.26153006621115998 -0.13421007507225571 0 0.27930784456020519 -0.15183985913025491 0 0.27561771784950778 -0.13784369003748159 0 0.27930784456020519 -0.15183985913025491 0 0.27561771784950778 -0.13784369003748159 0 0.28570694489177878 -0.1660846355390232 0 0.26153006621115998 -0.13421007507225571 0 0.2633734196266177 -0.15149826902969399 0 0.27930784456020519 -0.15183985913025491 0 0.26153006621115998 -0.13421007507225571 0 0.27930784456020519 -0.15183985913025491 0 0.26776517015272971 -0.1222840496799191 0 0.27561771784950778 -0.13784369003748159 0 0.28721398294742878 -0.13035474923543569 0 0.26776517015272971 -0.1222840496799191 0 0.26153006621115998 -0.13421007507225571 0 0.27561771784950778 -0.13784369003748159 0 0.27561771784950778 -0.13784369003748159 0 0.28721398294742878 -0.13035474923543569 0 0.28891568690104508 -0.14625428249578579 0 0.28721398294742878 -0.13035474923543569 0 0.28891568690104508 -0.14625428249578579 0 0.29920842625061578 -0.1386190615635868 0 0.28891568690104508 -0.14625428249578579 0 0.29920842625061578 -0.1386190615635868 0 0.29789574789403661 -0.15876522012859751 0 0.27561771784950778 -0.13784369003748159 0 0.28891568690104508 -0.14625428249578579 0 0.28570694489177878 -0.1660846355390232 0 0.30985117626407932 -0.1486491484402036 0 0.29920842625061578 -0.1386190615635868 0 0.29789574789403661 -0.15876522012859751 0 0.30985117626407932 -0.1486491484402036 0 0.29789574789403661 -0.15876522012859751 0 0.3134799250960158 -0.16133035304856411 0 0.30985117626407932 -0.1486491484402036 0 0.29920842625061578 -0.1386190615635868 0 0.31980994510895661 -0.13408045692276491 0 0.3092169746865393 -0.1198258623704429 0 0.28721398294742878 -0.13035474923543569 0 0.29920842625061578 -0.1386190615635868 0 0.3092169746865393 -0.1198258623704429 0 0.29920842625061578 -0.1386190615635868 0 0.31980994510895661 -0.13408045692276491 0 0.29579617193404978 -0.19432558104056491 0 0.2792899687438003 -0.18116405860585089 0 0.28570694489177878 -0.1660846355390232 0 0.29579617193404978 -0.19432558104056491 0 0.28570694489177878 -0.1660846355390232 0 0.29579617193404978 -0.19432558104056491 0 0.28570694489177878 -0.1660846355390232 0 0.29784246694311001 -0.17248502473641619 0 0.28891568690104508 -0.14625428249578579 0 0.28570694489177878 -0.1660846355390232 0 0.29789574789403661 -0.15876522012859751 0 0.28570694489177878 -0.1660846355390232 0 0.29789574789403661 -0.15876522012859751 0 0.29784246694311001 -0.17248502473641619 0 0.29789574789403661 -0.15876522012859751 0 0.31057073564158039 -0.17760626025882659 0 0.3134799250960158 -0.16133035304856411 0 0.29789574789403661 -0.15876522012859751 0 0.31057073564158039 -0.17760626025882659 0 0.29784246694311001 -0.17248502473641619 0 0.29789574789403661 -0.15876522012859751 0 0.31057073564158039 -0.17760626025882659 0 0.29579617193404978 -0.19432558104056491 0 0.31057073564158039 -0.17760626025882659 0 0.29784246694311001 -0.17248502473641619 0 0.31057073564158039 -0.17760626025882659 0 0.33117051957001492 -0.16690810347740409 0 0.33960500058918919 -0.18923554211963439 0 0.31057073564158039 -0.17760626025882659 0 0.32324572338912438 -0.19644730038905581 0 0.3134799250960158 -0.16133035304856411 0 0.33117051957001492 -0.16690810347740409 0 0.32297156368297691 -0.15191279281852399 0 0.31057073564158039 -0.17760626025882659 0 0.3134799250960158 -0.16133035304856411 0 0.33117051957001492 -0.16690810347740409 0 0.33117051957001492 -0.16690810347740409 0 0.34312821131240068 -0.1490342399984359 0 0.35150112372442083 -0.17432517416681301 0 0.33117051957001492 -0.16690810347740409 0 0.35150112372442083 -0.17432517416681301 0 0.33960500058918919 -0.18923554211963439 0 0.33587402752894302 -0.122350175475488 0 0.3092169746865393 -0.1198258623704429 0 0.31980994510895661 -0.13408045692276491 0 0.30985117626407932 -0.1486491484402036 0 0.31980994510895661 -0.13408045692276491 0 0.32297156368297691 -0.15191279281852399 0 0.30985117626407932 -0.1486491484402036 0 0.3134799250960158 -0.16133035304856411 0 0.32297156368297691 -0.15191279281852399 0 0.33117051957001492 -0.16690810347740409 0 0.32297156368297691 -0.15191279281852399 0 0.34312821131240068 -0.1490342399984359 0 0.31980994510895661 -0.13408045692276491 0 0.32297156368297691 -0.15191279281852399 0 0.34312821131240068 -0.1490342399984359 0 0.33587402752894302 -0.122350175475488 0 0.31980994510895661 -0.13408045692276491 0 0.34312821131240068 -0.1490342399984359 0 0.36253108037134668 -0.1248744885805331 0 0.33587402752894302 -0.122350175475488 0 0.3555623608711499 -0.1359942506039106 0 0.33587402752894302 -0.122350175475488 0 0.34312821131240068 -0.1490342399984359 0 0.3555623608711499 -0.1359942506039106 0 0.34312821131240068 -0.1490342399984359 0 0.3555623608711499 -0.1359942506039106 0 0.36858459771950869 -0.15733985743645959 0 0.3555623608711499 -0.1359942506039106 0 0.36652086356581781 -0.12946943863695781 0 0.36858459771950869 -0.15733985743645959 0 0.36652086356581781 -0.12946943863695781 0 0.36858459771950869 -0.15733985743645959 0 0.36652086356581781 -0.12946943863695781 0 0.36858459771950869 -0.15733985743645959 0 0.3787995421462832 -0.1425544525875144 0 0.36652086356581781 -0.12946943863695781 0 0.37808333446084269 -0.1309391893982525 0 0.3787995421462832 -0.1425544525875144 0 0.36253108037134668 -0.1248744885805331 0 0.36652086356581781 -0.12946943863695781 0 0.37808333446084269 -0.1309391893982525 0 0.36253108037134668 -0.1248744885805331 0 0.3555623608711499 -0.1359942506039106 0 0.36652086356581781 -0.12946943863695781 0 0.35150112372442083 -0.17432517416681301 0 0.37064833187319962 -0.1852102762359614 0 0.35587008128221181 -0.19822302573298239 0 0.35150112372442083 -0.17432517416681301 0 0.35587008128221181 -0.19822302573298239 0 0.33960500058918919 -0.18923554211963439 0 0.34312821131240068 -0.1490342399984359 0 0.35150112372442083 -0.17432517416681301 0 0.36858459771950869 -0.15733985743645959 0 0.36858459771950869 -0.15733985743645959 0 0.37064833187319962 -0.1852102762359614 0 0.35150112372442083 -0.17432517416681301 0 0.36858459771950869 -0.15733985743645959 0 0.37064833187319962 -0.1852102762359614 0 0.36858459771950869 -0.15733985743645959 0 0.37064833187319962 -0.1852102762359614 0 0.3834788620725188 -0.17954848884060079 0 0.37064833187319962 -0.1852102762359614 0 0.37271206602689039 -0.21308069503546309 0 0.38139900114097952 -0.20469292352659629 0 0.37064833187319962 -0.1852102762359614 0 0.37271206602689039 -0.21308069503546309 0 0.37064833187319962 -0.1852102762359614 0 0.37271206602689039 -0.21308069503546309 0 0.35587008128221181 -0.19822302573298239 0 0.37271206602689039 -0.21308069503546309 0 0.35603419272415182 -0.2169366224123114 0 0.35587008128221181 -0.19822302573298239 0 0.35603419272415182 -0.2169366224123114 0 0.35587008128221181 -0.19822302573298239 0 0.33592071113666833 -0.21528834051928489 0 0.35587008128221181 -0.19822302573298239 0 0.33960500058918919 -0.18923554211963439 0 0.33592071113666833 -0.21528834051928489 0 0.33960500058918919 -0.18923554211963439 0 0.33592071113666833 -0.21528834051928489 0 0.32324572338912438 -0.19644730038905581 0 0.33592071113666833 -0.21528834051928489 0 0.32324572338912438 -0.19644730038905581 0 0.33592071113666833 -0.21528834051928489 0 0.32020032842118662 -0.2136972324735969 0 0.32324572338912438 -0.19644730038905581 0 0.31045946319455608 -0.20263901644370941 0 0.32020032842118662 -0.2136972324735969 0 0.32324572338912438 -0.19644730038905581 0 0.31057073564158039 -0.17760626025882659 0 0.33960500058918919 -0.18923554211963439 0 0.32324572338912438 -0.19644730038905581 0 0.31045946319455608 -0.20263901644370941 0 0.31057073564158039 -0.17760626025882659 0 0.32324572338912438 -0.19644730038905581 0 0.32549034540926353 -0.23154497847382799 0 0.33517615116993849 -0.24743488902137309 0 0.31597462601859122 -0.25080747204364812 0 0.30588539897632072 -0.22256652654210629 0 0.32549034540926353 -0.23154497847382799 0 0.31597462601859122 -0.25080747204364812 0 0.30588539897632072 -0.22256652654210629 0 0.32020032842118662 -0.2136972324735969 0 0.32549034540926353 -0.23154497847382799 0 0.33592071113666833 -0.21528834051928489 0 0.32020032842118662 -0.2136972324735969 0 0.32549034540926353 -0.23154497847382799 0 0.33592071113666833 -0.21528834051928489 0 0.32549034540926353 -0.23154497847382799 0 0.34859569888421221 -0.23412938064951411 0 0.33592071113666833 -0.21528834051928489 0 0.34859569888421221 -0.23412938064951411 0 0.32549034540926353 -0.23154497847382799 0 0.33517615116993849 -0.24743488902137309 0 0.34859569888421221 -0.23412938064951411 0 0.33517615116993849 -0.24743488902137309 0 0.34859569888421221 -0.23412938064951411 0 0.35185333732921159 -0.25428502110151557 0 0.34859569888421221 -0.23412938064951411 0 0.36075586336603621 -0.2426037127049111 0 0.35185333732921159 -0.25428502110151557 0 0.34859569888421221 -0.23412938064951411 0 0.36291464790978972 -0.22902601310760301 0 0.36075586336603621 -0.2426037127049111 0 0.35603419272415182 -0.2169366224123114 0 0.34859569888421221 -0.23412938064951411 0 0.36291464790978972 -0.22902601310760301 0 0.35603419272415182 -0.2169366224123114 0 0.33592071113666833 -0.21528834051928489 0 0.34859569888421221 -0.23412938064951411 0 0.37271206602689039 -0.21308069503546309 0 0.35603419272415182 -0.2169366224123114 0 0.36291464790978972 -0.22902601310760301 0 0.37271206602689039 -0.21308069503546309 0 0.37477580018058132 -0.24095111383496479 0 0.37555308153547928 -0.22286467051027881 0 0.37271206602689039 -0.21308069503546309 0 0.37477580018058132 -0.24095111383496479 0 0.37271206602689039 -0.21308069503546309 0 0.36291464790978972 -0.22902601310760301 0 0.37477580018058132 -0.24095111383496479 0 0.36075586336603621 -0.2426037127049111 0 0.37477580018058132 -0.24095111383496479 0 0.36563983252638571 -0.25462703483095822 0 0.36291464790978972 -0.22902601310760301 0 0.36075586336603621 -0.2426037127049111 0 0.37477580018058132 -0.24095111383496479 0 0.37477580018058132 -0.24095111383496479 0 0.39321551516580561 -0.23618023300957031 0 0.38725375881062551 -0.25185160038302579 0 0.39321551516580561 -0.23618023300957031 0 0.41087794879613182 -0.2494957955088617 0 0.40741230325918792 -0.23450562481703699 0 0.39321551516580561 -0.23618023300957031 0 0.41087794879613182 -0.2494957955088617 0 0.39321551516580561 -0.23618023300957031 0 0.38725375881062551 -0.25185160038302579 0 0.39640803358832022 -0.25154779433757402 0 0.39321551516580561 -0.23618023300957031 0 0.41087794879613182 -0.2494957955088617 0 0.39640803358832022 -0.25154779433757402 0 0.4055308246994358 -0.22407667781788709 0 0.39424069285124719 -0.22310079746779379 0 0.40434357831770951 -0.21487406561090469 0 0.4055308246994358 -0.22407667781788709 0 0.39424069285124719 -0.22310079746779379 0 0.40741230325918792 -0.23450562481703699 0 0.39321551516580561 -0.23618023300957031 0 0.39424069285124719 -0.22310079746779379 0 0.40741230325918792 -0.23450562481703699 0 0.37477580018058132 -0.24095111383496479 0 0.39321551516580561 -0.23618023300957031 0 0.37555308153547928 -0.22286467051027881 0 0.39424069285124719 -0.22310079746779379 0 0.37555308153547928 -0.22286467051027881 0 0.38300691860546521 -0.21527996176244341 0 0.39321551516580561 -0.23618023300957031 0 0.37555308153547928 -0.22286467051027881 0 0.39321551516580561 -0.23618023300957031 0 0.39424069285124719 -0.22310079746779379 0 0.37555308153547928 -0.22286467051027881 0 0.37271206602689039 -0.21308069503546309 0 0.37555308153547928 -0.22286467051027881 0 0.38300691860546521 -0.21527996176244341 0 0.37271206602689039 -0.21308069503546309 0 0.38139900114097952 -0.20469292352659629 0 0.38300691860546521 -0.21527996176244341 0 0.38139900114097952 -0.20469292352659629 0 0.39078770323730427 -0.19674260859680251 0 0.39112975147272949 -0.2126607222720846 0 0.38139900114097952 -0.20469292352659629 0 0.38300691860546521 -0.21527996176244341 0 0.39112975147272949 -0.2126607222720846 0 0.39424069285124719 -0.22310079746779379 0 0.38300691860546521 -0.21527996176244341 0 0.39112975147272949 -0.2126607222720846 0 0.37064833187319962 -0.1852102762359614 0 0.38139900114097952 -0.20469292352659629 0 0.39078770323730427 -0.19674260859680251 0 0.39078770323730427 -0.19674260859680251 0 0.40475141021500721 -0.1910589369573561 0 0.39510197637232292 -0.1839605883432579 0 0.39078770323730427 -0.19674260859680251 0 0.40426546228868082 -0.20108352786525729 0 0.397631623829106 -0.20634023108626229 0 0.39078770323730427 -0.19674260859680251 0 0.40426546228868082 -0.20108352786525729 0 0.40475141021500721 -0.1910589369573561 0 0.39078770323730427 -0.19674260859680251 0 0.39112975147272949 -0.2126607222720846 0 0.397631623829106 -0.20634023108626229 0 0.39112975147272949 -0.2126607222720846 0 0.397631623829106 -0.20634023108626229 0 0.40434357831770951 -0.21487406561090469 0 0.39424069285124719 -0.22310079746779379 0 0.39112975147272949 -0.2126607222720846 0 0.40434357831770951 -0.21487406561090469 0 0.40426546228868082 -0.20108352786525729 0 0.397631623829106 -0.20634023108626229 0 0.40434357831770951 -0.21487406561090469 0 0.40434357831770951 -0.21487406561090469 0 0.41713092845542321 -0.20900944133272009 0 0.41612672436959858 -0.22382622337581301 0 0.40426546228868082 -0.20108352786525729 0 0.40434357831770951 -0.21487406561090469 0 0.41713092845542321 -0.20900944133272009 0 0.41713092845542321 -0.20900944133272009 0 0.42330136258736267 -0.2174116668913772 0 0.41612672436959858 -0.22382622337581301 0 0.40475141021500721 -0.1910589369573561 0 0.41487892771890261 -0.19826025474908979 0 0.4146572714410397 -0.186958864794112 0 0.40426546228868082 -0.20108352786525729 0 0.41713092845542321 -0.20900944133272009 0 0.41487892771890261 -0.19826025474908979 0 0.40426546228868082 -0.20108352786525729 0 0.40475141021500721 -0.1910589369573561 0 0.41487892771890261 -0.19826025474908979 0 0.41713092845542321 -0.20900944133272009 0 0.41487892771890261 -0.19826025474908979 0 0.42701217502226602 -0.19751647228806199 0 0.41487892771890261 -0.19826025474908979 0 0.42053294087941678 -0.1923617771039739 0 0.42701217502226602 -0.19751647228806199 0 0.42053294087941678 -0.1923617771039739 0 0.4146572714410397 -0.186958864794112 0 0.42558338933545942 -0.1867115165846317 0 0.41487892771890261 -0.19826025474908979 0 0.42053294087941678 -0.1923617771039739 0 0.4146572714410397 -0.186958864794112 0 0.42701217502226602 -0.19751647228806199 0 0.43844209377108118 -0.18689286854296691 0 0.44355474576021348 -0.2050869029196882 0 0.42053294087941678 -0.1923617771039739 0 0.42701217502226602 -0.19751647228806199 0 0.42558338933545942 -0.1867115165846317 0 0.42701217502226602 -0.19751647228806199 0 0.42558338933545942 -0.1867115165846317 0 0.43844209377108118 -0.18689286854296691 0 0.42701217502226602 -0.19751647228806199 0 0.43006687167525981 -0.21185300334864521 0 0.44355474576021348 -0.2050869029196882 0 0.41713092845542321 -0.20900944133272009 0 0.42330136258736267 -0.2174116668913772 0 0.43006687167525981 -0.21185300334864521 0 0.42330136258736267 -0.2174116668913772 0 0.43006687167525981 -0.21185300334864521 0 0.42988092584916948 -0.2249579995083304 0 0.41713092845542321 -0.20900944133272009 0 0.42701217502226602 -0.19751647228806199 0 0.43006687167525981 -0.21185300334864521 0 0.43006687167525981 -0.21185300334864521 0 0.42988092584916948 -0.2249579995083304 0 0.44009267276725389 -0.2176624614444449 0 0.42330136258736267 -0.2174116668913772 0 0.42988092584916948 -0.2249579995083304 0 0.41612672436959858 -0.22382622337581301 0 0.42988092584916948 -0.2249579995083304 0 0.43458399188612801 -0.2397076170126072 0 0.42159465327244361 -0.23640953485310751 0 0.42988092584916948 -0.2249579995083304 0 0.42159465327244361 -0.23640953485310751 0 0.41612672436959858 -0.22382622337581301 0 0.42988092584916948 -0.2249579995083304 0 0.43458399188612801 -0.2397076170126072 0 0.44416109061426973 -0.22983272991065171 0 0.43458399188612801 -0.2397076170126072 0 0.42656562700980838 -0.24831468624349931 0 0.4372088962240912 -0.25169219704383999 0 0.43458399188612801 -0.2397076170126072 0 0.42656562700980838 -0.24831468624349931 0 0.42159465327244361 -0.23640953485310751 0 0.42656562700980838 -0.24831468624349931 0 0.42159465327244361 -0.23640953485310751 0 0.41087794879613182 -0.2494957955088617 0 0.42159465327244361 -0.23640953485310751 0 0.41087794879613182 -0.2494957955088617 0 0.40741230325918792 -0.23450562481703699 0 0.4055308246994358 -0.22407667781788709 0 0.40741230325918792 -0.23450562481703699 0 0.41612672436959858 -0.22382622337581301 0 0.4055308246994358 -0.22407667781788709 0 0.40434357831770951 -0.21487406561090469 0 0.41612672436959858 -0.22382622337581301 0 0.42159465327244361 -0.23640953485310751 0 0.40741230325918792 -0.23450562481703699 0 0.41612672436959858 -0.22382622337581301 0 0.39823574772599779 -0.11763079726210079 0 0.40257569972698831 -0.13396225485532559 0 0.38918813321375051 -0.12739880168557821 0 0.40257569972698831 -0.13396225485532559 0 0.38918813321375051 -0.12739880168557821 0 0.39017348084279901 -0.13955387731924049 0 0.38918813321375051 -0.12739880168557821 0 0.37808333446084269 -0.1309391893982525 0 0.39017348084279901 -0.13955387731924049 0 0.37720890243704291 -0.12310924361699779 0 0.36253108037134668 -0.1248744885805331 0 0.38918813321375051 -0.12739880168557821 0 0.36253108037134668 -0.1248744885805331 0 0.38918813321375051 -0.12739880168557821 0 0.37808333446084269 -0.1309391893982525 0 0.36253108037134668 -0.1248744885805331 0 0.38918813321375051 -0.12739880168557821 0 0.37808333446084269 -0.1309391893982525 0 0.39017348084279901 -0.13955387731924049 0 0.3787995421462832 -0.1425544525875144 0 0.36858459771950869 -0.15733985743645959 0 0.3787995421462832 -0.1425544525875144 0 0.38535727780346091 -0.1527557998392445 0 0.39017348084279901 -0.13955387731924049 0 0.3787995421462832 -0.1425544525875144 0 0.38535727780346091 -0.1527557998392445 0 0.40257569972698831 -0.13396225485532559 0 0.39822107621443897 -0.1501202070538992 0 0.41732028123257531 -0.14286435439753159 0 0.40257569972698831 -0.13396225485532559 0 0.39017348084279901 -0.13955387731924049 0 0.39822107621443897 -0.1501202070538992 0 0.39017348084279901 -0.13955387731924049 0 0.38535727780346091 -0.1527557998392445 0 0.39822107621443897 -0.1501202070538992 0 0.39822107621443897 -0.1501202070538992 0 0.39107178753907162 -0.16851380255406381 0 0.40713652226246821 -0.16744863749245631 0 0.39107178753907162 -0.16851380255406381 0 0.40713652226246821 -0.16744863749245631 0 0.38535727780346091 -0.1527557998392445 0 0.39822107621443897 -0.1501202070538992 0 0.39107178753907162 -0.16851380255406381 0 0.39107178753907162 -0.16851380255406381 0 0.40460499843718001 -0.17902112385493851 0 0.40713652226246821 -0.16744863749245631 0 0.36858459771950869 -0.15733985743645959 0 0.38535727780346091 -0.1527557998392445 0 0.39107178753907162 -0.16851380255406381 0 0.36858459771950869 -0.15733985743645959 0 0.39107178753907162 -0.16851380255406381 0 0.3834788620725188 -0.17954848884060079 0 0.39107178753907162 -0.16851380255406381 0 0.3834788620725188 -0.17954848884060079 0 0.39510197637232292 -0.1839605883432579 0 0.39078770323730427 -0.19674260859680251 0 0.3834788620725188 -0.17954848884060079 0 0.39510197637232292 -0.1839605883432579 0 0.37064833187319962 -0.1852102762359614 0 0.39078770323730427 -0.19674260859680251 0 0.3834788620725188 -0.17954848884060079 0 0.39107178753907162 -0.16851380255406381 0 0.39510197637232292 -0.1839605883432579 0 0.40460499843718001 -0.17902112385493851 0 0.40475141021500721 -0.1910589369573561 0 0.39510197637232292 -0.1839605883432579 0 0.40460499843718001 -0.17902112385493851 0 0.40475141021500721 -0.1910589369573561 0 0.40460499843718001 -0.17902112385493851 0 0.4146572714410397 -0.186958864794112 0 0.40460499843718001 -0.17902112385493851 0 0.41491102279317088 -0.17618591298838529 0 0.4146572714410397 -0.186958864794112 0 0.40460499843718001 -0.17902112385493851 0 0.41491102279317088 -0.17618591298838529 0 0.40713652226246821 -0.16744863749245631 0 0.41491102279317088 -0.17618591298838529 0 0.42527009306055918 -0.1746571334479238 0 0.4232012569858648 -0.16638347243084889 0 0.41491102279317088 -0.17618591298838529 0 0.42095079563492938 -0.18072636251124541 0 0.42527009306055918 -0.1746571334479238 0 0.41491102279317088 -0.17618591298838529 0 0.42095079563492938 -0.18072636251124541 0 0.4146572714410397 -0.186958864794112 0 0.42095079563492938 -0.18072636251124541 0 0.4146572714410397 -0.186958864794112 0 0.42558338933545942 -0.1867115165846317 0 0.43180268423531071 -0.1802632517690351 0 0.42527009306055918 -0.1746571334479238 0 0.44880083799057491 -0.164686103644653 0 0.42095079563492938 -0.18072636251124541 0 0.42558338933545942 -0.1867115165846317 0 0.43180268423531071 -0.1802632517690351 0 0.42558338933545942 -0.1867115165846317 0 0.43180268423531071 -0.1802632517690351 0 0.43844209377108118 -0.18689286854296691 0 0.42095079563492938 -0.18072636251124541 0 0.43180268423531071 -0.1802632517690351 0 0.42527009306055918 -0.1746571334479238 0 0.42527009306055918 -0.1746571334479238 0 0.4232012569858648 -0.16638347243084889 0 0.44880083799057491 -0.164686103644653 0 0.4232012569858648 -0.16638347243084889 0 0.43334283997313311 -0.15135273030925811 0 0.44880083799057491 -0.164686103644653 0 0.4232012569858648 -0.16638347243084889 0 0.44880083799057491 -0.164686103644653 0 0.42527009306055918 -0.1746571334479238 0 0.4232012569858648 -0.16638347243084889 0 0.4232012569858648 -0.16638347243084889 0 0.40713652226246821 -0.16744863749245631 0 0.41732028123257531 -0.14286435439753159 0 0.41491102279317088 -0.17618591298838529 0 0.4232012569858648 -0.16638347243084889 0 0.40713652226246821 -0.16744863749245631 0 0.4232012569858648 -0.16638347243084889 0 0.40713652226246821 -0.16744863749245631 0 0.4232012569858648 -0.16638347243084889 0 0.41732028123257531 -0.14286435439753159 0 0.39822107621443897 -0.1501202070538992 0 0.40713652226246821 -0.16744863749245631 0 0.41732028123257531 -0.14286435439753159 0 0.41732028123257531 -0.14286435439753159 0 0.43334283997313311 -0.15135273030925811 0 0.43763345530417341 -0.13584027725706749 0 0.4232012569858648 -0.16638347243084889 0 0.41732028123257531 -0.14286435439753159 0 0.43334283997313311 -0.15135273030925811 0 0.42916935431308728 -0.1205456085246996 0 0.41732028123257531 -0.14286435439753159 0 0.43763345530417341 -0.13584027725706749 0 0.42916935431308728 -0.1205456085246996 0 0.4435038969132965 -0.12540022695152131 0 0.43763345530417341 -0.13584027725706749 0 0.41143930547928681 -0.11934523636421419 0 0.42916935431308728 -0.1205456085246996 0 0.41732028123257531 -0.14286435439753159 0 0.41143930547928681 -0.11934523636421419 0 0.40257569972698831 -0.13396225485532559 0 0.41732028123257531 -0.14286435439753159 0 0.41143930547928681 -0.11934523636421419 0 0.41732028123257531 -0.14286435439753159 0 0.46257396642688631 -0.12529077885077469 0 0.46381730130484328 -0.1363472541609663 0 0.4585659370706795 -0.1308283620105129 0 0.46381730130484328 -0.1363472541609663 0 0.4585659370706795 -0.1308283620105129 0 0.45274550479158487 -0.1345999168850856 0 0.46381730130484328 -0.1363472541609663 0 0.45274550479158487 -0.1345999168850856 0 0.46138481906560302 -0.14686228775601681 0 0.46257396642688631 -0.12529077885077469 0 0.4585659370706795 -0.1308283620105129 0 0.45239247298790419 -0.125419693033265 0 0.4585659370706795 -0.1308283620105129 0 0.45239247298790419 -0.125419693033265 0 0.45274550479158487 -0.1345999168850856 0 0.45239247298790419 -0.125419693033265 0 0.4435038969132965 -0.12540022695152131 0 0.45274550479158487 -0.1345999168850856 0 0.4435038969132965 -0.12540022695152131 0 0.43763345530417341 -0.13584027725706749 0 0.45274550479158487 -0.1345999168850856 0 0.43763345530417341 -0.13584027725706749 0 0.45274550479158487 -0.1345999168850856 0 0.44678149142501389 -0.1466682631704162 0 0.43334283997313311 -0.15135273030925811 0 0.44678149142501389 -0.1466682631704162 0 0.44880083799057491 -0.164686103644653 0 0.44678149142501389 -0.1466682631704162 0 0.46138481906560302 -0.14686228775601681 0 0.44880083799057491 -0.164686103644653 0 0.43334283997313311 -0.15135273030925811 0 0.43763345530417341 -0.13584027725706749 0 0.44678149142501389 -0.1466682631704162 0 0.45274550479158487 -0.1345999168850856 0 0.44678149142501389 -0.1466682631704162 0 0.46138481906560302 -0.14686228775601681 0 0.46138481906560302 -0.14686228775601681 0 0.44880083799057491 -0.164686103644653 0 0.47440041899528501 -0.16298873485845719 0 0.44880083799057491 -0.164686103644653 0 0.46834799031954211 -0.17915452781490099 0 0.47440041899528501 -0.16298873485845719 0 0.44880083799057491 -0.164686103644653 0 0.47440041899528501 -0.16298873485845719 0 0.43180268423531071 -0.1802632517690351 0 0.44880083799057491 -0.164686103644653 0 0.43844209377108118 -0.18689286854296691 0 0.44880083799057491 -0.164686103644653 0 0.43844209377108118 -0.18689286854296691 0 0.45508032593701309 -0.1914137801830845 0 0.44880083799057491 -0.164686103644653 0 0.46834799031954211 -0.17915452781490099 0 0.45508032593701309 -0.1914137801830845 0 0.46834799031954211 -0.17915452781490099 0 0.48419704391512092 -0.17843144908975531 0 0.47440041899528501 -0.16298873485845719 0 0.46834799031954211 -0.17915452781490099 0 0.48419704391512092 -0.17843144908975531 0 0.47823681026078202 -0.19812675643970101 0 0.48419704391512092 -0.17843144908975531 0 0.49999999999999523 -0.16129136607226169 0 0.5 -0.1905958602634561 0 0.49999999999999523 -0.16129136607226169 0 0.47440041899528501 -0.16298873485845719 0 0.50000000000000067 -0.1547763741112759 0 0.48419704391512092 -0.17843144908975531 0 0.49999999999999523 -0.16129136607226169 0 0.47440041899528501 -0.16298873485845719 0 0.49999999999999523 -0.16129136607226169 0 0.47440041899528501 -0.16298873485845719 0 0.46138481906560302 -0.14686228775601681 0 0.47440041899528501 -0.16298873485845719 0 0.48128698321344371 -0.14003357648102521 0 0.46381730130484328 -0.1363472541609663 0 0.46138481906560302 -0.14686228775601681 0 0.48128698321344371 -0.14003357648102521 0 0.50000000000000067 -0.1547763741112759 0 0.48128698321344371 -0.14003357648102521 0 0.50000000000000067 -0.1547763741112759 0 0.5 -0.13349841451636779 0 0.48128698321344371 -0.14003357648102521 0 0.47440041899528501 -0.16298873485845719 0 0.50000000000000067 -0.1547763741112759 0 0.48128698321344371 -0.14003357648102521 0 0.48087269318342413 -0.1216818802472065 0 0.5 -0.13349841451636779 0 0.48128698321344371 -0.14003357648102521 0 0.46257396642688631 -0.12529077885077469 0 0.48128698321344371 -0.14003357648102521 0 0.46257396642688631 -0.12529077885077469 0 0.46381730130484328 -0.1363472541609663 0 0.48128698321344371 -0.14003357648102521 0 0.47129126618897188 -0.1223351355815797 0 0.48087269318342413 -0.1216818802472065 0 0.48128698321344371 -0.14003357648102521 0 0.47129126618897188 -0.1223351355815797 0 0.46257396642688631 -0.12529077885077469 0 0.48128698321344371 -0.14003357648102521 0 0.46029750420545162 -0.23134667767863379 0 0.45079963313025367 -0.219495204315066 0 0.46126535540865482 -0.21094244298034759 0 0.46029750420545162 -0.23134667767863379 0 0.46126535540865482 -0.21094244298034759 0 0.47937109712497578 -0.22608105856418539 0 0.46029750420545162 -0.23134667767863379 0 0.44856132313442931 -0.24393079079591279 0 0.47387431588802909 -0.25499376211151131 0 0.46029750420545162 -0.23134667767863379 0 0.44856132313442931 -0.24393079079591279 0 0.44416109061426973 -0.22983272991065171 0 0.43458399188612801 -0.2397076170126072 0 0.44856132313442931 -0.24393079079591279 0 0.4372088962240912 -0.25169219704383999 0 0.43458399188612801 -0.2397076170126072 0 0.44856132313442931 -0.24393079079591279 0 0.44416109061426973 -0.22983272991065171 0 0.46029750420545162 -0.23134667767863379 0 0.44416109061426973 -0.22983272991065171 0 0.45079963313025367 -0.219495204315066 0 0.44416109061426973 -0.22983272991065171 0 0.45079963313025367 -0.219495204315066 0 0.44009267276725389 -0.2176624614444449 0 0.42988092584916948 -0.2249579995083304 0 0.44416109061426973 -0.22983272991065171 0 0.44009267276725389 -0.2176624614444449 0 0.45079963313025367 -0.219495204315066 0 0.44355474576021348 -0.2050869029196882 0 0.46126535540865482 -0.21094244298034759 0 0.43006687167525981 -0.21185300334864521 0 0.44009267276725389 -0.2176624614444449 0 0.44355474576021348 -0.2050869029196882 0 0.45079963313025367 -0.219495204315066 0 0.44009267276725389 -0.2176624614444449 0 0.44355474576021348 -0.2050869029196882 0 0.43844209377108118 -0.18689286854296691 0 0.44355474576021348 -0.2050869029196882 0 0.45508032593701309 -0.1914137801830845 0 0.46834799031954211 -0.17915452781490099 0 0.45508032593701309 -0.1914137801830845 0 0.47823681026078202 -0.19812675643970101 0 0.44355474576021348 -0.2050869029196882 0 0.45508032593701309 -0.1914137801830845 0 0.46126535540865482 -0.21094244298034759 0 0.45508032593701309 -0.1914137801830845 0 0.46126535540865482 -0.21094244298034759 0 0.47823681026078202 -0.19812675643970101 0 0.46126535540865482 -0.21094244298034759 0 0.47823681026078202 -0.19812675643970101 0 0.47937109712497578 -0.22608105856418539 0 0.48419704391512092 -0.17843144908975531 0 0.47823681026078202 -0.19812675643970101 0 0.5 -0.1905958602634561 0 0.47823681026078202 -0.19812675643970101 0 0.5 -0.1905958602634561 0 0.5 -0.21990035445465039 0 0.47823681026078202 -0.19812675643970101 0 0.5 -0.21990035445465039 0 0.47937109712497578 -0.22608105856418539 0 0.5 -0.21990035445465039 0 0.47937109712497578 -0.22608105856418539 0 0.50000000000000444 -0.24920484864584491 0 0.46029750420545162 -0.23134667767863379 0 0.47937109712497578 -0.22608105856418539 0 0.47387431588802909 -0.25499376211151131 0 0.47937109712497578 -0.22608105856418539 0 0.50000000000000444 -0.24920484864584491 0 0.47387431588802909 -0.25499376211151131 0 0.50000000000000444 -0.24920484864584491 0 0.4915669900217115 -0.25615479242606781 0 0.5 -0.27170772691138367 0 0.50000000000000444 -0.24920484864584491 0 0.4915669900217115 -0.25615479242606781 0 0.47387431588802909 -0.25499376211151131 0 0.50000000000000444 -0.24920484864584491 0 0.47387431588802909 -0.25499376211151131 0 0.4915669900217115 -0.25615479242606781 0 0.48280749151585822 -0.27129304150170008 0 0.47954864786353962 -0.26301133191085868 0 0.4915669900217115 -0.25615479242606781 0 0.5 -0.27170772691138367 0 0.48280749151585822 -0.27129304150170008 0 0.5 -0.27170772691138367 0 0.48280749151585822 -0.27129304150170008 0 0.48951500520952212 -0.28458010338455908 0 0.48280749151585822 -0.27129304150170008 0 0.47474596181800061 -0.28621450290334632 0 0.48951500520952212 -0.28458010338455908 0 0.48280749151585822 -0.27129304150170008 0 0.47416229901770612 -0.26612875971404459 0 0.47954864786353962 -0.26301133191085868 0 0.48280749151585822 -0.27129304150170008 0 0.47416229901770612 -0.26612875971404459 0 0.47052118473631321 -0.27447720361836658 0 0.47416229901770612 -0.26612875971404459 0 0.47052118473631321 -0.27447720361836658 0 0.46319689217890331 -0.26835660325056299 0 0.48280749151585822 -0.27129304150170008 0 0.47052118473631321 -0.27447720361836658 0 0.47474596181800061 -0.28621450290334632 0 0.4915669900217115 -0.25615479242606781 0 0.46965781089888248 -0.25846873400162218 0 0.4915669900217115 -0.25615479242606781 0 0.47387431588802909 -0.25499376211151131 0 0.46965781089888248 -0.25846873400162218 0 0.4915669900217115 -0.25615479242606781 0 0.47954864786353962 -0.26301133191085868 0 0.46965781089888248 -0.25846873400162218 0 0.47416229901770612 -0.26612875971404459 0 0.47954864786353962 -0.26301133191085868 0 0.46965781089888248 -0.25846873400162218 0 0.47416229901770612 -0.26612875971404459 0 0.46965781089888248 -0.25846873400162218 0 0.46319689217890331 -0.26835660325056299 0 0.46965781089888248 -0.25846873400162218 0 0.46319689217890331 -0.26835660325056299 0 0.4477486317760534 -0.26078267557717671 0 0.44856132313442931 -0.24393079079591279 0 0.47387431588802909 -0.25499376211151131 0 0.4477486317760534 -0.26078267557717671 0 0.47387431588802909 -0.25499376211151131 0 0.4477486317760534 -0.26078267557717671 0 0.46965781089888248 -0.25846873400162218 0 0.4477486317760534 -0.26078267557717671 0 0.47387431588802909 -0.25499376211151131 0 0.46965781089888248 -0.25846873400162218 0 0.4477486317760534 -0.26078267557717671 0 0.47052118473631321 -0.27447720361836658 0 0.45389453446556111 -0.28192564334160541 0 0.47474596181800061 -0.28621450290334632 0 0.47052118473631321 -0.27447720361836658 0 0.46319689217890331 -0.26835660325056299 0 0.45389453446556111 -0.28192564334160541 0 0.46319689217890331 -0.26835660325056299 0 0.4477486317760534 -0.26078267557717671 0 0.45389453446556111 -0.28192564334160541 0 0.45389453446556111 -0.28192564334160541 0 0.430823863629894 -0.26453285558412298 0 0.45389453446556111 -0.28192564334160541 0 0.430823863629894 -0.26453285558412298 0 0.43570592202634773 -0.28205449164250063 0 0.4477486317760534 -0.26078267557717671 0 0.45389453446556111 -0.28192564334160541 0 0.430823863629894 -0.26453285558412298 0 0.4477486317760534 -0.26078267557717671 0 0.42854038242645709 -0.26281135800815408 0 0.44856132313442931 -0.24393079079591279 0 0.4477486317760534 -0.26078267557717671 0 0.4372088962240912 -0.25169219704383999 0 0.4477486317760534 -0.26078267557717671 0 0.42854038242645709 -0.26281135800815408 0 0.4372088962240912 -0.25169219704383999 0 0.4477486317760534 -0.26078267557717671 0 0.430823863629894 -0.26453285558412298 0 0.44815314542162782 -0.30273998798419938 0 0.44271266904340639 -0.31513600928105973 0 0.43092107089682352 -0.30573631325696571 0 0.44815314542162782 -0.30273998798419938 0 0.43874415768382158 -0.29310671547163403 0 0.43092107089682352 -0.30573631325696571 0 0.43874415768382158 -0.29310671547163403 0 0.45389453446556111 -0.28192564334160541 0 0.43570592202634773 -0.28205449164250063 0 0.44815314542162782 -0.30273998798419938 0 0.43874415768382158 -0.29310671547163403 0 0.45389453446556111 -0.28192564334160541 0 0.45389453446556111 -0.28192564334160541 0 0.46668010371271101 -0.29937682325086112 0 0.47474596181800061 -0.28621450290334632 0 0.44815314542162782 -0.30273998798419938 0 0.45389453446556111 -0.28192564334160541 0 0.46668010371271101 -0.29937682325086112 0 0.46668010371271101 -0.29937682325086112 0 0.45907432653114449 -0.32014896664993769 0 0.44815314542162782 -0.30273998798419938 0 0.46668010371271101 -0.29937682325086112 0 0.45907432653114449 -0.32014896664993769 0 0.46668010371271101 -0.29937682325086112 0 0.48375110351916628 -0.30725513966339157 0 0.45907432653114449 -0.32014896664993769 0 0.46668010371271101 -0.29937682325086112 0 0.48375110351916628 -0.30725513966339157 0 0.47474596181800061 -0.28621450290334632 0 0.48375110351916628 -0.30725513966339157 0 0.47474596181800061 -0.28621450290334632 0 0.48951500520952212 -0.28458010338455908 0 0.48375110351916628 -0.30725513966339157 0 0.5 -0.29421060517692271 0 0.48951500520952212 -0.28458010338455908 0 0.5 -0.27170772691138367 0 0.5 -0.29421060517692271 0 0.48951500520952212 -0.28458010338455908 0 0.48375110351916628 -0.30725513966339157 0 0.5 -0.29421060517692271 0 0.49999999999999972 -0.31671348344246159 0 0.48375110351916628 -0.30725513966339157 0 0.49999999999999972 -0.31671348344246159 0 0.48658745812515303 -0.32591538654610069 0 0.49999999999999972 -0.31671348344246159 0 0.49107839048707969 -0.33844651150006611 0 0.49999999999999972 -0.31671348344246159 0 0.48658745812515303 -0.32591538654610069 0 0.49107839048707969 -0.33844651150006611 0 0.49999999999999972 -0.31671348344246159 0 0.5 -0.34354646621870782 0 0.49107839048707969 -0.33844651150006611 0 0.48658745812515303 -0.32591538654610069 0 0.49107839048707969 -0.33844651150006611 0 0.48013111160135669 -0.33592777501669763 0 0.48658745812515303 -0.32591538654610069 0 0.48013111160135669 -0.33592777501669763 0 0.47588582758327369 -0.32632043512378739 0 0.48013111160135669 -0.33592777501669763 0 0.46883970942210401 -0.33989811375075968 0 0.47588582758327369 -0.32632043512378739 0 0.48375110351916628 -0.30725513966339157 0 0.48658745812515303 -0.32591538654610069 0 0.47588582758327369 -0.32632043512378739 0 0.48375110351916628 -0.30725513966339157 0 0.47588582758327369 -0.32632043512378739 0 0.45907432653114449 -0.32014896664993769 0 0.5 -0.37037944899495368 0 0.48466784746851571 -0.3739080713738358 0 0.48215678097416009 -0.36017953955767068 0 0.5 -0.34354646621870782 0 0.49107839048707969 -0.33844651150006611 0 0.48215678097416009 -0.36017953955767068 0 0.49107839048707969 -0.33844651150006611 0 0.48013111160135669 -0.33592777501669763 0 0.48215678097416009 -0.36017953955767068 0 0.5 -0.34354646621870782 0 0.5 -0.37037944899495368 0 0.48215678097416009 -0.36017953955767068 0 0.49107839048707969 -0.33844651150006611 0 0.48215678097416009 -0.36017953955767068 0 0.48013111160135669 -0.33592777501669763 0 0.46883970942210401 -0.33989811375075968 0 0.48215678097416009 -0.36017953955767068 0 0.46883970942210401 -0.33989811375075968 0 0.48215678097416009 -0.36017953955767068 0 0.46166172922915721 -0.35810144835948332 0 0.48215678097416009 -0.36017953955767068 0 0.47323517146124039 -0.38191256761527542 0 0.48215678097416009 -0.36017953955767068 0 0.4671179630262795 -0.37324494563770522 0 0.47323517146124039 -0.38191256761527542 0 0.48466784746851571 -0.3739080713738358 0 0.48215678097416009 -0.36017953955767068 0 0.47323517146124039 -0.38191256761527542 0 0.48215678097416009 -0.36017953955767068 0 0.4671179630262795 -0.37324494563770522 0 0.46166172922915721 -0.35810144835948332 0 0.45652460043480969 -0.37267172771365881 0 0.46166172922915721 -0.35810144835948332 0 0.44386277216801179 -0.36169325344809122 0 0.45652460043480969 -0.37267172771365881 0 0.4671179630262795 -0.37324494563770522 0 0.46166172922915721 -0.35810144835948332 0 0.46883970942210401 -0.33989811375075968 0 0.46166172922915721 -0.35810144835948332 0 0.45146854934957792 -0.34092111004901438 0 0.43963091224731599 -0.34751792105314822 0 0.44386277216801179 -0.36169325344809122 0 0.45146854934957792 -0.34092111004901438 0 0.44386277216801179 -0.36169325344809122 0 0.45146854934957792 -0.34092111004901438 0 0.46166172922915721 -0.35810144835948332 0 0.44386277216801179 -0.36169325344809122 0 0.45146854934957792 -0.34092111004901438 0 0.44386277216801179 -0.36169325344809122 0 0.43376943787959182 -0.36708850497004442 0 0.43808065797110041 -0.37748478958974491 0 0.45652460043480969 -0.37267172771365881 0 0.44386277216801179 -0.36169325344809122 0 0.44783900322824399 -0.38008781189722518 0 0.44386277216801179 -0.36169325344809122 0 0.43808065797110041 -0.37748478958974491 0 0.44386277216801179 -0.36169325344809122 0 0.43808065797110041 -0.37748478958974491 0 0.44783900322824399 -0.38008781189722518 0 0.45652460043480969 -0.37267172771365881 0 0.44386277216801179 -0.36169325344809122 0 0.46883970942210401 -0.33989811375075968 0 0.45907432653114449 -0.32014896664993769 0 0.45146854934957792 -0.34092111004901438 0 0.45907432653114449 -0.32014896664993769 0 0.45146854934957792 -0.34092111004901438 0 0.46883970942210401 -0.33989811375075968 0 0.47588582758327369 -0.32632043512378739 0 0.45907432653114449 -0.32014896664993769 0 0.43963091224731599 -0.34751792105314822 0 0.45146854934957792 -0.34092111004901438 0 0.43565299676263758 -0.3352386806192425 0 0.45146854934957792 -0.34092111004901438 0 0.44493724809618768 -0.32603283426431229 0 0.43565299676263758 -0.3352386806192425 0 0.45907432653114449 -0.32014896664993769 0 0.45146854934957792 -0.34092111004901438 0 0.44493724809618768 -0.32603283426431229 0 0.45907432653114449 -0.32014896664993769 0 0.44493724809618768 -0.32603283426431229 0 0.44271266904340639 -0.31513600928105973 0 0.44493724809618768 -0.32603283426431229 0 0.44271266904340639 -0.31513600928105973 0 0.43047755427124879 -0.32102194424988317 0 0.44815314542162782 -0.30273998798419938 0 0.45907432653114449 -0.32014896664993769 0 0.44271266904340639 -0.31513600928105973 0 0.44271266904340639 -0.31513600928105973 0 0.43047755427124879 -0.32102194424988317 0 0.43092107089682352 -0.30573631325696571 0 0.43047755427124879 -0.32102194424988317 0 0.41919911313656122 -0.31385112706466711 0 0.41739686236043672 -0.32199345155319897 0 0.43047755427124879 -0.32102194424988317 0 0.41919911313656122 -0.31385112706466711 0 0.43092107089682352 -0.30573631325696571 0 0.43047755427124879 -0.32102194424988317 0 0.42053718701310799 -0.32957674384091618 0 0.41739686236043672 -0.32199345155319897 0 0.44493724809618768 -0.32603283426431229 0 0.43047755427124879 -0.32102194424988317 0 0.43565299676263758 -0.3352386806192425 0 0.43565299676263758 -0.3352386806192425 0 0.42053718701310799 -0.32957674384091618 0 0.4250793590774925 -0.34540704162396091 0 0.43963091224731599 -0.34751792105314822 0 0.43565299676263758 -0.3352386806192425 0 0.4250793590774925 -0.34540704162396091 0 0.43047755427124879 -0.32102194424988317 0 0.43565299676263758 -0.3352386806192425 0 0.42053718701310799 -0.32957674384091618 0 0.4062959459869725 -0.32912082979983148 0 0.4250793590774925 -0.34540704162396091 0 0.41055923831377589 -0.34398547157316572 0 0.42053718701310799 -0.32957674384091618 0 0.4062959459869725 -0.32912082979983148 0 0.4250793590774925 -0.34540704162396091 0 0.4062959459869725 -0.32912082979983148 0 0.4250793590774925 -0.34540704162396091 0 0.42053718701310799 -0.32957674384091618 0 0.4062959459869725 -0.32912082979983148 0 0.40802480504278882 -0.32457497099322458 0 0.4062959459869725 -0.32912082979983148 0 0.40802480504278882 -0.32457497099322458 0 0.4062959459869725 -0.32912082979983148 0 0.40802480504278882 -0.32457497099322458 0 0.40572459905769331 -0.31910551143285631 0 0.40802480504278882 -0.32457497099322458 0 0.4119015194344513 -0.31818912214386269 0 0.41739686236043672 -0.32199345155319897 0 0.40802480504278882 -0.32457497099322458 0 0.4119015194344513 -0.31818912214386269 0 0.40572459905769331 -0.31910551143285631 0 0.4119015194344513 -0.31818912214386269 0 0.41919911313656122 -0.31385112706466711 0 0.40916221757477672 -0.31142054967536659 0 0.4119015194344513 -0.31818912214386269 0 0.40572459905769331 -0.31910551143285631 0 0.40916221757477672 -0.31142054967536659 0 0.4119015194344513 -0.31818912214386269 0 0.41919911313656122 -0.31385112706466711 0 0.41739686236043672 -0.32199345155319897 0 0.42053718701310799 -0.32957674384091618 0 0.40802480504278882 -0.32457497099322458 0 0.41739686236043672 -0.32199345155319897 0 0.44386277216801179 -0.36169325344809122 0 0.43376943787959182 -0.36708850497004442 0 0.42728564025893462 -0.35958684797927032 0 0.42489657602010461 -0.37065940299189432 0 0.43376943787959182 -0.36708850497004442 0 0.43808065797110041 -0.37748478958974491 0 0.42489657602010461 -0.37065940299189432 0 0.43376943787959182 -0.36708850497004442 0 0.42728564025893462 -0.35958684797927032 0 0.44386277216801179 -0.36169325344809122 0 0.4250793590774925 -0.34540704162396091 0 0.43963091224731599 -0.34751792105314822 0 0.44386277216801179 -0.36169325344809122 0 0.4250793590774925 -0.34540704162396091 0 0.44386277216801179 -0.36169325344809122 0 0.42728564025893462 -0.35958684797927032 0 0.4250793590774925 -0.34540704162396091 0 0.42728564025893462 -0.35958684797927032 0 0.4250793590774925 -0.34540704162396091 0 0.41069622259092692 -0.35617360609135817 0 0.4250793590774925 -0.34540704162396091 0 0.41055923831377589 -0.34398547157316572 0 0.41069622259092692 -0.35617360609135817 0 0.41055923831377589 -0.34398547157316572 0 0.41069622259092692 -0.35617360609135817 0 0.40016542559971202 -0.34524040877751239 0 0.42489657602010461 -0.37065940299189432 0 0.42728564025893462 -0.35958684797927032 0 0.41069622259092692 -0.35617360609135817 0 0.42489657602010461 -0.37065940299189432 0 0.41069622259092692 -0.35617360609135817 0 0.4070765621089808 -0.37107032214525337 0 0.42489657602010461 -0.37065940299189432 0 0.41069622259092692 -0.35617360609135817 0 0.39585190457779329 -0.37201308858561799 0 0.3940349052124521 -0.36135998775519362 0 0.38601585554704992 -0.38244526212700758 0 0.41069622259092692 -0.35617360609135817 0 0.4070765621089808 -0.37107032214525337 0 0.3940349052124521 -0.36135998775519362 0 0.4070765621089808 -0.37107032214525337 0 0.39585190457779329 -0.37201308858561799 0 0.3940349052124521 -0.36135998775519362 0 0.39585190457779329 -0.37201308858561799 0 0.3940349052124521 -0.36135998775519362 0 0.3940349052124521 -0.36135998775519362 0 0.40016542559971202 -0.34524040877751239 0 0.38974443050024338 -0.33620485529262373 0 0.3940349052124521 -0.36135998775519362 0 0.38974443050024338 -0.33620485529262373 0 0.3940349052124521 -0.36135998775519362 0 0.40016542559971202 -0.34524040877751239 0 0.41069622259092692 -0.35617360609135817 0 0.3940349052124521 -0.36135998775519362 0 0.40016542559971202 -0.34524040877751239 0 0.3940349052124521 -0.36135998775519362 0 0.38974443050024338 -0.33620485529262373 0 0.37368731816096312 -0.34897020548070451 0 0.3940349052124521 -0.36135998775519362 0 0.38601585554704992 -0.38244526212700758 0 0.3940349052124521 -0.36135998775519362 0 0.38601585554704992 -0.38244526212700758 0 0.3689120952668708 -0.37284951495870189 0 0.3940349052124521 -0.36135998775519362 0 0.3689120952668708 -0.37284951495870189 0 0.37368731816096312 -0.34897020548070451 0 0.4062959459869725 -0.32912082979983148 0 0.40572459905769331 -0.31910551143285631 0 0.39816778062817881 -0.31191488097197773 0 0.4062959459869725 -0.32912082979983148 0 0.38974443050024338 -0.33620485529262373 0 0.38545395578803499 -0.31104972283005378 0 0.4062959459869725 -0.32912082979983148 0 0.38545395578803499 -0.31104972283005378 0 0.4062959459869725 -0.32912082979983148 0 0.38545395578803499 -0.31104972283005378 0 0.39816778062817881 -0.31191488097197773 0 0.40572459905769331 -0.31910551143285631 0 0.39816778062817881 -0.31191488097197773 0 0.40916221757477672 -0.31142054967536659 0 0.4062959459869725 -0.32912082979983148 0 0.40016542559971202 -0.34524040877751239 0 0.38974443050024338 -0.33620485529262373 0 0.4062959459869725 -0.32912082979983148 0 0.40016542559971202 -0.34524040877751239 0 0.4062959459869725 -0.32912082979983148 0 0.41055923831377589 -0.34398547157316572 0 0.40016542559971202 -0.34524040877751239 0 0.38974443050024338 -0.33620485529262373 0 0.36945761595668469 -0.32738841673247931 0 0.37368731816096312 -0.34897020548070451 0 0.38974443050024338 -0.33620485529262373 0 0.38545395578803499 -0.31104972283005378 0 0.36945761595668469 -0.32738841673247931 0 0.38974443050024338 -0.33620485529262373 0 0.38545395578803499 -0.31104972283005378 0 0.38545395578803499 -0.31104972283005378 0 0.38245755150739558 -0.29348174920317632 0 0.37101427446782781 -0.29852975601036341 0 0.38545395578803499 -0.31104972283005378 0 0.38245755150739558 -0.29348174920317632 0 0.38545395578803499 -0.31104972283005378 0 0.37101427446782781 -0.29852975601036341 0 0.38545395578803499 -0.31104972283005378 0 0.39567659353887108 -0.29306988619604551 0 0.38245755150739558 -0.29348174920317632 0 0.39816778062817881 -0.31191488097197773 0 0.40563314249086863 -0.30155395497769039 0 0.39567659353887108 -0.29306988619604551 0 0.38545395578803499 -0.31104972283005378 0 0.39816778062817881 -0.31191488097197773 0 0.39567659353887108 -0.29306988619604551 0 0.39816778062817881 -0.31191488097197773 0 0.40563314249086863 -0.30155395497769039 0 0.40916221757477672 -0.31142054967536659 0 0.39567659353887108 -0.29306988619604551 0 0.40514250542832608 -0.27022331558021301 0 0.41160024963212011 -0.28933460066763711 0 0.40563314249086863 -0.30155395497769039 0 0.39567659353887108 -0.29306988619604551 0 0.41160024963212011 -0.28933460066763711 0 0.38245755150739558 -0.29348174920317632 0 0.37946114722675722 -0.27591377557629859 0 0.39567659353887108 -0.29306988619604551 0 0.38245755150739558 -0.29348174920317632 0 0.37946114722675722 -0.27591377557629859 0 0.38245755150739558 -0.29348174920317632 0 0.37795999762798671 -0.28395322059410122 0 0.37946114722675722 -0.27591377557629859 0 0.37519981906117678 -0.29055939022370142 0 0.38245755150739558 -0.29348174920317632 0 0.37101427446782781 -0.29852975601036341 0 0.37519981906117678 -0.29055939022370142 0 0.38245755150739558 -0.29348174920317632 0 0.37795999762798671 -0.28395322059410122 0 0.37795999762798671 -0.28395322059410122 0 0.37946114722675722 -0.27591377557629859 0 0.37739853904771847 -0.27637080706343392 0 0.37739853904771847 -0.27637080706343392 0 0.37683953433427181 -0.26882153263446662 0 0.37273728942595791 -0.27740364396778311 0 0.37795999762798671 -0.28395322059410122 0 0.37739853904771847 -0.27637080706343392 0 0.37273728942595791 -0.27740364396778311 0 0.37946114722675722 -0.27591377557629859 0 0.38774772661347989 -0.26664574742688191 0 0.3964002279028962 -0.26984905957103239 0 0.37946114722675722 -0.27591377557629859 0 0.3964002279028962 -0.26984905957103239 0 0.37795999762798671 -0.28395322059410122 0 0.37739853904771847 -0.27637080706343392 0 0.37739853904771847 -0.27637080706343392 0 0.37273728942595791 -0.27740364396778311 0 0.37946114722675722 -0.27591377557629859 0 0.37739853904771847 -0.27637080706343392 0 0.37683953433427181 -0.26882153263446662 0 0.37946114722675722 -0.27591377557629859 0 0.37739853904771847 -0.27637080706343392 0 0.37946114722675722 -0.27591377557629859 0 0.37843581040967561 -0.26746760801825881 0 0.38284686623937531 -0.26497045393317709 0 0.37946114722675722 -0.27591377557629859 0 0.37683953433427181 -0.26882153263446662 0 0.37843581040967561 -0.26746760801825881 0 0.37739853904771847 -0.27637080706343392 0 0.37683953433427181 -0.26882153263446662 0 0.37683953433427181 -0.26882153263446662 0 0.37843581040967561 -0.26746760801825881 0 0.37946114722675722 -0.27591377557629859 0 0.38774772661347989 -0.26664574742688191 0 0.38284686623937531 -0.26497045393317709 0 0.37477580018058132 -0.24095111383496479 0 0.37683953433427181 -0.26882153263446662 0 0.38107906364546162 -0.25934379353391329 0 0.37477580018058132 -0.24095111383496479 0 0.37683953433427181 -0.26882153263446662 0 0.37477580018058132 -0.24095111383496479 0 0.38107906364546162 -0.25934379353391329 0 0.38725375881062551 -0.25185160038302579 0 0.37843581040967561 -0.26746760801825881 0 0.38107906364546162 -0.25934379353391329 0 0.38284686623937531 -0.26497045393317709 0 0.37683953433427181 -0.26882153263446662 0 0.37843581040967561 -0.26746760801825881 0 0.38107906364546162 -0.25934379353391329 0 0.38107906364546162 -0.25934379353391329 0 0.38632261189823958 -0.26200045239958702 0 0.38284686623937531 -0.26497045393317709 0 0.38774772661347989 -0.26664574742688191 0 0.38632261189823958 -0.26200045239958702 0 0.38284686623937531 -0.26497045393317709 0 0.38774772661347989 -0.26664574742688191 0 0.38955528694719099 -0.2630172622662057 0 0.39295554709344072 -0.26445586107842978 0 0.38774772661347989 -0.26664574742688191 0 0.38632261189823958 -0.26200045239958702 0 0.38955528694719099 -0.2630172622662057 0 0.38632261189823958 -0.26200045239958702 0 0.38955528694719099 -0.2630172622662057 0 0.39119526218360401 -0.25896698815992442 0 0.38632261189823958 -0.26200045239958702 0 0.38725375881062551 -0.25185160038302579 0 0.39119526218360401 -0.25896698815992442 0 0.38107906364546162 -0.25934379353391329 0 0.38632261189823958 -0.26200045239958702 0 0.38725375881062551 -0.25185160038302579 0 0.40314688718896508 -0.2619981766022052 0 0.39707581272688741 -0.26613449373937459 0 0.41345304600685079 -0.26440480953867462 0 0.39707581272688741 -0.26613449373937459 0 0.41345304600685079 -0.26440480953867462 0 0.38725375881062551 -0.25185160038302579 0 0.39640803358832022 -0.25154779433757402 0 0.39119526218360401 -0.25896698815992442 0 0.39640803358832022 -0.25154779433757402 0 0.39702034872720737 -0.26014738253762237 0 0.39119526218360401 -0.25896698815992442 0 0.39702034872720737 -0.26014738253762237 0 0.39119526218360401 -0.25896698815992442 0 0.39295554709344072 -0.26445586107842978 0 0.38955528694719099 -0.2630172622662057 0 0.39119526218360401 -0.25896698815992442 0 0.39295554709344072 -0.26445586107842978 0 0.39702034872720737 -0.26014738253762237 0 0.39295554709344072 -0.26445586107842978 0 0.39707581272688741 -0.26613449373937459 0 0.39702034872720737 -0.26014738253762237 0 0.40314688718896508 -0.2619981766022052 0 0.39707581272688741 -0.26613449373937459 0 0.40314688718896508 -0.2619981766022052 0 0.40257909468765629 -0.25704117102420471 0 0.40998094690083942 -0.2590606397541646 0 0.39702034872720737 -0.26014738253762237 0 0.40314688718896508 -0.2619981766022052 0 0.40257909468765629 -0.25704117102420471 0 0.39640803358832022 -0.25154779433757402 0 0.39702034872720737 -0.26014738253762237 0 0.40257909468765629 -0.25704117102420471 0 0.41087794879613182 -0.2494957955088617 0 0.39640803358832022 -0.25154779433757402 0 0.40257909468765629 -0.25704117102420471 0 0.40514250542832608 -0.27022331558021301 0 0.3964002279028962 -0.26984905957103239 0 0.41345304600685079 -0.26440480953867462 0 0.37946114722675722 -0.27591377557629859 0 0.40514250542832608 -0.27022331558021301 0 0.3964002279028962 -0.26984905957103239 0 0.39707581272688741 -0.26613449373937459 0 0.3964002279028962 -0.26984905957103239 0 0.41345304600685079 -0.26440480953867462 0 0.37946114722675722 -0.27591377557629859 0 0.40514250542832608 -0.27022331558021301 0 0.3964002279028962 -0.26984905957103239 0 0.41345304600685079 -0.26440480953867462 0 0.39567659353887108 -0.29306988619604551 0 0.37946114722675722 -0.27591377557629859 0 0.40514250542832608 -0.27022331558021301 0 0.38774772661347989 -0.26664574742688191 0 0.39295554709344072 -0.26445586107842978 0 0.3964002279028962 -0.26984905957103239 0 0.39295554709344072 -0.26445586107842978 0 0.39707581272688741 -0.26613449373937459 0 0.3964002279028962 -0.26984905957103239 0 0.40514250542832608 -0.27022331558021301 0 0.41345304600685079 -0.26440480953867462 0 0.430823863629894 -0.26453285558412298 0 0.40514250542832608 -0.27022331558021301 0 0.430823863629894 -0.26453285558412298 0 0.40514250542832608 -0.27022331558021301 0 0.42166373126508722 -0.27984448092147479 0 0.41160024963212011 -0.28933460066763711 0 0.40514250542832608 -0.27022331558021301 0 0.42166373126508722 -0.27984448092147479 0 0.430823863629894 -0.26453285558412298 0 0.41087794879613182 -0.2494957955088617 0 0.41984775782459283 -0.2623632460968765 0 0.42854038242645709 -0.26281135800815408 0 0.41087794879613182 -0.2494957955088617 0 0.42854038242645709 -0.26281135800815408 0 0.41087794879613182 -0.2494957955088617 0 0.40257909468765629 -0.25704117102420471 0 0.40998094690083942 -0.2590606397541646 0 0.41087794879613182 -0.2494957955088617 0 0.40998094690083942 -0.2590606397541646 0 0.41984775782459283 -0.2623632460968765 0 0.40314688718896508 -0.2619981766022052 0 0.40998094690083942 -0.2590606397541646 0 0.41345304600685079 -0.26440480953867462 0 0.41345304600685079 -0.26440480953867462 0 0.41984775782459283 -0.2623632460968765 0 0.42854038242645709 -0.26281135800815408 0 0.40998094690083942 -0.2590606397541646 0 0.41345304600685079 -0.26440480953867462 0 0.41984775782459283 -0.2623632460968765 0 0.41345304600685079 -0.26440480953867462 0 0.42854038242645709 -0.26281135800815408 0 0.41345304600685079 -0.26440480953867462 0 0.41984775782459283 -0.2623632460968765 0 0.42656562700980838 -0.24831468624349931 0 0.41087794879613182 -0.2494957955088617 0 0.42854038242645709 -0.26281135800815408 0 0.4477486317760534 -0.26078267557717671 0 0.42854038242645709 -0.26281135800815408 0 0.430823863629894 -0.26453285558412298 0 0.41345304600685079 -0.26440480953867462 0 0.42854038242645709 -0.26281135800815408 0 0.430823863629894 -0.26453285558412298 0 0.42854038242645709 -0.26281135800815408 0 0.430823863629894 -0.26453285558412298 0 0.42656562700980838 -0.24831468624349931 0 0.42854038242645709 -0.26281135800815408 0 0.4372088962240912 -0.25169219704383999 0 0.42166373126508722 -0.27984448092147479 0 0.430823863629894 -0.26453285558412298 0 0.43570592202634773 -0.28205449164250063 0 0.42166373126508722 -0.27984448092147479 0 0.43570592202634773 -0.28205449164250063 0 0.42504611560874761 -0.29307714113289868 0 0.43874415768382158 -0.29310671547163403 0 0.43570592202634773 -0.28205449164250063 0 0.42504611560874761 -0.29307714113289868 0 0.43874415768382158 -0.29310671547163403 0 0.42504611560874761 -0.29307714113289868 0 0.43092107089682352 -0.30573631325696571 0 0.41919911313656122 -0.31385112706466711 0 0.43092107089682352 -0.30573631325696571 0 0.41692698488998292 -0.30249561446253759 0 0.42504611560874761 -0.29307714113289868 0 0.43092107089682352 -0.30573631325696571 0 0.41692698488998292 -0.30249561446253759 0 0.41919911313656122 -0.31385112706466711 0 0.41692698488998292 -0.30249561446253759 0 0.40916221757477672 -0.31142054967536659 0 0.40563314249086863 -0.30155395497769039 0 0.41692698488998292 -0.30249561446253759 0 0.40916221757477672 -0.31142054967536659 0 0.40563314249086863 -0.30155395497769039 0 0.41692698488998292 -0.30249561446253759 0 0.41160024963212011 -0.28933460066763711 0 0.42166373126508722 -0.27984448092147479 0 0.42504611560874761 -0.29307714113289868 0 0.41160024963212011 -0.28933460066763711 0 0.42504611560874761 -0.29307714113289868 0 0.41692698488998292 -0.30249561446253759 0 0.41160024963212011 -0.28933460066763711 0 0.5 -0.5 0 0.47532784176218862 -0.47257481327436679 0 0.43264288253940292 -0.48275234633568048 0 0.5 -0.5 0 0.41749257905485199 -0.50000000000000033 0 0.43264288253940292 -0.48275234633568048 0 0.47532784176218862 -0.47257481327436679 0 0.44779318602395363 -0.46550469267136052 0 0.43264288253940292 -0.48275234633568048 0 0.44779318602395363 -0.46550469267136052 0 0.43264288253940292 -0.48275234633568048 0 0.5 -0.5 0 0.47532784176218862 -0.47257481327436679 0 0.49999999999999828 -0.44642064777577001 0 0.47532784176218862 -0.47257481327436679 0 0.47918453573141367 -0.4495963838019249 0 0.46294348950850428 -0.44825703900704061 0 0.47532784176218862 -0.47257481327436679 0 0.49999999999999828 -0.44642064777577001 0 0.47918453573141367 -0.4495963838019249 0 0.49999999999999828 -0.44642064777577001 0 0.47846681165496419 -0.4311330351505217 0 0.49999999999999828 -0.44642064777577001 0 0.47918453573141367 -0.4495963838019249 0 0.47846681165496419 -0.4311330351505217 0 0.47918453573141367 -0.4495963838019249 0 0.46294348950850428 -0.44825703900704061 0 0.47846681165496419 -0.4311330351505217 0 0.46294348950850428 -0.44825703900704061 0 0.44442683605218691 -0.44583817528272968 0 0.45721208074107311 -0.43281318479414382 0 0.46294348950850428 -0.44825703900704061 0 0.44779318602395363 -0.46550469267136052 0 0.47532784176218862 -0.47257481327436679 0 0.46294348950850428 -0.44825703900704061 0 0.44779318602395363 -0.46550469267136052 0 0.44779318602395363 -0.46550469267136052 0 0.44442683605218691 -0.44583817528272968 0 0.43057418754349119 -0.46211781715143319 0 0.46294348950850428 -0.44825703900704061 0 0.44779318602395363 -0.46550469267136052 0 0.44442683605218691 -0.44583817528272968 0 0.44442683605218691 -0.44583817528272968 0 0.44324354583686831 -0.42153379012121539 0 0.45721208074107311 -0.43281318479414382 0 0.44442683605218691 -0.44583817528272968 0 0.44324354583686831 -0.42153379012121539 0 0.42653452723640378 -0.44279137365393179 0 0.44324354583686831 -0.42153379012121539 0 0.45693362330993059 -0.41584542252527262 0 0.45721208074107311 -0.43281318479414382 0 0.45693362330993059 -0.41584542252527262 0 0.4354004349648965 -0.40055780990002432 0 0.44324354583686831 -0.42153379012121539 0 0.45693362330993059 -0.41584542252527262 0 0.4354004349648965 -0.40055780990002432 0 0.45693362330993059 -0.41584542252527262 0 0.46461049463358839 -0.41117161714406408 0 0.47846681165496419 -0.4311330351505217 0 0.45693362330993059 -0.41584542252527262 0 0.46461049463358839 -0.41117161714406408 0 0.45329728287846061 -0.39963099679296588 0 0.46294348950850428 -0.44825703900704061 0 0.45721208074107311 -0.43281318479414382 0 0.47846681165496419 -0.4311330351505217 0 0.45693362330993059 -0.41584542252527262 0 0.45721208074107311 -0.43281318479414382 0 0.47846681165496419 -0.4311330351505217 0 0.45693362330993059 -0.41584542252527262 0 0.47846681165496419 -0.4311330351505217 0 0.49999999999999828 -0.44642064777577001 0 0.47846681165496419 -0.4311330351505217 0 0.5 -0.42181653977348488 0 0.5 -0.42181653977348488 0 0.48394518954555588 -0.41195106762427058 0 0.49999999999999789 -0.3972124317711998 0 0.47846681165496419 -0.4311330351505217 0 0.5 -0.42181653977348488 0 0.48394518954555588 -0.41195106762427058 0 0.46461049463358839 -0.41117161714406408 0 0.47846681165496419 -0.4311330351505217 0 0.48394518954555588 -0.41195106762427058 0 0.46461049463358839 -0.41117161714406408 0 0.48394518954555588 -0.41195106762427058 0 0.47664864143922919 -0.39842171428208217 0 0.47664864143922919 -0.39842171428208217 0 0.47975395238035062 -0.3854291032725421 0 0.46812846895096999 -0.38912968091376021 0 0.47664864143922919 -0.39842171428208217 0 0.49999999999999789 -0.3972124317711998 0 0.48779058149940679 -0.38751051868815611 0 0.48394518954555588 -0.41195106762427058 0 0.47664864143922919 -0.39842171428208217 0 0.49999999999999789 -0.3972124317711998 0 0.47664864143922919 -0.39842171428208217 0 0.49999999999999789 -0.3972124317711998 0 0.5 -0.37037944899495368 0 0.49999999999999789 -0.3972124317711998 0 0.48779058149940679 -0.38751051868815611 0 0.5 -0.37037944899495368 0 0.48466784746851571 -0.3739080713738358 0 0.48779058149940679 -0.38751051868815611 0 0.48466784746851571 -0.3739080713738358 0 0.47975395238035062 -0.3854291032725421 0 0.47323517146124039 -0.38191256761527542 0 0.48466784746851571 -0.3739080713738358 0 0.48779058149940679 -0.38751051868815611 0 0.47975395238035062 -0.3854291032725421 0 0.47664864143922919 -0.39842171428208217 0 0.48779058149940679 -0.38751051868815611 0 0.47975395238035062 -0.3854291032725421 0 0.47975395238035062 -0.3854291032725421 0 0.47323517146124039 -0.38191256761527542 0 0.46812846895096999 -0.38912968091376021 0 0.46918642870160698 -0.38365020197922722 0 0.47323517146124039 -0.38191256761527542 0 0.46812846895096999 -0.38912968091376021 0 0.4671179630262795 -0.37324494563770522 0 0.46918642870160698 -0.38365020197922722 0 0.47323517146124039 -0.38191256761527542 0 0.45652460043480969 -0.37267172771365881 0 0.4671179630262795 -0.37324494563770522 0 0.46918642870160698 -0.38365020197922722 0 0.45652460043480969 -0.37267172771365881 0 0.46918642870160698 -0.38365020197922722 0 0.45652460043480969 -0.37267172771365881 0 0.45606522570456098 -0.38599652494351028 0 0.44783900322824399 -0.38008781189722518 0 0.45652460043480969 -0.37267172771365881 0 0.46918642870160698 -0.38365020197922722 0 0.45606522570456098 -0.38599652494351028 0 0.46918642870160698 -0.38365020197922722 0 0.45606522570456098 -0.38599652494351028 0 0.46812846895096999 -0.38912968091376021 0 0.46461049463358839 -0.41117161714406408 0 0.47664864143922919 -0.39842171428208217 0 0.45329728287846061 -0.39963099679296588 0 0.47664864143922919 -0.39842171428208217 0 0.45329728287846061 -0.39963099679296588 0 0.47664864143922919 -0.39842171428208217 0 0.46812846895096999 -0.38912968091376021 0 0.45329728287846061 -0.39963099679296588 0 0.46461049463358839 -0.41117161714406408 0 0.45329728287846061 -0.39963099679296588 0 0.45606522570456098 -0.38599652494351028 0 0.46812846895096999 -0.38912968091376021 0 0.45329728287846061 -0.39963099679296588 0 0.45693362330993059 -0.41584542252527262 0 0.45329728287846061 -0.39963099679296588 0 0.4354004349648965 -0.40055780990002432 0 0.45329728287846061 -0.39963099679296588 0 0.4354004349648965 -0.40055780990002432 0 0.45329728287846061 -0.39963099679296588 0 0.4390969294492823 -0.3851451998924304 0 0.4354004349648965 -0.40055780990002432 0 0.45329728287846061 -0.39963099679296588 0 0.4390969294492823 -0.3851451998924304 0 0.45606522570456098 -0.38599652494351028 0 0.4390969294492823 -0.3851451998924304 0 0.44783900322824399 -0.38008781189722518 0 0.45606522570456098 -0.38599652494351028 0 0.45329728287846061 -0.39963099679296588 0 0.4390969294492823 -0.3851451998924304 0 0.4390969294492823 -0.3851451998924304 0 0.43808065797110041 -0.37748478958974491 0 0.44783900322824399 -0.38008781189722518 0 0.42782015831496062 -0.38505662608606978 0 0.4354004349648965 -0.40055780990002432 0 0.41188669282555868 -0.38386409155992901 0 0.42489657602010461 -0.37065940299189432 0 0.4390969294492823 -0.3851451998924304 0 0.42782015831496062 -0.38505662608606978 0 0.42489657602010461 -0.37065940299189432 0 0.4390969294492823 -0.3851451998924304 0 0.43808065797110041 -0.37748478958974491 0 0.42489657602010461 -0.37065940299189432 0 0.4390969294492823 -0.3851451998924304 0 0.4390969294492823 -0.3851451998924304 0 0.42782015831496062 -0.38505662608606978 0 0.4354004349648965 -0.40055780990002432 0 0.4354004349648965 -0.40055780990002432 0 0.41188669282555868 -0.38386409155992901 0 0.4354004349648965 -0.40055780990002432 0 0.40669862042327182 -0.40204417319942209 0 0.4354004349648965 -0.40055780990002432 0 0.40669862042327182 -0.40204417319942209 0 0.41188669282555868 -0.38386409155992901 0 0.42489657602010461 -0.37065940299189432 0 0.42782015831496062 -0.38505662608606978 0 0.41188669282555868 -0.38386409155992901 0 0.42489657602010461 -0.37065940299189432 0 0.4070765621089808 -0.37107032214525337 0 0.41188669282555868 -0.38386409155992901 0 0.4070765621089808 -0.37107032214525337 0 0.39585190457779329 -0.37201308858561799 0 0.39886607975096749 -0.38470810625682389 0 0.40669862042327182 -0.40204417319942209 0 0.41188669282555868 -0.38386409155992901 0 0.39886607975096749 -0.38470810625682389 0 0.4070765621089808 -0.37107032214525337 0 0.41188669282555868 -0.38386409155992901 0 0.39886607975096749 -0.38470810625682389 0 0.39585190457779329 -0.37201308858561799 0 0.39886607975096749 -0.38470810625682389 0 0.38601585554704992 -0.38244526212700758 0 0.39886607975096749 -0.38470810625682389 0 0.38601585554704992 -0.38244526212700758 0 0.37799680588164719 -0.40353053649882148 0 0.38601585554704992 -0.38244526212700758 0 0.37799680588164719 -0.40353053649882148 0 0.38601585554704992 -0.38244526212700758 0 0.37799680588164719 -0.40353053649882148 0 0.36816388811638329 -0.39545065246060412 0 0.37799680588164719 -0.40353053649882148 0 0.37635446215448021 -0.40784891206015261 0 0.37799680588164719 -0.40353053649882148 0 0.37505152225636262 -0.40368306209891941 0 0.37635446215448021 -0.40784891206015261 0 0.37799680588164719 -0.40353053649882148 0 0.37505152225636262 -0.40368306209891941 0 0.40669862042327182 -0.40204417319942209 0 0.39886607975096749 -0.38470810625682389 0 0.37799680588164719 -0.40353053649882148 0 0.40669862042327182 -0.40204417319942209 0 0.37799680588164719 -0.40353053649882148 0 0.40669862042327182 -0.40204417319942209 0 0.38553791301154328 -0.41840677215457472 0 0.40567792500840172 -0.4277251834563135 0 0.40669862042327182 -0.40204417319942209 0 0.37799680588164719 -0.40353053649882148 0 0.38553791301154328 -0.41840677215457472 0 0.38553791301154328 -0.41840677215457472 0 0.36905142820508552 -0.42917232846767789 0 0.37241381966677689 -0.417360225696081 0 0.38553791301154328 -0.41840677215457472 0 0.37635446215448021 -0.40784891206015261 0 0.37241381966677689 -0.417360225696081 0 0.37799680588164719 -0.40353053649882148 0 0.38553791301154328 -0.41840677215457472 0 0.37635446215448021 -0.40784891206015261 0 0.38553791301154328 -0.41840677215457472 0 0.38807715457860831 -0.4388905332329941 0 0.36905142820508552 -0.42917232846767789 0 0.38553791301154328 -0.41840677215457472 0 0.40567792500840172 -0.4277251834563135 0 0.38807715457860831 -0.4388905332329941 0 0.40567792500840172 -0.4277251834563135 0 0.42351101069396863 -0.41893046606618117 0 0.42653452723640378 -0.44279137365393179 0 0.4354004349648965 -0.40055780990002432 0 0.40669862042327182 -0.40204417319942209 0 0.42351101069396863 -0.41893046606618117 0 0.40669862042327182 -0.40204417319942209 0 0.40567792500840172 -0.4277251834563135 0 0.42351101069396863 -0.41893046606618117 0 0.44324354583686831 -0.42153379012121539 0 0.4354004349648965 -0.40055780990002432 0 0.42351101069396863 -0.41893046606618117 0 0.44324354583686831 -0.42153379012121539 0 0.42653452723640378 -0.44279137365393179 0 0.44324354583686831 -0.42153379012121539 0 0.42351101069396863 -0.41893046606618117 0 0.42653452723640378 -0.44279137365393179 0 0.44442683605218691 -0.44583817528272968 0 0.42653452723640378 -0.44279137365393179 0 0.43057418754349119 -0.46211781715143319 0 0.42653452723640378 -0.44279137365393179 0 0.43057418754349119 -0.46211781715143319 0 0.40982550863593931 -0.46404895718664829 0 0.42653452723640378 -0.44279137365393179 0 0.40982550863593931 -0.46404895718664829 0 0.42653452723640378 -0.44279137365393179 0 0.40982550863593931 -0.46404895718664829 0 0.4036378289262339 -0.44671034290208689 0 0.40567792500840172 -0.4277251834563135 0 0.42653452723640378 -0.44279137365393179 0 0.4036378289262339 -0.44671034290208689 0 0.40567792500840172 -0.4277251834563135 0 0.4036378289262339 -0.44671034290208689 0 0.38807715457860831 -0.4388905332329941 0 0.4036378289262339 -0.44671034290208689 0 0.38807715457860831 -0.4388905332329941 0 0.38807402917181633 -0.46009566698054732 0 0.38807715457860831 -0.4388905332329941 0 0.3733961412993268 -0.45022493016754961 0 0.36905142820508552 -0.42917232846767789 0 0.38807715457860831 -0.4388905332329941 0 0.38807402917181633 -0.46009566698054732 0 0.3733961412993268 -0.45022493016754961 0 0.38807402917181633 -0.46009566698054732 0 0.36593927904035028 -0.47432204071884282 0 0.3733961412993268 -0.45022493016754961 0 0.40982550863593931 -0.46404895718664829 0 0.4036378289262339 -0.44671034290208689 0 0.38807402917181633 -0.46009566698054732 0 0.40982550863593931 -0.46404895718664829 0 0.39311649003547477 -0.48530654071936469 0 0.40982550863593931 -0.46404895718664829 0 0.38807402917181633 -0.46009566698054732 0 0.39311649003547477 -0.48530654071936469 0 0.38807402917181633 -0.46009566698054732 0 0.39311649003547477 -0.48530654071936469 0 0.36593927904035028 -0.47432204071884282 0 0.37603974257992701 -0.49999999999999978 0 0.39311649003547477 -0.48530654071936469 0 0.36593927904035028 -0.47432204071884282 0 0.37603974257992701 -0.49999999999999978 0 0.39676616081738958 -0.5 0 0.39311649003547477 -0.48530654071936469 0 0.39676616081738958 -0.5 0 0.39311649003547477 -0.48530654071936469 0 0.41749257905485199 -0.50000000000000033 0 0.40982550863593931 -0.46404895718664829 0 0.41749257905485199 -0.50000000000000033 0 0.43264288253940292 -0.48275234633568048 0 0.40982550863593931 -0.46404895718664829 0 0.39311649003547477 -0.48530654071936469 0 0.41749257905485199 -0.50000000000000033 0 0.43057418754349119 -0.46211781715143319 0 0.40982550863593931 -0.46404895718664829 0 0.43264288253940292 -0.48275234633568048 0 0.44779318602395363 -0.46550469267136052 0 0.43057418754349119 -0.46211781715143319 0 0.43264288253940292 -0.48275234633568048 0 0.41749257905485199 -0.50000000000000033 0 0.43264288253940292 -0.48275234633568048 0 0.32215468257820618 -0.5 0 0.33760568703239408 -0.47417818032706111 0 0.31005432530219129 -0.48106067464861729 0 0.33760568703239408 -0.47417818032706111 0 0.3189449745883719 -0.46117016543644002 0 0.31005432530219129 -0.48106067464861729 0 0.32215468257820618 -0.5 0 0.33760568703239408 -0.47417818032706111 0 0.34909721257906662 -0.5 0 0.37603974257992701 -0.49999999999999978 0 0.34909721257906662 -0.5 0 0.36593927904035028 -0.47432204071884282 0 0.37603974257992701 -0.49999999999999978 0 0.36593927904035028 -0.47432204071884282 0 0.33760568703239408 -0.47417818032706111 0 0.34909721257906662 -0.5 0 0.36593927904035028 -0.47432204071884282 0 0.33760568703239408 -0.47417818032706111 0 0.36593927904035028 -0.47432204071884282 0 0.35583881550077368 -0.44864408143768569 0 0.36593927904035028 -0.47432204071884282 0 0.35583881550077368 -0.44864408143768569 0 0.36593927904035028 -0.47432204071884282 0 0.3733961412993268 -0.45022493016754961 0 0.35583881550077368 -0.44864408143768569 0 0.3733961412993268 -0.45022493016754961 0 0.35583881550077368 -0.44864408143768569 0 0.36905142820508552 -0.42917232846767789 0 0.35583881550077368 -0.44864408143768569 0 0.33540415989768779 -0.44905252560006492 0 0.34573835196119679 -0.42296612215652868 0 0.33760568703239408 -0.47417818032706111 0 0.35583881550077368 -0.44864408143768569 0 0.33540415989768779 -0.44905252560006492 0 0.33760568703239408 -0.47417818032706111 0 0.33540415989768779 -0.44905252560006492 0 0.3189449745883719 -0.46117016543644002 0 0.33540415989768779 -0.44905252560006492 0 0.3189449745883719 -0.46117016543644002 0 0.32126124445813709 -0.43429719032362252 0 0.3189449745883719 -0.46117016543644002 0 0.32126124445813709 -0.43429719032362252 0 0.30480654487456732 -0.44641521679941309 0 0.32126124445813709 -0.43429719032362252 0 0.3193156137706864 -0.40941365839269389 0 0.29937418247959258 -0.41817563384508599 0 0.3193156137706864 -0.40941365839269389 0 0.34573835196119679 -0.42296612215652868 0 0.33563788842162012 -0.39728816287537172 0 0.34573835196119679 -0.42296612215652868 0 0.33563788842162012 -0.39728816287537172 0 0.33540415989768779 -0.44905252560006492 0 0.32126124445813709 -0.43429719032362252 0 0.34573835196119679 -0.42296612215652868 0 0.32126124445813709 -0.43429719032362252 0 0.3193156137706864 -0.40941365839269389 0 0.34573835196119679 -0.42296612215652868 0 0.35583881550077368 -0.44864408143768569 0 0.34573835196119679 -0.42296612215652868 0 0.36905142820508552 -0.42917232846767789 0 0.35583881550077368 -0.44864408143768569 0 0.34573835196119679 -0.42296612215652868 0 0.36905142820508552 -0.42917232846767789 0 0.37241381966677689 -0.417360225696081 0 0.36195200988480669 -0.41065981681110758 0 0.36990343230398692 -0.40830781576793279 0 0.37241381966677689 -0.417360225696081 0 0.36195200988480669 -0.41065981681110758 0 0.37635446215448021 -0.40784891206015261 0 0.36990343230398692 -0.40830781576793279 0 0.37241381966677689 -0.417360225696081 0 0.37505152225636262 -0.40368306209891941 0 0.37635446215448021 -0.40784891206015261 0 0.36990343230398692 -0.40830781576793279 0 0.36990343230398692 -0.40830781576793279 0 0.36195200988480669 -0.41065981681110758 0 0.36876771314038492 -0.40452533678464098 0 0.34573835196119679 -0.42296612215652868 0 0.36195200988480669 -0.41065981681110758 0 0.35211107663302149 -0.40015425695529971 0 0.34573835196119679 -0.42296612215652868 0 0.36905142820508552 -0.42917232846767789 0 0.36195200988480669 -0.41065981681110758 0 0.34573835196119679 -0.42296612215652868 0 0.35211107663302149 -0.40015425695529971 0 0.33563788842162012 -0.39728816287537172 0 0.35211107663302149 -0.40015425695529971 0 0.35352794608594401 -0.38791341326287138 0 0.33563788842162012 -0.39728816287537172 0 0.35211107663302149 -0.40015425695529971 0 0.36816388811638329 -0.39545065246060412 0 0.35352794608594401 -0.38791341326287138 0 0.36195200988480669 -0.41065981681110758 0 0.36816388811638329 -0.39545065246060412 0 0.36876771314038492 -0.40452533678464098 0 0.36195200988480669 -0.41065981681110758 0 0.35211107663302149 -0.40015425695529971 0 0.36816388811638329 -0.39545065246060412 0 0.37505152225636262 -0.40368306209891941 0 0.36816388811638329 -0.39545065246060412 0 0.36876771314038492 -0.40452533678464098 0 0.37799680588164719 -0.40353053649882148 0 0.37505152225636262 -0.40368306209891941 0 0.36816388811638329 -0.39545065246060412 0 0.37505152225636262 -0.40368306209891941 0 0.36990343230398692 -0.40830781576793279 0 0.36876771314038492 -0.40452533678464098 0 0.38601585554704992 -0.38244526212700758 0 0.36816388811638329 -0.39545065246060412 0 0.3689120952668708 -0.37284951495870189 0 0.36816388811638329 -0.39545065246060412 0 0.35352794608594401 -0.38791341326287138 0 0.3689120952668708 -0.37284951495870189 0 0.35352794608594401 -0.38791341326287138 0 0.33563788842162012 -0.39728816287537172 0 0.34467783115022588 -0.37252705130409253 0 0.35352794608594401 -0.38791341326287138 0 0.3689120952668708 -0.37284951495870189 0 0.34467783115022588 -0.37252705130409253 0 0.33563788842162012 -0.39728816287537172 0 0.3255374248820434 -0.37161020359421471 0 0.33563788842162012 -0.39728816287537172 0 0.34467783115022588 -0.37252705130409253 0 0.3255374248820434 -0.37161020359421471 0 0.3193156137706864 -0.40941365839269389 0 0.33563788842162012 -0.39728816287537172 0 0.30534853388527528 -0.38930881101125692 0 0.33563788842162012 -0.39728816287537172 0 0.30534853388527528 -0.38930881101125692 0 0.3255374248820434 -0.37161020359421471 0 0.30534853388527528 -0.38930881101125692 0 0.3255374248820434 -0.37161020359421471 0 0.30525369772634148 -0.37164386163485291 0 0.30534853388527528 -0.38930881101125692 0 0.28783989868818821 -0.37644057584389279 0 0.30525369772634148 -0.37164386163485291 0 0.3193156137706864 -0.40941365839269389 0 0.30534853388527528 -0.38930881101125692 0 0.29937418247959258 -0.41817563384508599 0 0.30534853388527528 -0.38930881101125692 0 0.28922044672054198 -0.39637746652331562 0 0.29937418247959258 -0.41817563384508599 0 0.28922044672054198 -0.39637746652331562 0 0.27510086349567708 -0.39798721671617321 0 0.28320928432356041 -0.41012407252970262 0 0.28922044672054198 -0.39637746652331562 0 0.28783989868818821 -0.37644057584389279 0 0.27924907625512951 -0.38731579260330862 0 0.30534853388527528 -0.38930881101125692 0 0.28922044672054198 -0.39637746652331562 0 0.28783989868818821 -0.37644057584389279 0 0.30534853388527528 -0.38930881101125692 0 0.28783989868818821 -0.37644057584389279 0 0.28783989868818821 -0.37644057584389279 0 0.27447250226623809 -0.37821124143188289 0 0.27924907625512951 -0.38731579260330862 0 0.27447250226623809 -0.37821124143188289 0 0.27924907625512951 -0.38731579260330862 0 0.26961167010500181 -0.38756246250127813 0 0.27447250226623809 -0.37821124143188289 0 0.26961167010500181 -0.38756246250127813 0 0.26423397132697279 -0.37890457124200982 0 0.26961167010500181 -0.38756246250127813 0 0.26423397132697279 -0.37890457124200982 0 0.25687819372407023 -0.38903915957053298 0 0.26423397132697279 -0.37890457124200982 0 0.25687819372407023 -0.38903915957053298 0 0.24987622704845311 -0.37613765202982719 0 0.25108303853213881 -0.40002667887407228 0 0.26390234922262928 -0.39930308446362528 0 0.256136481120742 -0.41447562176841068 0 0.25687819372407023 -0.38903915957053298 0 0.25108303853213881 -0.40002667887407228 0 0.24309899287842279 -0.39271330151873202 0 0.25687819372407023 -0.38903915957053298 0 0.25108303853213881 -0.40002667887407228 0 0.26390234922262928 -0.39930308446362528 0 0.26961167010500181 -0.38756246250127813 0 0.25687819372407023 -0.38903915957053298 0 0.26390234922262928 -0.39930308446362528 0 0.26390234922262928 -0.39930308446362528 0 0.27510086349567708 -0.39798721671617321 0 0.2708804648698091 -0.41009655218672442 0 0.26961167010500181 -0.38756246250127813 0 0.26390234922262928 -0.39930308446362528 0 0.27510086349567708 -0.39798721671617321 0 0.28922044672054198 -0.39637746652331562 0 0.27924907625512951 -0.38731579260330862 0 0.27510086349567708 -0.39798721671617321 0 0.27924907625512951 -0.38731579260330862 0 0.26961167010500181 -0.38756246250127813 0 0.27510086349567708 -0.39798721671617321 0 0.27510086349567708 -0.39798721671617321 0 0.2708804648698091 -0.41009655218672442 0 0.28320928432356041 -0.41012407252970262 0 0.2708804648698091 -0.41009655218672442 0 0.256136481120742 -0.41447562176841068 0 0.27433621812851161 -0.42550461519375637 0 0.2708804648698091 -0.41009655218672442 0 0.27433621812851161 -0.42550461519375637 0 0.28320928432356041 -0.41012407252970262 0 0.26390234922262928 -0.39930308446362528 0 0.2708804648698091 -0.41009655218672442 0 0.256136481120742 -0.41447562176841068 0 0.25108303853213881 -0.40002667887407228 0 0.256136481120742 -0.41447562176841068 0 0.24629253832767661 -0.41022035877505542 0 0.256136481120742 -0.41447562176841068 0 0.25513396950241118 -0.43290986753561628 0 0.2453827316299185 -0.42192330194190181 0 0.256136481120742 -0.41447562176841068 0 0.25513396950241118 -0.43290986753561628 0 0.27433621812851161 -0.42550461519375637 0 0.25513396950241118 -0.43290986753561628 0 0.27433621812851161 -0.42550461519375637 0 0.26752346795397081 -0.44788636482661331 0 0.27433621812851161 -0.42550461519375637 0 0.29937418247959258 -0.41817563384508599 0 0.28546596250580908 -0.44246723239800262 0 0.29937418247959258 -0.41817563384508599 0 0.30480654487456732 -0.44641521679941309 0 0.28546596250580908 -0.44246723239800262 0 0.28922044672054198 -0.39637746652331562 0 0.28320928432356041 -0.41012407252970262 0 0.29937418247959258 -0.41817563384508599 0 0.27433621812851161 -0.42550461519375637 0 0.28320928432356041 -0.41012407252970262 0 0.29937418247959258 -0.41817563384508599 0 0.32126124445813709 -0.43429719032362252 0 0.29937418247959258 -0.41817563384508599 0 0.30480654487456732 -0.44641521679941309 0 0.3189449745883719 -0.46117016543644002 0 0.30480654487456732 -0.44641521679941309 0 0.28880919487484108 -0.4658549053918814 0 0.30480654487456732 -0.44641521679941309 0 0.28880919487484108 -0.4658549053918814 0 0.28546596250580908 -0.44246723239800262 0 0.27433621812851161 -0.42550461519375637 0 0.28546596250580908 -0.44246723239800262 0 0.26752346795397081 -0.44788636482661331 0 0.28880919487484108 -0.4658549053918814 0 0.28546596250580908 -0.44246723239800262 0 0.26752346795397081 -0.44788636482661331 0 0.25513396950241118 -0.43290986753561628 0 0.26752346795397081 -0.44788636482661331 0 0.24480843210435321 -0.45079661158300749 0 0.26752346795397081 -0.44788636482661331 0 0.2588368117714554 -0.46700690363883102 0 0.24480843210435321 -0.45079661158300749 0 0.28880919487484108 -0.4658549053918814 0 0.26752346795397081 -0.44788636482661331 0 0.2588368117714554 -0.46700690363883102 0 0.28880919487484108 -0.4658549053918814 0 0.2588368117714554 -0.46700690363883102 0 0.27227655507569209 -0.48076744006000099 0 0.2588368117714554 -0.46700690363883102 0 0.27227655507569209 -0.48076744006000099 0 0.25270961841775552 -0.48460016746525392 0 0.2588368117714554 -0.46700690363883102 0 0.25270961841775552 -0.48460016746525392 0 0.23949561189523169 -0.47426551941090739 0 0.25270961841775552 -0.48460016746525392 0 0.26826962257648529 -0.5 0 0.2413270925756249 -0.5 0 0.27227655507569209 -0.48076744006000099 0 0.25270961841775552 -0.48460016746525392 0 0.26826962257648529 -0.5 0 0.27227655507569209 -0.48076744006000099 0 0.26826962257648529 -0.5 0 0.29521215257734579 -0.5 0 0.28880919487484108 -0.4658549053918814 0 0.27227655507569209 -0.48076744006000099 0 0.29521215257734579 -0.5 0 0.28880919487484108 -0.4658549053918814 0 0.29521215257734579 -0.5 0 0.31005432530219129 -0.48106067464861729 0 0.3189449745883719 -0.46117016543644002 0 0.28880919487484108 -0.4658549053918814 0 0.31005432530219129 -0.48106067464861729 0 0.32215468257820618 -0.5 0 0.29521215257734579 -0.5 0 0.31005432530219129 -0.48106067464861729 0 0.33463237856908817 -0.28956894479377399 0 0.33485830675890288 -0.30442904333306592 0 0.35657459314761941 -0.2860097891906741 0 0.33463237856908817 -0.28956894479377399 0 0.32894302133540282 -0.28710755170783531 0 0.35195887039823659 -0.28200771363307098 0 0.32894302133540282 -0.28710755170783531 0 0.35195887039823659 -0.28200771363307098 0 0.32894302133540282 -0.28710755170783531 0 0.33255663915089151 -0.29722249741805129 0 0.33463237856908817 -0.28956894479377399 0 0.32894302133540282 -0.28710755170783531 0 0.33255663915089151 -0.29722249741805129 0 0.32894302133540282 -0.28710755170783531 0 0.33255663915089151 -0.29722249741805129 0 0.32301709761150521 -0.2972128627914089 0 0.33485830675890288 -0.30442904333306592 0 0.34824447571033601 -0.30253517369681238 0 0.34533870308018377 -0.31598934501886372 0 0.33485830675890288 -0.30442904333306592 0 0.33255663915089151 -0.29722249741805129 0 0.32434770264142349 -0.30499280498860082 0 0.33463237856908817 -0.28956894479377399 0 0.33485830675890288 -0.30442904333306592 0 0.33255663915089151 -0.29722249741805129 0 0.32301709761150521 -0.2972128627914089 0 0.32434770264142349 -0.30499280498860082 0 0.3171485971304504 -0.30589952111326829 0 0.32434770264142349 -0.30499280498860082 0 0.3171485971304504 -0.30589952111326829 0 0.31314202037018413 -0.32284829747545468 0 0.33485830675890288 -0.30442904333306592 0 0.32434770264142349 -0.30499280498860082 0 0.31314202037018413 -0.32284829747545468 0 0.33255663915089151 -0.29722249741805129 0 0.32301709761150521 -0.2972128627914089 0 0.32434770264142349 -0.30499280498860082 0 0.3171485971304504 -0.30589952111326829 0 0.31208952779935789 -0.2908419387292881 0 0.30833746379913463 -0.30503745501229762 0 0.32301709761150521 -0.2972128627914089 0 0.3171485971304504 -0.30589952111326829 0 0.31208952779935789 -0.2908419387292881 0 0.32894302133540282 -0.28710755170783531 0 0.31611371382327402 -0.28007222207304999 0 0.31208952779935789 -0.2908419387292881 0 0.32894302133540282 -0.28710755170783531 0 0.32301709761150521 -0.2972128627914089 0 0.31208952779935789 -0.2908419387292881 0 0.32894302133540282 -0.28710755170783531 0 0.31208952779935789 -0.2908419387292881 0 0.32894302133540282 -0.28710755170783531 0 0.32245882367699719 -0.26895751187574157 0 0.32894302133540282 -0.28710755170783531 0 0.31611371382327402 -0.28007222207304999 0 0.32245882367699719 -0.26895751187574157 0 0.31611371382327402 -0.28007222207304999 0 0.32245882367699719 -0.26895751187574157 0 0.30706455279928557 -0.27339796693147528 0 0.32245882367699719 -0.26895751187574157 0 0.30981211567343969 -0.26250129009931661 0 0.30706455279928557 -0.27339796693147528 0 0.32245882367699719 -0.26895751187574157 0 0.31597462601859122 -0.25080747204364812 0 0.32245882367699719 -0.26895751187574157 0 0.31597462601859122 -0.25080747204364812 0 0.30981211567343969 -0.26250129009931661 0 0.32245882367699719 -0.26895751187574157 0 0.31597462601859122 -0.25080747204364812 0 0.33396674820841349 -0.26640759283836002 0 0.31597462601859122 -0.25080747204364812 0 0.33396674820841349 -0.26640759283836002 0 0.33517615116993849 -0.24743488902137309 0 0.33396674820841349 -0.26640759283836002 0 0.35185333732921159 -0.25428502110151557 0 0.33517615116993849 -0.24743488902137309 0 0.31597462601859122 -0.25080747204364812 0 0.33396674820841349 -0.26640759283836002 0 0.32894302133540282 -0.28710755170783531 0 0.32245882367699719 -0.26895751187574157 0 0.33396674820841349 -0.26640759283836002 0 0.33396674820841349 -0.26640759283836002 0 0.35195887039823659 -0.28200771363307098 0 0.32894302133540282 -0.28710755170783531 0 0.33396674820841349 -0.26640759283836002 0 0.35195887039823659 -0.28200771363307098 0 0.33396674820841349 -0.26640759283836002 0 0.35159414215374007 -0.26901089914998932 0 0.35195887039823659 -0.28200771363307098 0 0.35159414215374007 -0.26901089914998932 0 0.36459381448795669 -0.2792080702757721 0 0.35195887039823659 -0.28200771363307098 0 0.36459381448795669 -0.2792080702757721 0 0.35195887039823659 -0.28200771363307098 0 0.33396674820841349 -0.26640759283836002 0 0.35159414215374007 -0.26901089914998932 0 0.35185333732921159 -0.25428502110151557 0 0.35159414215374007 -0.26901089914998932 0 0.35185333732921159 -0.25428502110151557 0 0.36435388824524378 -0.26651308148643732 0 0.37477580018058132 -0.24095111383496479 0 0.37683953433427181 -0.26882153263446662 0 0.36563983252638571 -0.25462703483095822 0 0.36075586336603621 -0.2426037127049111 0 0.35185333732921159 -0.25428502110151557 0 0.36563983252638571 -0.25462703483095822 0 0.35185333732921159 -0.25428502110151557 0 0.36563983252638571 -0.25462703483095822 0 0.36435388824524378 -0.26651308148643732 0 0.37683953433427181 -0.26882153263446662 0 0.36563983252638571 -0.25462703483095822 0 0.36435388824524378 -0.26651308148643732 0 0.36459381448795669 -0.2792080702757721 0 0.36308990924476459 -0.28048364807874221 0 0.35195887039823659 -0.28200771363307098 0 0.36459381448795669 -0.2792080702757721 0 0.36308990924476459 -0.28048364807874221 0 0.37273728942595791 -0.27740364396778311 0 0.36459381448795669 -0.2792080702757721 0 0.36308990924476459 -0.28048364807874221 0 0.35159414215374007 -0.26901089914998932 0 0.36459381448795669 -0.2792080702757721 0 0.36435388824524378 -0.26651308148643732 0 0.37683953433427181 -0.26882153263446662 0 0.36459381448795669 -0.2792080702757721 0 0.36435388824524378 -0.26651308148643732 0 0.36459381448795669 -0.2792080702757721 0 0.37273728942595791 -0.27740364396778311 0 0.37683953433427181 -0.26882153263446662 0 0.36459381448795669 -0.2792080702757721 0 0.37273728942595791 -0.27740364396778311 0 0.37683953433427181 -0.26882153263446662 0 0.36459381448795669 -0.2792080702757721 0 0.36308990924476459 -0.28048364807874221 0 0.37273728942595791 -0.27740364396778311 0 0.37795999762798671 -0.28395322059410122 0 0.37273728942595791 -0.27740364396778311 0 0.36936745264149701 -0.28627283508716472 0 0.35657459314761941 -0.2860097891906741 0 0.35620629985463748 -0.30371251724464648 0 0.37101427446782781 -0.29852975601036341 0 0.36308990924476459 -0.28048364807874221 0 0.37273728942595791 -0.27740364396778311 0 0.36936745264149701 -0.28627283508716472 0 0.37519981906117678 -0.29055939022370142 0 0.37795999762798671 -0.28395322059410122 0 0.36936745264149701 -0.28627283508716472 0 0.37519981906117678 -0.29055939022370142 0 0.36936745264149701 -0.28627283508716472 0 0.37101427446782781 -0.29852975601036341 0 0.36936745264149701 -0.28627283508716472 0 0.35657459314761941 -0.2860097891906741 0 0.37101427446782781 -0.29852975601036341 0 0.35657459314761941 -0.2860097891906741 0 0.37101427446782781 -0.29852975601036341 0 0.36308990924476459 -0.28048364807874221 0 0.36936745264149701 -0.28627283508716472 0 0.35657459314761941 -0.2860097891906741 0 0.36308990924476459 -0.28048364807874221 0 0.35657459314761941 -0.2860097891906741 0 0.36308990924476459 -0.28048364807874221 0 0.35366972758071469 -0.28349111722646431 0 0.33463237856908817 -0.28956894479377399 0 0.35366972758071469 -0.28349111722646431 0 0.33463237856908817 -0.28956894479377399 0 0.35366972758071469 -0.28349111722646431 0 0.35195887039823659 -0.28200771363307098 0 0.36308990924476459 -0.28048364807874221 0 0.35366972758071469 -0.28349111722646431 0 0.35195887039823659 -0.28200771363307098 0 0.33485830675890288 -0.30442904333306592 0 0.35657459314761941 -0.2860097891906741 0 0.36308990924476459 -0.28048364807874221 0 0.35366972758071469 -0.28349111722646431 0 0.35657459314761941 -0.2860097891906741 0 0.33463237856908817 -0.28956894479377399 0 0.35366972758071469 -0.28349111722646431 0 0.35657459314761941 -0.2860097891906741 0 0.35366972758071469 -0.28349111722646431 0 0.35657459314761941 -0.2860097891906741 0 0.35366972758071469 -0.28349111722646431 0 0.35195887039823659 -0.28200771363307098 0 0.35620629985463748 -0.30371251724464648 0 0.36380134767337091 -0.31365371592763602 0 0.34533870308018377 -0.31598934501886372 0 0.35657459314761941 -0.2860097891906741 0 0.34824447571033601 -0.30253517369681238 0 0.35620629985463748 -0.30371251724464648 0 0.33485830675890288 -0.30442904333306592 0 0.35657459314761941 -0.2860097891906741 0 0.34824447571033601 -0.30253517369681238 0 0.34824447571033601 -0.30253517369681238 0 0.35620629985463748 -0.30371251724464648 0 0.34533870308018377 -0.31598934501886372 0 0.38545395578803499 -0.31104972283005378 0 0.37101427446782781 -0.29852975601036341 0 0.36380134767337091 -0.31365371592763602 0 0.35620629985463748 -0.30371251724464648 0 0.37101427446782781 -0.29852975601036341 0 0.36380134767337091 -0.31365371592763602 0 0.38545395578803499 -0.31104972283005378 0 0.36380134767337091 -0.31365371592763602 0 0.36945761595668469 -0.32738841673247931 0 0.36380134767337091 -0.31365371592763602 0 0.36945761595668469 -0.32738841673247931 0 0.35533723689285712 -0.32525253772940937 0 0.36945761595668469 -0.32738841673247931 0 0.35618710249729552 -0.34088690244721892 0 0.35533723689285712 -0.32525253772940937 0 0.36945761595668469 -0.32738841673247931 0 0.35618710249729552 -0.34088690244721892 0 0.37368731816096312 -0.34897020548070451 0 0.35618710249729552 -0.34088690244721892 0 0.33810128782584858 -0.35072533414536311 0 0.34064131712366241 -0.33181983138849169 0 0.35618710249729552 -0.34088690244721892 0 0.35533723689285712 -0.32525253772940937 0 0.34064131712366241 -0.33181983138849169 0 0.34533870308018377 -0.31598934501886372 0 0.35533723689285712 -0.32525253772940937 0 0.34064131712366241 -0.33181983138849169 0 0.36380134767337091 -0.31365371592763602 0 0.34533870308018377 -0.31598934501886372 0 0.35533723689285712 -0.32525253772940937 0 0.3689120952668708 -0.37284951495870189 0 0.37368731816096312 -0.34897020548070451 0 0.35738528973841999 -0.35772904562383351 0 0.35618710249729552 -0.34088690244721892 0 0.37368731816096312 -0.34897020548070451 0 0.35738528973841999 -0.35772904562383351 0 0.35618710249729552 -0.34088690244721892 0 0.35738528973841999 -0.35772904562383351 0 0.33810128782584858 -0.35072533414536311 0 0.35738528973841999 -0.35772904562383351 0 0.34467783115022588 -0.37252705130409253 0 0.33810128782584858 -0.35072533414536311 0 0.3689120952668708 -0.37284951495870189 0 0.35738528973841999 -0.35772904562383351 0 0.34467783115022588 -0.37252705130409253 0 0.34467783115022588 -0.37252705130409253 0 0.33810128782584858 -0.35072533414536311 0 0.3255374248820434 -0.37161020359421471 0 0.31543696134246668 -0.34593224431305769 0 0.3255374248820434 -0.37161020359421471 0 0.30900602422585888 -0.35865430802761772 0 0.31543696134246668 -0.34593224431305769 0 0.3255374248820434 -0.37161020359421471 0 0.33810128782584858 -0.35072533414536311 0 0.31543696134246668 -0.34593224431305769 0 0.3255374248820434 -0.37161020359421471 0 0.3255374248820434 -0.37161020359421471 0 0.30525369772634148 -0.37164386163485291 0 0.30900602422585888 -0.35865430802761772 0 0.34533870308018377 -0.31598934501886372 0 0.33130220335757699 -0.32186248444176119 0 0.34064131712366241 -0.33181983138849169 0 0.33485830675890288 -0.30442904333306592 0 0.34533870308018377 -0.31598934501886372 0 0.33130220335757699 -0.32186248444176119 0 0.33810128782584858 -0.35072533414536311 0 0.34064131712366241 -0.33181983138849169 0 0.3268430880468266 -0.33457206034663262 0 0.33130220335757699 -0.32186248444176119 0 0.34064131712366241 -0.33181983138849169 0 0.3268430880468266 -0.33457206034663262 0 0.31543696134246668 -0.34593224431305769 0 0.3268430880468266 -0.33457206034663262 0 0.31314202037018413 -0.32284829747545468 0 0.33810128782584858 -0.35072533414536311 0 0.31543696134246668 -0.34593224431305769 0 0.3268430880468266 -0.33457206034663262 0 0.33130220335757699 -0.32186248444176119 0 0.3268430880468266 -0.33457206034663262 0 0.31314202037018413 -0.32284829747545468 0 0.33485830675890288 -0.30442904333306592 0 0.31314202037018413 -0.32284829747545468 0 0.3171485971304504 -0.30589952111326829 0 0.31314202037018413 -0.32284829747545468 0 0.3109911447756647 -0.31350988965823029 0 0.33485830675890288 -0.30442904333306592 0 0.33130220335757699 -0.32186248444176119 0 0.31314202037018413 -0.32284829747545468 0 0.31314202037018413 -0.32284829747545468 0 0.30533649780288991 -0.32025428503190068 0 0.3109911447756647 -0.31350988965823029 0 0.30533649780288991 -0.32025428503190068 0 0.3109911447756647 -0.31350988965823029 0 0.30833746379913463 -0.30503745501229762 0 0.31543696134246668 -0.34593224431305769 0 0.30533649780288991 -0.32025428503190068 0 0.30314188851555429 -0.3464145030398364 0 0.30533649780288991 -0.32025428503190068 0 0.29792146783109758 -0.32077626486014349 0 0.30314188851555429 -0.3464145030398364 0 0.31543696134246668 -0.34593224431305769 0 0.31314202037018413 -0.32284829747545468 0 0.30533649780288991 -0.32025428503190068 0 0.29792146783109758 -0.32077626486014349 0 0.30314188851555429 -0.3464145030398364 0 0.31543696134246668 -0.34593224431305769 0 0.30533649780288991 -0.32025428503190068 0 0.29792146783109758 -0.32077626486014349 0 0.29422135484035322 -0.33366994296298719 0 0.30314188851555429 -0.3464145030398364 0 0.29422135484035322 -0.33366994296298719 0 0.29546103181119637 -0.34185893253319311 0 0.30314188851555429 -0.3464145030398364 0 0.29422135484035322 -0.33366994296298719 0 0.29546103181119637 -0.34185893253319311 0 0.28827175492889229 -0.34275780055790278 0 0.29546103181119637 -0.34185893253319311 0 0.28827175492889229 -0.34275780055790278 0 0.29811044553331972 -0.34650788457159087 0 0.29422135484035322 -0.33366994296298719 0 0.28827175492889229 -0.34275780055790278 0 0.27955848846152698 -0.33666113426449551 0 0.29422135484035322 -0.33366994296298719 0 0.28744860979629389 -0.32474860906702402 0 0.27955848846152698 -0.33666113426449551 0 0.28744860979629389 -0.32474860906702402 0 0.29019889155513462 -0.31620785207956748 0 0.28097437988070417 -0.31138482246715898 0 0.29792146783109758 -0.32077626486014349 0 0.29019889155513462 -0.31620785207956748 0 0.29244758100571983 -0.32385066724243061 0 0.29422135484035322 -0.33366994296298719 0 0.28744860979629389 -0.32474860906702402 0 0.29244758100571983 -0.32385066724243061 0 0.29792146783109758 -0.32077626486014349 0 0.29422135484035322 -0.33366994296298719 0 0.29244758100571983 -0.32385066724243061 0 0.28744860979629389 -0.32474860906702402 0 0.29019889155513462 -0.31620785207956748 0 0.29244758100571983 -0.32385066724243061 0 0.30525369772634148 -0.37164386163485291 0 0.30031449930387721 -0.36082981960256849 0 0.30900602422585888 -0.35865430802761772 0 0.30525369772634148 -0.37164386163485291 0 0.30031449930387721 -0.36082981960256849 0 0.29483415024835152 -0.36747827247447862 0 0.30080593951138668 -0.35381036279877531 0 0.30900602422585888 -0.35865430802761772 0 0.30314188851555429 -0.3464145030398364 0 0.30080593951138668 -0.35381036279877531 0 0.29811044553331972 -0.34650788457159087 0 0.29345683997832372 -0.35664529875226292 0 0.30031449930387721 -0.36082981960256849 0 0.30080593951138668 -0.35381036279877531 0 0.30900602422585888 -0.35865430802761772 0 0.30031449930387721 -0.36082981960256849 0 0.30080593951138668 -0.35381036279877531 0 0.29345683997832372 -0.35664529875226292 0 0.31543696134246668 -0.34593224431305769 0 0.30900602422585888 -0.35865430802761772 0 0.30314188851555429 -0.3464145030398364 0 0.30080593951138668 -0.35381036279877531 0 0.30314188851555429 -0.3464145030398364 0 0.29811044553331972 -0.34650788457159087 0 0.29546103181119637 -0.34185893253319311 0 0.30314188851555429 -0.3464145030398364 0 0.29811044553331972 -0.34650788457159087 0 0.29811044553331972 -0.34650788457159087 0 0.29345683997832372 -0.35664529875226292 0 0.28122462644821988 -0.35688066365974619 0 0.28827175492889229 -0.34275780055790278 0 0.29811044553331972 -0.34650788457159087 0 0.28122462644821988 -0.35688066365974619 0 0.28827175492889229 -0.34275780055790278 0 0.28122462644821988 -0.35688066365974619 0 0.27955848846152698 -0.33666113426449551 0 0.29811044553331972 -0.34650788457159087 0 0.28122462644821988 -0.35688066365974619 0 0.29345683997832372 -0.35664529875226292 0 0.28676543400443838 -0.36101512068260139 0 0.28122462644821988 -0.35688066365974619 0 0.28676543400443838 -0.36101512068260139 0 0.28122462644821988 -0.35688066365974619 0 0.28783989868818821 -0.37644057584389279 0 0.30525369772634148 -0.37164386163485291 0 0.29483415024835152 -0.36747827247447862 0 0.28783989868818821 -0.37644057584389279 0 0.28676543400443838 -0.36101512068260139 0 0.27033126349110148 -0.36357234067652822 0 0.29357505063040601 -0.36145191270551408 0 0.28676543400443838 -0.36101512068260139 0 0.29483415024835152 -0.36747827247447862 0 0.30031449930387721 -0.36082981960256849 0 0.29357505063040601 -0.36145191270551408 0 0.29483415024835152 -0.36747827247447862 0 0.30031449930387721 -0.36082981960256849 0 0.29345683997832372 -0.35664529875226292 0 0.29357505063040601 -0.36145191270551408 0 0.29345683997832372 -0.35664529875226292 0 0.29357505063040601 -0.36145191270551408 0 0.28676543400443838 -0.36101512068260139 0 0.28783989868818821 -0.37644057584389279 0 0.28676543400443838 -0.36101512068260139 0 0.29483415024835152 -0.36747827247447862 0 0.28783989868818821 -0.37644057584389279 0 0.27033126349110148 -0.36357234067652822 0 0.28783989868818821 -0.37644057584389279 0 0.27447250226623809 -0.37821124143188289 0 0.27033126349110148 -0.36357234067652822 0 0.28676543400443838 -0.36101512068260139 0 0.27033126349110148 -0.36357234067652822 0 0.28122462644821988 -0.35688066365974619 0 0.27447250226623809 -0.37821124143188289 0 0.26423397132697279 -0.37890457124200982 0 0.27033126349110148 -0.36357234067652822 0 0.27033126349110148 -0.36357234067652822 0 0.28122462644821988 -0.35688066365974619 0 0.28122462644821988 -0.35688066365974619 0 0.26082083375001269 -0.34165569813656432 0 0.27033126349110148 -0.36357234067652822 0 0.28122462644821988 -0.35688066365974619 0 0.26082083375001269 -0.34165569813656432 0 0.28122462644821988 -0.35688066365974619 0 0.27955848846152698 -0.33666113426449551 0 0.26082083375001269 -0.34165569813656432 0 0.27033126349110148 -0.36357234067652822 0 0.25099839141978419 -0.34936335514031408 0 0.27033126349110148 -0.36357234067652822 0 0.25099839141978419 -0.34936335514031408 0 0.26082083375001269 -0.34165569813656432 0 0.27033126349110148 -0.36357234067652822 0 0.25099839141978419 -0.34936335514031408 0 0.24534349961555019 -0.36253701182870851 0 0.26423397132697279 -0.37890457124200982 0 0.27033126349110148 -0.36357234067652822 0 0.24987622704845311 -0.37613765202982719 0 0.27033126349110148 -0.36357234067652822 0 0.24534349961555019 -0.36253701182870851 0 0.24987622704845311 -0.37613765202982719 0 0.27033126349110148 -0.36357234067652822 0 0.24987622704845311 -0.37613765202982719 0 0.28744860979629389 -0.32474860906702402 0 0.26598899428458778 -0.32103793389256657 0 0.27955848846152698 -0.33666113426449551 0 0.28744860979629389 -0.32474860906702402 0 0.26598899428458778 -0.32103793389256657 0 0.28097437988070417 -0.31138482246715898 0 0.26598899428458778 -0.32103793389256657 0 0.27955848846152698 -0.33666113426449551 0 0.26082083375001269 -0.34165569813656432 0 0.26082083375001269 -0.34165569813656432 0 0.2404170410518052 -0.32643073261338312 0 0.26598899428458778 -0.32103793389256657 0 0.26082083375001269 -0.34165569813656432 0 0.2404170410518052 -0.32643073261338312 0 0.25099839141978419 -0.34936335514031408 0 0.26082083375001269 -0.34165569813656432 0 0.2404170410518052 -0.32643073261338312 0 0.26598899428458778 -0.32103793389256657 0 0.24423538898563429 -0.30587701823941071 0 0.2404170410518052 -0.32643073261338312 0 0.26846821806613752 -0.30050752245993012 0 0.24423538898563429 -0.30587701823941071 0 0.25301376652256202 -0.2892367573709661 0 0.26846821806613752 -0.30050752245993012 0 0.24423538898563429 -0.30587701823941071 0 0.26598899428458778 -0.32103793389256657 0 0.26846821806613752 -0.30050752245993012 0 0.24423538898563429 -0.30587701823941071 0 0.25301376652256202 -0.2892367573709661 0 0.26500420865911251 -0.28331687632378699 0 0.26846821806613752 -0.30050752245993012 0 0.25301376652256202 -0.2892367573709661 0 0.26500420865911251 -0.28331687632378699 0 0.2507153324002197 -0.27704953531328702 0 0.26500420865911251 -0.28331687632378699 0 0.27805302037335089 -0.28584974436810762 0 0.26846821806613752 -0.30050752245993012 0 0.27805302037335089 -0.28584974436810762 0 0.26846821806613752 -0.30050752245993012 0 0.29270104714664102 -0.29513802668045069 0 0.26500420865911251 -0.28331687632378699 0 0.27805302037335089 -0.28584974436810762 0 0.27342558025451552 -0.27498979272208851 0 0.26598899428458778 -0.32103793389256657 0 0.26846821806613752 -0.30050752245993012 0 0.28097437988070417 -0.31138482246715898 0 0.26846821806613752 -0.30050752245993012 0 0.28097437988070417 -0.31138482246715898 0 0.29270104714664102 -0.29513802668045069 0 0.26846821806613752 -0.30050752245993012 0 0.29270104714664102 -0.29513802668045069 0 0.29792146783109758 -0.32077626486014349 0 0.29270104714664102 -0.29513802668045069 0 0.29019889155513462 -0.31620785207956748 0 0.28097437988070417 -0.31138482246715898 0 0.29270104714664102 -0.29513802668045069 0 0.29792146783109758 -0.32077626486014349 0 0.29019889155513462 -0.31620785207956748 0 0.29270104714664102 -0.29513802668045069 0 0.29792146783109758 -0.32077626486014349 0 0.29270104714664102 -0.29513802668045069 0 0.29523603426331357 -0.29457632575074338 0 0.27805302037335089 -0.28584974436810762 0 0.29026987947112831 -0.28319821192468808 0 0.29270104714664102 -0.29513802668045069 0 0.27805302037335089 -0.28584974436810762 0 0.29026987947112831 -0.28319821192468808 0 0.28863308206368682 -0.27515966401439529 0 0.29026987947112831 -0.28319821192468808 0 0.29523603426331357 -0.29457632575074338 0 0.29026987947112831 -0.28319821192468808 0 0.29523603426331357 -0.29457632575074338 0 0.30320790951940702 -0.28313078900162059 0 0.29026987947112831 -0.28319821192468808 0 0.29270104714664102 -0.29513802668045069 0 0.29523603426331357 -0.29457632575074338 0 0.29026987947112831 -0.28319821192468808 0 0.29270104714664102 -0.29513802668045069 0 0.29270104714664102 -0.29513802668045069 0 0.29523603426331357 -0.29457632575074338 0 0.29523603426331357 -0.29457632575074338 0 0.31208952779935789 -0.2908419387292881 0 0.29523603426331357 -0.29457632575074338 0 0.30320790951940702 -0.28313078900162059 0 0.31208952779935789 -0.2908419387292881 0 0.29523603426331357 -0.29457632575074338 0 0.31208952779935789 -0.2908419387292881 0 0.30833746379913463 -0.30503745501229762 0 0.31611371382327402 -0.28007222207304999 0 0.30320790951940702 -0.28313078900162059 0 0.31208952779935789 -0.2908419387292881 0 0.30533649780288991 -0.32025428503190068 0 0.29523603426331357 -0.29457632575074338 0 0.30833746379913463 -0.30503745501229762 0 0.30533649780288991 -0.32025428503190068 0 0.29792146783109758 -0.32077626486014349 0 0.29523603426331357 -0.29457632575074338 0 0.30533649780288991 -0.32025428503190068 0 0.29523603426331357 -0.29457632575074338 0 0.3171485971304504 -0.30589952111326829 0 0.3109911447756647 -0.31350988965823029 0 0.30833746379913463 -0.30503745501229762 0 0.29812220868357159 -0.26533402464574418 0 0.30111904597271899 -0.2536098058489899 0 0.30981211567343969 -0.26250129009931661 0 0.31597462601859122 -0.25080747204364812 0 0.30111904597271899 -0.2536098058489899 0 0.30981211567343969 -0.26250129009931661 0 0.29812220868357159 -0.26533402464574418 0 0.30981211567343969 -0.26250129009931661 0 0.30706455279928557 -0.27339796693147528 0 0.31611371382327402 -0.28007222207304999 0 0.30320790951940702 -0.28313078900162059 0 0.30706455279928557 -0.27339796693147528 0 0.29026987947112831 -0.28319821192468808 0 0.30320790951940702 -0.28313078900162059 0 0.29755036247591721 -0.27602563541609298 0 0.30320790951940702 -0.28313078900162059 0 0.30706455279928557 -0.27339796693147528 0 0.29755036247591721 -0.27602563541609298 0 0.29812220868357159 -0.26533402464574418 0 0.30706455279928557 -0.27339796693147528 0 0.29755036247591721 -0.27602563541609298 0 0.29812220868357159 -0.26533402464574418 0 0.29755036247591721 -0.27602563541609298 0 0.28863308206368682 -0.27515966401439529 0 0.29026987947112831 -0.28319821192468808 0 0.28863308206368682 -0.27515966401439529 0 0.29026987947112831 -0.28319821192468808 0 0.29755036247591721 -0.27602563541609298 0 0.28863308206368682 -0.27515966401439529 0 0.28863308206368682 -0.27515966401439529 0 0.28456511698073272 -0.25518130134833977 0 0.29812220868357159 -0.26533402464574418 0 0.28863308206368682 -0.27515966401439529 0 0.28456511698073272 -0.25518130134833977 0 0.29812220868357159 -0.26533402464574418 0 0.30111904597271899 -0.2536098058489899 0 0.28456511698073272 -0.25518130134833977 0 0.28863308206368682 -0.27515966401439529 0 0.28456511698073272 -0.25518130134833977 0 0.27223885194073971 -0.26265851400849172 0 0.28456511698073272 -0.25518130134833977 0 0.27223885194073971 -0.26265851400849172 0 0.26629969424128969 -0.25192769388052821 0 0.27223885194073971 -0.26265851400849172 0 0.26629969424128969 -0.25192769388052821 0 0.2629172406837702 -0.26740365320709081 0 0.26500420865911251 -0.28331687632378699 0 0.27342558025451552 -0.27498979272208851 0 0.2629172406837702 -0.26740365320709081 0 0.28863308206368682 -0.27515966401439529 0 0.27223885194073971 -0.26265851400849172 0 0.27342558025451552 -0.27498979272208851 0 0.27805302037335089 -0.28584974436810762 0 0.28863308206368682 -0.27515966401439529 0 0.27342558025451552 -0.27498979272208851 0 0.27223885194073971 -0.26265851400849172 0 0.27342558025451552 -0.27498979272208851 0 0.2629172406837702 -0.26740365320709081 0 0.26500420865911251 -0.28331687632378699 0 0.2629172406837702 -0.26740365320709081 0 0.2507153324002197 -0.27704953531328702 0 0.2629172406837702 -0.26740365320709081 0 0.2507153324002197 -0.27704953531328702 0 0.2466218950091964 -0.26012473444713258 0 0.25037283077400019 -0.2416092145933311 0 0.26629969424128969 -0.25192769388052821 0 0.2466218950091964 -0.26012473444713258 0 0.26629969424128969 -0.25192769388052821 0 0.2629172406837702 -0.26740365320709081 0 0.2466218950091964 -0.26012473444713258 0 0.25037283077400019 -0.2416092145933311 0 0.2466218950091964 -0.26012473444713258 0 0.2339549802858914 -0.24933471903745599 0 0.2466218950091964 -0.26012473444713258 0 0.22717476572977791 -0.26325637954660608 0 0.2339549802858914 -0.24933471903745599 0 0.2466218950091964 -0.26012473444713258 0 0.23628574795648369 -0.27498419313581679 0 0.22717476572977791 -0.26325637954660608 0 0.2507153324002197 -0.27704953531328702 0 0.2466218950091964 -0.26012473444713258 0 0.23628574795648369 -0.27498419313581679 0 0.2507153324002197 -0.27704953531328702 0 0.23628574795648369 -0.27498419313581679 0 0.24044913557019401 -0.28723099739492908 0 0.2247339410531527 -0.27667652802353632 0 0.21554844428562811 -0.26491471108287651 0 0.21653111649902579 -0.28712771180040292 0 0.23628574795648369 -0.27498419313581679 0 0.2247339410531527 -0.27667652802353632 0 0.22717476572977791 -0.26325637954660608 0 0.2247339410531527 -0.27667652802353632 0 0.22717476572977791 -0.26325637954660608 0 0.21554844428562811 -0.26491471108287651 0 0.22717476572977791 -0.26325637954660608 0 0.22331750647786899 -0.25281133177650322 0 0.2339549802858914 -0.24933471903745599 0 0.22717476572977791 -0.26325637954660608 0 0.22331750647786899 -0.25281133177650322 0 0.21554844428562811 -0.26491471108287651 0 0.2084475354763706 -0.25511513831035743 0 0.21554844428562811 -0.26491471108287651 0 0.1982966667633215 -0.26354120971092698 0 0.21554844428562811 -0.26491471108287651 0 0.21456577207223029 -0.24270171036535029 0 0.22331750647786899 -0.25281133177650322 0 0.21554844428562811 -0.26491471108287651 0 0.21456577207223029 -0.24270171036535029 0 0.2084475354763706 -0.25511513831035743 0 0.21554844428562811 -0.26491471108287651 0 0.21336353465090491 -0.24693864317134839 0 0.21554844428562811 -0.26491471108287651 0 0.21336353465090491 -0.24693864317134839 0 0.21456577207223029 -0.24270171036535029 0 0.2084475354763706 -0.25511513831035743 0 0.1982966667633215 -0.26354120971092698 0 0.2080714594183444 -0.2424179483002232 0 0.1982966667633215 -0.26354120971092698 0 0.2080714594183444 -0.2424179483002232 0 0.21554844428562811 -0.26491471108287651 0 0.21653111649902579 -0.28712771180040292 0 0.21554844428562811 -0.26491471108287651 0 0.20859607852913339 -0.28093905456482821 0 0.21653111649902579 -0.28712771180040292 0 0.21554844428562811 -0.26491471108287651 0 0.20859607852913339 -0.28093905456482821 0 0.2011380539128553 -0.27767933622792518 0 0.21554844428562811 -0.26491471108287651 0 0.2011380539128553 -0.27767933622792518 0 0.1982966667633215 -0.26354120971092698 0 0.1982966667633215 -0.26354120971092698 0 0.18852187410829821 -0.28466447112163068 0 0.1982966667633215 -0.26354120971092698 0 0.18852187410829821 -0.28466447112163068 0 0.1845366839674035 -0.26640487959885623 0 0.2011380539128553 -0.27767933622792518 0 0.1982966667633215 -0.26354120971092698 0 0.18852187410829821 -0.28466447112163068 0 0.1982966667633215 -0.26354120971092698 0 0.2080714594183444 -0.2424179483002232 0 0.19254414318066221 -0.24961624770678509 0 0.1982966667633215 -0.26354120971092698 0 0.18706352147094041 -0.25756661524031438 0 0.1845366839674035 -0.26640487959885623 0 0.1982966667633215 -0.26354120971092698 0 0.18706352147094041 -0.25756661524031438 0 0.19254414318066221 -0.24961624770678509 0 0.18706352147094041 -0.25756661524031438 0 0.19254414318066221 -0.24961624770678509 0 0.18399505531774341 -0.24981832115951039 0 0.20249447748908611 -0.29813355613580778 0 0.1976485991634879 -0.30796138879627621 0 0.19462594870140809 -0.30164723750547567 0 0.20249447748908611 -0.29813355613580778 0 0.19462594870140809 -0.30164723750547567 0 0.19392418081794471 -0.29575522021664652 0 0.20249447748908611 -0.29813355613580778 0 0.1976485991634879 -0.30796138879627621 0 0.20782414549410869 -0.30817847155873718 0 0.1976485991634879 -0.30796138879627621 0 0.20782414549410869 -0.30817847155873718 0 0.20282381327660201 -0.31505297042611552 0 0.1976485991634879 -0.30796138879627621 0 0.19009702279388629 -0.3064242775921906 0 0.18802618722583669 -0.31833181955932999 0 0.1976485991634879 -0.30796138879627621 0 0.19009702279388629 -0.3064242775921906 0 0.19462594870140809 -0.30164723750547567 0 0.19009702279388629 -0.3064242775921906 0 0.19462594870140809 -0.30164723750547567 0 0.1880606218677118 -0.30022154946313712 0 0.19462594870140809 -0.30164723750547567 0 0.19110113081553529 -0.29631368747161629 0 0.19392418081794471 -0.29575522021664652 0 0.1880606218677118 -0.30022154946313712 0 0.19110113081553529 -0.29631368747161629 0 0.18734834214976739 -0.29514628785519947 0 0.19462594870140809 -0.30164723750547567 0 0.1880606218677118 -0.30022154946313712 0 0.19110113081553529 -0.29631368747161629 0 0.20249447748908611 -0.29813355613580778 0 0.18747516626574931 -0.28692639975368628 0 0.20249447748908611 -0.29813355613580778 0 0.19392418081794471 -0.29575522021664652 0 0.18747516626574931 -0.28692639975368628 0 0.19110113081553529 -0.29631368747161629 0 0.19392418081794471 -0.29575522021664652 0 0.18747516626574931 -0.28692639975368628 0 0.19110113081553529 -0.29631368747161629 0 0.18747516626574931 -0.28692639975368628 0 0.18734834214976739 -0.29514628785519947 0 0.18852187410829821 -0.28466447112163068 0 0.19787122383615691 -0.29172525818392958 0 0.18852187410829821 -0.28466447112163068 0 0.19731262536099689 -0.28481999283041842 0 0.19787122383615691 -0.29172525818392958 0 0.18852187410829821 -0.28466447112163068 0 0.19787122383615691 -0.29172525818392958 0 0.18747516626574931 -0.28692639975368628 0 0.18852187410829821 -0.28466447112163068 0 0.18747516626574931 -0.28692639975368628 0 0.2011380539128553 -0.27767933622792518 0 0.18852187410829821 -0.28466447112163068 0 0.19731262536099689 -0.28481999283041842 0 0.201719349586677 -0.2852109057881882 0 0.19787122383615691 -0.29172525818392958 0 0.206049533411369 -0.28982701925762389 0 0.19731262536099689 -0.28481999283041842 0 0.201719349586677 -0.2852109057881882 0 0.19787122383615691 -0.29172525818392958 0 0.2011380539128553 -0.27767933622792518 0 0.19731262536099689 -0.28481999283041842 0 0.201719349586677 -0.2852109057881882 0 0.20249447748908611 -0.29813355613580778 0 0.19787122383615691 -0.29172525818392958 0 0.18747516626574931 -0.28692639975368628 0 0.20249447748908611 -0.29813355613580778 0 0.19787122383615691 -0.29172525818392958 0 0.206049533411369 -0.28982701925762389 0 0.20249447748908611 -0.29813355613580778 0 0.206049533411369 -0.28982701925762389 0 0.20903552332543929 -0.29406903275804652 0 0.206049533411369 -0.28982701925762389 0 0.20903552332543929 -0.29406903275804652 0 0.21653111649902579 -0.28712771180040292 0 0.20249447748908611 -0.29813355613580778 0 0.20903552332543929 -0.29406903275804652 0 0.2123558614978226 -0.29827812898856709 0 0.20859607852913339 -0.28093905456482821 0 0.206049533411369 -0.28982701925762389 0 0.21653111649902579 -0.28712771180040292 0 0.20859607852913339 -0.28093905456482821 0 0.201719349586677 -0.2852109057881882 0 0.206049533411369 -0.28982701925762389 0 0.20859607852913339 -0.28093905456482821 0 0.2011380539128553 -0.27767933622792518 0 0.201719349586677 -0.2852109057881882 0 0.20903552332543929 -0.29406903275804652 0 0.21653111649902579 -0.28712771180040292 0 0.2123558614978226 -0.29827812898856709 0 0.21653111649902579 -0.28712771180040292 0 0.2175137887124228 -0.30934071251792922 0 0.21653111649902579 -0.28712771180040292 0 0.2123558614978226 -0.29827812898856709 0 0.2175137887124228 -0.30934071251792922 0 0.20249447748908611 -0.29813355613580778 0 0.2123558614978226 -0.29827812898856709 0 0.2175137887124228 -0.30934071251792922 0 0.20249447748908611 -0.29813355613580778 0 0.2175137887124228 -0.30934071251792922 0 0.20782414549410869 -0.30817847155873718 0 0.2176214393273678 -0.31177412129290383 0 0.20282381327660201 -0.31505297042611552 0 0.20249447748908611 -0.29813355613580778 0 0.20782414549410869 -0.30817847155873718 0 0.2175137887124228 -0.30934071251792922 0 0.20782414549410869 -0.30817847155873718 0 0.2175137887124228 -0.30934071251792922 0 0.2176214393273678 -0.31177412129290383 0 0.2175137887124228 -0.30934071251792922 0 0.2176214393273678 -0.31177412129290383 0 0.2175137887124228 -0.30934071251792922 0 0.2176214393273678 -0.31177412129290383 0 0.21999804566891551 -0.31122614102315033 0 0.21999804566891551 -0.31122614102315033 0 0.24423538898563429 -0.30587701823941071 0 0.2175137887124228 -0.30934071251792922 0 0.21999804566891551 -0.31122614102315033 0 0.22812963079484819 -0.29309964455197901 0 0.21999804566891551 -0.31122614102315033 0 0.22812963079484819 -0.29309964455197901 0 0.21999804566891551 -0.31122614102315033 0 0.22812963079484819 -0.29309964455197901 0 0.24423538898563429 -0.30587701823941071 0 0.2176214393273678 -0.31177412129290383 0 0.21999804566891551 -0.31122614102315033 0 0.2175137887124228 -0.30934071251792922 0 0.21999804566891551 -0.31122614102315033 0 0.23628574795648369 -0.27498419313581679 0 0.22812963079484819 -0.29309964455197901 0 0.2247339410531527 -0.27667652802353632 0 0.21653111649902579 -0.28712771180040292 0 0.22812963079484819 -0.29309964455197901 0 0.23628574795648369 -0.27498419313581679 0 0.2247339410531527 -0.27667652802353632 0 0.22812963079484819 -0.29309964455197901 0 0.21653111649902579 -0.28712771180040292 0 0.2175137887124228 -0.30934071251792922 0 0.22812963079484819 -0.29309964455197901 0 0.23628574795648369 -0.27498419313581679 0 0.22812963079484819 -0.29309964455197901 0 0.24044913557019401 -0.28723099739492908 0 0.25301376652256202 -0.2892367573709661 0 0.24044913557019401 -0.28723099739492908 0 0.24423538898563429 -0.30587701823941071 0 0.22812963079484819 -0.29309964455197901 0 0.24044913557019401 -0.28723099739492908 0 0.24423538898563429 -0.30587701823941071 0 0.25301376652256202 -0.2892367573709661 0 0.2507153324002197 -0.27704953531328702 0 0.24044913557019401 -0.28723099739492908 0 0.21999804566891551 -0.31122614102315033 0 0.24423538898563429 -0.30587701823941071 0 0.2404170410518052 -0.32643073261338312 0 0.25099839141978419 -0.34936335514031408 0 0.2316655193484673 -0.33515436960409939 0 0.25099839141978419 -0.34936335514031408 0 0.2404170410518052 -0.32643073261338312 0 0.2316655193484673 -0.33515436960409939 0 0.2404170410518052 -0.32643073261338312 0 0.2316655193484673 -0.33515436960409939 0 0.2247705650129608 -0.32491873692320528 0 0.2316655193484673 -0.33515436960409939 0 0.22208049410379579 -0.34309390150507102 0 0.22867514261462599 -0.34782526071452929 0 0.2316655193484673 -0.33515436960409939 0 0.22208049410379579 -0.34309390150507102 0 0.220555537226792 -0.33578323097752499 0 0.22208049410379579 -0.34309390150507102 0 0.220555537226792 -0.33578323097752499 0 0.21451162402718699 -0.34512658597487872 0 0.220555537226792 -0.33578323097752499 0 0.2247705650129608 -0.32491873692320528 0 0.21820242441149371 -0.32490710899175251 0 0.2316655193484673 -0.33515436960409939 0 0.220555537226792 -0.33578323097752499 0 0.2247705650129608 -0.32491873692320528 0 0.21999804566891551 -0.31122614102315033 0 0.2404170410518052 -0.32643073261338312 0 0.2247705650129608 -0.32491873692320528 0 0.21999804566891551 -0.31122614102315033 0 0.2404170410518052 -0.32643073261338312 0 0.2247705650129608 -0.32491873692320528 0 0.21780935440599439 -0.31602188338433101 0 0.21820242441149371 -0.32490710899175251 0 0.21999804566891551 -0.31122614102315033 0 0.2247705650129608 -0.32491873692320528 0 0.21780935440599439 -0.31602188338433101 0 0.21999804566891551 -0.31122614102315033 0 0.21780935440599439 -0.31602188338433101 0 0.23679608458568241 -0.3713456781615978 0 0.24534349961555019 -0.36253701182870851 0 0.24987622704845311 -0.37613765202982719 0 0.23679608458568241 -0.3713456781615978 0 0.24534349961555019 -0.36253701182870851 0 0.23133102347449649 -0.35950822589080189 0 0.25099839141978419 -0.34936335514031408 0 0.2316655193484673 -0.33515436960409939 0 0.23760271529458479 -0.35087764463569071 0 0.24534349961555019 -0.36253701182870851 0 0.23760271529458479 -0.35087764463569071 0 0.23133102347449649 -0.35950822589080189 0 0.25099839141978419 -0.34936335514031408 0 0.24534349961555019 -0.36253701182870851 0 0.23760271529458479 -0.35087764463569071 0 0.2316655193484673 -0.33515436960409939 0 0.23760271529458479 -0.35087764463569071 0 0.22867514261462599 -0.34782526071452929 0 0.22208049410379579 -0.34309390150507102 0 0.22076837523631451 -0.35267920974236072 0 0.21451162402718699 -0.34512658597487872 0 0.22208049410379579 -0.34309390150507102 0 0.22867514261462599 -0.34782526071452929 0 0.22076837523631451 -0.35267920974236072 0 0.22076837523631451 -0.35267920974236072 0 0.22341137818785181 -0.36337688942730773 0 0.21609027172906259 -0.36087537471117581 0 0.22076837523631451 -0.35267920974236072 0 0.23133102347449649 -0.35950822589080189 0 0.22341137818785181 -0.36337688942730773 0 0.22867514261462599 -0.34782526071452929 0 0.22076837523631451 -0.35267920974236072 0 0.23133102347449649 -0.35950822589080189 0 0.23760271529458479 -0.35087764463569071 0 0.22867514261462599 -0.34782526071452929 0 0.23133102347449649 -0.35950822589080189 0 0.23133102347449649 -0.35950822589080189 0 0.22341137818785181 -0.36337688942730773 0 0.22699371624108439 -0.37103399677892651 0 0.22341137818785181 -0.36337688942730773 0 0.22699371624108439 -0.37103399677892651 0 0.21663927632257499 -0.37152038636996992 0 0.22699371624108439 -0.37103399677892651 0 0.21663927632257499 -0.37152038636996992 0 0.22189277223980711 -0.38054577212349588 0 0.23679608458568241 -0.3713456781615978 0 0.22699371624108439 -0.37103399677892651 0 0.23010576568282681 -0.37607478874810818 0 0.23679608458568241 -0.3713456781615978 0 0.23133102347449649 -0.35950822589080189 0 0.22699371624108439 -0.37103399677892651 0 0.21663927632257499 -0.37152038636996992 0 0.20683644217058031 -0.36558797855932218 0 0.20576161095015591 -0.37595213443190167 0 0.22341137818785181 -0.36337688942730773 0 0.21663927632257499 -0.37152038636996992 0 0.21609027172906259 -0.36087537471117581 0 0.21609027172906259 -0.36087537471117581 0 0.20683644217058031 -0.36558797855932218 0 0.21089823393406021 -0.35324530101306001 0 0.21663927632257499 -0.37152038636996992 0 0.21609027172906259 -0.36087537471117581 0 0.20683644217058031 -0.36558797855932218 0 0.19940837682496099 -0.35689206815154528 0 0.20777431361625601 -0.33831058893907762 0 0.21089823393406021 -0.35324530101306001 0 0.19940837682496099 -0.35689206815154528 0 0.20777431361625601 -0.33831058893907762 0 0.20683644217058031 -0.36558797855932218 0 0.21089823393406021 -0.35324530101306001 0 0.19940837682496099 -0.35689206815154528 0 0.22076837523631451 -0.35267920974236072 0 0.21609027172906259 -0.36087537471117581 0 0.21089823393406021 -0.35324530101306001 0 0.21089823393406021 -0.35324530101306001 0 0.21451162402718699 -0.34512658597487872 0 0.20777431361625601 -0.33831058893907762 0 0.22076837523631451 -0.35267920974236072 0 0.21089823393406021 -0.35324530101306001 0 0.21451162402718699 -0.34512658597487872 0 0.1971616983813648 -0.34495631128618592 0 0.19940837682496099 -0.35689206815154528 0 0.20777431361625601 -0.33831058893907762 0 0.1971616983813648 -0.34495631128618592 0 0.18787137947787569 -0.35180034780069419 0 0.18864170350563411 -0.33720407153827198 0 0.1971616983813648 -0.34495631128618592 0 0.18787137947787569 -0.35180034780069419 0 0.19940837682496099 -0.35689206815154528 0 0.20683644217058031 -0.36558797855932218 0 0.20576161095015591 -0.37595213443190167 0 0.1910424400336663 -0.37547354736401328 0 0.18787137947787569 -0.35180034780069419 0 0.19940837682496099 -0.35689206815154528 0 0.1910424400336663 -0.37547354736401328 0 0.19940837682496099 -0.35689206815154528 0 0.1910424400336663 -0.37547354736401328 0 0.20683644217058031 -0.36558797855932218 0 0.19940837682496099 -0.35689206815154528 0 0.1910424400336663 -0.37547354736401328 0 0.21780935440599439 -0.31602188338433101 0 0.20777431361625601 -0.33831058893907762 0 0.21780935440599439 -0.31602188338433101 0 0.20777431361625601 -0.33831058893907762 0 0.20282381327660201 -0.31505297042611552 0 0.21780935440599439 -0.31602188338433101 0 0.21820242441149371 -0.32490710899175251 0 0.20777431361625601 -0.33831058893907762 0 0.2176214393273678 -0.31177412129290383 0 0.20282381327660201 -0.31505297042611552 0 0.2176214393273678 -0.31177412129290383 0 0.21780935440599439 -0.31602188338433101 0 0.20282381327660201 -0.31505297042611552 0 0.2176214393273678 -0.31177412129290383 0 0.21780935440599439 -0.31602188338433101 0 0.2176214393273678 -0.31177412129290383 0 0.21999804566891551 -0.31122614102315033 0 0.21780935440599439 -0.31602188338433101 0 0.21780935440599439 -0.31602188338433101 0 0.21820242441149371 -0.32490710899175251 0 0.220555537226792 -0.33578323097752499 0 0.21820242441149371 -0.32490710899175251 0 0.20777431361625601 -0.33831058893907762 0 0.220555537226792 -0.33578323097752499 0 0.21451162402718699 -0.34512658597487872 0 0.20777431361625601 -0.33831058893907762 0 0.21451162402718699 -0.34512658597487872 0 0.20777431361625601 -0.33831058893907762 0 0.1971616983813648 -0.34495631128618592 0 0.20777431361625601 -0.33831058893907762 0 0.18864170350563411 -0.33720407153827198 0 0.20777431361625601 -0.33831058893907762 0 0.18802618722583669 -0.31833181955932999 0 0.20777431361625601 -0.33831058893907762 0 0.18864170350563411 -0.33720407153827198 0 0.18802618722583669 -0.31833181955932999 0 0.20777431361625601 -0.33831058893907762 0 0.20282381327660201 -0.31505297042611552 0 0.18802618722583669 -0.31833181955932999 0 0.20282381327660201 -0.31505297042611552 0 0.18802618722583669 -0.31833181955932999 0 0.1976485991634879 -0.30796138879627621 0 0.20282381327660201 -0.31505297042611552 0 0.18802618722583669 -0.31833181955932999 0 0.18802618722583669 -0.31833181955932999 0 0.1791507244663583 -0.32983729973660558 0 0.16791254130802971 -0.3227885891963716 0 0.18802618722583669 -0.31833181955932999 0 0.17151825735526699 -0.31325416760549368 0 0.16791254130802971 -0.3227885891963716 0 0.18802618722583669 -0.31833181955932999 0 0.16791254130802971 -0.3227885891963716 0 0.18864170350563411 -0.33720407153827198 0 0.18802618722583669 -0.31833181955932999 0 0.1791507244663583 -0.32983729973660558 0 0.17202246582593331 -0.34102471865244838 0 0.1791507244663583 -0.32983729973660558 0 0.16791254130802971 -0.3227885891963716 0 0.18787137947787569 -0.35180034780069419 0 0.18864170350563411 -0.33720407153827198 0 0.17202246582593331 -0.34102471865244838 0 0.18864170350563411 -0.33720407153827198 0 0.17202246582593331 -0.34102471865244838 0 0.1791507244663583 -0.32983729973660558 0 0.17202246582593331 -0.34102471865244838 0 0.1546435437787094 -0.34381338892778002 0 0.1557586906108582 -0.32786840018592928 0 0.17202246582593331 -0.34102471865244838 0 0.16791254130802971 -0.3227885891963716 0 0.1557586906108582 -0.32786840018592928 0 0.16791254130802971 -0.3227885891963716 0 0.1557586906108582 -0.32786840018592928 0 0.1602411687519314 -0.31190927739118429 0 0.17151825735526699 -0.31325416760549368 0 0.16791254130802971 -0.3227885891963716 0 0.1602411687519314 -0.31190927739118429 0 0.18787137947787569 -0.35180034780069419 0 0.17662324672053431 -0.35795823269279659 0 0.1910424400336663 -0.37547354736401328 0 0.17662324672053431 -0.35795823269279659 0 0.17035242753357599 -0.36877211446365682 0 0.1910424400336663 -0.37547354736401328 0 0.17035242753357599 -0.36877211446365682 0 0.1910424400336663 -0.37547354736401328 0 0.1737051017910701 -0.38004230502140057 0 0.18787137947787569 -0.35180034780069419 0 0.17202246582593331 -0.34102471865244838 0 0.17662324672053431 -0.35795823269279659 0 0.17202246582593331 -0.34102471865244838 0 0.17662324672053431 -0.35795823269279659 0 0.16265844046108829 -0.35526087104265458 0 0.17202246582593331 -0.34102471865244838 0 0.16265844046108829 -0.35526087104265458 0 0.1546435437787094 -0.34381338892778002 0 0.17662324672053431 -0.35795823269279659 0 0.16265844046108829 -0.35526087104265458 0 0.17035242753357599 -0.36877211446365682 0 0.16265844046108829 -0.35526087104265458 0 0.1569593121701936 -0.36832063090657668 0 0.17035242753357599 -0.36877211446365682 0 0.1569593121701936 -0.36832063090657668 0 0.17035242753357599 -0.36877211446365682 0 0.16307541855137739 -0.37743582412871929 0 0.14536400873927011 -0.3681220756701501 0 0.1426630499740982 -0.35652090160864008 0 0.13524945632583441 -0.37311377610700652 0 0.16265844046108829 -0.35526087104265458 0 0.1569593121701936 -0.36832063090657668 0 0.1426630499740982 -0.35652090160864008 0 0.14536400873927011 -0.3681220756701501 0 0.13524945632583441 -0.37311377610700652 0 0.14973869037300869 -0.38096853745143089 0 0.1569593121701936 -0.36832063090657668 0 0.14536400873927011 -0.3681220756701501 0 0.14973869037300869 -0.38096853745143089 0 0.1569593121701936 -0.36832063090657668 0 0.14536400873927011 -0.3681220756701501 0 0.1426630499740982 -0.35652090160864008 0 0.1546435437787094 -0.34381338892778002 0 0.1426630499740982 -0.35652090160864008 0 0.1424354920479888 -0.33775294740649747 0 0.16265844046108829 -0.35526087104265458 0 0.1546435437787094 -0.34381338892778002 0 0.1426630499740982 -0.35652090160864008 0 0.13449730155472761 -0.34743155680512378 0 0.12784456261830821 -0.36308533366748658 0 0.123981461538115 -0.35128285539313481 0 0.1426630499740982 -0.35652090160864008 0 0.13449730155472761 -0.34743155680512378 0 0.1424354920479888 -0.33775294740649747 0 0.1426630499740982 -0.35652090160864008 0 0.13449730155472761 -0.34743155680512378 0 0.12784456261830821 -0.36308533366748658 0 0.13449730155472761 -0.34743155680512378 0 0.13051916655351839 -0.33696304048325831 0 0.123981461538115 -0.35128285539313481 0 0.1426630499740982 -0.35652090160864008 0 0.12784456261830821 -0.36308533366748658 0 0.13524945632583441 -0.37311377610700652 0 0.12784456261830821 -0.36308533366748658 0 0.13524945632583441 -0.37311377610700652 0 0.12609635470998201 -0.38402791619100712 0 0.14855409589738661 -0.31441038212804873 0 0.1557586906108582 -0.32786840018592928 0 0.1602411687519314 -0.31190927739118429 0 0.1445015266660287 -0.32337949759917511 0 0.14855409589738661 -0.31441038212804873 0 0.13871327718005111 -0.31332369293528212 0 0.1445015266660287 -0.32337949759917511 0 0.14855409589738661 -0.31441038212804873 0 0.1557586906108582 -0.32786840018592928 0 0.1546435437787094 -0.34381338892778002 0 0.1557586906108582 -0.32786840018592928 0 0.1424354920479888 -0.33775294740649747 0 0.1445015266660287 -0.32337949759917511 0 0.1557586906108582 -0.32786840018592928 0 0.1424354920479888 -0.33775294740649747 0 0.1445015266660287 -0.32337949759917511 0 0.1424354920479888 -0.33775294740649747 0 0.13219802669416811 -0.32498852212276208 0 0.1424354920479888 -0.33775294740649747 0 0.13051916655351839 -0.33696304048325831 0 0.13219802669416811 -0.32498852212276208 0 0.13449730155472761 -0.34743155680512378 0 0.1424354920479888 -0.33775294740649747 0 0.13051916655351839 -0.33696304048325831 0 0.13051916655351839 -0.33696304048325831 0 0.13219802669416811 -0.32498852212276208 0 0.12260601330919629 -0.33072698382653798 0 0.1445015266660287 -0.32337949759917511 0 0.13219802669416811 -0.32498852212276208 0 0.13871327718005111 -0.31332369293528212 0 0.13219802669416811 -0.32498852212276208 0 0.1265219532001009 -0.3124330460259736 0 0.1192961391526948 -0.32261879728377291 0 0.13219802669416811 -0.32498852212276208 0 0.13871327718005111 -0.31332369293528212 0 0.1265219532001009 -0.3124330460259736 0 0.1265219532001009 -0.3124330460259736 0 0.1332586495603032 -0.30031372317270688 0 0.1198701537204314 -0.30089140532399938 0 0.1332586495603032 -0.30031372317270688 0 0.1242383748246253 -0.29131174999725179 0 0.1198701537204314 -0.30089140532399938 0 0.13871327718005111 -0.31332369293528212 0 0.1265219532001009 -0.3124330460259736 0 0.1332586495603032 -0.30031372317270688 0 0.13871327718005111 -0.31332369293528212 0 0.1332586495603032 -0.30031372317270688 0 0.147245411062319 -0.30441698656302629 0 0.14855409589738661 -0.31441038212804873 0 0.13871327718005111 -0.31332369293528212 0 0.147245411062319 -0.30441698656302629 0 0.147245411062319 -0.30441698656302629 0 0.15432967412725099 -0.29846298066074151 0 0.14327492933615671 -0.29425024746867751 0 0.1332586495603032 -0.30031372317270688 0 0.147245411062319 -0.30441698656302629 0 0.14327492933615671 -0.29425024746867751 0 0.147245411062319 -0.30441698656302629 0 0.15432967412725099 -0.29846298066074151 0 0.1602411687519314 -0.31190927739118429 0 0.14855409589738661 -0.31441038212804873 0 0.147245411062319 -0.30441698656302629 0 0.1602411687519314 -0.31190927739118429 0 0.15432967412725099 -0.29846298066074151 0 0.1517600770447052 -0.28164214899084639 0 0.14327492933615671 -0.29425024746867751 0 0.1517600770447052 -0.28164214899084639 0 0.14327492933615671 -0.29425024746867751 0 0.13646338677899769 -0.28546266283427663 0 0.1332586495603032 -0.30031372317270688 0 0.14327492933615671 -0.29425024746867751 0 0.13646338677899769 -0.28546266283427663 0 0.1332586495603032 -0.30031372317270688 0 0.13646338677899769 -0.28546266283427663 0 0.1242383748246253 -0.29131174999725179 0 0.13646338677899769 -0.28546266283427663 0 0.1233023238440631 -0.28097148456094378 0 0.1242383748246253 -0.29131174999725179 0 0.1517600770447052 -0.28164214899084639 0 0.13646338677899769 -0.28546266283427663 0 0.1311170075682456 -0.27142576198599933 0 0.1517600770447052 -0.28164214899084639 0 0.1311170075682456 -0.27142576198599933 0 0.1364827709165429 -0.26618641562940759 0 0.13646338677899769 -0.28546266283427663 0 0.1311170075682456 -0.27142576198599933 0 0.1233023238440631 -0.28097148456094378 0 0.1311170075682456 -0.27142576198599933 0 0.1364827709165429 -0.26618641562940759 0 0.1212054647883809 -0.25073068226796852 0 0.1364827709165429 -0.26618641562940759 0 0.13217397618885759 -0.25462043987800831 0 0.1212054647883809 -0.25073068226796852 0 0.1364827709165429 -0.26618641562940759 0 0.1212054647883809 -0.25073068226796852 0 0.1364827709165429 -0.26618641562940759 0 0.13217397618885759 -0.25462043987800831 0 0.14275904560399111 -0.25945725309375861 0 0.13217397618885759 -0.25462043987800831 0 0.1429630926125974 -0.2502577086919005 0 0.14275904560399111 -0.25945725309375861 0 0.1429630926125974 -0.2502577086919005 0 0.16574248336044761 -0.26746108990676593 0 0.1429630926125974 -0.2502577086919005 0 0.15128247879849499 -0.26292486595599002 0 0.16574248336044761 -0.26746108990676593 0 0.1429630926125974 -0.2502577086919005 0 0.16574248336044761 -0.26746108990676593 0 0.16001236861667459 -0.2513654190734112 0 0.1429630926125974 -0.2502577086919005 0 0.14275904560399111 -0.25945725309375861 0 0.15128247879849499 -0.26292486595599002 0 0.1364827709165429 -0.26618641562940759 0 0.14275904560399111 -0.25945725309375861 0 0.15128247879849499 -0.26292486595599002 0 0.1517600770447052 -0.28164214899084639 0 0.1364827709165429 -0.26618641562940759 0 0.15128247879849499 -0.26292486595599002 0 0.1517600770447052 -0.28164214899084639 0 0.15128247879849499 -0.26292486595599002 0 0.15776774232478771 -0.26956647822523339 0 0.1517600770447052 -0.28164214899084639 0 0.1311170075682456 -0.27142576198599933 0 0.1517600770447052 -0.28164214899084639 0 0.1364827709165429 -0.26618641562940759 0 0.1517600770447052 -0.28164214899084639 0 0.16209364730358741 -0.27452888323759039 0 0.16594555478614451 -0.28284233368471318 0 0.1517600770447052 -0.28164214899084639 0 0.16209364730358741 -0.27452888323759039 0 0.15776774232478771 -0.26956647822523339 0 0.16209364730358741 -0.27452888323759039 0 0.15776774232478771 -0.26956647822523339 0 0.16574248336044761 -0.26746108990676593 0 0.15128247879849499 -0.26292486595599002 0 0.15776774232478771 -0.26956647822523339 0 0.16574248336044761 -0.26746108990676593 0 0.16209364730358741 -0.27452888323759039 0 0.16574248336044761 -0.26746108990676593 0 0.16920230535812411 -0.27329149954452342 0 0.16209364730358741 -0.27452888323759039 0 0.16920230535812411 -0.27329149954452342 0 0.16594555478614451 -0.28284233368471318 0 0.16920230535812411 -0.27329149954452342 0 0.1710222018321049 -0.28124575318360368 0 0.16594555478614451 -0.28284233368471318 0 0.16574248336044761 -0.26746108990676593 0 0.16001236861667459 -0.2513654190734112 0 0.16988601458932601 -0.2589500224365659 0 0.16574248336044761 -0.26746108990676593 0 0.16988601458932601 -0.2589500224365659 0 0.17628584543496439 -0.26683535894776161 0 0.16001236861667459 -0.2513654190734112 0 0.16988601458932601 -0.2589500224365659 0 0.16978669848249819 -0.25098739912941831 0 0.1767458594742066 -0.25730285456071711 0 0.17619278994504239 -0.24587918172992959 0 0.18399505531774341 -0.24981832115951039 0 0.16978669848249819 -0.25098739912941831 0 0.1767458594742066 -0.25730285456071711 0 0.17619278994504239 -0.24587918172992959 0 0.16988601458932601 -0.2589500224365659 0 0.16978669848249819 -0.25098739912941831 0 0.1767458594742066 -0.25730285456071711 0 0.16988601458932601 -0.2589500224365659 0 0.1767458594742066 -0.25730285456071711 0 0.17628584543496439 -0.26683535894776161 0 0.1767458594742066 -0.25730285456071711 0 0.17628584543496439 -0.26683535894776161 0 0.1845366839674035 -0.26640487959885623 0 0.1767458594742066 -0.25730285456071711 0 0.18706352147094041 -0.25756661524031438 0 0.1845366839674035 -0.26640487959885623 0 0.1767458594742066 -0.25730285456071711 0 0.18706352147094041 -0.25756661524031438 0 0.18399505531774341 -0.24981832115951039 0 0.18852187410829821 -0.28466447112163068 0 0.17628584543496439 -0.26683535894776161 0 0.1845366839674035 -0.26640487959885623 0 0.18852187410829821 -0.28466447112163068 0 0.16574248336044761 -0.26746108990676593 0 0.18852187410829821 -0.28466447112163068 0 0.16574248336044761 -0.26746108990676593 0 0.17628584543496439 -0.26683535894776161 0 0.16920230535812411 -0.27329149954452342 0 0.18747516626574931 -0.28692639975368628 0 0.17602993407772211 -0.2832030986568283 0 0.18852187410829821 -0.28466447112163068 0 0.16574248336044761 -0.26746108990676593 0 0.16920230535812411 -0.27329149954452342 0 0.16920230535812411 -0.27329149954452342 0 0.18747516626574931 -0.28692639975368628 0 0.16920230535812411 -0.27329149954452342 0 0.1710222018321049 -0.28124575318360368 0 0.17602993407772211 -0.2832030986568283 0 0.18747516626574931 -0.28692639975368628 0 0.1806905449634813 -0.28832929748571318 0 0.17602993407772211 -0.2832030986568283 0 0.18852187410829821 -0.28466447112163068 0 0.16920230535812411 -0.27329149954452342 0 0.18747516626574931 -0.28692639975368628 0 0.18747516626574931 -0.28692639975368628 0 0.1806905449634813 -0.28832929748571318 0 0.18301660310609241 -0.29114958545392738 0 0.17291101310642881 -0.28564608084835003 0 0.17864991096044419 -0.29495009963706692 0 0.16594555478614451 -0.28284233368471318 0 0.1806905449634813 -0.28832929748571318 0 0.17602993407772211 -0.2832030986568283 0 0.17673138357400531 -0.28840876668861409 0 0.17602993407772211 -0.2832030986568283 0 0.17673138357400531 -0.28840876668861409 0 0.17291101310642881 -0.28564608084835003 0 0.1710222018321049 -0.28124575318360368 0 0.17602993407772211 -0.2832030986568283 0 0.17291101310642881 -0.28564608084835003 0 0.17673138357400531 -0.28840876668861409 0 0.17291101310642881 -0.28564608084835003 0 0.17864991096044419 -0.29495009963706692 0 0.17673138357400531 -0.28840876668861409 0 0.17909088347012619 -0.29088019083727579 0 0.17864991096044419 -0.29495009963706692 0 0.1806905449634813 -0.28832929748571318 0 0.17673138357400531 -0.28840876668861409 0 0.17909088347012619 -0.29088019083727579 0 0.17909088347012619 -0.29088019083727579 0 0.17864991096044419 -0.29495009963706692 0 0.18114425154506539 -0.29221912984395187 0 0.18747516626574931 -0.28692639975368628 0 0.18734834214976739 -0.29514628785519947 0 0.1827564496500734 -0.29712351473235832 0 0.18747516626574931 -0.28692639975368628 0 0.18301660310609241 -0.29114958545392738 0 0.1827564496500734 -0.29712351473235832 0 0.18114425154506539 -0.29221912984395187 0 0.18301660310609241 -0.29114958545392738 0 0.1827564496500734 -0.29712351473235832 0 0.17864991096044419 -0.29495009963706692 0 0.18114425154506539 -0.29221912984395187 0 0.1827564496500734 -0.29712351473235832 0 0.18747516626574931 -0.28692639975368628 0 0.1827564496500734 -0.29712351473235832 0 0.1806905449634813 -0.28832929748571318 0 0.18114425154506539 -0.29221912984395187 0 0.18301660310609241 -0.29114958545392738 0 0.1806905449634813 -0.28832929748571318 0 0.17909088347012619 -0.29088019083727579 0 0.18114425154506539 -0.29221912984395187 0 0.18802618722583669 -0.31833181955932999 0 0.18221347423979239 -0.30458962683289892 0 0.1698931321352706 -0.29998698427508858 0 0.1880606218677118 -0.30022154946313712 0 0.18734834214976739 -0.29514628785519947 0 0.1827564496500734 -0.29712351473235832 0 0.19009702279388629 -0.3064242775921906 0 0.1880606218677118 -0.30022154946313712 0 0.18221347423979239 -0.30458962683289892 0 0.18802618722583669 -0.31833181955932999 0 0.17151825735526699 -0.31325416760549368 0 0.1698931321352706 -0.29998698427508858 0 0.1880606218677118 -0.30022154946313712 0 0.18221347423979239 -0.30458962683289892 0 0.1827564496500734 -0.29712351473235832 0 0.18802618722583669 -0.31833181955932999 0 0.1698931321352706 -0.29998698427508858 0 0.17864991096044419 -0.29495009963706692 0 0.1827564496500734 -0.29712351473235832 0 0.17837824174639511 -0.29916255636935318 0 0.18221347423979239 -0.30458962683289892 0 0.1827564496500734 -0.29712351473235832 0 0.17837824174639511 -0.29916255636935318 0 0.19009702279388629 -0.3064242775921906 0 0.18802618722583669 -0.31833181955932999 0 0.18221347423979239 -0.30458962683289892 0 0.18221347423979239 -0.30458962683289892 0 0.17837824174639511 -0.29916255636935318 0 0.1698931321352706 -0.29998698427508858 0 0.17864991096044419 -0.29495009963706692 0 0.17837824174639511 -0.29916255636935318 0 0.1698931321352706 -0.29998698427508858 0 0.17151825735526699 -0.31325416760549368 0 0.1698931321352706 -0.29998698427508858 0 0.1602411687519314 -0.31190927739118429 0 0.15432967412725099 -0.29846298066074151 0 0.1698931321352706 -0.29998698427508858 0 0.1602411687519314 -0.31190927739118429 0 0.1517600770447052 -0.28164214899084639 0 0.17864991096044419 -0.29495009963706692 0 0.1698931321352706 -0.29998698427508858 0 0.1517600770447052 -0.28164214899084639 0 0.1698931321352706 -0.29998698427508858 0 0.15432967412725099 -0.29846298066074151 0 0.1517600770447052 -0.28164214899084639 0 0.1698931321352706 -0.29998698427508858 0 0.1517600770447052 -0.28164214899084639 0 0.17864991096044419 -0.29495009963706692 0 0.1517600770447052 -0.28164214899084639 0 0.17864991096044419 -0.29495009963706692 0 0.16594555478614451 -0.28284233368471318 0 0.1710222018321049 -0.28124575318360368 0 0.17291101310642881 -0.28564608084835003 0 0.16594555478614451 -0.28284233368471318 0 0.21438456257476449 -0.5 0 0.2048745361024723 -0.48472171768082351 0 0.18744203257390391 -0.5 0 0.19122796324104871 -0.48466606029959602 0 0.2048745361024723 -0.48472171768082351 0 0.18744203257390391 -0.5 0 0.19122796324104871 -0.48466606029959602 0 0.20365346230900849 -0.47086657296764728 0 0.1938641377332887 -0.4633108835168005 0 0.19122796324104871 -0.48466606029959602 0 0.20365346230900849 -0.47086657296764728 0 0.2048745361024723 -0.48472171768082351 0 0.21766866328091511 -0.47157360957620892 0 0.2048745361024723 -0.48472171768082351 0 0.22288060450936709 -0.48400008360299168 0 0.20365346230900849 -0.47086657296764728 0 0.21766866328091511 -0.47157360957620892 0 0.2048745361024723 -0.48472171768082351 0 0.21438456257476449 -0.5 0 0.2048745361024723 -0.48472171768082351 0 0.22288060450936709 -0.48400008360299168 0 0.21438456257476449 -0.5 0 0.23633351028628971 -0.48712361601618398 0 0.2413270925756249 -0.5 0 0.21438456257476449 -0.5 0 0.23633351028628971 -0.48712361601618398 0 0.22288060450936709 -0.48400008360299168 0 0.25270961841775552 -0.48460016746525392 0 0.23633351028628971 -0.48712361601618398 0 0.2413270925756249 -0.5 0 0.25270961841775552 -0.48460016746525392 0 0.23633351028628971 -0.48712361601618398 0 0.23949561189523169 -0.47426551941090739 0 0.23949561189523169 -0.47426551941090739 0 0.22288060450936709 -0.48400008360299168 0 0.22545312399173489 -0.46028769725088831 0 0.21766866328091511 -0.47157360957620892 0 0.22288060450936709 -0.48400008360299168 0 0.22545312399173489 -0.46028769725088831 0 0.23633351028628971 -0.48712361601618398 0 0.23949561189523169 -0.47426551941090739 0 0.22288060450936709 -0.48400008360299168 0 0.22288060450936709 -0.48400008360299168 0 0.22545312399173489 -0.46028769725088831 0 0.21766866328091511 -0.47157360957620892 0 0.22545312399173489 -0.46028769725088831 0 0.2186728293425339 -0.44755637628226819 0 0.2588368117714554 -0.46700690363883102 0 0.23949561189523169 -0.47426551941090739 0 0.2409729068143365 -0.46262444708906358 0 0.22545312399173489 -0.46028769725088831 0 0.2409729068143365 -0.46262444708906358 0 0.24480843210435321 -0.45079661158300749 0 0.2588368117714554 -0.46700690363883102 0 0.2409729068143365 -0.46262444708906358 0 0.24480843210435321 -0.45079661158300749 0 0.23949561189523169 -0.47426551941090739 0 0.22545312399173489 -0.46028769725088831 0 0.2409729068143365 -0.46262444708906358 0 0.24480843210435321 -0.45079661158300749 0 0.22802564347410281 -0.43657531089878487 0 0.2418992233321238 -0.43333026798624508 0 0.25513396950241118 -0.43290986753561628 0 0.24480843210435321 -0.45079661158300749 0 0.2418992233321238 -0.43333026798624508 0 0.22545312399173489 -0.46028769725088831 0 0.22802564347410281 -0.43657531089878487 0 0.2186728293425339 -0.44755637628226819 0 0.21246462128442831 -0.43168381348743168 0 0.22802564347410281 -0.43657531089878487 0 0.22545312399173489 -0.46028769725088831 0 0.2186728293425339 -0.44755637628226819 0 0.22802564347410281 -0.43657531089878487 0 0.22545312399173489 -0.46028769725088831 0 0.24480843210435321 -0.45079661158300749 0 0.22802564347410281 -0.43657531089878487 0 0.20442019459899149 -0.44533796874460208 0 0.2186728293425339 -0.44755637628226819 0 0.21246462128442831 -0.43168381348743168 0 0.21766866328091511 -0.47157360957620892 0 0.20442019459899149 -0.44533796874460208 0 0.21766866328091511 -0.47157360957620892 0 0.20442019459899149 -0.44533796874460208 0 0.2186728293425339 -0.44755637628226819 0 0.20365346230900849 -0.47086657296764728 0 0.21766866328091511 -0.47157360957620892 0 0.20442019459899149 -0.44533796874460208 0 0.20365346230900849 -0.47086657296764728 0 0.20442019459899149 -0.44533796874460208 0 0.1938641377332887 -0.4633108835168005 0 0.20442019459899149 -0.44533796874460208 0 0.18484232774876749 -0.43033534366960768 0 0.18590039067086719 -0.44115637567916172 0 0.20442019459899149 -0.44533796874460208 0 0.18923595964957429 -0.45067509688328122 0 0.18590039067086719 -0.44115637567916172 0 0.20442019459899149 -0.44533796874460208 0 0.1938641377332887 -0.4633108835168005 0 0.18923595964957429 -0.45067509688328122 0 0.20442019459899149 -0.44533796874460208 0 0.1911717259170673 -0.41910232791299562 0 0.20473537155931409 -0.42802668409371708 0 0.20442019459899149 -0.44533796874460208 0 0.1911717259170673 -0.41910232791299562 0 0.20442019459899149 -0.44533796874460208 0 0.1911717259170673 -0.41910232791299562 0 0.18484232774876749 -0.43033534366960768 0 0.1911717259170673 -0.41910232791299562 0 0.21088494443676881 -0.41598262622983972 0 0.20473537155931409 -0.42802668409371708 0 0.18851111772050869 -0.41383358608972459 0 0.208966154163157 -0.40126827473642579 0 0.1911717259170673 -0.41910232791299562 0 0.21088494443676881 -0.41598262622983972 0 0.1911717259170673 -0.41910232791299562 0 0.18851111772050869 -0.41383358608972459 0 0.21088494443676881 -0.41598262622983972 0 0.18851111772050869 -0.41383358608972459 0 0.21088494443676881 -0.41598262622983972 0 0.208966154163157 -0.40126827473642579 0 0.1911717259170673 -0.41910232791299562 0 0.18851111772050869 -0.41383358608972459 0 0.21088494443676881 -0.41598262622983972 0 0.22155668588658281 -0.40529615173032069 0 0.208966154163157 -0.40126827473642579 0 0.21088494443676881 -0.41598262622983972 0 0.20473537155931409 -0.42802668409371708 0 0.21246462128442831 -0.43168381348743168 0 0.21088494443676881 -0.41598262622983972 0 0.21246462128442831 -0.43168381348743168 0 0.21959695705502991 -0.42408781639437282 0 0.20442019459899149 -0.44533796874460208 0 0.20473537155931409 -0.42802668409371708 0 0.21246462128442831 -0.43168381348743168 0 0.21246462128442831 -0.43168381348743168 0 0.21959695705502991 -0.42408781639437282 0 0.22802564347410281 -0.43657531089878487 0 0.22802564347410281 -0.43657531089878487 0 0.23614533994983331 -0.4244462479719151 0 0.23059816295646979 -0.4128629245466815 0 0.22802564347410281 -0.43657531089878487 0 0.23059816295646979 -0.4128629245466815 0 0.21959695705502991 -0.42408781639437282 0 0.22802564347410281 -0.43657531089878487 0 0.23059816295646979 -0.4128629245466815 0 0.22802564347410281 -0.43657531089878487 0 0.2418992233321238 -0.43333026798624508 0 0.23614533994983331 -0.4244462479719151 0 0.2418992233321238 -0.43333026798624508 0 0.23614533994983331 -0.4244462479719151 0 0.2453827316299185 -0.42192330194190181 0 0.25513396950241118 -0.43290986753561628 0 0.2418992233321238 -0.43333026798624508 0 0.2453827316299185 -0.42192330194190181 0 0.256136481120742 -0.41447562176841068 0 0.2453827316299185 -0.42192330194190181 0 0.24629253832767661 -0.41022035877505542 0 0.2453827316299185 -0.42192330194190181 0 0.24629253832767661 -0.41022035877505542 0 0.2366098857920339 -0.41191154353144788 0 0.23614533994983331 -0.4244462479719151 0 0.2366098857920339 -0.41191154353144788 0 0.23059816295646979 -0.4128629245466815 0 0.23614533994983331 -0.4244462479719151 0 0.2453827316299185 -0.42192330194190181 0 0.2366098857920339 -0.41191154353144788 0 0.24629253832767661 -0.41022035877505542 0 0.2366098857920339 -0.41191154353144788 0 0.2422505545635501 -0.40276464775944387 0 0.21088494443676881 -0.41598262622983972 0 0.23059816295646979 -0.4128629245466815 0 0.2366098857920339 -0.41191154353144788 0 0.23059816295646979 -0.4128629245466815 0 0.23156745731421779 -0.4039283829592023 0 0.23059816295646979 -0.4128629245466815 0 0.22155668588658281 -0.40529615173032069 0 0.23156745731421779 -0.4039283829592023 0 0.23059816295646979 -0.4128629245466815 0 0.23156745731421779 -0.4039283829592023 0 0.21088494443676881 -0.41598262622983972 0 0.23059816295646979 -0.4128629245466815 0 0.22155668588658281 -0.40529615173032069 0 0.21088494443676881 -0.41598262622983972 0 0.21959695705502991 -0.42408781639437282 0 0.23059816295646979 -0.4128629245466815 0 0.2366098857920339 -0.41191154353144788 0 0.23059816295646979 -0.4128629245466815 0 0.22155668588658281 -0.40529615173032069 0 0.22942119060580499 -0.38870296338312649 0 0.208966154163157 -0.40126827473642579 0 0.22155668588658281 -0.40529615173032069 0 0.23156745731421779 -0.4039283829592023 0 0.22942119060580499 -0.38870296338312649 0 0.22942119060580499 -0.38870296338312649 0 0.208966154163157 -0.40126827473642579 0 0.23156745731421779 -0.4039283829592023 0 0.24309899287842279 -0.39271330151873202 0 0.2422505545635501 -0.40276464775944387 0 0.2366098857920339 -0.41191154353144788 0 0.23156745731421779 -0.4039283829592023 0 0.2422505545635501 -0.40276464775944387 0 0.23156745731421779 -0.4039283829592023 0 0.24309899287842279 -0.39271330151873202 0 0.22942119060580499 -0.38870296338312649 0 0.25108303853213881 -0.40002667887407228 0 0.24629253832767661 -0.41022035877505542 0 0.2422505545635501 -0.40276464775944387 0 0.25108303853213881 -0.40002667887407228 0 0.24309899287842279 -0.39271330151873202 0 0.2422505545635501 -0.40276464775944387 0 0.24987622704845311 -0.37613765202982719 0 0.22942119060580499 -0.38870296338312649 0 0.24309899287842279 -0.39271330151873202 0 0.24987622704845311 -0.37613765202982719 0 0.22942119060580499 -0.38870296338312649 0 0.24987622704845311 -0.37613765202982719 0 0.23474048966473349 -0.38137370792841258 0 0.22942119060580499 -0.38870296338312649 0 0.25687819372407023 -0.38903915957053298 0 0.24309899287842279 -0.39271330151873202 0 0.24987622704845311 -0.37613765202982719 0 0.23679608458568241 -0.3713456781615978 0 0.24987622704845311 -0.37613765202982719 0 0.23474048966473349 -0.38137370792841258 0 0.23474048966473349 -0.38137370792841258 0 0.23010576568282681 -0.37607478874810818 0 0.22189277223980711 -0.38054577212349588 0 0.23474048966473349 -0.38137370792841258 0 0.22189277223980711 -0.38054577212349588 0 0.20961824525516401 -0.3936281247522696 0 0.23474048966473349 -0.38137370792841258 0 0.22942119060580499 -0.38870296338312649 0 0.20961824525516401 -0.3936281247522696 0 0.23679608458568241 -0.3713456781615978 0 0.23474048966473349 -0.38137370792841258 0 0.23010576568282681 -0.37607478874810818 0 0.23474048966473349 -0.38137370792841258 0 0.20961824525516401 -0.3936281247522696 0 0.22699371624108439 -0.37103399677892651 0 0.23010576568282681 -0.37607478874810818 0 0.22189277223980711 -0.38054577212349588 0 0.21663927632257499 -0.37152038636996992 0 0.22189277223980711 -0.38054577212349588 0 0.21119602619295649 -0.38157571206759561 0 0.21663927632257499 -0.37152038636996992 0 0.21119602619295649 -0.38157571206759561 0 0.20576161095015591 -0.37595213443190167 0 0.21119602619295649 -0.38157571206759561 0 0.20576161095015591 -0.37595213443190167 0 0.20229958674085519 -0.38616776423662919 0 0.21119602619295649 -0.38157571206759561 0 0.20961824525516401 -0.3936281247522696 0 0.20229958674085519 -0.38616776423662919 0 0.22189277223980711 -0.38054577212349588 0 0.21119602619295649 -0.38157571206759561 0 0.20961824525516401 -0.3936281247522696 0 0.22942119060580499 -0.38870296338312649 0 0.208966154163157 -0.40126827473642579 0 0.20961824525516401 -0.3936281247522696 0 0.20961824525516401 -0.3936281247522696 0 0.18449600084559339 -0.40588254157612419 0 0.20961824525516401 -0.3936281247522696 0 0.19262774622386039 -0.39991289132556063 0 0.20229958674085519 -0.38616776423662919 0 0.18851111772050869 -0.41383358608972459 0 0.20961824525516401 -0.3936281247522696 0 0.18449600084559339 -0.40588254157612419 0 0.19262774622386039 -0.39991289132556063 0 0.193172237845981 -0.38760648281860499 0 0.20229958674085519 -0.38616776423662919 0 0.20961824525516401 -0.3936281247522696 0 0.19262774622386039 -0.39991289132556063 0 0.18449600084559339 -0.40588254157612419 0 0.18851111772050869 -0.41383358608972459 0 0.208966154163157 -0.40126827473642579 0 0.20961824525516401 -0.3936281247522696 0 0.19262774622386039 -0.39991289132556063 0 0.18963514604776821 -0.39361523539988952 0 0.193172237845981 -0.38760648281860499 0 0.19262774622386039 -0.39991289132556063 0 0.18963514604776821 -0.39361523539988952 0 0.18221634088723479 -0.40136818287387582 0 0.18963514604776821 -0.39361523539988952 0 0.193172237845981 -0.38760648281860499 0 0.18267650324237161 -0.39405502657648112 0 0.193172237845981 -0.38760648281860499 0 0.1910424400336663 -0.37547354736401328 0 0.18267650324237161 -0.39405502657648112 0 0.20576161095015591 -0.37595213443190167 0 0.1910424400336663 -0.37547354736401328 0 0.20229958674085519 -0.38616776423662919 0 0.193172237845981 -0.38760648281860499 0 0.1910424400336663 -0.37547354736401328 0 0.20229958674085519 -0.38616776423662919 0 0.1910424400336663 -0.37547354736401328 0 0.17822948803450961 -0.38676940160015832 0 0.1737051017910701 -0.38004230502140057 0 0.1910424400336663 -0.37547354736401328 0 0.18267650324237161 -0.39405502657648112 0 0.1910424400336663 -0.37547354736401328 0 0.17822948803450961 -0.38676940160015832 0 0.18267650324237161 -0.39405502657648112 0 0.17822948803450961 -0.38676940160015832 0 0.17910183421640119 -0.39520059623836468 0 0.1646215608890387 -0.38907553280053181 0 0.17822948803450961 -0.38676940160015832 0 0.1737051017910701 -0.38004230502140057 0 0.1646215608890387 -0.38907553280053181 0 0.17822948803450961 -0.38676940160015832 0 0.18267650324237161 -0.39405502657648112 0 0.17910183421640119 -0.39520059623836468 0 0.18221634088723479 -0.40136818287387582 0 0.17910183421640119 -0.39520059623836468 0 0.15805845094365739 -0.40474493864538458 0 0.18963514604776821 -0.39361523539988952 0 0.18267650324237161 -0.39405502657648112 0 0.18221634088723479 -0.40136818287387582 0 0.18267650324237161 -0.39405502657648112 0 0.18221634088723479 -0.40136818287387582 0 0.17910183421640119 -0.39520059623836468 0 0.18221634088723479 -0.40136818287387582 0 0.17910183421640119 -0.39520059623836468 0 0.19262774622386039 -0.39991289132556063 0 0.18221634088723479 -0.40136818287387582 0 0.19262774622386039 -0.39991289132556063 0 0.18449600084559339 -0.40588254157612419 0 0.18221634088723479 -0.40136818287387582 0 0.18449600084559339 -0.40588254157612419 0 0.18221634088723479 -0.40136818287387582 0 0.17910183421640119 -0.39520059623836468 0 0.15805845094365739 -0.40474493864538458 0 0.1646215608890387 -0.38907553280053181 0 0.18221634088723479 -0.40136818287387582 0 0.15805845094365739 -0.40474493864538458 0 0.15805845094365739 -0.40474493864538458 0 0.1646215608890387 -0.38907553280053181 0 0.14706277844018539 -0.39464292458295508 0 0.1737051017910701 -0.38004230502140057 0 0.1646215608890387 -0.38907553280053181 0 0.16307541855137739 -0.37743582412871929 0 0.17035242753357599 -0.36877211446365682 0 0.1737051017910701 -0.38004230502140057 0 0.16307541855137739 -0.37743582412871929 0 0.1569593121701936 -0.36832063090657668 0 0.16307541855137739 -0.37743582412871929 0 0.14973869037300869 -0.38096853745143089 0 0.1646215608890387 -0.38907553280053181 0 0.16307541855137739 -0.37743582412871929 0 0.14973869037300869 -0.38096853745143089 0 0.1646215608890387 -0.38907553280053181 0 0.14973869037300869 -0.38096853745143089 0 0.14706277844018539 -0.39464292458295508 0 0.14973869037300869 -0.38096853745143089 0 0.1375772795987745 -0.38493757303029391 0 0.14706277844018539 -0.39464292458295508 0 0.13524945632583441 -0.37311377610700652 0 0.14973869037300869 -0.38096853745143089 0 0.1375772795987745 -0.38493757303029391 0 0.13524945632583441 -0.37311377610700652 0 0.1375772795987745 -0.38493757303029391 0 0.12609635470998201 -0.38402791619100712 0 0.1375772795987745 -0.38493757303029391 0 0.12609635470998201 -0.38402791619100712 0 0.13569313113510631 -0.39589912548093298 0 0.12645644117523869 -0.39722706905544619 0 0.13569313113510631 -0.39589912548093298 0 0.1339005610000801 -0.40812169441689322 0 0.12645644117523869 -0.39722706905544619 0 0.1339005610000801 -0.40812169441689322 0 0.1250254850364893 -0.40936224001308058 0 0.12609635470998201 -0.38402791619100712 0 0.12645644117523869 -0.39722706905544619 0 0.13569313113510631 -0.39589912548093298 0 0.1375772795987745 -0.38493757303029391 0 0.13569313113510631 -0.39589912548093298 0 0.14706277844018539 -0.39464292458295508 0 0.13569313113510631 -0.39589912548093298 0 0.14706277844018539 -0.39464292458295508 0 0.1339005610000801 -0.40812169441689322 0 0.13569313113510631 -0.39589912548093298 0 0.1339005610000801 -0.40812169441689322 0 0.15805845094365739 -0.40474493864538458 0 0.14706277844018539 -0.39464292458295508 0 0.1339005610000801 -0.40812169441689322 0 0.15805845094365739 -0.40474493864538458 0 0.1339005610000801 -0.40812169441689322 0 0.15805845094365739 -0.40474493864538458 0 0.15398562739609989 -0.414436145328195 0 0.14500783119440661 -0.41410657591589572 0 0.15805845094365739 -0.40474493864538458 0 0.14500783119440661 -0.41410657591589572 0 0.1339005610000801 -0.40812169441689322 0 0.15398562739609989 -0.414436145328195 0 0.15088002640467921 -0.42009116626417142 0 0.14500783119440661 -0.41410657591589572 0 0.15088002640467921 -0.42009116626417142 0 0.15979138776423191 -0.42406840149736191 0 0.15636365466176849 -0.41960526040447821 0 0.15398562739609989 -0.414436145328195 0 0.15088002640467921 -0.42009116626417142 0 0.15636365466176849 -0.41960526040447821 0 0.15088002640467921 -0.42009116626417142 0 0.14500783119440661 -0.41410657591589572 0 0.14354831806896931 -0.42663893719234869 0 0.14500783119440661 -0.41410657591589572 0 0.1339005610000801 -0.40812169441689322 0 0.13212255532719441 -0.42024495614079282 0 0.14500783119440661 -0.41410657591589572 0 0.13212255532719441 -0.42024495614079282 0 0.14354831806896931 -0.42663893719234869 0 0.1339005610000801 -0.40812169441689322 0 0.13212255532719441 -0.42024495614079282 0 0.13212255532719441 -0.42024495614079282 0 0.1250254850364893 -0.40936224001308058 0 0.117866085899093 -0.41583132647739651 0 0.13212255532719441 -0.42024495614079282 0 0.1250254850364893 -0.40936224001308058 0 0.1339005610000801 -0.40812169441689322 0 0.13212255532719441 -0.42024495614079282 0 0.1250254850364893 -0.40936224001308058 0 0.1339005610000801 -0.40812169441689322 0 0.1250254850364893 -0.40936224001308058 0 0.13212255532719441 -0.42024495614079282 0 0.14354831806896931 -0.42663893719234869 0 0.1460535583969573 -0.44160689079445481 0 0.13212255532719441 -0.42024495614079282 0 0.128223579302082 -0.44682997076052833 0 0.13212255532719441 -0.42024495614079282 0 0.128223579302082 -0.44682997076052833 0 0.1159996351348133 -0.43474120747525058 0 0.13212255532719441 -0.42024495614079282 0 0.1460535583969573 -0.44160689079445481 0 0.13212255532719441 -0.42024495614079282 0 0.1460535583969573 -0.44160689079445481 0 0.128223579302082 -0.44682997076052833 0 0.15088002640467921 -0.42009116626417142 0 0.14354831806896931 -0.42663893719234869 0 0.15979138776423191 -0.42406840149736191 0 0.14354831806896931 -0.42663893719234869 0 0.15979138776423191 -0.42406840149736191 0 0.14354831806896931 -0.42663893719234869 0 0.15423293294423909 -0.43386412417913311 0 0.1460535583969573 -0.44160689079445481 0 0.14354831806896931 -0.42663893719234869 0 0.15423293294423909 -0.43386412417913311 0 0.15979138776423191 -0.42406840149736191 0 0.15423293294423909 -0.43386412417913311 0 0.16088991666547389 -0.43196094602310392 0 0.16557730454712019 -0.44172028084172121 0 0.1713980071398 -0.42434598792645378 0 0.15979138776423191 -0.42406840149736191 0 0.1760344574594947 -0.42149786580237669 0 0.15423293294423909 -0.43386412417913311 0 0.16088991666547389 -0.43196094602310392 0 0.15979138776423191 -0.42406840149736191 0 0.15979138776423191 -0.42406840149736191 0 0.1760344574594947 -0.42149786580237669 0 0.16626302434537371 -0.43076979168845952 0 0.17509911994716071 -0.43336510097506958 0 0.16557730454712019 -0.44172028084172121 0 0.16088991666547389 -0.43196094602310392 0 0.16626302434537371 -0.43076979168845952 0 0.16557730454712019 -0.44172028084172121 0 0.16626302434537371 -0.43076979168845952 0 0.1713980071398 -0.42434598792645378 0 0.17509911994716071 -0.43336510097506958 0 0.16626302434537371 -0.43076979168845952 0 0.1713980071398 -0.42434598792645378 0 0.15979138776423191 -0.42406840149736191 0 0.16088991666547389 -0.43196094602310392 0 0.16626302434537371 -0.43076979168845952 0 0.15979138776423191 -0.42406840149736191 0 0.15636365466176849 -0.41960526040447821 0 0.16176651730702801 -0.41283252991975622 0 0.17042982775368151 -0.41274390099030239 0 0.18221634088723479 -0.40136818287387582 0 0.15805845094365739 -0.40474493864538458 0 0.17042982775368151 -0.41274390099030239 0 0.15979138776423191 -0.42406840149736191 0 0.15636365466176849 -0.41960526040447821 0 0.17042982775368151 -0.41274390099030239 0 0.15636365466176849 -0.41960526040447821 0 0.17042982775368151 -0.41274390099030239 0 0.15979138776423191 -0.42406840149736191 0 0.17042982775368151 -0.41274390099030239 0 0.1760344574594947 -0.42149786580237669 0 0.15398562739609989 -0.414436145328195 0 0.15636365466176849 -0.41960526040447821 0 0.16176651730702801 -0.41283252991975622 0 0.15805845094365739 -0.40474493864538458 0 0.15398562739609989 -0.414436145328195 0 0.16176651730702801 -0.41283252991975622 0 0.15805845094365739 -0.40474493864538458 0 0.16176651730702801 -0.41283252991975622 0 0.17042982775368151 -0.41274390099030239 0 0.17042982775368151 -0.41274390099030239 0 0.1760344574594947 -0.42149786580237669 0 0.17986785094481991 -0.4134894736146324 0 0.18449600084559339 -0.40588254157612419 0 0.17042982775368151 -0.41274390099030239 0 0.18449600084559339 -0.40588254157612419 0 0.18221634088723479 -0.40136818287387582 0 0.17042982775368151 -0.41274390099030239 0 0.18449600084559339 -0.40588254157612419 0 0.17042982775368151 -0.41274390099030239 0 0.17986785094481991 -0.4134894736146324 0 0.18851111772050869 -0.41383358608972459 0 0.18449600084559339 -0.40588254157612419 0 0.18851111772050869 -0.41383358608972459 0 0.18449600084559339 -0.40588254157612419 0 0.17986785094481991 -0.4134894736146324 0 0.18851111772050869 -0.41383358608972459 0 0.1760344574594947 -0.42149786580237669 0 0.1911717259170673 -0.41910232791299562 0 0.1760344574594947 -0.42149786580237669 0 0.18851111772050869 -0.41383358608972459 0 0.1760344574594947 -0.42149786580237669 0 0.17986785094481991 -0.4134894736146324 0 0.1911717259170673 -0.41910232791299562 0 0.18851111772050869 -0.41383358608972459 0 0.1760344574594947 -0.42149786580237669 0 0.1911717259170673 -0.41910232791299562 0 0.1760344574594947 -0.42149786580237669 0 0.18484232774876749 -0.43033534366960768 0 0.18484232774876749 -0.43033534366960768 0 0.17509911994716071 -0.43336510097506958 0 0.18590039067086719 -0.44115637567916172 0 0.18484232774876749 -0.43033534366960768 0 0.17509911994716071 -0.43336510097506958 0 0.17653319474121221 -0.42750765242104072 0 0.1713980071398 -0.42434598792645378 0 0.17509911994716071 -0.43336510097506958 0 0.17653319474121221 -0.42750765242104072 0 0.1760344574594947 -0.42149786580237669 0 0.18484232774876749 -0.43033534366960768 0 0.17653319474121221 -0.42750765242104072 0 0.1713980071398 -0.42434598792645378 0 0.1760344574594947 -0.42149786580237669 0 0.17653319474121221 -0.42750765242104072 0 0.1713980071398 -0.42434598792645378 0 0.1760344574594947 -0.42149786580237669 0 0.17791556380287959 -0.4455361086535346 0 0.17376504419967539 -0.46076368888843938 0 0.16557730454712019 -0.44172028084172121 0 0.17509911994716071 -0.43336510097506958 0 0.17791556380287959 -0.4455361086535346 0 0.18590039067086719 -0.44115637567916172 0 0.17509911994716071 -0.43336510097506958 0 0.17791556380287959 -0.4455361086535346 0 0.16557730454712019 -0.44172028084172121 0 0.18923595964957429 -0.45067509688328122 0 0.17791556380287959 -0.4455361086535346 0 0.18590039067086719 -0.44115637567916172 0 0.18923595964957429 -0.45067509688328122 0 0.17791556380287959 -0.4455361086535346 0 0.17376504419967539 -0.46076368888843938 0 0.1938641377332887 -0.4633108835168005 0 0.18923595964957429 -0.45067509688328122 0 0.17376504419967539 -0.46076368888843938 0 0.1938641377332887 -0.4633108835168005 0 0.17376504419967539 -0.46076368888843938 0 0.17718182015316611 -0.48165544175840053 0 0.17376504419967539 -0.46076368888843938 0 0.15550290350416551 -0.45157236434768988 0 0.1539044029471725 -0.46809795184702829 0 0.17376504419967539 -0.46076368888843938 0 0.16557730454712019 -0.44172028084172121 0 0.15550290350416551 -0.45157236434768988 0 0.15423293294423909 -0.43386412417913311 0 0.16557730454712019 -0.44172028084172121 0 0.15550290350416551 -0.45157236434768988 0 0.15423293294423909 -0.43386412417913311 0 0.15550290350416551 -0.45157236434768988 0 0.1460535583969573 -0.44160689079445481 0 0.15550290350416551 -0.45157236434768988 0 0.1460535583969573 -0.44160689079445481 0 0.14153074802588431 -0.45654190970348868 0 0.1460535583969573 -0.44160689079445481 0 0.128223579302082 -0.44682997076052833 0 0.14153074802588431 -0.45654190970348868 0 0.128223579302082 -0.44682997076052833 0 0.12432460327697011 -0.47341498538026422 0 0.128223579302082 -0.44682997076052833 0 0.14153074802588431 -0.45654190970348868 0 0.12432460327697011 -0.47341498538026422 0 0.1539044029471725 -0.46809795184702829 0 0.14153074802588431 -0.45654190970348868 0 0.12432460327697011 -0.47341498538026422 0 0.15550290350416551 -0.45157236434768988 0 0.1539044029471725 -0.46809795184702829 0 0.14153074802588431 -0.45654190970348868 0 0.1539044029471725 -0.46809795184702829 0 0.15048103374274721 -0.48484579871078243 0 0.12432460327697011 -0.47341498538026422 0 0.1404625649124509 -0.5 0 0.15048103374274721 -0.48484579871078243 0 0.12432460327697011 -0.47341498538026422 0 0.1404625649124509 -0.5 0 0.12042562725185831 -0.49999999999999989 0 0.12432460327697011 -0.47341498538026422 0 0.1404625649124509 -0.5 0 0.15048103374274721 -0.48484579871078243 0 0.16049950257304349 -0.50000000000000033 0 0.16049950257304349 -0.50000000000000033 0 0.17718182015316611 -0.48165544175840053 0 0.15048103374274721 -0.48484579871078243 0 0.16049950257304349 -0.50000000000000033 0 0.17718182015316611 -0.48165544175840053 0 0.17376504419967539 -0.46076368888843938 0 0.1539044029471725 -0.46809795184702829 0 0.17718182015316611 -0.48165544175840053 0 0.1539044029471725 -0.46809795184702829 0 0.15048103374274721 -0.48484579871078243 0 0.17718182015316611 -0.48165544175840053 0 0.1938641377332887 -0.4633108835168005 0 0.17718182015316611 -0.48165544175840053 0 0.19122796324104871 -0.48466606029959602 0 0.1938641377332887 -0.4633108835168005 0 0.17718182015316611 -0.48165544175840053 0 0.16049950257304349 -0.50000000000000033 0 0.17718182015316611 -0.48165544175840053 0 0.18744203257390391 -0.5 0 0.19122796324104871 -0.48466606029959602 0 0.17718182015316611 -0.48165544175840053 0 0.18744203257390391 -0.5 0 0.072018957471098571 -0.48629524479662273 0 0.069142552082564368 -0.5 0 0.082735946582200875 -0.4892045976485363 0 0.072018957471098571 -0.48629524479662273 0 0.079568506083734697 -0.4785915255016745 0 0.082735946582200875 -0.4892045976485363 0 0.072018957471098571 -0.48629524479662273 0 0.062670741706174135 -0.48944359682069549 0 0.064881374578912687 -0.4815757870058418 0 0.072018957471098571 -0.48629524479662273 0 0.069142552082564368 -0.5 0 0.062670741706174135 -0.48944359682069549 0 0.073180054077148754 -0.46968413697177741 0 0.079568506083734697 -0.4785915255016745 0 0.081395248040860374 -0.46160025678040811 0 0.067447632246636219 -0.45716428258124142 0 0.05849497948899289 -0.47642287528831911 0 0.061758178687080389 -0.47580514524370598 0 0.072018957471098571 -0.48629524479662273 0 0.064881374578912687 -0.4815757870058418 0 0.070673492561877091 -0.4782128222507579 0 0.064881374578912687 -0.4815757870058418 0 0.066280053791524171 -0.47680462027284459 0 0.061758178687080389 -0.47580514524370598 0 0.064881374578912687 -0.4815757870058418 0 0.066280053791524171 -0.47680462027284459 0 0.070673492561877091 -0.4782128222507579 0 0.066280053791524171 -0.47680462027284459 0 0.067807169338226503 -0.47162472659107291 0 0.061758178687080389 -0.47580514524370598 0 0.066280053791524171 -0.47680462027284459 0 0.067807169338226503 -0.47162472659107291 0 0.070673492561877091 -0.4782128222507579 0 0.067807169338226503 -0.47162472659107291 0 0.073180054077148754 -0.46968413697177741 0 0.070673492561877091 -0.4782128222507579 0 0.073180054077148754 -0.46968413697177741 0 0.070673492561877091 -0.4782128222507579 0 0.079568506083734697 -0.4785915255016745 0 0.072018957471098571 -0.48629524479662273 0 0.070673492561877091 -0.4782128222507579 0 0.079568506083734697 -0.4785915255016745 0 0.096876661376123455 -0.48080012839020431 0 0.081395248040860374 -0.46160025678040811 0 0.096876661376123455 -0.48080012839020431 0 0.095349939854524335 -0.46404107218864848 0 0.081395248040860374 -0.46160025678040811 0 0.079568506083734697 -0.4785915255016745 0 0.082735946582200875 -0.4892045976485363 0 0.096876661376123455 -0.48080012839020431 0 0.079568506083734697 -0.4785915255016745 0 0.096876661376123455 -0.48080012839020431 0 0.081395248040860374 -0.46160025678040811 0 0.090750313396975479 -0.5 0 0.082735946582200875 -0.4892045976485363 0 0.096876661376123455 -0.48080012839020431 0 0.069142552082564368 -0.5 0 0.090750313396975479 -0.5 0 0.082735946582200875 -0.4892045976485363 0 0.1123580747113867 -0.50000000000000033 0 0.1124728586670535 -0.48406595427175642 0 0.096876661376123455 -0.48080012839020431 0 0.090750313396975479 -0.5 0 0.1123580747113867 -0.50000000000000033 0 0.096876661376123455 -0.48080012839020431 0 0.1123580747113867 -0.50000000000000033 0 0.096876661376123455 -0.48080012839020431 0 0.1123580747113867 -0.50000000000000033 0 0.12042562725185831 -0.49999999999999989 0 0.1124728586670535 -0.48406595427175642 0 0.12042562725185831 -0.49999999999999989 0 0.1124728586670535 -0.48406595427175642 0 0.12432460327697011 -0.47341498538026422 0 0.12042562725185831 -0.49999999999999989 0 0.12432460327697011 -0.47341498538026422 0 0.1124728586670535 -0.48406595427175642 0 0.12432460327697011 -0.47341498538026422 0 0.1082250197838846 -0.46311527911574241 0 0.096876661376123455 -0.48080012839020431 0 0.095349939854524335 -0.46404107218864848 0 0.1082250197838846 -0.46311527911574241 0 0.1124728586670535 -0.48406595427175642 0 0.096876661376123455 -0.48080012839020431 0 0.1082250197838846 -0.46311527911574241 0 0.095349939854524335 -0.46404107218864848 0 0.1082250197838846 -0.46311527911574241 0 0.094902830217228867 -0.45064862446823939 0 0.128223579302082 -0.44682997076052833 0 0.12432460327697011 -0.47341498538026422 0 0.1082250197838846 -0.46311527911574241 0 0.128223579302082 -0.44682997076052833 0 0.1069391861142964 -0.44299064961396012 0 0.1159996351348133 -0.43474120747525058 0 0.128223579302082 -0.44682997076052833 0 0.1082250197838846 -0.46311527911574241 0 0.1069391861142964 -0.44299064961396012 0 0.1082250197838846 -0.46311527911574241 0 0.1069391861142964 -0.44299064961396012 0 0.094902830217228867 -0.45064862446823939 0 0.1069391861142964 -0.44299064961396012 0 0.091812697424993442 -0.4386357446441016 0 0.098414951810672224 -0.43233268446502993 0 0.1069391861142964 -0.44299064961396012 0 0.094902830217228867 -0.45064862446823939 0 0.091812697424993442 -0.4386357446441016 0 0.094902830217228867 -0.45064862446823939 0 0.091812697424993442 -0.4386357446441016 0 0.082434724511159588 -0.44537142502386151 0 0.094902830217228867 -0.45064862446823939 0 0.082434724511159588 -0.44537142502386151 0 0.081395248040860374 -0.46160025678040811 0 0.091812697424993442 -0.4386357446441016 0 0.082434724511159588 -0.44537142502386151 0 0.078149012167117934 -0.43357211405594609 0 0.095349939854524335 -0.46404107218864848 0 0.094902830217228867 -0.45064862446823939 0 0.081395248040860374 -0.46160025678040811 0 0.067447632246636219 -0.45716428258124142 0 0.065913834705597293 -0.44240038517061198 0 0.057068655694905858 -0.46015288389510001 0 0.067447632246636219 -0.45716428258124142 0 0.05849497948899289 -0.47642287528831911 0 0.067807169338226503 -0.47162472659107291 0 0.067447632246636219 -0.45716428258124142 0 0.061758178687080389 -0.47580514524370598 0 0.081395248040860374 -0.46160025678040811 0 0.067447632246636219 -0.45716428258124142 0 0.065913834705597293 -0.44240038517061198 0 0.073180054077148754 -0.46968413697177741 0 0.081395248040860374 -0.46160025678040811 0 0.067447632246636219 -0.45716428258124142 0 0.067807169338226503 -0.47162472659107291 0 0.073180054077148754 -0.46968413697177741 0 0.067447632246636219 -0.45716428258124142 0 0.081395248040860374 -0.46160025678040811 0 0.065913834705597293 -0.44240038517061198 0 0.082434724511159588 -0.44537142502386151 0 0.081395248040860374 -0.46160025678040811 0 0.065913834705597293 -0.44240038517061198 0 0.082434724511159588 -0.44537142502386151 0 0.065913834705597293 -0.44240038517061198 0 0.078149012167117934 -0.43357211405594609 0 0.065921365320016911 -0.4273577277455588 0 0.073982485551444349 -0.42005290588181732 0 0.078149012167117934 -0.43357211405594609 0 0.065913834705597293 -0.44240038517061198 0 0.065921365320016911 -0.4273577277455588 0 0.078149012167117934 -0.43357211405594609 0 0.073982485551444349 -0.42005290588181732 0 0.069775570718114244 -0.40426700169235308 0 0.060774245729122177 -0.41691050055794487 0 0.065921365320016911 -0.4273577277455588 0 0.073982485551444349 -0.42005290588181732 0 0.060774245729122177 -0.41691050055794487 0 0.073982485551444349 -0.42005290588181732 0 0.086447448161059384 -0.41120764722282821 0 0.069775570718114244 -0.40426700169235308 0 0.073982485551444349 -0.42005290588181732 0 0.086447448161059384 -0.41120764722282821 0 0.088692331433278357 -0.42535053834926723 0 0.086447448161059384 -0.41120764722282821 0 0.093827427438274241 -0.41775801958915132 0 0.099702730965631758 -0.41290181884877419 0 0.086447448161059384 -0.41120764722282821 0 0.088692331433278357 -0.42535053834926723 0 0.093827427438274241 -0.41775801958915132 0 0.088692331433278357 -0.42535053834926723 0 0.097645949564215143 -0.42435504664253748 0 0.093827427438274241 -0.41775801958915132 0 0.073982485551444349 -0.42005290588181732 0 0.088692331433278357 -0.42535053834926723 0 0.078149012167117934 -0.43357211405594609 0 0.091812697424993442 -0.4386357446441016 0 0.088692331433278357 -0.42535053834926723 0 0.078149012167117934 -0.43357211405594609 0 0.091812697424993442 -0.4386357446441016 0 0.088692331433278357 -0.42535053834926723 0 0.098414951810672224 -0.43233268446502993 0 0.098414951810672224 -0.43233268446502993 0 0.097645949564215143 -0.42435504664253748 0 0.1061961683754654 -0.43004895598907111 0 0.088692331433278357 -0.42535053834926723 0 0.098414951810672224 -0.43233268446502993 0 0.097645949564215143 -0.42435504664253748 0 0.1061961683754654 -0.43004895598907111 0 0.11152958735588871 -0.42539382439527612 0 0.1045809803654715 -0.42051706085107571 0 0.097645949564215143 -0.42435504664253748 0 0.1061961683754654 -0.43004895598907111 0 0.1045809803654715 -0.42051706085107571 0 0.1069391861142964 -0.44299064961396012 0 0.098414951810672224 -0.43233268446502993 0 0.1061961683754654 -0.43004895598907111 0 0.1061961683754654 -0.43004895598907111 0 0.1159996351348133 -0.43474120747525058 0 0.11152958735588871 -0.42539382439527612 0 0.13212255532719441 -0.42024495614079282 0 0.1159996351348133 -0.43474120747525058 0 0.11851153239627241 -0.42275952171654291 0 0.1069391861142964 -0.44299064961396012 0 0.1061961683754654 -0.43004895598907111 0 0.1159996351348133 -0.43474120747525058 0 0.1159996351348133 -0.43474120747525058 0 0.11152958735588871 -0.42539382439527612 0 0.11851153239627241 -0.42275952171654291 0 0.11152958735588871 -0.42539382439527612 0 0.11851153239627241 -0.42275952171654291 0 0.1123596205074209 -0.41890237594444008 0 0.1250254850364893 -0.40936224001308058 0 0.117866085899093 -0.41583132647739651 0 0.1096180349996463 -0.41151587164058129 0 0.1250254850364893 -0.40936224001308058 0 0.1096180349996463 -0.41151587164058129 0 0.13212255532719441 -0.42024495614079282 0 0.11851153239627241 -0.42275952171654291 0 0.117866085899093 -0.41583132647739651 0 0.117866085899093 -0.41583132647739651 0 0.1123596205074209 -0.41890237594444008 0 0.1096180349996463 -0.41151587164058129 0 0.11851153239627241 -0.42275952171654291 0 0.117866085899093 -0.41583132647739651 0 0.1123596205074209 -0.41890237594444008 0 0.11152958735588871 -0.42539382439527612 0 0.1123596205074209 -0.41890237594444008 0 0.1045809803654715 -0.42051706085107571 0 0.1123596205074209 -0.41890237594444008 0 0.1096180349996463 -0.41151587164058129 0 0.1065506547415149 -0.41613106226330793 0 0.1096180349996463 -0.41151587164058129 0 0.1065506547415149 -0.41613106226330793 0 0.099702730965631758 -0.41290181884877419 0 0.1096180349996463 -0.41151587164058129 0 0.099702730965631758 -0.41290181884877419 0 0.1096180349996463 -0.41151587164058129 0 0.099702730965631758 -0.41290181884877419 0 0.1041447551606165 -0.40305668800175581 0 0.1123596205074209 -0.41890237594444008 0 0.1065506547415149 -0.41613106226330793 0 0.1045809803654715 -0.42051706085107571 0 0.1065506547415149 -0.41613106226330793 0 0.1045809803654715 -0.42051706085107571 0 0.099702730965631758 -0.41290181884877419 0 0.1045809803654715 -0.42051706085107571 0 0.093827427438274241 -0.41775801958915132 0 0.099702730965631758 -0.41290181884877419 0 0.097645949564215143 -0.42435504664253748 0 0.1045809803654715 -0.42051706085107571 0 0.093827427438274241 -0.41775801958915132 0 0.086447448161059384 -0.41120764722282821 0 0.099702730965631758 -0.41290181884877419 0 0.095691580682652475 -0.39908469234235189 0 0.095691580682652475 -0.39908469234235189 0 0.1041447551606165 -0.40305668800175581 0 0.1115666739945345 -0.38872436917531578 0 0.099702730965631758 -0.41290181884877419 0 0.095691580682652475 -0.39908469234235189 0 0.1041447551606165 -0.40305668800175581 0 0.1096180349996463 -0.41151587164058129 0 0.1041447551606165 -0.40305668800175581 0 0.1115666739945345 -0.38872436917531578 0 0.1250254850364893 -0.40936224001308058 0 0.1115666739945345 -0.38872436917531578 0 0.1096180349996463 -0.41151587164058129 0 0.1115666739945345 -0.38872436917531578 0 0.1250254850364893 -0.40936224001308058 0 0.1096180349996463 -0.41151587164058129 0 0.1115666739945345 -0.38872436917531578 0 0.12645644117523869 -0.39722706905544619 0 0.1250254850364893 -0.40936224001308058 0 0.1115666739945345 -0.38872436917531578 0 0.12609635470998201 -0.38402791619100712 0 0.1115666739945345 -0.38872436917531578 0 0.113745377556003 -0.36324200547299851 0 0.1115666739945345 -0.38872436917531578 0 0.113745377556003 -0.36324200547299851 0 0.12609635470998201 -0.38402791619100712 0 0.12645644117523869 -0.39722706905544619 0 0.1115666739945345 -0.38872436917531578 0 0.1115666739945345 -0.38872436917531578 0 0.096372132326470572 -0.36542491223168638 0 0.1115666739945345 -0.38872436917531578 0 0.089853218628298884 -0.38394717958202601 0 0.096372132326470572 -0.36542491223168638 0 0.095691580682652475 -0.39908469234235189 0 0.1115666739945345 -0.38872436917531578 0 0.089853218628298884 -0.38394717958202601 0 0.089853218628298884 -0.38394717958202601 0 0.082924844884061683 -0.39714926844771359 0 0.072939106935086151 -0.38728773006234168 0 0.089853218628298884 -0.38394717958202601 0 0.072939106935086151 -0.38728773006234168 0 0.07582030708563034 -0.37256671738353597 0 0.095691580682652475 -0.39908469234235189 0 0.089853218628298884 -0.38394717958202601 0 0.082924844884061683 -0.39714926844771359 0 0.086447448161059384 -0.41120764722282821 0 0.082924844884061683 -0.39714926844771359 0 0.069775570718114244 -0.40426700169235308 0 0.086447448161059384 -0.41120764722282821 0 0.095691580682652475 -0.39908469234235189 0 0.082924844884061683 -0.39714926844771359 0 0.069775570718114244 -0.40426700169235308 0 0.072939106935086151 -0.38728773006234168 0 0.058313699768321348 -0.39007371912844929 0 0.082924844884061683 -0.39714926844771359 0 0.069775570718114244 -0.40426700169235308 0 0.072939106935086151 -0.38728773006234168 0 0.072939106935086151 -0.38728773006234168 0 0.05933500968155693 -0.37671477575793533 0 0.058313699768321348 -0.39007371912844929 0 0.072939106935086151 -0.38728773006234168 0 0.05933500968155693 -0.37671477575793533 0 0.07582030708563034 -0.37256671738353597 0 0.05933500968155693 -0.37671477575793533 0 0.043300396670470892 -0.38581293046691678 0 0.039079294002052851 -0.37065651216905859 0 0.05933500968155693 -0.37671477575793533 0 0.058313699768321348 -0.39007371912844929 0 0.043300396670470892 -0.38581293046691678 0 0.058313699768321348 -0.39007371912844929 0 0.0466875803122518 -0.39705513158652528 0 0.054373060569327003 -0.40663711634463268 0 0.069775570718114244 -0.40426700169235308 0 0.058313699768321348 -0.39007371912844929 0 0.054373060569327003 -0.40663711634463268 0 0.058313699768321348 -0.39007371912844929 0 0.054373060569327003 -0.40663711634463268 0 0.0466875803122518 -0.39705513158652528 0 0.042121557959679479 -0.40689397827368962 0 0.054373060569327003 -0.40663711634463268 0 0.058313699768321348 -0.39007371912844929 0 0.0466875803122518 -0.39705513158652528 0 0.043300396670470892 -0.38581293046691678 0 0.0466875803122518 -0.39705513158652528 0 0.032645317368698572 -0.39721328630736241 0 0.043300396670470892 -0.38581293046691678 0 0.0466875803122518 -0.39705513158652528 0 0.032645317368698572 -0.39721328630736241 0 0.042121557959679479 -0.40689397827368962 0 0.032645317368698572 -0.39721328630736241 0 0.043300396670470892 -0.38581293046691678 0 0.025542853711361019 -0.38384675294920401 0 0.043300396670470892 -0.38581293046691678 0 0.025542853711361019 -0.38384675294920401 0 0.039079294002052851 -0.37065651216905859 0 0.025542853711361019 -0.38384675294920401 0 0.009690974369139977 -0.39295199195252922 0 0.016784443680880379 -0.36713146693108112 0 -0.0064694903547723136 -0.38059021958606692 0 0.009690974369139977 -0.39295199195252922 0 0.016784443680880379 -0.36713146693108112 0 0.032645317368698572 -0.39721328630736241 0 0.009690974369139977 -0.39295199195252922 0 0.030062121183744069 -0.41560348860952728 0 0.032645317368698572 -0.39721328630736241 0 0.025542853711361019 -0.38384675294920401 0 0.009690974369139977 -0.39295199195252922 0 0.009690974369139977 -0.39295199195252922 0 0.030062121183744069 -0.41560348860952728 0 0.01224976062295041 -0.42183763890738629 0 -0.0080625817845775948 -0.40608726553411861 0 0.009690974369139977 -0.39295199195252922 0 0.01224976062295041 -0.42183763890738629 0 0.009690974369139977 -0.39295199195252922 0 0.01224976062295041 -0.42183763890738629 0 0.01224976062295041 -0.42183763890738629 0 0.01480854687676085 -0.45072328586224342 0 0.030062121183744069 -0.41560348860952728 0 0.01224976062295041 -0.42183763890738629 0 0.028535899264767479 -0.43733174884408438 0 0.01224976062295041 -0.42183763890738629 0 0.028535899264767479 -0.43733174884408438 0 0.01480854687676085 -0.45072328586224342 0 0.030062121183744069 -0.41560348860952728 0 0.028535899264767479 -0.43733174884408438 0 0.039909128579099777 -0.42893709763038412 0 0.039909128579099777 -0.42893709763038412 0 0.050432421370333713 -0.42320051356081623 0 0.04400553312424714 -0.45021417746364167 0 0.039909128579099777 -0.42893709763038412 0 0.046509667952406512 -0.41833555967385072 0 0.050432421370333713 -0.42320051356081623 0 0.032645317368698572 -0.39721328630736241 0 0.030062121183744069 -0.41560348860952728 0 0.042121557959679479 -0.40689397827368962 0 0.030062121183744069 -0.41560348860952728 0 0.039909128579099777 -0.42893709763038412 0 0.046509667952406512 -0.41833555967385072 0 0.030062121183744069 -0.41560348860952728 0 0.042121557959679479 -0.40689397827368962 0 0.046509667952406512 -0.41833555967385072 0 0.054373060569327003 -0.40663711634463268 0 0.050432421370333713 -0.42320051356081623 0 0.046509667952406512 -0.41833555967385072 0 0.054373060569327003 -0.40663711634463268 0 0.050432421370333713 -0.42320051356081623 0 0.054373060569327003 -0.40663711634463268 0 0.060774245729122177 -0.41691050055794487 0 0.050432421370333713 -0.42320051356081623 0 0.046509667952406512 -0.41833555967385072 0 0.050432421370333713 -0.42320051356081623 0 0.042121557959679479 -0.40689397827368962 0 0.046509667952406512 -0.41833555967385072 0 0.054373060569327003 -0.40663711634463268 0 0.069775570718114244 -0.40426700169235308 0 0.054373060569327003 -0.40663711634463268 0 0.060774245729122177 -0.41691050055794487 0 0.050432421370333713 -0.42320051356081623 0 0.04400553312424714 -0.45021417746364167 0 0.065913834705597293 -0.44240038517061198 0 0.050432421370333713 -0.42320051356081623 0 0.065913834705597293 -0.44240038517061198 0 0.065921365320016911 -0.4273577277455588 0 0.050432421370333713 -0.42320051356081623 0 0.065921365320016911 -0.4273577277455588 0 0.060774245729122177 -0.41691050055794487 0 0.050432421370333713 -0.42320051356081623 0 0.065913834705597293 -0.44240038517061198 0 0.050432421370333713 -0.42320051356081623 0 0.04400553312424714 -0.45021417746364167 0 0.065913834705597293 -0.44240038517061198 0 0.057068655694905858 -0.46015288389510001 0 0.04400553312424714 -0.45021417746364167 0 0.057068655694905858 -0.46015288389510001 0 0.048043393468649283 -0.46676160836513853 0 0.04400553312424714 -0.45021417746364167 0 0.067447632246636219 -0.45716428258124142 0 0.057068655694905858 -0.46015288389510001 0 0.05849497948899289 -0.47642287528831911 0 0.057068655694905858 -0.46015288389510001 0 0.048043393468649283 -0.46676160836513853 0 0.052635520687858477 -0.47072247146996382 0 0.04400553312424714 -0.45021417746364167 0 0.037578644878161642 -0.47722784136646751 0 0.048043393468649283 -0.46676160836513853 0 0.04400553312424714 -0.45021417746364167 0 0.037578644878161642 -0.47722784136646751 0 0.04400553312424714 -0.45021417746364167 0 0.030366658319331299 -0.45781827645911538 0 0.037578644878161642 -0.47722784136646751 0 0.028535899264767479 -0.43733174884408438 0 0.039909128579099777 -0.42893709763038412 0 0.04400553312424714 -0.45021417746364167 0 0.028535899264767479 -0.43733174884408438 0 0.04400553312424714 -0.45021417746364167 0 0.030366658319331299 -0.45781827645911538 0 0.028535899264767479 -0.43733174884408438 0 0.01480854687676085 -0.45072328586224342 0 0.030366658319331299 -0.45781827645911538 0 -0.008216644178786571 -0.4466179140804285 0 0.01224976062295041 -0.42183763890738629 0 0.01480854687676085 -0.45072328586224342 0 0.01480854687676085 -0.45072328586224342 0 0.017367333130571299 -0.47960893281710049 0 0.0084119176919832291 -0.471974008478943 0 -0.0021957942935651631 -0.46571035637089769 0 0.01480854687676085 -0.45072328586224342 0 0.0084119176919832291 -0.471974008478943 0 -0.008216644178786571 -0.4466179140804285 0 -0.0021957942935651631 -0.46571035637089769 0 0.01480854687676085 -0.45072328586224342 0 0.01480854687676085 -0.45072328586224342 0 0.017367333130571299 -0.47960893281710049 0 0.01480854687676085 -0.45072328586224342 0 0.030366658319331299 -0.45781827645911538 0 0.0269046674527194 -0.47359432875914009 0 0.01480854687676085 -0.45072328586224342 0 0.0269046674527194 -0.47359432875914009 0 0.017367333130571299 -0.47960893281710049 0 0.017367333130571299 -0.47960893281710049 0 0.012735562036971701 -0.48508522326900949 0 0.035615270762982369 -0.48075404927866472 0 0.012735562036971701 -0.48508522326900949 0 0.035615270762982369 -0.48075404927866472 0 0.0269046674527194 -0.47359432875914009 0 0.017367333130571299 -0.47960893281710049 0 0.035615270762982369 -0.48075404927866472 0 0.017367333130571299 -0.47960893281710049 0 0.0084119176919832291 -0.471974008478943 0 0.012735562036971701 -0.48508522326900949 0 -0.00065605929082254884 -0.47874224407546379 0 0.0084119176919832291 -0.471974008478943 0 0.012735562036971701 -0.48508522326900949 0 -0.0021957942935651631 -0.46571035637089769 0 -0.00065605929082254884 -0.47874224407546379 0 0.0084119176919832291 -0.471974008478943 0 -0.010144146689038991 -0.48941639725935437 0 -0.00065605929082254884 -0.47874224407546379 0 0.012735562036971701 -0.48508522326900949 0 -0.010144146689038991 -0.48941639725935437 0 0.012735562036971701 -0.48508522326900949 0 -0.011489863113854141 -0.5 0 0.012735562036971701 -0.48508522326900949 0 0.01802246382714956 -0.5 0 0.01802246382714956 -0.5 0 0.025329369399590369 -0.48901546815995378 0 0.047534790768153173 -0.50000000000000044 0 0.012735562036971701 -0.48508522326900949 0 0.025329369399590369 -0.48901546815995378 0 0.035615270762982369 -0.48075404927866472 0 0.012735562036971701 -0.48508522326900949 0 0.01802246382714956 -0.5 0 0.025329369399590369 -0.48901546815995378 0 0.025329369399590369 -0.48901546815995378 0 0.035615270762982369 -0.48075404927866472 0 0.047534790768153173 -0.50000000000000044 0 0.030366658319331299 -0.45781827645911538 0 0.0269046674527194 -0.47359432875914009 0 0.037578644878161642 -0.47722784136646751 0 0.0269046674527194 -0.47359432875914009 0 0.037578644878161642 -0.47722784136646751 0 0.035615270762982369 -0.48075404927866472 0 0.048043393468649283 -0.46676160836513853 0 0.037578644878161642 -0.47722784136646751 0 0.046296380844488463 -0.47463440362945558 0 0.035615270762982369 -0.48075404927866472 0 0.046296380844488463 -0.47463440362945558 0 0.049693011087844949 -0.4756354888466594 0 0.037578644878161642 -0.47722784136646751 0 0.035615270762982369 -0.48075404927866472 0 0.046296380844488463 -0.47463440362945558 0 0.057068655694905858 -0.46015288389510001 0 0.052635520687858477 -0.47072247146996382 0 0.05849497948899289 -0.47642287528831911 0 0.035615270762982369 -0.48075404927866472 0 0.049693011087844949 -0.4756354888466594 0 0.05849497948899289 -0.47642287528831911 0 0.035615270762982369 -0.48075404927866472 0 0.05849497948899289 -0.47642287528831911 0 0.048043393468649283 -0.46676160836513853 0 0.046296380844488463 -0.47463440362945558 0 0.052635520687858477 -0.47072247146996382 0 0.049693011087844949 -0.4756354888466594 0 0.052635520687858477 -0.47072247146996382 0 0.05849497948899289 -0.47642287528831911 0 0.046296380844488463 -0.47463440362945558 0 0.049693011087844949 -0.4756354888466594 0 0.052635520687858477 -0.47072247146996382 0 0.05849497948899289 -0.47642287528831911 0 0.061758178687080389 -0.47580514524370598 0 0.062670741706174135 -0.48944359682069549 0 0.064881374578912687 -0.4815757870058418 0 0.05849497948899289 -0.47642287528831911 0 0.064881374578912687 -0.4815757870058418 0 0.05849497948899289 -0.47642287528831911 0 0.061758178687080389 -0.47580514524370598 0 0.069142552082564368 -0.5 0 0.062670741706174135 -0.48944359682069549 0 0.047534790768153173 -0.50000000000000044 0 0.05849497948899289 -0.47642287528831911 0 0.047534790768153173 -0.50000000000000044 0 0.035615270762982369 -0.48075404927866472 0 0.05849497948899289 -0.47642287528831911 0 0.047534790768153173 -0.50000000000000044 0 0.062670741706174135 -0.48944359682069549 0 0.05849497948899289 -0.47642287528831911 0 0.047534790768153173 -0.50000000000000044 0 0.089727975817252392 -0.29646224842349211 0 0.069967983226982527 -0.30495776272600778 0 0.075483032258224086 -0.28815868119130272 0 0.089727975817252392 -0.29646224842349211 0 0.088503230311337153 -0.27716835087377989 0 0.101883582619993 -0.28460947857741209 0 0.089727975817252392 -0.29646224842349211 0 0.075483032258224086 -0.28815868119130272 0 0.088503230311337153 -0.27716835087377989 0 0.089727975817252392 -0.29646224842349211 0 0.086214248119208581 -0.31193359067875348 0 0.069967983226982527 -0.30495776272600778 0 0.089727975817252392 -0.29646224842349211 0 0.086214248119208581 -0.31193359067875348 0 0.10049372866807189 -0.31082656242210721 0 0.069967983226982527 -0.30495776272600778 0 0.075483032258224086 -0.28815868119130272 0 0.059449054433483903 -0.28956707473318272 0 0.075483032258224086 -0.28815868119130272 0 0.0646939085167762 -0.2722383315448984 0 0.059449054433483903 -0.28956707473318272 0 0.0646939085167762 -0.2722383315448984 0 0.077350866508299074 -0.27549126298099152 0 0.080723294946858856 -0.26439968831398508 0 0.075483032258224086 -0.28815868119130272 0 0.0646939085167762 -0.2722383315448984 0 0.077350866508299074 -0.27549126298099152 0 0.0646939085167762 -0.2722383315448984 0 0.070005134957367529 -0.25889031236374099 0 0.080723294946858856 -0.26439968831398508 0 0.070005134957367529 -0.25889031236374099 0 0.061490933840310687 -0.25382890142296882 0 0.070069103552599196 -0.24823964670048029 0 0.0646939085167762 -0.2722383315448984 0 0.070005134957367529 -0.25889031236374099 0 0.060614126731859473 -0.2624009925450973 0 0.070005134957367529 -0.25889031236374099 0 0.061490933840310687 -0.25382890142296882 0 0.060614126731859473 -0.2624009925450973 0 0.070005134957367529 -0.25889031236374099 0 0.080071368274292315 -0.25145738896057979 0 0.080723294946858856 -0.26439968831398508 0 0.070005134957367529 -0.25889031236374099 0 0.080071368274292315 -0.25145738896057979 0 0.070069103552599196 -0.24823964670048029 0 0.080071368274292315 -0.25145738896057979 0 0.080723294946858856 -0.26439968831398508 0 0.090706365013478091 -0.25245448435890872 0 0.080723294946858856 -0.26439968831398508 0 0.090706365013478091 -0.25245448435890872 0 0.095060577752172304 -0.26241188567384149 0 0.075483032258224086 -0.28815868119130272 0 0.077350866508299074 -0.27549126298099152 0 0.088503230311337153 -0.27716835087377989 0 0.077350866508299074 -0.27549126298099152 0 0.080723294946858856 -0.26439968831398508 0 0.088503230311337153 -0.27716835087377989 0 0.080723294946858856 -0.26439968831398508 0 0.088503230311337153 -0.27716835087377989 0 0.095060577752172304 -0.26241188567384149 0 0.088503230311337153 -0.27716835087377989 0 0.1016952336099234 -0.27235330725820578 0 0.101883582619993 -0.28460947857741209 0 0.088503230311337153 -0.27716835087377989 0 0.1016952336099234 -0.27235330725820578 0 0.095060577752172304 -0.26241188567384149 0 0.1016952336099234 -0.27235330725820578 0 0.1104739380917857 -0.2612093749811526 0 0.1125548392743288 -0.27636744618484282 0 0.1016952336099234 -0.27235330725820578 0 0.1125548392743288 -0.27636744618484282 0 0.101883582619993 -0.28460947857741209 0 0.090706365013478091 -0.25245448435890872 0 0.099550463170151926 -0.25262580003909579 0 0.095060577752172304 -0.26241188567384149 0 0.1016952336099234 -0.27235330725820578 0 0.095060577752172304 -0.26241188567384149 0 0.1104739380917857 -0.2612093749811526 0 0.099550463170151926 -0.25262580003909579 0 0.095060577752172304 -0.26241188567384149 0 0.1104739380917857 -0.2612093749811526 0 0.099550463170151926 -0.25262580003909579 0 0.1104739380917857 -0.2612093749811526 0 0.1078238037173969 -0.24832262031645649 0 0.1311170075682456 -0.27142576198599933 0 0.1104739380917857 -0.2612093749811526 0 0.1212054647883809 -0.25073068226796852 0 0.1104739380917857 -0.2612093749811526 0 0.1212054647883809 -0.25073068226796852 0 0.1078238037173969 -0.24832262031645649 0 0.1311170075682456 -0.27142576198599933 0 0.1104739380917857 -0.2612093749811526 0 0.1311170075682456 -0.27142576198599933 0 0.1104739380917857 -0.2612093749811526 0 0.1193620271946058 -0.27249351692823448 0 0.1104739380917857 -0.2612093749811526 0 0.1125548392743288 -0.27636744618484282 0 0.1193620271946058 -0.27249351692823448 0 0.1125548392743288 -0.27636744618484282 0 0.1193620271946058 -0.27249351692823448 0 0.1233023238440631 -0.28097148456094378 0 0.1311170075682456 -0.27142576198599933 0 0.1193620271946058 -0.27249351692823448 0 0.1233023238440631 -0.28097148456094378 0 0.1233023238440631 -0.28097148456094378 0 0.1242383748246253 -0.29131174999725179 0 0.1141297936923768 -0.28878453930630188 0 0.1242383748246253 -0.29131174999725179 0 0.1141297936923768 -0.28878453930630188 0 0.1198701537204314 -0.30089140532399938 0 0.1141297936923768 -0.28878453930630188 0 0.10622170970645189 -0.29895353846799488 0 0.1198701537204314 -0.30089140532399938 0 0.1125548392743288 -0.27636744618484282 0 0.1233023238440631 -0.28097148456094378 0 0.1141297936923768 -0.28878453930630188 0 0.1125548392743288 -0.27636744618484282 0 0.1141297936923768 -0.28878453930630188 0 0.101883582619993 -0.28460947857741209 0 0.089727975817252392 -0.29646224842349211 0 0.101883582619993 -0.28460947857741209 0 0.10622170970645189 -0.29895353846799488 0 0.1141297936923768 -0.28878453930630188 0 0.101883582619993 -0.28460947857741209 0 0.10622170970645189 -0.29895353846799488 0 0.089727975817252392 -0.29646224842349211 0 0.10049372866807189 -0.31082656242210721 0 0.10622170970645189 -0.29895353846799488 0 0.10049372866807189 -0.31082656242210721 0 0.10622170970645189 -0.29895353846799488 0 0.1134387524627216 -0.31086840579325631 0 0.10622170970645189 -0.29895353846799488 0 0.1134387524627216 -0.31086840579325631 0 0.1198701537204314 -0.30089140532399938 0 0.1265219532001009 -0.3124330460259736 0 0.1134387524627216 -0.31086840579325631 0 0.1198701537204314 -0.30089140532399938 0 0.1265219532001009 -0.3124330460259736 0 0.1134387524627216 -0.31086840579325631 0 0.1192961391526948 -0.32261879728377291 0 0.1134387524627216 -0.31086840579325631 0 0.1192961391526948 -0.32261879728377291 0 0.1082288303285789 -0.31948708523568958 0 0.1192961391526948 -0.32261879728377291 0 0.1093748658769356 -0.32997486192450581 0 0.1082288303285789 -0.31948708523568958 0 0.1192961391526948 -0.32261879728377291 0 0.1168506625355451 -0.3296807312869221 0 0.1093748658769356 -0.32997486192450581 0 0.1192961391526948 -0.32261879728377291 0 0.12260601330919629 -0.33072698382653798 0 0.1168506625355451 -0.3296807312869221 0 0.13219802669416811 -0.32498852212276208 0 0.1192961391526948 -0.32261879728377291 0 0.12260601330919629 -0.33072698382653798 0 0.13051916655351839 -0.33696304048325831 0 0.12260601330919629 -0.33072698382653798 0 0.1159240811174677 -0.33775964177068091 0 0.12260601330919629 -0.33072698382653798 0 0.1159240811174677 -0.33775964177068091 0 0.1161256318033537 -0.33540228211287182 0 0.12260601330919629 -0.33072698382653798 0 0.1168506625355451 -0.3296807312869221 0 0.1161256318033537 -0.33540228211287182 0 0.13051916655351839 -0.33696304048325831 0 0.1159240811174677 -0.33775964177068091 0 0.13051916655351839 -0.33696304048325831 0 0.1159240811174677 -0.33775964177068091 0 0.123981461538115 -0.35128285539313481 0 0.1159240811174677 -0.33775964177068091 0 0.1161256318033537 -0.33540228211287182 0 0.1168506625355451 -0.3296807312869221 0 0.1161256318033537 -0.33540228211287182 0 0.1093748658769356 -0.32997486192450581 0 0.1159240811174677 -0.33775964177068091 0 0.1161256318033537 -0.33540228211287182 0 0.1093748658769356 -0.32997486192450581 0 0.1159240811174677 -0.33775964177068091 0 0.092335912071574502 -0.33904708650077298 0 0.1159240811174677 -0.33775964177068091 0 0.1093748658769356 -0.32997486192450581 0 0.092335912071574502 -0.33904708650077298 0 0.1093748658769356 -0.32997486192450581 0 0.096347407600029022 -0.32440529872184809 0 0.092335912071574502 -0.33904708650077298 0 0.1159240811174677 -0.33775964177068091 0 0.10211321446004019 -0.35101158716873732 0 0.092335912071574502 -0.33904708650077298 0 0.086214248119208581 -0.31193359067875348 0 0.10049372866807189 -0.31082656242210721 0 0.096347407600029022 -0.32440529872184809 0 0.10049372866807189 -0.31082656242210721 0 0.1134387524627216 -0.31086840579325631 0 0.1082288303285789 -0.31948708523568958 0 0.10049372866807189 -0.31082656242210721 0 0.096347407600029022 -0.32440529872184809 0 0.1082288303285789 -0.31948708523568958 0 0.1093748658769356 -0.32997486192450581 0 0.096347407600029022 -0.32440529872184809 0 0.1082288303285789 -0.31948708523568958 0 0.12784456261830821 -0.36308533366748658 0 0.12609635470998201 -0.38402791619100712 0 0.113745377556003 -0.36324200547299851 0 0.1159240811174677 -0.33775964177068091 0 0.113745377556003 -0.36324200547299851 0 0.123981461538115 -0.35128285539313481 0 0.1159240811174677 -0.33775964177068091 0 0.113745377556003 -0.36324200547299851 0 0.1159240811174677 -0.33775964177068091 0 0.113745377556003 -0.36324200547299851 0 0.10211321446004019 -0.35101158716873732 0 0.12784456261830821 -0.36308533366748658 0 0.113745377556003 -0.36324200547299851 0 0.123981461538115 -0.35128285539313481 0 0.1115666739945345 -0.38872436917531578 0 0.113745377556003 -0.36324200547299851 0 0.096372132326470572 -0.36542491223168638 0 0.113745377556003 -0.36324200547299851 0 0.10211321446004019 -0.35101158716873732 0 0.096372132326470572 -0.36542491223168638 0 0.089853218628298884 -0.38394717958202601 0 0.096372132326470572 -0.36542491223168638 0 0.07582030708563034 -0.37256671738353597 0 0.096372132326470572 -0.36542491223168638 0 0.082110249222110576 -0.35466523699539548 0 0.07582030708563034 -0.37256671738353597 0 0.10211321446004019 -0.35101158716873732 0 0.096372132326470572 -0.36542491223168638 0 0.082110249222110576 -0.35466523699539548 0 0.082110249222110576 -0.35466523699539548 0 0.092335912071574502 -0.33904708650077298 0 0.068747743025681235 -0.34033453123086538 0 0.10211321446004019 -0.35101158716873732 0 0.082110249222110576 -0.35466523699539548 0 0.092335912071574502 -0.33904708650077298 0 0.082110249222110576 -0.35466523699539548 0 0.068747743025681235 -0.34033453123086538 0 0.057272186363266697 -0.35960658745677498 0 0.082110249222110576 -0.35466523699539548 0 0.07582030708563034 -0.37256671738353597 0 0.057272186363266697 -0.35960658745677498 0 0.05933500968155693 -0.37671477575793533 0 0.07582030708563034 -0.37256671738353597 0 0.057272186363266697 -0.35960658745677498 0 0.086214248119208581 -0.31193359067875348 0 0.096347407600029022 -0.32440529872184809 0 0.078030795921920637 -0.32434601069550512 0 0.092335912071574502 -0.33904708650077298 0 0.068747743025681235 -0.34033453123086538 0 0.078030795921920637 -0.32434601069550512 0 0.092335912071574502 -0.33904708650077298 0 0.068747743025681235 -0.34033453123086538 0 0.096347407600029022 -0.32440529872184809 0 0.092335912071574502 -0.33904708650077298 0 0.078030795921920637 -0.32434601069550512 0 0.068747743025681235 -0.34033453123086538 0 0.078030795921920637 -0.32434601069550512 0 0.053863538987460123 -0.3232816795844588 0 0.069967983226982527 -0.30495776272600778 0 0.078030795921920637 -0.32434601069550512 0 0.053863538987460123 -0.3232816795844588 0 0.086214248119208581 -0.31193359067875348 0 0.069967983226982527 -0.30495776272600778 0 0.078030795921920637 -0.32434601069550512 0 0.068747743025681235 -0.34033453123086538 0 0.045159573979787898 -0.34162197596095778 0 0.068747743025681235 -0.34033453123086538 0 0.053863538987460123 -0.3232816795844588 0 0.045159573979787898 -0.34162197596095778 0 0.053863538987460123 -0.3232816795844588 0 0.034832013842728909 -0.33032259781876938 0 0.045159573979787898 -0.34162197596095778 0 0.034832013842728909 -0.33032259781876938 0 0.045159573979787898 -0.34162197596095778 0 0.02157140493389462 -0.34290942069105018 0 0.045159573979787898 -0.34162197596095778 0 0.02157140493389462 -0.34290942069105018 0 0.053863538987460123 -0.3232816795844588 0 0.034832013842728909 -0.33032259781876938 0 0.03621734991660093 -0.31670946998547028 0 0.053863538987460123 -0.3232816795844588 0 0.03621734991660093 -0.31670946998547028 0 0.048768037075517537 -0.30442990221103089 0 0.05933500968155693 -0.37671477575793533 0 0.057272186363266697 -0.35960658745677498 0 0.039079294002052851 -0.37065651216905859 0 0.068747743025681235 -0.34033453123086538 0 0.045159573979787898 -0.34162197596095778 0 0.057272186363266697 -0.35960658745677498 0 0.045159573979787898 -0.34162197596095778 0 0.034512899630155462 -0.3545258348651717 0 0.02157140493389462 -0.34290942069105018 0 0.045159573979787898 -0.34162197596095778 0 0.057272186363266697 -0.35960658745677498 0 0.034512899630155462 -0.3545258348651717 0 0.057272186363266697 -0.35960658745677498 0 0.034512899630155462 -0.3545258348651717 0 0.039079294002052851 -0.37065651216905859 0 0.025542853711361019 -0.38384675294920401 0 0.039079294002052851 -0.37065651216905859 0 0.016784443680880379 -0.36713146693108112 0 0.034512899630155462 -0.3545258348651717 0 0.039079294002052851 -0.37065651216905859 0 0.016784443680880379 -0.36713146693108112 0 0.034512899630155462 -0.3545258348651717 0 0.016784443680880379 -0.36713146693108112 0 0.02157140493389462 -0.34290942069105018 0 -0.0043130761299947744 -0.35643483176966217 0 0.016784443680880379 -0.36713146693108112 0 0.02157140493389462 -0.34290942069105018 0 -0.0038616663111063101 -0.33241552487502413 0 -0.0043130761299947744 -0.35643483176966217 0 0.02157140493389462 -0.34290942069105018 0 -0.0043130761299947744 -0.35643483176966217 0 -0.0064694903547723136 -0.38059021958606692 0 0.016784443680880379 -0.36713146693108112 0 0.03621734991660093 -0.31670946998547028 0 0.020048637459846991 -0.32439583124448262 0 0.029165048793799431 -0.30349547286963757 0 0.034832013842728909 -0.33032259781876938 0 0.03621734991660093 -0.31670946998547028 0 0.020048637459846991 -0.32439583124448262 0 0.020048637459846991 -0.32439583124448262 0 0.0094652366165251054 -0.31053241408104548 0 0.029165048793799431 -0.30349547286963757 0 0.034832013842728909 -0.33032259781876938 0 0.020048637459846991 -0.32439583124448262 0 0.02157140493389462 -0.34290942069105018 0 -0.0038616663111063101 -0.33241552487502413 0 0.020048637459846991 -0.32439583124448262 0 0.02157140493389462 -0.34290942069105018 0 -0.0038616663111063101 -0.33241552487502413 0 0.020048637459846991 -0.32439583124448262 0 0.0094652366165251054 -0.31053241408104548 0 -0.01007927323019326 -0.3103345258507364 0 0.0094652366165251054 -0.31053241408104548 0 0.0017563221397047381 -0.2997067901486577 0 0.0094652366165251054 -0.31053241408104548 0 0.0017563221397047381 -0.2997067901486577 0 0.017453688627786131 -0.29322190620108468 0 0.0017563221397047381 -0.2997067901486577 0 0.0066437179820165657 -0.2861171845936395 0 0.017453688627786131 -0.29322190620108468 0 -0.0080748459131490501 -0.2914060437848453 0 0.0017563221397047381 -0.2997067901486577 0 0.0066437179820165657 -0.2861171845936395 0 0.0066437179820165657 -0.2861171845936395 0 0.017453688627786131 -0.29322190620108468 0 0.01908241754038794 -0.28073467218482329 0 0.017453688627786131 -0.29322190620108468 0 0.029398966714908509 -0.28692964748338379 0 0.029165048793799431 -0.30349547286963757 0 0.017453688627786131 -0.29322190620108468 0 0.029398966714908509 -0.28692964748338379 0 0.01908241754038794 -0.28073467218482329 0 0.0094652366165251054 -0.31053241408104548 0 0.017453688627786131 -0.29322190620108468 0 0.029165048793799431 -0.30349547286963757 0 0.03621734991660093 -0.31670946998547028 0 0.029165048793799431 -0.30349547286963757 0 0.048768037075517537 -0.30442990221103089 0 0.029165048793799431 -0.30349547286963757 0 0.043029943860180789 -0.28970337243015992 0 0.048768037075517537 -0.30442990221103089 0 0.029398966714908509 -0.28692964748338379 0 0.029165048793799431 -0.30349547286963757 0 0.043029943860180789 -0.28970337243015992 0 0.029398966714908509 -0.28692964748338379 0 0.043029943860180789 -0.28970337243015992 0 0.038396769586432553 -0.27977596087564799 0 0.043029943860180789 -0.28970337243015992 0 0.051749435803858171 -0.27840569125857739 0 0.038396769586432553 -0.27977596087564799 0 0.043029943860180789 -0.28970337243015992 0 0.059449054433483903 -0.28956707473318272 0 0.051749435803858171 -0.27840569125857739 0 0.043029943860180789 -0.28970337243015992 0 0.059449054433483903 -0.28956707473318272 0 0.048768037075517537 -0.30442990221103089 0 0.069967983226982527 -0.30495776272600778 0 0.059449054433483903 -0.28956707473318272 0 0.048768037075517537 -0.30442990221103089 0 0.069967983226982527 -0.30495776272600778 0 0.053863538987460123 -0.3232816795844588 0 0.048768037075517537 -0.30442990221103089 0 0.053380735395516472 -0.25867595766617779 0 0.04428054005230446 -0.26275141268032309 0 0.045372505498807933 -0.25408090721008542 0 0.053380735395516472 -0.25867595766617779 0 0.053158010572478251 -0.26777612517812432 0 0.04428054005230446 -0.26275141268032309 0 0.053380735395516472 -0.25867595766617779 0 0.045372505498807933 -0.25408090721008542 0 0.05268811686830014 -0.24901610311096159 0 0.053380735395516472 -0.25867595766617779 0 0.061490933840310687 -0.25382890142296882 0 0.05268811686830014 -0.24901610311096159 0 0.053380735395516472 -0.25867595766617779 0 0.060614126731859473 -0.2624009925450973 0 0.053158010572478251 -0.26777612517812432 0 0.053380735395516472 -0.25867595766617779 0 0.061490933840310687 -0.25382890142296882 0 0.060614126731859473 -0.2624009925450973 0 0.0646939085167762 -0.2722383315448984 0 0.060614126731859473 -0.2624009925450973 0 0.053158010572478251 -0.26777612517812432 0 0.0646939085167762 -0.2722383315448984 0 0.059449054433483903 -0.28956707473318272 0 0.051749435803858171 -0.27840569125857739 0 0.0646939085167762 -0.2722383315448984 0 0.051749435803858171 -0.27840569125857739 0 0.053158010572478251 -0.26777612517812432 0 0.053158010572478251 -0.26777612517812432 0 0.044229316934554799 -0.27218436537367241 0 0.04428054005230446 -0.26275141268032309 0 0.051749435803858171 -0.27840569125857739 0 0.053158010572478251 -0.26777612517812432 0 0.044229316934554799 -0.27218436537367241 0 0.044229316934554799 -0.27218436537367241 0 0.031885251388666561 -0.26470215361104171 0 0.04428054005230446 -0.26275141268032309 0 0.051749435803858171 -0.27840569125857739 0 0.044229316934554799 -0.27218436537367241 0 0.038396769586432553 -0.27977596087564799 0 0.044229316934554799 -0.27218436537367241 0 0.038396769586432553 -0.27977596087564799 0 0.029696712261103771 -0.27487286106778819 0 0.029398966714908509 -0.28692964748338379 0 0.038396769586432553 -0.27977596087564799 0 0.029696712261103771 -0.27487286106778819 0 0.044229316934554799 -0.27218436537367241 0 0.031885251388666561 -0.26470215361104171 0 0.029696712261103771 -0.27487286106778819 0 0.037315510146954597 -0.25849363249326118 0 0.031885251388666561 -0.26470215361104171 0 0.04428054005230446 -0.26275141268032309 0 0.037315510146954597 -0.25849363249326118 0 0.031885251388666561 -0.26470215361104171 0 0.03069464768829987 -0.25176037071845259 0 0.037315510146954597 -0.25849363249326118 0 0.04428054005230446 -0.26275141268032309 0 0.045372505498807933 -0.25408090721008542 0 0.045372505498807933 -0.25408090721008542 0 0.03069464768829987 -0.25176037071845259 0 0.042588116356466379 -0.2448823624008481 0 0.037315510146954597 -0.25849363249326118 0 0.045372505498807933 -0.25408090721008542 0 0.03069464768829987 -0.25176037071845259 0 0.031885251388666561 -0.26470215361104171 0 0.021199614426200629 -0.26114166245967918 0 0.019908913466960752 -0.27058631964059482 0 0.031885251388666561 -0.26470215361104171 0 0.03069464768829987 -0.25176037071845259 0 0.021199614426200629 -0.26114166245967918 0 0.03069464768829987 -0.25176037071845259 0 0.021199614426200629 -0.26114166245967918 0 0.016145176335298529 -0.25210595968411048 0 0.029398966714908509 -0.28692964748338379 0 0.029696712261103771 -0.27487286106778819 0 0.01908241754038794 -0.28073467218482329 0 0.031885251388666561 -0.26470215361104171 0 0.029696712261103771 -0.27487286106778819 0 0.019908913466960752 -0.27058631964059482 0 0.019908913466960752 -0.27058631964059482 0 0.01908241754038794 -0.28073467218482329 0 0.01128192931255503 -0.27464126756021451 0 0.029696712261103771 -0.27487286106778819 0 0.019908913466960752 -0.27058631964059482 0 0.01908241754038794 -0.28073467218482329 0 -0.01145854626600548 -0.26602311564559261 0 0.01128192931255503 -0.27464126756021451 0 0.0057158633005241696 -0.26337829885565528 0 0.0066437179820165657 -0.2861171845936395 0 0.01908241754038794 -0.28073467218482329 0 0.01128192931255503 -0.27464126756021451 0 0.019908913466960752 -0.27058631964059482 0 0.01128192931255503 -0.27464126756021451 0 0.0057158633005241696 -0.26337829885565528 0 -0.002848760243290064 -0.27761611820401882 0 0.0066437179820165657 -0.2861171845936395 0 0.01128192931255503 -0.27464126756021451 0 0.016145176335298529 -0.25210595968411048 0 0.0057158633005241696 -0.26337829885565528 0 0.0054759062840018038 -0.25064707341720888 0 0.021199614426200629 -0.26114166245967918 0 0.019908913466960752 -0.27058631964059482 0 0.0057158633005241696 -0.26337829885565528 0 0.021199614426200629 -0.26114166245967918 0 0.016145176335298529 -0.25210595968411048 0 0.0057158633005241696 -0.26337829885565528 0 -0.0009620894167222515 -0.25496392916579452 0 0.0057158633005241696 -0.26337829885565528 0 0.0054759062840018038 -0.25064707341720888 0 -0.0009620894167222515 -0.25496392916579452 0 -0.0029313858115674811 -0.24854412401401971 0 0.0054759062840018038 -0.25064707341720888 0 0.0054759062840018038 -0.25064707341720888 0 0.0026199421412959989 -0.2430643023623929 0 0.011589873569895199 -0.24127835128668559 0 -0.0029313858115674811 -0.24854412401401971 0 0.0054759062840018038 -0.25064707341720888 0 0.0026199421412959989 -0.2430643023623929 0 0.016145176335298529 -0.25210595968411048 0 0.0054759062840018038 -0.25064707341720888 0 0.011589873569895199 -0.24127835128668559 0 0.011589873569895199 -0.24127835128668559 0 0.010668172172219499 -0.2272828987723072 0 0.020574075722817331 -0.2351284197632682 0 0.0026199421412959989 -0.2430643023623929 0 0.011589873569895199 -0.24127835128668559 0 0.0017465435191736189 -0.23378549097037141 0 -0.00080535468136348092 -0.21995366459000901 0 0.010668172172219499 -0.2272828987723072 0 0.01016515501406726 -0.20926501301563591 0 -0.00080535468136348092 -0.21995366459000901 0 0.0017465435191736189 -0.23378549097037141 0 0.010668172172219499 -0.2272828987723072 0 0.010668172172219499 -0.2272828987723072 0 0.02170661161633574 -0.22145314359659171 0 0.01016515501406726 -0.20926501301563591 0 0.011589873569895199 -0.24127835128668559 0 0.0017465435191736189 -0.23378549097037141 0 0.010668172172219499 -0.2272828987723072 0 0.010668172172219499 -0.2272828987723072 0 0.02170661161633574 -0.22145314359659171 0 0.020574075722817331 -0.2351284197632682 0 0.02170661161633574 -0.22145314359659171 0 0.02866695829179056 -0.22960637228307629 0 0.036392787169896093 -0.22322562645731159 0 0.02170661161633574 -0.22145314359659171 0 0.02866695829179056 -0.22960637228307629 0 0.020574075722817331 -0.2351284197632682 0 0.02866695829179056 -0.22960637228307629 0 0.020574075722817331 -0.2351284197632682 0 0.032071787069821417 -0.24054619649286721 0 0.022195152742869501 -0.2444300013669817 0 0.020574075722817331 -0.2351284197632682 0 0.032071787069821417 -0.24054619649286721 0 0.03069464768829987 -0.25176037071845259 0 0.022195152742869501 -0.2444300013669817 0 0.032071787069821417 -0.24054619649286721 0 0.03069464768829987 -0.25176037071845259 0 0.016145176335298529 -0.25210595968411048 0 0.022195152742869501 -0.2444300013669817 0 0.016145176335298529 -0.25210595968411048 0 0.011589873569895199 -0.24127835128668559 0 0.022195152742869501 -0.2444300013669817 0 0.011589873569895199 -0.24127835128668559 0 0.022195152742869501 -0.2444300013669817 0 0.020574075722817331 -0.2351284197632682 0 -0.003739977245034012 -0.19168309442994089 0 0.010514116253606281 -0.1925853606064957 0 0.01016515501406726 -0.20926501301563591 0 0.010514116253606281 -0.1925853606064957 0 0.01016515501406726 -0.20926501301563591 0 0.018596641755985681 -0.20049862993462389 0 0.02170661161633574 -0.22145314359659171 0 0.01016515501406726 -0.20926501301563591 0 0.028304225500431591 -0.20785134554231141 0 0.01016515501406726 -0.20926501301563591 0 0.028304225500431591 -0.20785134554231141 0 0.018596641755985681 -0.20049862993462389 0 0.02170661161633574 -0.22145314359659171 0 0.028304225500431591 -0.20785134554231141 0 0.036392787169896093 -0.22322562645731159 0 0.028304225500431591 -0.20785134554231141 0 0.018596641755985681 -0.20049862993462389 0 0.02540307025583758 -0.19229280057405279 0 0.010514116253606281 -0.1925853606064957 0 0.018596641755985681 -0.20049862993462389 0 0.02540307025583758 -0.19229280057405279 0 0.010514116253606281 -0.1925853606064957 0 0.02540307025583758 -0.19229280057405279 0 0.015764016274472759 -0.1812646672695073 0 0.02540307025583758 -0.19229280057405279 0 0.041440672425083092 -0.19607701236864419 0 0.030421272951226121 -0.1778391783376792 0 0.028304225500431591 -0.20785134554231141 0 0.02540307025583758 -0.19229280057405279 0 0.041440672425083092 -0.19607701236864419 0 0.041440672425083092 -0.19607701236864419 0 0.042310424588804782 -0.2140630995529598 0 0.055497750511994078 -0.2086068857692274 0 0.028304225500431591 -0.20785134554231141 0 0.041440672425083092 -0.19607701236864419 0 0.042310424588804782 -0.2140630995529598 0 0.028304225500431591 -0.20785134554231141 0 0.042310424588804782 -0.2140630995529598 0 0.036392787169896093 -0.22322562645731159 0 0.042310424588804782 -0.2140630995529598 0 0.055497750511994078 -0.2086068857692274 0 0.052955454276687589 -0.2198291654371925 0 0.062338921595789062 -0.21792006704763969 0 0.055497750511994078 -0.2086068857692274 0 0.052955454276687589 -0.2198291654371925 0 0.062338921595789062 -0.21792006704763969 0 0.055497750511994078 -0.2086068857692274 0 0.067863046951983474 -0.20503048868511209 0 0.055497750511994078 -0.2086068857692274 0 0.056257937900538298 -0.19577788601322099 0 0.067863046951983474 -0.20503048868511209 0 0.041440672425083092 -0.19607701236864419 0 0.056257937900538298 -0.19577788601322099 0 0.051449240160577621 -0.1762857105508405 0 0.041440672425083092 -0.19607701236864419 0 0.055497750511994078 -0.2086068857692274 0 0.056257937900538298 -0.19577788601322099 0 0.040491861427302538 -0.2355872617630255 0 0.042588116356466379 -0.2448823624008481 0 0.052307832003780613 -0.23884346229351339 0 0.040491861427302538 -0.2355872617630255 0 0.045866106706223042 -0.22907627795895011 0 0.052307832003780613 -0.23884346229351339 0 0.03069464768829987 -0.25176037071845259 0 0.042588116356466379 -0.2448823624008481 0 0.032071787069821417 -0.24054619649286721 0 0.040491861427302538 -0.2355872617630255 0 0.042588116356466379 -0.2448823624008481 0 0.032071787069821417 -0.24054619649286721 0 0.02866695829179056 -0.22960637228307629 0 0.040491861427302538 -0.2355872617630255 0 0.032071787069821417 -0.24054619649286721 0 0.02866695829179056 -0.22960637228307629 0 0.040491861427302538 -0.2355872617630255 0 0.036392787169896093 -0.22322562645731159 0 0.042310424588804782 -0.2140630995529598 0 0.036392787169896093 -0.22322562645731159 0 0.045866106706223042 -0.22907627795895011 0 0.040491861427302538 -0.2355872617630255 0 0.036392787169896093 -0.22322562645731159 0 0.045866106706223042 -0.22907627795895011 0 0.045866106706223042 -0.22907627795895011 0 0.058764067980626958 -0.22947949685718549 0 0.052307832003780613 -0.23884346229351339 0 0.045866106706223042 -0.22907627795895011 0 0.052955454276687589 -0.2198291654371925 0 0.058764067980626958 -0.22947949685718549 0 0.042310424588804782 -0.2140630995529598 0 0.045866106706223042 -0.22907627795895011 0 0.052955454276687589 -0.2198291654371925 0 0.062338921595789062 -0.21792006704763969 0 0.058764067980626958 -0.22947949685718549 0 0.065719467571416057 -0.22489822263154319 0 0.062338921595789062 -0.21792006704763969 0 0.052955454276687589 -0.2198291654371925 0 0.058764067980626958 -0.22947949685718549 0 0.058764067980626958 -0.22947949685718549 0 0.062159259289524899 -0.2368834247622158 0 0.052307832003780613 -0.23884346229351339 0 0.062159259289524899 -0.2368834247622158 0 0.052307832003780613 -0.23884346229351339 0 0.061229972926465738 -0.2445427902389527 0 0.045372505498807933 -0.25408090721008542 0 0.042588116356466379 -0.2448823624008481 0 0.05268811686830014 -0.24901610311096159 0 0.042588116356466379 -0.2448823624008481 0 0.052307832003780613 -0.23884346229351339 0 0.05268811686830014 -0.24901610311096159 0 0.061490933840310687 -0.25382890142296882 0 0.05268811686830014 -0.24901610311096159 0 0.061229972926465738 -0.2445427902389527 0 0.052307832003780613 -0.23884346229351339 0 0.05268811686830014 -0.24901610311096159 0 0.061229972926465738 -0.2445427902389527 0 0.061490933840310687 -0.25382890142296882 0 0.061229972926465738 -0.2445427902389527 0 0.070069103552599196 -0.24823964670048029 0 0.061229972926465738 -0.2445427902389527 0 0.070069103552599196 -0.24823964670048029 0 0.069856411684105391 -0.23913895996007839 0 0.062159259289524899 -0.2368834247622158 0 0.061229972926465738 -0.2445427902389527 0 0.069856411684105391 -0.23913895996007839 0 0.062159259289524899 -0.2368834247622158 0 0.069856411684105391 -0.23913895996007839 0 0.067142239376285745 -0.23139328163069281 0 0.069856411684105391 -0.23913895996007839 0 0.077788170153509889 -0.24196191377257101 0 0.076767606518392539 -0.23187249677345001 0 0.080071368274292315 -0.25145738896057979 0 0.070069103552599196 -0.24823964670048029 0 0.077788170153509889 -0.24196191377257101 0 0.070069103552599196 -0.24823964670048029 0 0.069856411684105391 -0.23913895996007839 0 0.077788170153509889 -0.24196191377257101 0 0.080071368274292315 -0.25145738896057979 0 0.090706365013478091 -0.25245448435890872 0 0.085906732882507178 -0.24385162082211831 0 0.080071368274292315 -0.25145738896057979 0 0.077788170153509889 -0.24196191377257101 0 0.085906732882507178 -0.24385162082211831 0 0.077788170153509889 -0.24196191377257101 0 0.085906732882507178 -0.24385162082211831 0 0.083256636250354649 -0.23616880796388259 0 0.077788170153509889 -0.24196191377257101 0 0.083256636250354649 -0.23616880796388259 0 0.076767606518392539 -0.23187249677345001 0 0.085906732882507178 -0.24385162082211831 0 0.089657973372422345 -0.23730775202069579 0 0.094006026236525903 -0.2441335510050745 0 0.085906732882507178 -0.24385162082211831 0 0.083256636250354649 -0.23616880796388259 0 0.089657973372422345 -0.23730775202069579 0 0.083256636250354649 -0.23616880796388259 0 0.089657973372422345 -0.23730775202069579 0 0.089763789457938253 -0.2306791647953326 0 0.089657973372422345 -0.23730775202069579 0 0.089763789457938253 -0.2306791647953326 0 0.096012267649498176 -0.23702186761809721 0 0.089657973372422345 -0.23730775202069579 0 0.094006026236525903 -0.2441335510050745 0 0.096012267649498176 -0.23702186761809721 0 0.090706365013478091 -0.25245448435890872 0 0.085906732882507178 -0.24385162082211831 0 0.094006026236525903 -0.2441335510050745 0 0.086446736705125371 -0.22420087797706609 0 0.091303359373345411 -0.22339335178318359 0 0.089763789457938253 -0.2306791647953326 0 0.086446736705125371 -0.22420087797706609 0 0.091303359373345411 -0.22339335178318359 0 0.086853981468707001 -0.2185547472363609 0 0.091303359373345411 -0.22339335178318359 0 0.086853981468707001 -0.2185547472363609 0 0.09077468002378962 -0.21857675351640271 0 0.091303359373345411 -0.22339335178318359 0 0.09077468002378962 -0.21857675351640271 0 0.094530837428433365 -0.22086489816084981 0 0.091303359373345411 -0.22339335178318359 0 0.089763789457938253 -0.2306791647953326 0 0.098670227838192195 -0.22970514568366851 0 0.086446736705125371 -0.22420087797706609 0 0.089763789457938253 -0.2306791647953326 0 0.083020570332336119 -0.22791650227557511 0 0.083256636250354649 -0.23616880796388259 0 0.083020570332336119 -0.22791650227557511 0 0.076767606518392539 -0.23187249677345001 0 0.083256636250354649 -0.23616880796388259 0 0.089763789457938253 -0.2306791647953326 0 0.083020570332336119 -0.22791650227557511 0 0.083020570332336119 -0.22791650227557511 0 0.077930889523722374 -0.22519622511208121 0 0.076767606518392539 -0.23187249677345001 0 0.083020570332336119 -0.22791650227557511 0 0.081291982893300085 -0.22046062379487821 0 0.077930889523722374 -0.22519622511208121 0 0.086446736705125371 -0.22420087797706609 0 0.083020570332336119 -0.22791650227557511 0 0.081291982893300085 -0.22046062379487821 0 0.086446736705125371 -0.22420087797706609 0 0.081291982893300085 -0.22046062379487821 0 0.086853981468707001 -0.2185547472363609 0 0.081291982893300085 -0.22046062379487821 0 0.077930889523722374 -0.22519622511208121 0 0.073706539318973169 -0.21796036257100029 0 0.072234091795087663 -0.22574485878751241 0 0.065719467571416057 -0.22489822263154319 0 0.073706539318973169 -0.21796036257100029 0 0.077930889523722374 -0.22519622511208121 0 0.072234091795087663 -0.22574485878751241 0 0.073706539318973169 -0.21796036257100029 0 0.069856411684105391 -0.23913895996007839 0 0.076767606518392539 -0.23187249677345001 0 0.067142239376285745 -0.23139328163069281 0 0.072234091795087663 -0.22574485878751241 0 0.076767606518392539 -0.23187249677345001 0 0.067142239376285745 -0.23139328163069281 0 0.077930889523722374 -0.22519622511208121 0 0.072234091795087663 -0.22574485878751241 0 0.076767606518392539 -0.23187249677345001 0 0.058764067980626958 -0.22947949685718549 0 0.062159259289524899 -0.2368834247622158 0 0.067142239376285745 -0.23139328163069281 0 0.058764067980626958 -0.22947949685718549 0 0.067142239376285745 -0.23139328163069281 0 0.065719467571416057 -0.22489822263154319 0 0.072234091795087663 -0.22574485878751241 0 0.067142239376285745 -0.23139328163069281 0 0.065719467571416057 -0.22489822263154319 0 0.062338921595789062 -0.21792006704763969 0 0.065719467571416057 -0.22489822263154319 0 0.073706539318973169 -0.21796036257100029 0 0.062338921595789062 -0.21792006704763969 0 0.067863046951983474 -0.20503048868511209 0 0.073706539318973169 -0.21796036257100029 0 0.067863046951983474 -0.20503048868511209 0 0.073706539318973169 -0.21796036257100029 0 0.079094442607528917 -0.20913243433380641 0 0.067863046951983474 -0.20503048868511209 0 0.081482512553192915 -0.1953056794767786 0 0.079094442607528917 -0.20913243433380641 0 0.056257937900538298 -0.19577788601322099 0 0.067863046951983474 -0.20503048868511209 0 0.066040058368007956 -0.18964665730407451 0 0.067863046951983474 -0.20503048868511209 0 0.066040058368007956 -0.18964665730407451 0 0.081482512553192915 -0.1953056794767786 0 0.081482512553192915 -0.1953056794767786 0 0.095454742848087734 -0.19451486061966669 0 0.093505174579280592 -0.1731787749771625 0 0.081482512553192915 -0.1953056794767786 0 0.08833530696517819 -0.21036332105093219 0 0.095454742848087734 -0.19451486061966669 0 0.08833530696517819 -0.21036332105093219 0 0.097404311116896569 -0.21585094626217091 0 0.095454742848087734 -0.19451486061966669 0 0.081291982893300085 -0.22046062379487821 0 0.073706539318973169 -0.21796036257100029 0 0.082946926161669862 -0.2149195339015407 0 0.082946926161669862 -0.2149195339015407 0 0.079094442607528917 -0.20913243433380641 0 0.08833530696517819 -0.21036332105093219 0 0.073706539318973169 -0.21796036257100029 0 0.082946926161669862 -0.2149195339015407 0 0.079094442607528917 -0.20913243433380641 0 0.081291982893300085 -0.22046062379487821 0 0.082946926161669862 -0.2149195339015407 0 0.086853981468707001 -0.2185547472363609 0 0.081482512553192915 -0.1953056794767786 0 0.079094442607528917 -0.20913243433380641 0 0.08833530696517819 -0.21036332105093219 0 0.082946926161669862 -0.2149195339015407 0 0.08833530696517819 -0.21036332105093219 0 0.086853981468707001 -0.2185547472363609 0 0.08833530696517819 -0.21036332105093219 0 0.086853981468707001 -0.2185547472363609 0 0.09077468002378962 -0.21857675351640271 0 0.08833530696517819 -0.21036332105093219 0 0.09077468002378962 -0.21857675351640271 0 0.092213447725184278 -0.21529843562297729 0 0.08833530696517819 -0.21036332105093219 0 0.092213447725184278 -0.21529843562297729 0 0.097404311116896569 -0.21585094626217091 0 0.09077468002378962 -0.21857675351640271 0 0.094501608789943028 -0.21679829355882299 0 0.094530837428433365 -0.22086489816084981 0 0.09077468002378962 -0.21857675351640271 0 0.092213447725184278 -0.21529843562297729 0 0.094501608789943028 -0.21679829355882299 0 0.094501608789943028 -0.21679829355882299 0 0.097404311116896569 -0.21585094626217091 0 0.094530837428433365 -0.22086489816084981 0 0.092213447725184278 -0.21529843562297729 0 0.094501608789943028 -0.21679829355882299 0 0.097404311116896569 -0.21585094626217091 0 0.097404311116896569 -0.21585094626217091 0 0.095454742848087734 -0.19451486061966669 0 0.097404311116896569 -0.21585094626217091 0 0.1059898830346106 -0.20430933332548051 0 0.095454742848087734 -0.19451486061966669 0 0.097404311116896569 -0.21585094626217091 0 0.1089347031997706 -0.21297733173581901 0 0.1146171121197104 -0.21980430615730401 0 0.097404311116896569 -0.21585094626217091 0 0.1059898830346106 -0.20430933332548051 0 0.1089347031997706 -0.21297733173581901 0 0.095454742848087734 -0.19451486061966669 0 0.1128143282819509 -0.19216489626002589 0 0.10772522460311169 -0.17968171223372481 0 0.1059898830346106 -0.20430933332548051 0 0.095454742848087734 -0.19451486061966669 0 0.1128143282819509 -0.19216489626002589 0 0.1128143282819509 -0.19216489626002589 0 0.1237689835273371 -0.19605207676116951 0 0.1178461100078927 -0.20838697738218431 0 0.1059898830346106 -0.20430933332548051 0 0.1128143282819509 -0.19216489626002589 0 0.1178461100078927 -0.20838697738218431 0 0.1128143282819509 -0.19216489626002589 0 0.1237689835273371 -0.19605207676116951 0 0.1232013989280239 -0.1819146573535104 0 0.1089347031997706 -0.21297733173581901 0 0.1178461100078927 -0.20838697738218431 0 0.1146171121197104 -0.21980430615730401 0 0.1059898830346106 -0.20430933332548051 0 0.1089347031997706 -0.21297733173581901 0 0.1178461100078927 -0.20838697738218431 0 0.1178461100078927 -0.20838697738218431 0 0.1146171121197104 -0.21980430615730401 0 0.12895394136930069 -0.22163642029703709 0 0.1146171121197104 -0.21980430615730401 0 0.12018370186474731 -0.23305432747703519 0 0.12895394136930069 -0.22163642029703709 0 0.097404311116896569 -0.21585094626217091 0 0.1146171121197104 -0.21980430615730401 0 0.12018370186474731 -0.23305432747703519 0 0.1212054647883809 -0.25073068226796852 0 0.12018370186474731 -0.23305432747703519 0 0.1059281586602189 -0.23527494890652931 0 0.13217397618885759 -0.25462043987800831 0 0.1212054647883809 -0.25073068226796852 0 0.12018370186474731 -0.23305432747703519 0 0.1212054647883809 -0.25073068226796852 0 0.1059281586602189 -0.23527494890652931 0 0.1078238037173969 -0.24832262031645649 0 0.1212054647883809 -0.25073068226796852 0 0.1059281586602189 -0.23527494890652931 0 0.099550463170151926 -0.25262580003909579 0 0.1078238037173969 -0.24832262031645649 0 0.10103467245524091 -0.24298905409433241 0 0.1059281586602189 -0.23527494890652931 0 0.1078238037173969 -0.24832262031645649 0 0.10103467245524091 -0.24298905409433241 0 0.099550463170151926 -0.25262580003909579 0 0.10103467245524091 -0.24298905409433241 0 0.094006026236525903 -0.2441335510050745 0 0.090706365013478091 -0.25245448435890872 0 0.099550463170151926 -0.25262580003909579 0 0.094006026236525903 -0.2441335510050745 0 0.1059281586602189 -0.23527494890652931 0 0.10103467245524091 -0.24298905409433241 0 0.096012267649498176 -0.23702186761809721 0 0.10103467245524091 -0.24298905409433241 0 0.094006026236525903 -0.2441335510050745 0 0.096012267649498176 -0.23702186761809721 0 0.1059281586602189 -0.23527494890652931 0 0.096012267649498176 -0.23702186761809721 0 0.098670227838192195 -0.22970514568366851 0 0.089763789457938253 -0.2306791647953326 0 0.096012267649498176 -0.23702186761809721 0 0.098670227838192195 -0.22970514568366851 0 0.097404311116896569 -0.21585094626217091 0 0.12018370186474731 -0.23305432747703519 0 0.097404311116896569 -0.21585094626217091 0 0.12018370186474731 -0.23305432747703519 0 0.1059281586602189 -0.23527494890652931 0 0.097404311116896569 -0.21585094626217091 0 0.1059281586602189 -0.23527494890652931 0 0.098670227838192195 -0.22970514568366851 0 0.091303359373345411 -0.22339335178318359 0 0.098670227838192195 -0.22970514568366851 0 0.094530837428433365 -0.22086489816084981 0 0.097404311116896569 -0.21585094626217091 0 0.098670227838192195 -0.22970514568366851 0 0.094530837428433365 -0.22086489816084981 0 0.097404311116896569 -0.21585094626217091 0 0.098670227838192195 -0.22970514568366851 0 0.1071373084330472 -0.14482826815459701 0 0.1035248479174861 -0.15311019857333261 0 0.098760878024456711 -0.14050656481393209 0 0.1071373084330472 -0.14482826815459701 0 0.1035248479174861 -0.15311019857333261 0 0.1121477659277255 -0.1503271840913511 0 0.1035248479174861 -0.15311019857333261 0 0.098760878024456711 -0.14050656481393209 0 0.091560400862706559 -0.15189516094014111 0 0.098760878024456711 -0.14050656481393209 0 0.099399694252258627 -0.1328638184600745 0 0.089615627146132512 -0.13061154690311971 0 0.099399694252258627 -0.1328638184600745 0 0.099525338641528904 -0.12611341339503321 0 0.089615627146132512 -0.13061154690311971 0 0.099525338641528904 -0.12611341339503321 0 0.1096969331969164 -0.13422374872821319 0 0.1121708616464093 -0.1216807098986791 0 0.099399694252258627 -0.1328638184600745 0 0.099525338641528904 -0.12611341339503321 0 0.1096969331969164 -0.13422374872821319 0 0.098760878024456711 -0.14050656481393209 0 0.099399694252258627 -0.1328638184600745 0 0.1096969331969164 -0.13422374872821319 0 0.1071373084330472 -0.14482826815459701 0 0.098760878024456711 -0.14050656481393209 0 0.1096969331969164 -0.13422374872821319 0 0.1096969331969164 -0.13422374872821319 0 0.1155243526086871 -0.14484298486410191 0 0.12532898621889721 -0.13663811256420449 0 0.1096969331969164 -0.13422374872821319 0 0.11997683785091839 -0.1276371159963853 0 0.12532898621889721 -0.13663811256420449 0 0.1096969331969164 -0.13422374872821319 0 0.11997683785091839 -0.1276371159963853 0 0.1121708616464093 -0.1216807098986791 0 0.1217036921304827 -0.1482443959076799 0 0.1155243526086871 -0.14484298486410191 0 0.12532898621889721 -0.13663811256420449 0 0.1217036921304827 -0.1482443959076799 0 0.1155243526086871 -0.14484298486410191 0 0.1179114041550178 -0.15136128022523329 0 0.1071373084330472 -0.14482826815459701 0 0.1155243526086871 -0.14484298486410191 0 0.1121477659277255 -0.1503271840913511 0 0.1071373084330472 -0.14482826815459701 0 0.1096969331969164 -0.13422374872821319 0 0.1155243526086871 -0.14484298486410191 0 0.1035248479174861 -0.15311019857333261 0 0.1121477659277255 -0.1503271840913511 0 0.1169082366172023 -0.15609331882735419 0 0.1155243526086871 -0.14484298486410191 0 0.1121477659277255 -0.1503271840913511 0 0.1179114041550178 -0.15136128022523329 0 0.1121477659277255 -0.1503271840913511 0 0.1169082366172023 -0.15609331882735419 0 0.1179114041550178 -0.15136128022523329 0 0.1169082366172023 -0.15609331882735419 0 0.1179114041550178 -0.15136128022523329 0 0.12324902196630889 -0.15465793599018671 0 0.1217036921304827 -0.1482443959076799 0 0.1179114041550178 -0.15136128022523329 0 0.12324902196630889 -0.15465793599018671 0 0.1217036921304827 -0.1482443959076799 0 0.12324902196630889 -0.15465793599018671 0 0.12831016946945831 -0.1492440347933528 0 0.1035248479174861 -0.15311019857333261 0 0.12443417021765769 -0.1709717485187108 0 0.1227471198665283 -0.15880086614903269 0 0.12098675462827781 -0.16200852072179159 0 0.1290045142054978 -0.1612372837293575 0 0.1035248479174861 -0.15311019857333261 0 0.12443417021765769 -0.1709717485187108 0 0.12083528946942131 -0.1711597280255607 0 0.1035248479174861 -0.15311019857333261 0 0.12098675462827781 -0.16200852072179159 0 0.12443417021765769 -0.1709717485187108 0 0.1035248479174861 -0.15311019857333261 0 0.1169082366172023 -0.15609331882735419 0 0.12098675462827781 -0.16200852072179159 0 0.1169082366172023 -0.15609331882735419 0 0.1227471198665283 -0.15880086614903269 0 0.12098675462827781 -0.16200852072179159 0 0.1169082366172023 -0.15609331882735419 0 0.12324902196630889 -0.15465793599018671 0 0.1227471198665283 -0.15880086614903269 0 0.12098675462827781 -0.16200852072179159 0 0.12443417021765769 -0.1709717485187108 0 0.12715697753007521 -0.16591248018761531 0 0.1128143282819509 -0.19216489626002589 0 0.1232013989280239 -0.1819146573535104 0 0.1157139550245927 -0.18029465614444529 0 0.12083528946942131 -0.1711597280255607 0 0.1232013989280239 -0.1819146573535104 0 0.1157139550245927 -0.18029465614444529 0 0.12443417021765769 -0.1709717485187108 0 0.12083528946942131 -0.1711597280255607 0 0.1232013989280239 -0.1819146573535104 0 0.12083528946942131 -0.1711597280255607 0 0.1157139550245927 -0.18029465614444529 0 0.10772522460311169 -0.17968171223372481 0 0.1128143282819509 -0.19216489626002589 0 0.1157139550245927 -0.18029465614444529 0 0.10772522460311169 -0.17968171223372481 0 0.095454742848087734 -0.19451486061966669 0 0.10772522460311169 -0.17968171223372481 0 0.093505174579280592 -0.1731787749771625 0 0.12083528946942131 -0.1711597280255607 0 0.093505174579280592 -0.1731787749771625 0 0.095454742848087734 -0.19451486061966669 0 0.093505174579280592 -0.1731787749771625 0 0.12083528946942131 -0.1711597280255607 0 0.10772522460311169 -0.17968171223372481 0 0.093505174579280592 -0.1731787749771625 0 0.1035248479174861 -0.15311019857333261 0 0.093505174579280592 -0.1731787749771625 0 0.091560400862706559 -0.15189516094014111 0 0.1035248479174861 -0.15311019857333261 0 0.12083528946942131 -0.1711597280255607 0 0.093505174579280592 -0.1731787749771625 0 0.078133883947979807 -0.15717501910519549 0 0.093505174579280592 -0.1731787749771625 0 0.091560400862706559 -0.15189516094014111 0 0.078133883947979807 -0.15717501910519549 0 0.093505174579280592 -0.1731787749771625 0 0.072477207369929117 -0.17473224276400179 0 0.093505174579280592 -0.1731787749771625 0 0.091560400862706559 -0.15189516094014111 0 0.081482512553192915 -0.1953056794767786 0 0.093505174579280592 -0.1731787749771625 0 0.072477207369929117 -0.17473224276400179 0 0.093505174579280592 -0.1731787749771625 0 0.072477207369929117 -0.17473224276400179 0 0.066040058368007956 -0.18964665730407451 0 0.072477207369929117 -0.17473224276400179 0 0.051449240160577621 -0.1762857105508405 0 0.066040058368007956 -0.18964665730407451 0 0.081482512553192915 -0.1953056794767786 0 0.072477207369929117 -0.17473224276400179 0 0.078133883947979807 -0.15717501910519549 0 0.072477207369929117 -0.17473224276400179 0 0.063878974636528515 -0.16401540189567099 0 0.072477207369929117 -0.17473224276400179 0 0.063878974636528515 -0.16401540189567099 0 0.051449240160577621 -0.1762857105508405 0 0.078133883947979807 -0.15717501910519549 0 0.063878974636528515 -0.16401540189567099 0 0.06522271263887458 -0.15305574504012881 0 0.06522271263887458 -0.15305574504012881 0 0.069316279952888193 -0.14186668388360371 0 0.075278834721760557 -0.14616760919767161 0 0.06522271263887458 -0.15305574504012881 0 0.069316279952888193 -0.14186668388360371 0 0.05757515479497001 -0.1486962131740798 0 0.069316279952888193 -0.14186668388360371 0 0.075278834721760557 -0.14616760919767161 0 0.079765110473415279 -0.13788087003968491 0 0.078133883947979807 -0.15717501910519549 0 0.06522271263887458 -0.15305574504012881 0 0.075278834721760557 -0.14616760919767161 0 0.098760878024456711 -0.14050656481393209 0 0.091560400862706559 -0.15189516094014111 0 0.089615627146132512 -0.13061154690311971 0 0.078133883947979807 -0.15717501910519549 0 0.083611330147541921 -0.14459745320402559 0 0.091560400862706559 -0.15189516094014111 0 0.091560400862706559 -0.15189516094014111 0 0.089615627146132512 -0.13061154690311971 0 0.078133883947979807 -0.15717501910519549 0 0.075278834721760557 -0.14616760919767161 0 0.083611330147541921 -0.14459745320402559 0 0.083611330147541921 -0.14459745320402559 0 0.091560400862706559 -0.15189516094014111 0 0.089615627146132512 -0.13061154690311971 0 0.075278834721760557 -0.14616760919767161 0 0.083611330147541921 -0.14459745320402559 0 0.079765110473415279 -0.13788087003968491 0 0.099525338641528904 -0.12611341339503321 0 0.089615627146132512 -0.13061154690311971 0 0.081894058627025895 -0.12584863130967919 0 0.083611330147541921 -0.14459745320402559 0 0.089615627146132512 -0.13061154690311971 0 0.079765110473415279 -0.13788087003968491 0 0.089615627146132512 -0.13061154690311971 0 0.079765110473415279 -0.13788087003968491 0 0.081894058627025895 -0.12584863130967919 0 0.081894058627025895 -0.12584863130967919 0 0.065576399090336079 -0.13067912082877309 0 0.057907204523981459 -0.13951585418161591 0 0.081894058627025895 -0.12584863130967919 0 0.057907204523981459 -0.13951585418161591 0 0.069316279952888193 -0.14186668388360371 0 0.081894058627025895 -0.12584863130967919 0 0.057907204523981459 -0.13951585418161591 0 0.081894058627025895 -0.12584863130967919 0 0.068207364780656948 -0.12563827965844471 0 0.065576399090336079 -0.13067912082877309 0 0.069316279952888193 -0.14186668388360371 0 0.079765110473415279 -0.13788087003968491 0 0.081894058627025895 -0.12584863130967919 0 0.068207364780656948 -0.12563827965844471 0 0.065576399090336079 -0.13067912082877309 0 0.054296968429680029 -0.13171371816535249 0 0.054296968429680029 -0.13171371816535249 0 0.057907204523981459 -0.13951585418161591 0 0.034849001543539322 -0.1503583031021323 0 0.054296968429680029 -0.13171371816535249 0 0.045553716665441668 -0.12681104972785159 0 0.052448498866582129 -0.1166826243517366 0 0.065576399090336079 -0.13067912082877309 0 0.054296968429680029 -0.13171371816535249 0 0.057907204523981459 -0.13951585418161591 0 0.069316279952888193 -0.14186668388360371 0 0.057907204523981459 -0.13951585418161591 0 0.05757515479497001 -0.1486962131740798 0 0.06522271263887458 -0.15305574504012881 0 0.05757515479497001 -0.1486962131740798 0 0.052111829065281459 -0.15882829201818821 0 0.046808539919221563 -0.15014413002933799 0 0.052111829065281459 -0.15882829201818821 0 0.043031393960321331 -0.1571354857308308 0 0.05757515479497001 -0.1486962131740798 0 0.046808539919221563 -0.15014413002933799 0 0.052111829065281459 -0.15882829201818821 0 0.057907204523981459 -0.13951585418161591 0 0.05757515479497001 -0.1486962131740798 0 0.046808539919221563 -0.15014413002933799 0 0.057907204523981459 -0.13951585418161591 0 0.046808539919221563 -0.15014413002933799 0 0.033920350420936912 -0.1531830770535528 0 0.057907204523981459 -0.13951585418161591 0 0.034849001543539322 -0.1503583031021323 0 0.033920350420936912 -0.1531830770535528 0 0.054296968429680029 -0.13171371816535249 0 0.034849001543539322 -0.1503583031021323 0 0.038558521200612962 -0.14006542407622449 0 0.054296968429680029 -0.13171371816535249 0 0.034849001543539322 -0.1503583031021323 0 0.057907204523981459 -0.13951585418161591 0 0.033920350420936912 -0.1531830770535528 0 0.046808539919221563 -0.15014413002933799 0 0.040219483271594643 -0.15466785876887121 0 0.033920350420936912 -0.1531830770535528 0 0.046808539919221563 -0.15014413002933799 0 0.040219483271594643 -0.15466785876887121 0 0.043031393960321331 -0.1571354857308308 0 0.040219483271594643 -0.15466785876887121 0 0.033920350420936912 -0.1531830770535528 0 0.037117648785898759 -0.15820874226176301 0 0.034849001543539322 -0.1503583031021323 0 0.031672068294339203 -0.14528428076340441 0 0.030051573782975471 -0.15027594372919439 0 0.034849001543539322 -0.1503583031021323 0 0.033920350420936912 -0.1531830770535528 0 0.030051573782975471 -0.15027594372919439 0 0.034849001543539322 -0.1503583031021323 0 0.031672068294339203 -0.14528428076340441 0 0.038558521200612962 -0.14006542407622449 0 0.031672068294339203 -0.14528428076340441 0 0.038558521200612962 -0.14006542407622449 0 0.030566093298411881 -0.13865773310914861 0 0.054296968429680029 -0.13171371816535249 0 0.038558521200612962 -0.14006542407622449 0 0.040644455285911409 -0.1338393175667463 0 0.038558521200612962 -0.14006542407622449 0 0.040644455285911409 -0.1338393175667463 0 0.030566093298411881 -0.13865773310914861 0 0.034824944079593127 -0.12500853882757099 0 0.040644455285911409 -0.1338393175667463 0 0.030566093298411881 -0.13865773310914861 0 0.034824944079593127 -0.12500853882757099 0 0.045553716665441668 -0.12681104972785159 0 0.040644455285911409 -0.1338393175667463 0 0.054296968429680029 -0.13171371816535249 0 0.045553716665441668 -0.12681104972785159 0 0.040644455285911409 -0.1338393175667463 0 0.072477207369929117 -0.17473224276400179 0 0.051449240160577621 -0.1762857105508405 0 0.056257937900538298 -0.19577788601322099 0 0.066040058368007956 -0.18964665730407451 0 0.051449240160577621 -0.1762857105508405 0 0.063878974636528515 -0.16401540189567099 0 0.051449240160577621 -0.1762857105508405 0 0.052111829065281459 -0.15882829201818821 0 0.051449240160577621 -0.1762857105508405 0 0.052111829065281459 -0.15882829201818821 0 0.040502396519655252 -0.1663673850483231 0 0.063878974636528515 -0.16401540189567099 0 0.06522271263887458 -0.15305574504012881 0 0.052111829065281459 -0.15882829201818821 0 0.043031393960321331 -0.1571354857308308 0 0.037117648785898759 -0.15820874226176301 0 0.040502396519655252 -0.1663673850483231 0 0.052111829065281459 -0.15882829201818821 0 0.043031393960321331 -0.1571354857308308 0 0.040502396519655252 -0.1663673850483231 0 0.040219483271594643 -0.15466785876887121 0 0.043031393960321331 -0.1571354857308308 0 0.037117648785898759 -0.15820874226176301 0 0.033920350420936912 -0.1531830770535528 0 0.033509818979212957 -0.15868168045615499 0 0.027465449436243041 -0.1628752445715565 0 0.037117648785898759 -0.15820874226176301 0 0.034071859908748191 -0.1623715567021686 0 0.040502396519655252 -0.1663673850483231 0 0.033920350420936912 -0.1531830770535528 0 0.037117648785898759 -0.15820874226176301 0 0.033509818979212957 -0.15868168045615499 0 0.037117648785898759 -0.15820874226176301 0 0.033509818979212957 -0.15868168045615499 0 0.034071859908748191 -0.1623715567021686 0 0.033509818979212957 -0.15868168045615499 0 0.034071859908748191 -0.1623715567021686 0 0.027465449436243041 -0.1628752445715565 0 0.031586668938662611 -0.1691709391612749 0 0.040502396519655252 -0.1663673850483231 0 0.030421272951226121 -0.1778391783376792 0 0.034071859908748191 -0.1623715567021686 0 0.031586668938662611 -0.1691709391612749 0 0.040502396519655252 -0.1663673850483231 0 0.051449240160577621 -0.1762857105508405 0 0.040502396519655252 -0.1663673850483231 0 0.030421272951226121 -0.1778391783376792 0 0.041440672425083092 -0.19607701236864419 0 0.051449240160577621 -0.1762857105508405 0 0.030421272951226121 -0.1778391783376792 0 0.051449240160577621 -0.1762857105508405 0 0.030421272951226121 -0.1778391783376792 0 0.02540307025583758 -0.19229280057405279 0 0.015764016274472759 -0.1812646672695073 0 0.030421272951226121 -0.1778391783376792 0 0.031586668938662611 -0.1691709391612749 0 0.030421272951226121 -0.1778391783376792 0 0.021575687727073561 -0.1734893605992324 0 0.015764016274472759 -0.1812646672695073 0 0.021575687727073561 -0.1734893605992324 0 0.012676990919703311 -0.16924925594887871 0 0.015764016274472759 -0.1812646672695073 0 0.030421272951226121 -0.1778391783376792 0 0.021575687727073561 -0.1734893605992324 0 0.033920350420936912 -0.1531830770535528 0 0.009933496317892726 -0.16685029992549011 0 0.02294500892830088 -0.1542832107784407 0 0.033920350420936912 -0.1531830770535528 0 0.027465449436243041 -0.1628752445715565 0 0.009933496317892726 -0.16685029992549011 0 0.019596439448784399 -0.16744493330375371 0 0.027465449436243041 -0.1628752445715565 0 0.009933496317892726 -0.16685029992549011 0 0.033920350420936912 -0.1531830770535528 0 0.009933496317892726 -0.16685029992549011 0 0.021575687727073561 -0.1734893605992324 0 0.019596439448784399 -0.16744493330375371 0 0.012676990919703311 -0.16924925594887871 0 0.021575687727073561 -0.1734893605992324 0 0.019596439448784399 -0.16744493330375371 0 0.025540403417393751 -0.1677775419388785 0 0.031586668938662611 -0.1691709391612749 0 0.021575687727073561 -0.1734893605992324 0 0.025540403417393751 -0.1677775419388785 0 0.019596439448784399 -0.16744493330375371 0 0.025540403417393751 -0.1677775419388785 0 0.027465449436243041 -0.1628752445715565 0 0.034071859908748191 -0.1623715567021686 0 0.031586668938662611 -0.1691709391612749 0 0.027465449436243041 -0.1628752445715565 0 0.031586668938662611 -0.1691709391612749 0 0.025540403417393751 -0.1677775419388785 0 0.027465449436243041 -0.1628752445715565 0 0.009933496317892726 -0.16685029992549011 0 0.01648447247354291 -0.15404273338364399 0 0.02294500892830088 -0.1542832107784407 0 0.009933496317892726 -0.16685029992549011 0 0.01648447247354291 -0.15404273338364399 0 0.0068311679390763679 -0.1533437069849535 0 0.019596439448784399 -0.16744493330375371 0 0.009933496317892726 -0.16685029992549011 0 0.012676990919703311 -0.16924925594887871 0 0.009933496317892726 -0.16685029992549011 0 0.012676990919703311 -0.16924925594887871 0 0.0034571977838801569 -0.17702496179755631 0 0.009933496317892726 -0.16685029992549011 0 0.012676990919703311 -0.16924925594887871 0 -0.0085976242789068957 -0.177408956520272 0 0.009933496317892726 -0.16685029992549011 0 -0.0085976242789068957 -0.177408956520272 0 0.009933496317892726 -0.16685029992549011 0 0.0034571977838801569 -0.17702496179755631 0 0.015764016274472759 -0.1812646672695073 0 0.012676990919703311 -0.16924925594887871 0 0.0034571977838801569 -0.17702496179755631 0 -0.003739977245034012 -0.19168309442994089 0 0.010514116253606281 -0.1925853606064957 0 0.0034571977838801569 -0.17702496179755631 0 0.010514116253606281 -0.1925853606064957 0 0.015764016274472759 -0.1812646672695073 0 0.0034571977838801569 -0.17702496179755631 0 0.02166725362828328 -0.1398342401410575 0 0.019282665512654749 -0.1297026577714144 0 0.01241268948209219 -0.14437852502616319 0 0.034824944079593127 -0.12500853882757099 0 0.019282665512654749 -0.1297026577714144 0 0.030566093298411881 -0.13865773310914861 0 0.02166725362828328 -0.1398342401410575 0 0.019282665512654749 -0.1297026577714144 0 0.030566093298411881 -0.13865773310914861 0 0.031672068294339203 -0.14528428076340441 0 0.030566093298411881 -0.13865773310914861 0 0.024335151646156381 -0.14706399980032239 0 0.02166725362828328 -0.1398342401410575 0 0.030566093298411881 -0.13865773310914861 0 0.024335151646156381 -0.14706399980032239 0 0.031672068294339203 -0.14528428076340441 0 0.024335151646156381 -0.14706399980032239 0 0.030051573782975471 -0.15027594372919439 0 0.033920350420936912 -0.1531830770535528 0 0.030051573782975471 -0.15027594372919439 0 0.02294500892830088 -0.1542832107784407 0 0.024335151646156381 -0.14706399980032239 0 0.030051573782975471 -0.15027594372919439 0 0.02294500892830088 -0.1542832107784407 0 0.024335151646156381 -0.14706399980032239 0 0.01648447247354291 -0.15404273338364399 0 0.01241268948209219 -0.14437852502616319 0 0.024335151646156381 -0.14706399980032239 0 0.01648447247354291 -0.15404273338364399 0 0.02294500892830088 -0.1542832107784407 0 0.02166725362828328 -0.1398342401410575 0 0.024335151646156381 -0.14706399980032239 0 0.01241268948209219 -0.14437852502616319 0 -0.011505986517222349 -0.14810326960451681 0 0.01241268948209219 -0.14437852502616319 0 0.0068311679390763679 -0.1533437069849535 0 -0.011505986517222349 -0.14810326960451681 0 0.009933496317892726 -0.16685029992549011 0 0.0068311679390763679 -0.1533437069849535 0 -0.011505986517222349 -0.14810326960451681 0 0.01241268948209219 -0.14437852502616319 0 0.0027021066240326768 -0.1317064378292063 0 0.01648447247354291 -0.15404273338364399 0 0.01241268948209219 -0.14437852502616319 0 0.0068311679390763679 -0.1533437069849535 0 0.019282665512654749 -0.1297026577714144 0 0.01241268948209219 -0.14437852502616319 0 0.0027021066240326768 -0.1317064378292063 0 0.019282665512654749 -0.1297026577714144 0 0.0027021066240326768 -0.1317064378292063 0 0.005085065621477718 -0.1151057880332567 0 0.019282665512654749 -0.1297026577714144 0 0.005085065621477718 -0.1151057880332567 0 0.024129304522527751 -0.1089818526354679 0 0.034824944079593127 -0.12500853882757099 0 0.019282665512654749 -0.1297026577714144 0 0.024129304522527751 -0.1089818526354679 0 0.024129304522527751 -0.1089818526354679 0 0.01380815825635252 -0.094132232187142617 0 0.031293966725895003 -0.08518965294817829 0 -0.00044729776891663488 -0.1011528385718463 0 0.005085065621477718 -0.1151057880332567 0 0.01380815825635252 -0.094132232187142617 0 0.005085065621477718 -0.1151057880332567 0 0.024129304522527751 -0.1089818526354679 0 0.01380815825635252 -0.094132232187142617 0 0.01380815825635252 -0.094132232187142617 0 0.0042106568376920582 -0.081118225430045127 0 0.020039989671696231 -0.071989185162356889 0 -0.00044729776891663488 -0.1011528385718463 0 0.01380815825635252 -0.094132232187142617 0 0.0042106568376920582 -0.081118225430045127 0 0.0042106568376920582 -0.081118225430045127 0 0.0052181775422467033 -0.064346337314722044 0 0.020039989671696231 -0.071989185162356889 0 -0.0043762627118289626 -0.071729097412358583 0 0.0042106568376920582 -0.081118225430045127 0 0.0052181775422467033 -0.064346337314722044 0 0.0052181775422467033 -0.064346337314722044 0 0.020039989671696231 -0.071989185162356889 0 0.0052181775422467033 -0.064346337314722044 0 0.020039989671696231 -0.071989185162356889 0 0.017880224012190679 -0.058506375123621113 0 0.020039989671696231 -0.071989185162356889 0 0.017880224012190679 -0.058506375123621113 0 0.035073137211611732 -0.060365082031122411 0 0.020039989671696231 -0.071989185162356889 0 0.031293966725895003 -0.08518965294817829 0 0.035073137211611732 -0.060365082031122411 0 0.01380815825635252 -0.094132232187142617 0 0.020039989671696231 -0.071989185162356889 0 0.031293966725895003 -0.08518965294817829 0 0.031293966725895003 -0.08518965294817829 0 0.050629459546369923 -0.074776417317023003 0 0.042727201812981508 -0.099892478072297022 0 0.050629459546369923 -0.074776417317023003 0 0.042727201812981508 -0.099892478072297022 0 0.031293966725895003 -0.08518965294817829 0 0.050629459546369923 -0.074776417317023003 0 0.035073137211611732 -0.060365082031122411 0 0.050629459546369923 -0.074776417317023003 0 0.058531717279758283 -0.049660356561749108 0 0.072219385832792832 -0.066659644627356851 0 0.050629459546369923 -0.074776417317023003 0 0.042727201812981508 -0.099892478072297022 0 0.069701838591585213 -0.089386546866783212 0 0.059655618646742382 -0.10475769562984739 0 0.052448498866582129 -0.1166826243517366 0 0.042727201812981508 -0.099892478072297022 0 0.059655618646742382 -0.10475769562984739 0 0.042727201812981508 -0.099892478072297022 0 0.069701838591585213 -0.089386546866783212 0 0.054296968429680029 -0.13171371816535249 0 0.052448498866582129 -0.1166826243517366 0 0.073744935315820714 -0.1130691332285727 0 0.059655618646742382 -0.10475769562984739 0 0.052448498866582129 -0.1166826243517366 0 0.073744935315820714 -0.1130691332285727 0 0.034824944079593127 -0.12500853882757099 0 0.045553716665441668 -0.12681104972785159 0 0.052448498866582129 -0.1166826243517366 0 0.034824944079593127 -0.12500853882757099 0 0.052448498866582129 -0.1166826243517366 0 0.042727201812981508 -0.099892478072297022 0 0.034824944079593127 -0.12500853882757099 0 0.024129304522527751 -0.1089818526354679 0 0.042727201812981508 -0.099892478072297022 0 0.034824944079593127 -0.12500853882757099 0 0.042727201812981508 -0.099892478072297022 0 0.024129304522527751 -0.1089818526354679 0 0.031293966725895003 -0.08518965294817829 0 0.042727201812981508 -0.099892478072297022 0 0.034885408484197772 0.0062912350017927032 0 0.01265631079038235 -0.01012693536007268 0 0.042517259973231587 -0.011683923625132649 0 -0.00118246574067416 -0.01324232368796026 0 0.0012074066645448821 -0.00065723147797176382 0 0.01265631079038235 -0.01012693536007268 0 0.01265631079038235 -0.01012693536007268 0 0.02406773205363014 -0.026959444655171291 0 0.0015263381015913891 -0.033415212413580753 0 0.01265631079038235 -0.01012693536007268 0 0.0015263381015913891 -0.033415212413580753 0 -0.00118246574067416 -0.01324232368796026 0 0.01265631079038235 -0.01012693536007268 0 0.0015263381015913891 -0.033415212413580753 0 0.01265631079038235 -0.01012693536007268 0 0.02406773205363014 -0.026959444655171291 0 0.042517259973231587 -0.011683923625132649 0 0.02406773205363014 -0.026959444655171291 0 0.021771409900077709 -0.044354063799483319 0 0.04186734150286768 -0.035217088077587062 0 0.02406773205363014 -0.026959444655171291 0 0.021771409900077709 -0.044354063799483319 0 0.0015263381015913891 -0.033415212413580753 0 0.021771409900077709 -0.044354063799483319 0 0.0015263381015913891 -0.033415212413580753 0 0.007298405735321048 -0.051477207310420908 0 -0.0096036345872028556 -0.056703489467087059 0 0.0052181775422467033 -0.064346337314722044 0 0.007298405735321048 -0.051477207310420908 0 0.0052181775422467033 -0.064346337314722044 0 0.007298405735321048 -0.051477207310420908 0 0.017880224012190679 -0.058506375123621113 0 0.021771409900077709 -0.044354063799483319 0 0.017880224012190679 -0.058506375123621113 0 0.035073137211611732 -0.060365082031122411 0 0.021771409900077709 -0.044354063799483319 0 0.007298405735321048 -0.051477207310420908 0 0.017880224012190679 -0.058506375123621113 0 0.035073137211611732 -0.060365082031122411 0 0.058531717279758283 -0.049660356561749108 0 0.04186734150286768 -0.035217088077587062 0 0.050629459546369923 -0.074776417317023003 0 0.058531717279758283 -0.049660356561749108 0 0.050629459546369923 -0.074776417317023003 0 0.035073137211611732 -0.060365082031122411 0 0.058531717279758283 -0.049660356561749108 0 0.058531717279758283 -0.049660356561749108 0 0.066433975013146629 -0.02454429580647528 0 0.058531717279758283 -0.049660356561749108 0 0.04186734150286768 -0.035217088077587062 0 0.066433975013146629 -0.02454429580647528 0 0.021771409900077709 -0.044354063799483319 0 0.035073137211611732 -0.060365082031122411 0 0.04186734150286768 -0.035217088077587062 0 0.02406773205363014 -0.026959444655171291 0 0.04186734150286768 -0.035217088077587062 0 0.042517259973231587 -0.011683923625132649 0 0.04186734150286768 -0.035217088077587062 0 0.042517259973231587 -0.011683923625132649 0 0.066433975013146629 -0.02454429580647528 0 0.052968053050369737 0.0090809173488315582 0 0.042517259973231587 -0.011683923625132649 0 0.067492943165135169 -0.0019794682467893379 0 0.042517259973231587 -0.011683923625132649 0 0.067492943165135169 -0.0019794682467893379 0 0.066433975013146629 -0.02454429580647528 0 0.087040675587819916 -0.0096101539263870796 0 0.066433975013146629 -0.02454429580647528 0 0.098032226742104309 -0.02831505409649597 0 0.083930998993742512 0.0059737405228527038 0 0.087040675587819916 -0.0096101539263870796 0 0.067492943165135169 -0.0019794682467893379 0 0.083930998993742512 0.0059737405228527038 0 0.098495163759696414 0.0029673617968291321 0 0.087040675587819916 -0.0096101539263870796 0 0.087040675587819916 -0.0096101539263870796 0 0.067492943165135169 -0.0019794682467893379 0 0.066433975013146629 -0.02454429580647528 0 0.066433975013146629 -0.02454429580647528 0 0.080663194565618018 -0.042742664855397232 0 0.098032226742104309 -0.02831505409649597 0 0.080663194565618018 -0.042742664855397232 0 0.099119978598511321 -0.045144617550746849 0 0.098032226742104309 -0.02831505409649597 0 0.058531717279758283 -0.049660356561749108 0 0.066433975013146629 -0.02454429580647528 0 0.080663194565618018 -0.042742664855397232 0 0.058531717279758283 -0.049660356561749108 0 0.080663194565618018 -0.042742664855397232 0 0.072219385832792832 -0.066659644627356851 0 0.080663194565618018 -0.042742664855397232 0 0.091985945990252393 -0.059557823171565508 0 0.072219385832792832 -0.066659644627356851 0 0.080663194565618018 -0.042742664855397232 0 0.091985945990252393 -0.059557823171565508 0 0.099119978598511321 -0.045144617550746849 0 0.091985945990252393 -0.059557823171565508 0 0.109385226414503 -0.056941989317685793 0 0.099119978598511321 -0.045144617550746849 0 0.109385226414503 -0.056941989317685793 0 0.1174221699598199 -0.069046986946925279 0 0.12664898879935529 -0.055605769639440771 0 0.109385226414503 -0.056941989317685793 0 0.1155332992800789 -0.038165556312589707 0 0.12664898879935529 -0.055605769639440771 0 0.1155332992800789 -0.038165556312589707 0 0.12954193793015309 -0.041748568408345607 0 0.12664898879935529 -0.055605769639440771 0 0.1155332992800789 -0.038165556312589707 0 0.1294320674019063 -0.023146095115484211 0 0.12954193793015309 -0.041748568408345607 0 0.109385226414503 -0.056941989317685793 0 0.1155332992800789 -0.038165556312589707 0 0.099119978598511321 -0.045144617550746849 0 0.1155332992800789 -0.038165556312589707 0 0.099119978598511321 -0.045144617550746849 0 0.098032226742104309 -0.02831505409649597 0 0.1155332992800789 -0.038165556312589707 0 0.098032226742104309 -0.02831505409649597 0 0.1112777463759113 -0.012222875866518469 0 0.087040675587819916 -0.0096101539263870796 0 0.098032226742104309 -0.02831505409649597 0 0.1112777463759113 -0.012222875866518469 0 0.1155332992800789 -0.038165556312589707 0 0.1112777463759113 -0.012222875866518469 0 0.1294320674019063 -0.023146095115484211 0 0.1158546052028349 0.0064685721448778594 0 0.13464870039648349 0.00080453217212592717 0 0.1112777463759113 -0.012222875866518469 0 0.098495163759696414 0.0029673617968291321 0 0.087040675587819916 -0.0096101539263870796 0 0.1112777463759113 -0.012222875866518469 0 0.1158546052028349 0.0064685721448778594 0 0.098495163759696414 0.0029673617968291321 0 0.1112777463759113 -0.012222875866518469 0 0.093192902201961414 -0.094424548291792879 0 0.088899626305776192 -0.1113374325741409 0 0.073744935315820714 -0.1130691332285727 0 0.093192902201961414 -0.094424548291792879 0 0.073744935315820714 -0.1130691332285727 0 0.069701838591585213 -0.089386546866783212 0 0.093192902201961414 -0.094424548291792879 0 0.073744935315820714 -0.1130691332285727 0 0.081894058627025895 -0.12584863130967919 0 0.088899626305776192 -0.1113374325741409 0 0.09397493983509804 -0.11322330148444169 0 0.081894058627025895 -0.12584863130967919 0 0.079920122843727764 -0.11786127252462281 0 0.075141871126288284 -0.1211898929860986 0 0.081894058627025895 -0.12584863130967919 0 0.088899626305776192 -0.1113374325741409 0 0.079920122843727764 -0.11786127252462281 0 0.088899626305776192 -0.1113374325741409 0 0.079920122843727764 -0.11786127252462281 0 0.073744935315820714 -0.1130691332285727 0 0.068207364780656948 -0.12563827965844471 0 0.054296968429680029 -0.13171371816535249 0 0.073744935315820714 -0.1130691332285727 0 0.054296968429680029 -0.13171371816535249 0 0.073744935315820714 -0.1130691332285727 0 0.068207364780656948 -0.12563827965844471 0 0.073744935315820714 -0.1130691332285727 0 0.075141871126288284 -0.1211898929860986 0 0.079920122843727764 -0.11786127252462281 0 0.073744935315820714 -0.1130691332285727 0 0.075141871126288284 -0.1211898929860986 0 0.081894058627025895 -0.12584863130967919 0 0.068207364780656948 -0.12563827965844471 0 0.075141871126288284 -0.1211898929860986 0 0.059655618646742382 -0.10475769562984739 0 0.073744935315820714 -0.1130691332285727 0 0.069701838591585213 -0.089386546866783212 0 0.050629459546369923 -0.074776417317023003 0 0.069701838591585213 -0.089386546866783212 0 0.072219385832792832 -0.066659644627356851 0 0.069701838591585213 -0.089386546866783212 0 0.072219385832792832 -0.066659644627356851 0 0.089711563165187497 -0.078251462936863553 0 0.091985945990252393 -0.059557823171565508 0 0.072219385832792832 -0.066659644627356851 0 0.089711563165187497 -0.078251462936863553 0 0.093192902201961414 -0.094424548291792879 0 0.069701838591585213 -0.089386546866783212 0 0.089711563165187497 -0.078251462936863553 0 0.093192902201961414 -0.094424548291792879 0 0.089711563165187497 -0.078251462936863553 0 0.1048667032735431 -0.089595599910983495 0 0.089711563165187497 -0.078251462936863553 0 0.1048667032735431 -0.089595599910983495 0 0.1056935618466131 -0.072691272791708894 0 0.1048667032735431 -0.089595599910983495 0 0.1056935618466131 -0.072691272791708894 0 0.11564058922802831 -0.08068930143821873 0 0.091985945990252393 -0.059557823171565508 0 0.089711563165187497 -0.078251462936863553 0 0.1056935618466131 -0.072691272791708894 0 0.091985945990252393 -0.059557823171565508 0 0.109385226414503 -0.056941989317685793 0 0.1056935618466131 -0.072691272791708894 0 0.1174221699598199 -0.069046986946925279 0 0.12840026197867099 -0.078951386265116219 0 0.12664898879935529 -0.055605769639440771 0 0.109385226414503 -0.056941989317685793 0 0.1056935618466131 -0.072691272791708894 0 0.1174221699598199 -0.069046986946925279 0 0.1056935618466131 -0.072691272791708894 0 0.1174221699598199 -0.069046986946925279 0 0.11564058922802831 -0.08068930143821873 0 0.1174221699598199 -0.069046986946925279 0 0.11564058922802831 -0.08068930143821873 0 0.12840026197867099 -0.078951386265116219 0 0.1048667032735431 -0.089595599910983495 0 0.11564058922802831 -0.08068930143821873 0 0.1191358060176364 -0.092450830711447801 0 0.1191358060176364 -0.092450830711447801 0 0.12840026197867099 -0.078951386265116219 0 0.11564058922802831 -0.08068930143821873 0 0.1191358060176364 -0.092450830711447801 0 0.12840026197867099 -0.078951386265116219 0 0.1058809127300703 -0.11218140843774239 0 0.12023297736745781 -0.1110263554770618 0 0.12986776683311119 -0.098514185565799078 0 0.1058809127300703 -0.11218140843774239 0 0.12986776683311119 -0.098514185565799078 0 0.1048667032735431 -0.089595599910983495 0 0.1191358060176364 -0.092450830711447801 0 0.10987135005660249 -0.1059502751577799 0 0.10987135005660249 -0.1059502751577799 0 0.1058809127300703 -0.11218140843774239 0 0.12986776683311119 -0.098514185565799078 0 0.1191358060176364 -0.092450830711447801 0 0.10987135005660249 -0.1059502751577799 0 0.12986776683311119 -0.098514185565799078 0 0.1191358060176364 -0.092450830711447801 0 0.10987135005660249 -0.1059502751577799 0 0.093192902201961414 -0.094424548291792879 0 0.088899626305776192 -0.1113374325741409 0 0.099225161677519755 -0.1035257336162041 0 0.1048667032735431 -0.089595599910983495 0 0.10987135005660249 -0.1059502751577799 0 0.099225161677519755 -0.1035257336162041 0 0.10987135005660249 -0.1059502751577799 0 0.099225161677519755 -0.1035257336162041 0 0.1058809127300703 -0.11218140843774239 0 0.088899626305776192 -0.1113374325741409 0 0.099225161677519755 -0.1035257336162041 0 0.09397493983509804 -0.11322330148444169 0 0.093192902201961414 -0.094424548291792879 0 0.1048667032735431 -0.089595599910983495 0 0.099225161677519755 -0.1035257336162041 0 0.081894058627025895 -0.12584863130967919 0 0.1058809127300703 -0.11218140843774239 0 0.099525338641528904 -0.12611341339503321 0 0.081894058627025895 -0.12584863130967919 0 0.1058809127300703 -0.11218140843774239 0 0.081894058627025895 -0.12584863130967919 0 0.09397493983509804 -0.11322330148444169 0 0.1058809127300703 -0.11218140843774239 0 0.099225161677519755 -0.1035257336162041 0 0.09397493983509804 -0.11322330148444169 0 0.1058809127300703 -0.11218140843774239 0 0.099525338641528904 -0.12611341339503321 0 0.1058809127300703 -0.11218140843774239 0 0.1121708616464093 -0.1216807098986791 0 0.1058809127300703 -0.11218140843774239 0 0.1121708616464093 -0.1216807098986791 0 0.12023297736745781 -0.1110263554770618 0 0.11997683785091839 -0.1276371159963853 0 0.121067612134044 -0.1214532534018402 0 0.13188977167139071 -0.12546883223523481 0 0.12023297736745781 -0.1110263554770618 0 0.121067612134044 -0.1214532534018402 0 0.13188977167139071 -0.12546883223523481 0 0.11997683785091839 -0.1276371159963853 0 0.1121708616464093 -0.1216807098986791 0 0.121067612134044 -0.1214532534018402 0 0.1121708616464093 -0.1216807098986791 0 0.12023297736745781 -0.1110263554770618 0 0.121067612134044 -0.1214532534018402 0 0.12023297736745781 -0.1110263554770618 0 0.12986776683311119 -0.098514185565799078 0 0.13188977167139071 -0.12546883223523481 0 0.12986776683311119 -0.098514185565799078 0 0.13188977167139071 -0.12546883223523481 0 0.14925441928633251 -0.10969288085116551 0 0.13995942417209239 -0.1034127274713456 0 0.13188977167139071 -0.12546883223523481 0 0.14724036225017881 -0.1245170930860646 0 0.14925441928633251 -0.10969288085116551 0 0.13188977167139071 -0.12546883223523481 0 0.14925441928633251 -0.10969288085116551 0 0.15485465026004211 -0.11932571079310079 0 0.15999890680388329 -0.1096406796162286 0 0.14724036225017881 -0.1245170930860646 0 0.15485465026004211 -0.11932571079310079 0 0.15557261582888751 -0.13003178131142151 0 0.14724036225017881 -0.1245170930860646 0 0.14925441928633251 -0.10969288085116551 0 0.15485465026004211 -0.11932571079310079 0 0.14925441928633251 -0.10969288085116551 0 0.14348993397904131 -0.092765062884646393 0 0.1620153957752187 -0.097165399419701551 0 0.14348993397904131 -0.092765062884646393 0 0.1620153957752187 -0.097165399419701551 0 0.14925441928633251 -0.10969288085116551 0 0.13995942417209239 -0.1034127274713456 0 0.14348993397904131 -0.092765062884646393 0 0.13995942417209239 -0.1034127274713456 0 0.12986776683311119 -0.098514185565799078 0 0.13188977167139071 -0.12546883223523481 0 0.13995942417209239 -0.1034127274713456 0 0.12986776683311119 -0.098514185565799078 0 0.14348993397904131 -0.092765062884646393 0 0.12986776683311119 -0.098514185565799078 0 0.12840026197867099 -0.078951386265116219 0 0.1428482005174804 -0.076716741777837147 0 0.1191358060176364 -0.092450830711447801 0 0.12986776683311119 -0.098514185565799078 0 0.12840026197867099 -0.078951386265116219 0 0.12986776683311119 -0.098514185565799078 0 0.12840026197867099 -0.078951386265116219 0 0.12840026197867099 -0.078951386265116219 0 0.12664898879935529 -0.055605769639440771 0 0.12840026197867099 -0.078951386265116219 0 0.12664898879935529 -0.055605769639440771 0 0.14464694777039611 -0.055277979731059648 0 0.12840026197867099 -0.078951386265116219 0 0.1428482005174804 -0.076716741777837147 0 0.14464694777039611 -0.055277979731059648 0 0.12840026197867099 -0.078951386265116219 0 0.14464694777039611 -0.055277979731059648 0 0.1428482005174804 -0.076716741777837147 0 0.15680899227989839 -0.06637062400294011 0 0.14464694777039611 -0.055277979731059648 0 0.1428482005174804 -0.076716741777837147 0 0.15451703372532541 -0.084469533324270707 0 0.15680899227989839 -0.06637062400294011 0 0.12986776683311119 -0.098514185565799078 0 0.15451703372532541 -0.084469533324270707 0 0.12986776683311119 -0.098514185565799078 0 0.14348993397904131 -0.092765062884646393 0 0.15451703372532541 -0.084469533324270707 0 0.14348993397904131 -0.092765062884646393 0 0.15451703372532541 -0.084469533324270707 0 0.1620153957752187 -0.097165399419701551 0 0.12986776683311119 -0.098514185565799078 0 0.1428482005174804 -0.076716741777837147 0 0.15451703372532541 -0.084469533324270707 0 0.15451703372532541 -0.084469533324270707 0 0.1674193516126988 -0.088794767656503876 0 0.1620153957752187 -0.097165399419701551 0 0.15451703372532541 -0.084469533324270707 0 0.1674193516126988 -0.088794767656503876 0 0.16389165652408541 -0.076485311925560115 0 0.1674193516126988 -0.088794767656503876 0 0.16389165652408541 -0.076485311925560115 0 0.17613181446746839 -0.084287857658230353 0 0.15451703372532541 -0.084469533324270707 0 0.15680899227989839 -0.06637062400294011 0 0.16389165652408541 -0.076485311925560115 0 0.16389165652408541 -0.076485311925560115 0 0.1717227713635387 -0.067009979361705274 0 0.17613181446746839 -0.084287857658230353 0 0.15680899227989839 -0.06637062400294011 0 0.16389165652408541 -0.076485311925560115 0 0.1717227713635387 -0.067009979361705274 0 0.15680899227989839 -0.06637062400294011 0 0.1717227713635387 -0.067009979361705274 0 0.1652446184022294 -0.054500080927008407 0 0.1717227713635387 -0.067009979361705274 0 0.17613181446746839 -0.084287857658230353 0 0.1717227713635387 -0.067009979361705274 0 0.18346211879182289 -0.064955309332027283 0 0.18137547142311691 -0.085525622921553163 0 0.18346211879182289 -0.064955309332027283 0 0.18137547142311691 -0.085525622921553163 0 0.1952329782378138 -0.068464889048657496 0 0.1717227713635387 -0.067009979361705274 0 0.18137547142311691 -0.085525622921553163 0 0.1717227713635387 -0.067009979361705274 0 0.18346211879182289 -0.064955309332027283 0 0.1746283364613696 -0.057560297553190053 0 0.18137547142311691 -0.085525622921553163 0 0.17613181446746839 -0.084287857658230353 0 0.18054085757139629 -0.1015657359547559 0 0.17613181446746839 -0.084287857658230353 0 0.18054085757139629 -0.1015657359547559 0 0.1674193516126988 -0.088794767656503876 0 0.17613181446746839 -0.084287857658230353 0 0.18054085757139629 -0.1015657359547559 0 0.1717227713635387 -0.067009979361705274 0 0.18137547142311691 -0.085525622921553163 0 0.17613181446746839 -0.084287857658230353 0 0.18137547142311691 -0.085525622921553163 0 0.19100769245097829 -0.1040519139747048 0 0.18137547142311691 -0.085525622921553163 0 0.18054085757139629 -0.1015657359547559 0 0.19100769245097829 -0.1040519139747048 0 0.18054085757139629 -0.1015657359547559 0 0.1749190978293893 -0.1165979942053425 0 0.16884250162088479 -0.1080310140379921 0 0.18054085757139629 -0.1015657359547559 0 0.19100769245097829 -0.1040519139747048 0 0.18054085757139629 -0.1015657359547559 0 0.1862357176231304 -0.1238823921021804 0 0.1749190978293893 -0.1165979942053425 0 0.18054085757139629 -0.1015657359547559 0 0.1862357176231304 -0.1238823921021804 0 0.19100769245097829 -0.1040519139747048 0 0.18054085757139629 -0.1015657359547559 0 0.1862357176231304 -0.1238823921021804 0 0.1862357176231304 -0.1238823921021804 0 0.1749190978293893 -0.1165979942053425 0 0.17324983187337631 -0.13165498831909611 0 0.1749190978293893 -0.1165979942053425 0 0.16471491079178111 -0.1205264202314431 0 0.16884250162088479 -0.1080310140379921 0 0.16471491079178111 -0.1205264202314431 0 0.15999890680388329 -0.1096406796162286 0 0.16884250162088479 -0.1080310140379921 0 0.1749190978293893 -0.1165979942053425 0 0.16471491079178111 -0.1205264202314431 0 0.17324983187337631 -0.13165498831909611 0 0.15485465026004211 -0.11932571079310079 0 0.16471491079178111 -0.1205264202314431 0 0.15557261582888751 -0.13003178131142151 0 0.15485465026004211 -0.11932571079310079 0 0.16471491079178111 -0.1205264202314431 0 0.15999890680388329 -0.1096406796162286 0 0.18054085757139629 -0.1015657359547559 0 0.1620153957752187 -0.097165399419701551 0 0.1674193516126988 -0.088794767656503876 0 0.18054085757139629 -0.1015657359547559 0 0.1620153957752187 -0.097165399419701551 0 0.14925441928633251 -0.10969288085116551 0 0.15999890680388329 -0.1096406796162286 0 0.1620153957752187 -0.097165399419701551 0 0.15999890680388329 -0.1096406796162286 0 0.1620153957752187 -0.097165399419701551 0 0.16884250162088479 -0.1080310140379921 0 0.18054085757139629 -0.1015657359547559 0 0.1620153957752187 -0.097165399419701551 0 0.16884250162088479 -0.1080310140379921 0 0.13464870039648349 0.00080453217212592717 0 0.15480995508657039 -0.001084596553268768 0 0.14892696920713289 -0.018041582065753459 0 0.13464870039648349 0.00080453217212592717 0 0.1294320674019063 -0.023146095115484211 0 0.14892696920713289 -0.018041582065753459 0 0.13464870039648349 0.00080453217212592717 0 0.1112777463759113 -0.012222875866518469 0 0.1294320674019063 -0.023146095115484211 0 0.1294320674019063 -0.023146095115484211 0 0.14892696920713289 -0.018041582065753459 0 0.14270131340979469 -0.036531096068384838 0 0.14892696920713289 -0.018041582065753459 0 0.14270131340979469 -0.036531096068384838 0 0.16089363356212191 -0.031604573197003549 0 0.14270131340979469 -0.036531096068384838 0 0.14464694777039611 -0.055277979731059648 0 0.16089363356212191 -0.031604573197003549 0 0.14464694777039611 -0.055277979731059648 0 0.15561449558007559 -0.051164132387281437 0 0.16089363356212191 -0.031604573197003549 0 0.14464694777039611 -0.055277979731059648 0 0.16089363356212191 -0.031604573197003549 0 0.14270131340979469 -0.036531096068384838 0 0.12954193793015309 -0.041748568408345607 0 0.14464694777039611 -0.055277979731059648 0 0.1294320674019063 -0.023146095115484211 0 0.14270131340979469 -0.036531096068384838 0 0.12954193793015309 -0.041748568408345607 0 0.12954193793015309 -0.041748568408345607 0 0.12664898879935529 -0.055605769639440771 0 0.14464694777039611 -0.055277979731059648 0 0.15680899227989839 -0.06637062400294011 0 0.14464694777039611 -0.055277979731059648 0 0.15561449558007559 -0.051164132387281437 0 0.15680899227989839 -0.06637062400294011 0 0.15561449558007559 -0.051164132387281437 0 0.1652446184022294 -0.054500080927008407 0 0.15561449558007559 -0.051164132387281437 0 0.1652446184022294 -0.054500080927008407 0 0.1617942405007988 -0.043199732881276223 0 0.1652446184022294 -0.054500080927008407 0 0.1746283364613696 -0.057560297553190053 0 0.1617942405007988 -0.043199732881276223 0 0.1717227713635387 -0.067009979361705274 0 0.1652446184022294 -0.054500080927008407 0 0.1717227713635387 -0.067009979361705274 0 0.1652446184022294 -0.054500080927008407 0 0.1746283364613696 -0.057560297553190053 0 0.1746283364613696 -0.057560297553190053 0 0.1828119860636557 -0.050363577362968731 0 0.1617942405007988 -0.043199732881276223 0 0.18346211879182289 -0.064955309332027283 0 0.1746283364613696 -0.057560297553190053 0 0.1828119860636557 -0.050363577362968731 0 0.18346211879182289 -0.064955309332027283 0 0.1828119860636557 -0.050363577362968731 0 0.19188844298534441 -0.056659859735039647 0 0.1617942405007988 -0.043199732881276223 0 0.18853740735089011 -0.033706188378118708 0 0.1828119860636557 -0.050363577362968731 0 0.1617942405007988 -0.043199732881276223 0 0.18853740735089011 -0.033706188378118708 0 0.15561449558007559 -0.051164132387281437 0 0.16089363356212191 -0.031604573197003549 0 0.1617942405007988 -0.043199732881276223 0 0.16089363356212191 -0.031604573197003549 0 0.1617942405007988 -0.043199732881276223 0 0.18853740735089011 -0.033706188378118708 0 0.16089363356212191 -0.031604573197003549 0 0.17714031935384769 -0.0079311666629475405 0 0.14892696920713289 -0.018041582065753459 0 0.16089363356212191 -0.031604573197003549 0 0.17714031935384769 -0.0079311666629475405 0 0.16089363356212191 -0.031604573197003549 0 0.17714031935384769 -0.0079311666629475405 0 0.18853740735089011 -0.033706188378118708 0 0.1657030786406338 0.0084270166623369204 0 0.15480995508657039 -0.001084596553268768 0 0.17714031935384769 -0.0079311666629475405 0 0.15480995508657039 -0.001084596553268768 0 0.14892696920713289 -0.018041582065753459 0 0.17714031935384769 -0.0079311666629475405 0 0.21351355446813719 -0.0021103410187178909 0 0.2110126965438916 -0.012672932103663791 0 0.2228246624943325 -0.0092295053444410857 0 0.2110126965438916 -0.012672932103663791 0 0.21911622703360889 -0.015650702578479541 0 0.2228246624943325 -0.0092295053444410857 0 0.21351355446813719 -0.0021103410187178909 0 0.2110126965438916 -0.012672932103663791 0 0.19836939172364151 -0.01016904411482358 0 0.1998105265397013 0.00335350757378736 0 0.21351355446813719 -0.0021103410187178909 0 0.19836939172364151 -0.01016904411482358 0 0.1998105265397013 0.00335350757378736 0 0.17714031935384769 -0.0079311666629475405 0 0.19836939172364151 -0.01016904411482358 0 0.17714031935384769 -0.0079311666629475405 0 0.19836939172364151 -0.01016904411482358 0 0.18853740735089011 -0.033706188378118708 0 0.2110126965438916 -0.012672932103663791 0 0.19836939172364151 -0.01016904411482358 0 0.18853740735089011 -0.033706188378118708 0 0.21528057420098159 -0.024212643874961401 0 0.18853740735089011 -0.033706188378118708 0 0.2110126965438916 -0.012672932103663791 0 0.21528057420098159 -0.024212643874961401 0 0.18853740735089011 -0.033706188378118708 0 0.21528057420098159 -0.024212643874961401 0 0.20886364623554921 -0.031523512657201581 0 0.18853740735089011 -0.033706188378118708 0 0.2110126965438916 -0.012672932103663791 0 0.21528057420098159 -0.024212643874961401 0 0.21911622703360889 -0.015650702578479541 0 0.21528057420098159 -0.024212643874961401 0 0.2158000993154765 -0.027276596113623111 0 0.21360323626451261 -0.02858374534336202 0 0.21528057420098159 -0.024212643874961401 0 0.2158000993154765 -0.027276596113623111 0 0.21995729679401421 -0.029331280632926501 0 0.2158000993154765 -0.027276596113623111 0 0.21503400689837671 -0.030930810510401429 0 0.21995729679401421 -0.029331280632926501 0 0.2158000993154765 -0.027276596113623111 0 0.21503400689837671 -0.030930810510401429 0 0.21360323626451261 -0.02858374534336202 0 0.21528057420098159 -0.024212643874961401 0 0.21360323626451261 -0.02858374534336202 0 0.20886364623554921 -0.031523512657201581 0 0.21503400689837671 -0.030930810510401429 0 0.21360323626451261 -0.02858374534336202 0 0.20886364623554921 -0.031523512657201581 0 0.2128060919330283 -0.035124071741943173 0 0.2180191377477218 -0.035203133534298187 0 0.2167024847658664 -0.043974661413588162 0 0.21503400689837671 -0.030930810510401429 0 0.2128060919330283 -0.035124071741943173 0 0.20886364623554921 -0.031523512657201581 0 0.21503400689837671 -0.030930810510401429 0 0.2128060919330283 -0.035124071741943173 0 0.2180191377477218 -0.035203133534298187 0 0.21503400689837671 -0.030930810510401429 0 0.2180191377477218 -0.035203133534298187 0 0.21995729679401421 -0.029331280632926501 0 0.2167024847658664 -0.043974661413588162 0 0.20890374551960481 -0.040729144831228678 0 0.20897987019450001 -0.050060865146210963 0 0.2128060919330283 -0.035124071741943173 0 0.2167024847658664 -0.043974661413588162 0 0.20890374551960481 -0.040729144831228678 0 0.20890374551960481 -0.040729144831228678 0 0.19655169947710091 -0.043788383486002072 0 0.20897987019450001 -0.050060865146210963 0 0.2128060919330283 -0.035124071741943173 0 0.20890374551960481 -0.040729144831228678 0 0.20886364623554921 -0.031523512657201581 0 0.20890374551960481 -0.040729144831228678 0 0.20886364623554921 -0.031523512657201581 0 0.19655169947710091 -0.043788383486002072 0 0.1828119860636557 -0.050363577362968731 0 0.18853740735089011 -0.033706188378118708 0 0.19655169947710091 -0.043788383486002072 0 0.20886364623554921 -0.031523512657201581 0 0.18853740735089011 -0.033706188378118708 0 0.19655169947710091 -0.043788383486002072 0 0.19655169947710091 -0.043788383486002072 0 0.20138343235632811 -0.055727139445542639 0 0.20897987019450001 -0.050060865146210963 0 0.19655169947710091 -0.043788383486002072 0 0.19188844298534441 -0.056659859735039647 0 0.20138343235632811 -0.055727139445542639 0 0.1828119860636557 -0.050363577362968731 0 0.19655169947710091 -0.043788383486002072 0 0.19188844298534441 -0.056659859735039647 0 0.19188844298534441 -0.056659859735039647 0 0.20138343235632811 -0.055727139445542639 0 0.1952329782378138 -0.068464889048657496 0 0.20138343235632811 -0.055727139445542639 0 0.22670270369963491 -0.067064047377793826 0 0.20138343235632811 -0.055727139445542639 0 0.21577564808412511 -0.056666161138016313 0 0.22670270369963491 -0.067064047377793826 0 0.20138343235632811 -0.055727139445542639 0 0.20897987019450001 -0.050060865146210963 0 0.21577564808412511 -0.056666161138016313 0 0.2167024847658664 -0.043974661413588162 0 0.20897987019450001 -0.050060865146210963 0 0.21577564808412511 -0.056666161138016313 0 0.21577564808412511 -0.056666161138016313 0 0.23694359709532001 -0.061394592404840097 0 0.22670270369963491 -0.067064047377793826 0 0.21577564808412511 -0.056666161138016313 0 0.22648325856373289 -0.049317463857355977 0 0.23694359709532001 -0.061394592404840097 0 0.21577564808412511 -0.056666161138016313 0 0.23694359709532001 -0.061394592404840097 0 0.2167024847658664 -0.043974661413588162 0 0.21577564808412511 -0.056666161138016313 0 0.22648325856373289 -0.049317463857355977 0 0.22648325856373289 -0.049317463857355977 0 0.23694359709532001 -0.061394592404840097 0 0.23716366819637241 -0.046229271507985323 0 0.25811154610651499 -0.066123023671663908 0 0.23694359709532001 -0.061394592404840097 0 0.24870160087168189 -0.052882304334001928 0 0.23694359709532001 -0.061394592404840097 0 0.24870160087168189 -0.052882304334001928 0 0.23716366819637241 -0.046229271507985323 0 0.24870160087168189 -0.052882304334001928 0 0.23716366819637241 -0.046229271507985323 0 0.24731406762381819 -0.035960341631652723 0 0.23716366819637241 -0.046229271507985323 0 0.24731406762381819 -0.035960341631652723 0 0.23342582712955959 -0.033308149953783547 0 0.23342582712955959 -0.033308149953783547 0 0.2258308946769807 -0.038322632822349968 0 0.22548915127375299 -0.027513718828695861 0 0.22648325856373289 -0.049317463857355977 0 0.23716366819637241 -0.046229271507985323 0 0.2258308946769807 -0.038322632822349968 0 0.23716366819637241 -0.046229271507985323 0 0.23342582712955959 -0.033308149953783547 0 0.2258308946769807 -0.038322632822349968 0 0.2180191377477218 -0.035203133534298187 0 0.2167024847658664 -0.043974661413588162 0 0.2258308946769807 -0.038322632822349968 0 0.2167024847658664 -0.043974661413588162 0 0.22648325856373289 -0.049317463857355977 0 0.2258308946769807 -0.038322632822349968 0 0.2180191377477218 -0.035203133534298187 0 0.2258308946769807 -0.038322632822349968 0 0.21995729679401421 -0.029331280632926501 0 0.2258308946769807 -0.038322632822349968 0 0.22548915127375299 -0.027513718828695861 0 0.21995729679401421 -0.029331280632926501 0 0.21528057420098159 -0.024212643874961401 0 0.2313313538768734 -0.018514784978234038 0 0.22829619310998309 -0.01520182636873813 0 0.21528057420098159 -0.024212643874961401 0 0.2313313538768734 -0.018514784978234038 0 0.21528057420098159 -0.024212643874961401 0 0.22548915127375299 -0.027513718828695861 0 0.2313313538768734 -0.018514784978234038 0 0.21528057420098159 -0.024212643874961401 0 0.22548915127375299 -0.027513718828695861 0 0.21995729679401421 -0.029331280632926501 0 0.21528057420098159 -0.024212643874961401 0 0.22829619310998309 -0.01520182636873813 0 0.21528057420098159 -0.024212643874961401 0 0.21911622703360889 -0.015650702578479541 0 0.22829619310998309 -0.01520182636873813 0 0.2313313538768734 -0.018514784978234038 0 0.22829619310998309 -0.01520182636873813 0 0.23342582712955959 -0.033308149953783547 0 0.22548915127375299 -0.027513718828695861 0 0.2313313538768734 -0.018514784978234038 0 0.25508119948702751 -0.010083838205662381 0 0.2313313538768734 -0.018514784978234038 0 0.2482857443068576 -0.021714794414400052 0 0.24731406762381819 -0.035960341631652723 0 0.2313313538768734 -0.018514784978234038 0 0.2482857443068576 -0.021714794414400052 0 0.24731406762381819 -0.035960341631652723 0 0.23342582712955959 -0.033308149953783547 0 0.2313313538768734 -0.018514784978234038 0 0.24731406762381819 -0.035960341631652723 0 0.2313313538768734 -0.018514784978234038 0 0.25508119948702751 -0.010083838205662381 0 0.2313313538768734 -0.018514784978234038 0 0.24138147174972829 -0.0061427828714447699 0 0.25508119948702751 -0.010083838205662381 0 0.2313313538768734 -0.018514784978234038 0 0.24138147174972829 -0.0061427828714447699 0 0.22829619310998309 -0.01520182636873813 0 0.25446675038947358 0.0029162606258486688 0 0.2541426920980116 -0.0036136263454906951 0 0.24138147174972829 -0.0061427828714447699 0 0.25446675038947358 0.0029162606258486688 0 0.24138147174972829 -0.0061427828714447699 0 0.22999165343287109 0.0038227322559807589 0 0.24138147174972829 -0.0061427828714447699 0 0.23189167676904729 -0.0064153040848911828 0 0.22999165343287109 0.0038227322559807589 0 0.23189167676904729 -0.0064153040848911828 0 0.2228246624943325 -0.0092295053444410857 0 0.22999165343287109 0.0038227322559807589 0 0.21351355446813719 -0.0021103410187178909 0 0.2228246624943325 -0.0092295053444410857 0 0.23189167676904729 -0.0064153040848911828 0 0.22829619310998309 -0.01520182636873813 0 0.2228246624943325 -0.0092295053444410857 0 0.2313313538768734 -0.018514784978234038 0 0.24138147174972829 -0.0061427828714447699 0 0.22829619310998309 -0.01520182636873813 0 0.24138147174972829 -0.0061427828714447699 0 0.23189167676904729 -0.0064153040848911828 0 0.22829619310998309 -0.01520182636873813 0 0.21911622703360889 -0.015650702578479541 0 0.22829619310998309 -0.01520182636873813 0 0.2228246624943325 -0.0092295053444410857 0 0.22829619310998309 -0.01520182636873813 0 0.2228246624943325 -0.0092295053444410857 0 0.2084634723971549 -0.097930235578601213 0 0.21737999015654699 -0.1103161024944793 0 0.2275791846540145 -0.10054182369239011 0 0.21737999015654699 -0.1103161024944793 0 0.19100769245097829 -0.1040519139747048 0 0.2084634723971549 -0.097930235578601213 0 0.21140608144591419 -0.084503356370523836 0 0.2275791846540145 -0.10054182369239011 0 0.2084634723971549 -0.097930235578601213 0 0.21737999015654699 -0.1103161024944793 0 0.19100769245097829 -0.1040519139747048 0 0.21737999015654699 -0.1103161024944793 0 0.21277072480774051 -0.1248863227998855 0 0.20025029595199689 -0.1218288277367077 0 0.21737999015654699 -0.1103161024944793 0 0.21277072480774051 -0.1248863227998855 0 0.2239597136694004 -0.1277946194696456 0 0.1862357176231304 -0.1238823921021804 0 0.20025029595199689 -0.1218288277367077 0 0.19100769245097829 -0.1040519139747048 0 0.21737999015654699 -0.1103161024944793 0 0.20025029595199689 -0.1218288277367077 0 0.19100769245097829 -0.1040519139747048 0 0.20025029595199689 -0.1218288277367077 0 0.19100769245097829 -0.1040519139747048 0 0.2084634723971549 -0.097930235578601213 0 0.19100769245097829 -0.1040519139747048 0 0.19624682445825681 -0.08914472739044943 0 0.18137547142311691 -0.085525622921553163 0 0.19100769245097829 -0.1040519139747048 0 0.19624682445825681 -0.08914472739044943 0 0.19624682445825681 -0.08914472739044943 0 0.1952329782378138 -0.068464889048657496 0 0.21140608144591419 -0.084503356370523836 0 0.18137547142311691 -0.085525622921553163 0 0.19624682445825681 -0.08914472739044943 0 0.1952329782378138 -0.068464889048657496 0 0.20138343235632811 -0.055727139445542639 0 0.1952329782378138 -0.068464889048657496 0 0.21149591893834541 -0.070957707586151192 0 0.18346211879182289 -0.064955309332027283 0 0.19188844298534441 -0.056659859735039647 0 0.1952329782378138 -0.068464889048657496 0 0.1952329782378138 -0.068464889048657496 0 0.21140608144591419 -0.084503356370523836 0 0.20138343235632811 -0.055727139445542639 0 0.21149591893834541 -0.070957707586151192 0 0.22670270369963491 -0.067064047377793826 0 0.1952329782378138 -0.068464889048657496 0 0.21149591893834541 -0.070957707586151192 0 0.21140608144591419 -0.084503356370523836 0 0.2084634723971549 -0.097930235578601213 0 0.19624682445825681 -0.08914472739044943 0 0.21140608144591419 -0.084503356370523836 0 0.21149591893834541 -0.070957707586151192 0 0.21140608144591419 -0.084503356370523836 0 0.2227543989520358 -0.079029105688238177 0 0.21140608144591419 -0.084503356370523836 0 0.2275791846540145 -0.10054182369239011 0 0.2227543989520358 -0.079029105688238177 0 0.23449163343577681 -0.083610487294907485 0 0.2275791846540145 -0.10054182369239011 0 0.21140608144591419 -0.084503356370523836 0 0.2227543989520358 -0.079029105688238177 0 0.2275791846540145 -0.10054182369239011 0 0.2227543989520358 -0.079029105688238177 0 0.22670270369963491 -0.067064047377793826 0 0.23449163343577681 -0.083610487294907485 0 0.21149591893834541 -0.070957707586151192 0 0.2227543989520358 -0.079029105688238177 0 0.22670270369963491 -0.067064047377793826 0 0.25202197504294188 -0.078400955310045109 0 0.25811154610651499 -0.066123023671663908 0 0.23694359709532001 -0.061394592404840097 0 0.25202197504294188 -0.078400955310045109 0 0.22670270369963491 -0.067064047377793826 0 0.25202197504294188 -0.078400955310045109 0 0.22670270369963491 -0.067064047377793826 0 0.23449163343577681 -0.083610487294907485 0 0.25202197504294188 -0.078400955310045109 0 0.23694359709532001 -0.061394592404840097 0 0.22670270369963491 -0.067064047377793826 0 0.25811154610651499 -0.066123023671663908 0 0.23694359709532001 -0.061394592404840097 0 0.25202197504294188 -0.078400955310045109 0 0.23449163343577681 -0.083610487294907485 0 0.24624903761231479 -0.086847438891893419 0 0.23449163343577681 -0.083610487294907485 0 0.24292322406264641 -0.096552741650977186 0 0.2275791846540145 -0.10054182369239011 0 0.23449163343577681 -0.083610487294907485 0 0.24624903761231479 -0.086847438891893419 0 0.24292322406264641 -0.096552741650977186 0 0.25304747237378489 -0.090741332181114118 0 0.24624903761231479 -0.086847438891893419 0 0.24292322406264641 -0.096552741650977186 0 0.2275791846540145 -0.10054182369239011 0 0.24375228786211539 -0.116580291014256 0 0.24292322406264641 -0.096552741650977186 0 0.2275791846540145 -0.10054182369239011 0 0.24375228786211539 -0.116580291014256 0 0.25771864553297669 -0.099620140202181948 0 0.24292322406264641 -0.096552741650977186 0 0.24375228786211539 -0.116580291014256 0 0.21737999015654699 -0.1103161024944793 0 0.2275791846540145 -0.10054182369239011 0 0.24375228786211539 -0.116580291014256 0 0.21737999015654699 -0.1103161024944793 0 0.24375228786211539 -0.116580291014256 0 0.2239597136694004 -0.1277946194696456 0 0.21737999015654699 -0.1103161024944793 0 0.24375228786211539 -0.116580291014256 0 0.24375228786211539 -0.116580291014256 0 0.235054631712311 -0.13955626642273861 0 0.24955680073527009 -0.143898101237383 0 0.235054631712311 -0.13955626642273861 0 0.24955680073527009 -0.143898101237383 0 0.23627457688356679 -0.15840319400941011 0 0.25449645062408999 -0.16331052089379791 0 0.24955680073527009 -0.143898101237383 0 0.23627457688356679 -0.15840319400941011 0 0.235054631712311 -0.13955626642273861 0 0.22199130801810529 -0.1478171468904442 0 0.23627457688356679 -0.15840319400941011 0 0.24375228786211539 -0.116580291014256 0 0.235054631712311 -0.13955626642273861 0 0.2239597136694004 -0.1277946194696456 0 0.235054631712311 -0.13955626642273861 0 0.22199130801810529 -0.1478171468904442 0 0.2239597136694004 -0.1277946194696456 0 0.20025029595199689 -0.1218288277367077 0 0.20949289945301761 -0.1396057414987095 0 0.22199130801810529 -0.1478171468904442 0 0.2239597136694004 -0.1277946194696456 0 0.20949289945301761 -0.1396057414987095 0 0.21277072480774051 -0.1248863227998855 0 0.20025029595199689 -0.1218288277367077 0 0.20949289945301761 -0.1396057414987095 0 0.21277072480774051 -0.1248863227998855 0 0.2239597136694004 -0.1277946194696456 0 0.20949289945301761 -0.1396057414987095 0 0.22199130801810529 -0.1478171468904442 0 0.20949289945301761 -0.1396057414987095 0 0.2069794531536403 -0.1537888919124783 0 0.20949289945301761 -0.1396057414987095 0 0.2069794531536403 -0.1537888919124783 0 0.1919305776748628 -0.1461990482496055 0 0.2069794531536403 -0.1537888919124783 0 0.1919305776748628 -0.1461990482496055 0 0.19225769977326759 -0.16432491474026781 0 0.1862357176231304 -0.1238823921021804 0 0.1919305776748628 -0.1461990482496055 0 0.19714487019074359 -0.1333469628700395 0 0.20025029595199689 -0.1218288277367077 0 0.20949289945301761 -0.1396057414987095 0 0.19714487019074359 -0.1333469628700395 0 0.20949289945301761 -0.1396057414987095 0 0.1919305776748628 -0.1461990482496055 0 0.19714487019074359 -0.1333469628700395 0 0.1862357176231304 -0.1238823921021804 0 0.1919305776748628 -0.1461990482496055 0 0.1862357176231304 -0.1238823921021804 0 0.20025029595199689 -0.1218288277367077 0 0.19714487019074359 -0.1333469628700395 0 0.19629081049063871 -0.1815365299480412 0 0.19225769977326759 -0.16432491474026781 0 0.17982600751226671 -0.1762593337595659 0 0.19629081049063871 -0.1815365299480412 0 0.19225769977326759 -0.16432491474026781 0 0.22018657323669569 -0.16775416802968299 0 0.2069794531536403 -0.1537888919124783 0 0.19225769977326759 -0.16432491474026781 0 0.22018657323669569 -0.16775416802968299 0 0.22199130801810529 -0.1478171468904442 0 0.2069794531536403 -0.1537888919124783 0 0.22018657323669569 -0.16775416802968299 0 0.19629081049063871 -0.1815365299480412 0 0.22018657323669569 -0.16775416802968299 0 0.21237941264848451 -0.18810475376770611 0 0.22018657323669569 -0.16775416802968299 0 0.23934418379307471 -0.18436482883247621 0 0.22018657323669569 -0.16775416802968299 0 0.23934418379307471 -0.18436482883247621 0 0.21237941264848451 -0.18810475376770611 0 0.22018657323669569 -0.16775416802968299 0 0.23627457688356679 -0.15840319400941011 0 0.23934418379307471 -0.18436482883247621 0 0.22199130801810529 -0.1478171468904442 0 0.22018657323669569 -0.16775416802968299 0 0.23627457688356679 -0.15840319400941011 0 0.25449645062408999 -0.16331052089379791 0 0.23627457688356679 -0.15840319400941011 0 0.23934418379307471 -0.18436482883247621 0 0.25850179434945381 -0.20097548963526929 0 0.23934418379307471 -0.18436482883247621 0 0.25850179434945381 -0.20097548963526929 0 0.23934418379307471 -0.18436482883247621 0 0.23907695871134879 -0.21289681242661959 0 0.23907695871134879 -0.21289681242661959 0 0.22308479462261119 -0.20217133576560289 0 0.21722062693650279 -0.2226466586169516 0 0.23934418379307471 -0.18436482883247621 0 0.22308479462261119 -0.20217133576560289 0 0.21237941264848451 -0.18810475376770611 0 0.23934418379307471 -0.18436482883247621 0 0.23907695871134879 -0.21289681242661959 0 0.22308479462261119 -0.20217133576560289 0 0.25037283077400019 -0.2416092145933311 0 0.23239962387573149 -0.2337287944253621 0 0.2339549802858914 -0.24933471903745599 0 0.25658827463044448 -0.2222138965281123 0 0.23907695871134879 -0.21289681242661959 0 0.2446094219978813 -0.2276121794933563 0 0.25037283077400019 -0.2416092145933311 0 0.2446094219978813 -0.2276121794933563 0 0.23239962387573149 -0.2337287944253621 0 0.23907695871134879 -0.21289681242661959 0 0.2446094219978813 -0.2276121794933563 0 0.23239962387573149 -0.2337287944253621 0 0.23907695871134879 -0.21289681242661959 0 0.23239962387573149 -0.2337287944253621 0 0.21722062693650279 -0.2226466586169516 0 0.23239962387573149 -0.2337287944253621 0 0.2194561222393229 -0.23682627783696539 0 0.21722062693650279 -0.2226466586169516 0 0.23239962387573149 -0.2337287944253621 0 0.22502312889380549 -0.2426362774769398 0 0.2339549802858914 -0.24933471903745599 0 0.2194561222393229 -0.23682627783696539 0 0.22502312889380549 -0.2426362774769398 0 0.21456577207223029 -0.24270171036535029 0 0.23239962387573149 -0.2337287944253621 0 0.2194561222393229 -0.23682627783696539 0 0.22502312889380549 -0.2426362774769398 0 0.22331750647786899 -0.25281133177650322 0 0.22502312889380549 -0.2426362774769398 0 0.21456577207223029 -0.24270171036535029 0 0.22331750647786899 -0.25281133177650322 0 0.22502312889380549 -0.2426362774769398 0 0.2339549802858914 -0.24933471903745599 0 0.2084475354763706 -0.25511513831035743 0 0.2080714594183444 -0.2424179483002232 0 0.21336353465090491 -0.24693864317134839 0 0.2080714594183444 -0.2424179483002232 0 0.21336353465090491 -0.24693864317134839 0 0.2080714594183444 -0.2424179483002232 0 0.21336353465090491 -0.24693864317134839 0 0.21456577207223029 -0.24270171036535029 0 0.2194561222393229 -0.23682627783696539 0 0.2080714594183444 -0.2424179483002232 0 0.21456577207223029 -0.24270171036535029 0 0.21722062693650279 -0.2226466586169516 0 0.20244123733496699 -0.2260211367091485 0 0.19848523837712481 -0.2136299623964425 0 0.2080714594183444 -0.2424179483002232 0 0.21722062693650279 -0.2226466586169516 0 0.2194561222393229 -0.23682627783696539 0 0.2080714594183444 -0.2424179483002232 0 0.21722062693650279 -0.2226466586169516 0 0.2080714594183444 -0.2424179483002232 0 0.21722062693650279 -0.2226466586169516 0 0.20244123733496699 -0.2260211367091485 0 0.2080714594183444 -0.2424179483002232 0 0.18716213711817259 -0.22455639835484539 0 0.2080714594183444 -0.2424179483002232 0 0.20244123733496699 -0.2260211367091485 0 0.18716213711817259 -0.22455639835484539 0 0.20244123733496699 -0.2260211367091485 0 0.19848523837712481 -0.2136299623964425 0 0.18716213711817259 -0.22455639835484539 0 0.2080714594183444 -0.2424179483002232 0 0.19254414318066221 -0.24961624770678509 0 0.1866817818972302 -0.23981118877977231 0 0.2080714594183444 -0.2424179483002232 0 0.1866817818972302 -0.23981118877977231 0 0.18716213711817259 -0.22455639835484539 0 0.19254414318066221 -0.24961624770678509 0 0.18399505531774341 -0.24981832115951039 0 0.1866817818972302 -0.23981118877977231 0 0.21237941264848451 -0.18810475376770611 0 0.20793523744788639 -0.20366419955677639 0 0.19447652973028121 -0.19759128756789451 0 0.22308479462261119 -0.20217133576560289 0 0.21237941264848451 -0.18810475376770611 0 0.20793523744788639 -0.20366419955677639 0 0.22308479462261119 -0.20217133576560289 0 0.21722062693650279 -0.2226466586169516 0 0.20793523744788639 -0.20366419955677639 0 0.21722062693650279 -0.2226466586169516 0 0.20793523744788639 -0.20366419955677639 0 0.19848523837712481 -0.2136299623964425 0 0.19848523837712481 -0.2136299623964425 0 0.19447652973028121 -0.19759128756789451 0 0.1831457957419608 -0.2071674304332729 0 0.20793523744788639 -0.20366419955677639 0 0.19848523837712481 -0.2136299623964425 0 0.19447652973028121 -0.19759128756789451 0 0.19848523837712481 -0.2136299623964425 0 0.1831457957419608 -0.2071674304332729 0 0.18716213711817259 -0.22455639835484539 0 0.19629081049063871 -0.1815365299480412 0 0.19447652973028121 -0.19759128756789451 0 0.1840061663436266 -0.1900566622106199 0 0.19629081049063871 -0.1815365299480412 0 0.21237941264848451 -0.18810475376770611 0 0.19447652973028121 -0.19759128756789451 0 0.19447652973028121 -0.19759128756789451 0 0.1840061663436266 -0.1900566622106199 0 0.1831457957419608 -0.2071674304332729 0 0.1840061663436266 -0.1900566622106199 0 0.1831457957419608 -0.2071674304332729 0 0.16486725365112659 -0.18785963188663279 0 0.1831457957419608 -0.2071674304332729 0 0.16486725365112659 -0.18785963188663279 0 0.1831457957419608 -0.2071674304332729 0 0.16625281481800089 -0.2066948484094672 0 0.18716213711817259 -0.22455639835484539 0 0.16625281481800089 -0.2066948484094672 0 0.18716213711817259 -0.22455639835484539 0 0.16625281481800089 -0.2066948484094672 0 0.18716213711817259 -0.22455639835484539 0 0.16937657335138201 -0.22198425569814831 0 0.16625281481800089 -0.2066948484094672 0 0.15661990237239229 -0.21733625041789439 0 0.14909823278687431 -0.20687378182447139 0 0.16625281481800089 -0.2066948484094672 0 0.15661990237239229 -0.21733625041789439 0 0.16937657335138201 -0.22198425569814831 0 0.1831457957419608 -0.2071674304332729 0 0.16625281481800089 -0.2066948484094672 0 0.16486725365112659 -0.18785963188663279 0 0.16625281481800089 -0.2066948484094672 0 0.16486725365112659 -0.18785963188663279 0 0.14534349251782941 -0.188833298464089 0 0.17619278994504239 -0.24587918172992959 0 0.18399505531774341 -0.24981832115951039 0 0.1866817818972302 -0.23981118877977231 0 0.17619278994504239 -0.24587918172992959 0 0.17450151464944069 -0.23276490516368609 0 0.16609645978724119 -0.24143951784646769 0 0.17619278994504239 -0.24587918172992959 0 0.1866817818972302 -0.23981118877977231 0 0.17450151464944069 -0.23276490516368609 0 0.17450151464944069 -0.23276490516368609 0 0.18716213711817259 -0.22455639835484539 0 0.16937657335138201 -0.22198425569814831 0 0.1866817818972302 -0.23981118877977231 0 0.17450151464944069 -0.23276490516368609 0 0.18716213711817259 -0.22455639835484539 0 0.15661990237239229 -0.21733625041789439 0 0.1623464977989032 -0.22856887614484861 0 0.15090654410468329 -0.22688320449844629 0 0.15661990237239229 -0.21733625041789439 0 0.16937657335138201 -0.22198425569814831 0 0.1623464977989032 -0.22856887614484861 0 0.17450151464944069 -0.23276490516368609 0 0.1623464977989032 -0.22856887614484861 0 0.16609645978724119 -0.24143951784646769 0 0.17450151464944069 -0.23276490516368609 0 0.16937657335138201 -0.22198425569814831 0 0.1623464977989032 -0.22856887614484861 0 0.1623464977989032 -0.22856887614484861 0 0.16609645978724119 -0.24143951784646769 0 0.1528270009437688 -0.23836283418195289 0 0.16001236861667459 -0.2513654190734112 0 0.16609645978724119 -0.24143951784646769 0 0.1528270009437688 -0.23836283418195289 0 0.16978669848249819 -0.25098739912941831 0 0.17619278994504239 -0.24587918172992959 0 0.16609645978724119 -0.24143951784646769 0 0.16001236861667459 -0.2513654190734112 0 0.16978669848249819 -0.25098739912941831 0 0.16609645978724119 -0.24143951784646769 0 0.1429630926125974 -0.2502577086919005 0 0.16001236861667459 -0.2513654190734112 0 0.1528270009437688 -0.23836283418195289 0 0.1429630926125974 -0.2502577086919005 0 0.1528270009437688 -0.23836283418195289 0 0.13988621804673579 -0.23152362256679451 0 0.1528270009437688 -0.23836283418195289 0 0.15090654410468329 -0.22688320449844629 0 0.13988621804673579 -0.23152362256679451 0 0.1623464977989032 -0.22856887614484861 0 0.1528270009437688 -0.23836283418195289 0 0.15090654410468329 -0.22688320449844629 0 0.15661990237239229 -0.21733625041789439 0 0.15090654410468329 -0.22688320449844629 0 0.1428531013616163 -0.21862443918074129 0 0.15090654410468329 -0.22688320449844629 0 0.13988621804673579 -0.23152362256679451 0 0.1428531013616163 -0.21862443918074129 0 0.12018370186474731 -0.23305432747703519 0 0.12895394136930069 -0.22163642029703709 0 0.13988621804673579 -0.23152362256679451 0 0.12895394136930069 -0.22163642029703709 0 0.13988621804673579 -0.23152362256679451 0 0.1428531013616163 -0.21862443918074129 0 0.1429630926125974 -0.2502577086919005 0 0.12018370186474731 -0.23305432747703519 0 0.1429630926125974 -0.2502577086919005 0 0.12018370186474731 -0.23305432747703519 0 0.13988621804673579 -0.23152362256679451 0 0.13217397618885759 -0.25462043987800831 0 0.1429630926125974 -0.2502577086919005 0 0.12018370186474731 -0.23305432747703519 0 0.16625281481800089 -0.2066948484094672 0 0.14534349251782941 -0.188833298464089 0 0.16625281481800089 -0.2066948484094672 0 0.14534349251782941 -0.188833298464089 0 0.14909823278687431 -0.20687378182447139 0 0.14534349251782941 -0.188833298464089 0 0.14909823278687431 -0.20687378182447139 0 0.1346280568372662 -0.20359450925845249 0 0.15661990237239229 -0.21733625041789439 0 0.14909823278687431 -0.20687378182447139 0 0.1428531013616163 -0.21862443918074129 0 0.14909823278687431 -0.20687378182447139 0 0.1428531013616163 -0.21862443918074129 0 0.1346280568372662 -0.20359450925845249 0 0.1178461100078927 -0.20838697738218431 0 0.12895394136930069 -0.22163642029703709 0 0.1346280568372662 -0.20359450925845249 0 0.12895394136930069 -0.22163642029703709 0 0.1428531013616163 -0.21862443918074129 0 0.1346280568372662 -0.20359450925845249 0 0.14534349251782941 -0.188833298464089 0 0.1346280568372662 -0.20359450925845249 0 0.13128332926409281 -0.18787359724935929 0 0.1237689835273371 -0.19605207676116951 0 0.1178461100078927 -0.20838697738218431 0 0.1346280568372662 -0.20359450925845249 0 0.1237689835273371 -0.19605207676116951 0 0.1346280568372662 -0.20359450925845249 0 0.13128332926409281 -0.18787359724935929 0 0.1237689835273371 -0.19605207676116951 0 0.1232013989280239 -0.1819146573535104 0 0.13128332926409281 -0.18787359724935929 0 0.12443417021765769 -0.1709717485187108 0 0.14534349251782941 -0.188833298464089 0 0.12443417021765769 -0.1709717485187108 0 0.1232013989280239 -0.1819146573535104 0 0.13128332926409281 -0.18787359724935929 0 0.12443417021765769 -0.1709717485187108 0 0.14534349251782941 -0.188833298464089 0 0.13128332926409281 -0.18787359724935929 0 0.12443417021765769 -0.1709717485187108 0 0.14534349251782941 -0.188833298464089 0 0.13540865390058859 -0.1688207667960602 0 0.14534349251782941 -0.188833298464089 0 0.14658871156029241 -0.16855183333999291 0 0.13540865390058859 -0.1688207667960602 0 0.16486725365112659 -0.18785963188663279 0 0.14658871156029241 -0.16855183333999291 0 0.16486725365112659 -0.18785963188663279 0 0.14534349251782941 -0.188833298464089 0 0.14658871156029241 -0.16855183333999291 0 0.14658871156029241 -0.16855183333999291 0 0.13391177650968769 -0.15242347890466901 0 0.14971917460686079 -0.1530450482394467 0 0.14658871156029241 -0.16855183333999291 0 0.14971917460686079 -0.1530450482394467 0 0.16192904395431579 -0.15800089119817939 0 0.14658871156029241 -0.16855183333999291 0 0.13391177650968769 -0.15242347890466901 0 0.12831016946945831 -0.1492440347933528 0 0.14658871156029241 -0.16855183333999291 0 0.12831016946945831 -0.1492440347933528 0 0.14658871156029241 -0.16855183333999291 0 0.13540865390058859 -0.1688207667960602 0 0.1290045142054978 -0.1612372837293575 0 0.14658871156029241 -0.16855183333999291 0 0.1290045142054978 -0.1612372837293575 0 0.12831016946945831 -0.1492440347933528 0 0.13540865390058859 -0.1688207667960602 0 0.12715697753007521 -0.16591248018761531 0 0.1290045142054978 -0.1612372837293575 0 0.12443417021765769 -0.1709717485187108 0 0.13540865390058859 -0.1688207667960602 0 0.12715697753007521 -0.16591248018761531 0 0.12098675462827781 -0.16200852072179159 0 0.12715697753007521 -0.16591248018761531 0 0.1290045142054978 -0.1612372837293575 0 0.12324902196630889 -0.15465793599018671 0 0.1227471198665283 -0.15880086614903269 0 0.1290045142054978 -0.1612372837293575 0 0.13391177650968769 -0.15242347890466901 0 0.12831016946945831 -0.1492440347933528 0 0.12532898621889721 -0.13663811256420449 0 0.12324902196630889 -0.15465793599018671 0 0.1290045142054978 -0.1612372837293575 0 0.12831016946945831 -0.1492440347933528 0 0.1217036921304827 -0.1482443959076799 0 0.12831016946945831 -0.1492440347933528 0 0.12532898621889721 -0.13663811256420449 0 0.13391177650968769 -0.15242347890466901 0 0.13188977167139071 -0.12546883223523481 0 0.13391177650968769 -0.15242347890466901 0 0.13188977167139071 -0.12546883223523481 0 0.1446303542042412 -0.1380662602394005 0 0.13391177650968769 -0.15242347890466901 0 0.13188977167139071 -0.12546883223523481 0 0.12532898621889721 -0.13663811256420449 0 0.11997683785091839 -0.1276371159963853 0 0.13188977167139071 -0.12546883223523481 0 0.12532898621889721 -0.13663811256420449 0 0.1446303542042412 -0.1380662602394005 0 0.15557261582888751 -0.13003178131142151 0 0.1621281360659286 -0.14191921566573409 0 0.14724036225017881 -0.1245170930860646 0 0.13188977167139071 -0.12546883223523481 0 0.1446303542042412 -0.1380662602394005 0 0.14724036225017881 -0.1245170930860646 0 0.1446303542042412 -0.1380662602394005 0 0.15557261582888751 -0.13003178131142151 0 0.13391177650968769 -0.15242347890466901 0 0.1446303542042412 -0.1380662602394005 0 0.14971917460686079 -0.1530450482394467 0 0.1446303542042412 -0.1380662602394005 0 0.14971917460686079 -0.1530450482394467 0 0.1621281360659286 -0.14191921566573409 0 0.1621281360659286 -0.14191921566573409 0 0.17324983187337631 -0.13165498831909611 0 0.17651024624945799 -0.1485415537171802 0 0.14971917460686079 -0.1530450482394467 0 0.1621281360659286 -0.14191921566573409 0 0.16192904395431579 -0.15800089119817939 0 0.1621281360659286 -0.14191921566573409 0 0.17651024624945799 -0.1485415537171802 0 0.16192904395431579 -0.15800089119817939 0 0.16471491079178111 -0.1205264202314431 0 0.15557261582888751 -0.13003178131142151 0 0.1639163736399934 -0.1310331013819237 0 0.15557261582888751 -0.13003178131142151 0 0.1621281360659286 -0.14191921566573409 0 0.1639163736399934 -0.1310331013819237 0 0.1621281360659286 -0.14191921566573409 0 0.1639163736399934 -0.1310331013819237 0 0.17324983187337631 -0.13165498831909611 0 0.16471491079178111 -0.1205264202314431 0 0.1639163736399934 -0.1310331013819237 0 0.17324983187337631 -0.13165498831909611 0 0.1862357176231304 -0.1238823921021804 0 0.1919305776748628 -0.1461990482496055 0 0.17324983187337631 -0.13165498831909611 0 0.1919305776748628 -0.1461990482496055 0 0.17324983187337631 -0.13165498831909611 0 0.17651024624945799 -0.1485415537171802 0 0.1919305776748628 -0.1461990482496055 0 0.19225769977326759 -0.16432491474026781 0 0.17651024624945799 -0.1485415537171802 0 0.19225769977326759 -0.16432491474026781 0 0.17526083145963689 -0.16308053239281189 0 0.17982600751226671 -0.1762593337595659 0 0.19225769977326759 -0.16432491474026781 0 0.17651024624945799 -0.1485415537171802 0 0.17526083145963689 -0.16308053239281189 0 0.17526083145963689 -0.16308053239281189 0 0.17982600751226671 -0.1762593337595659 0 0.16627328335530381 -0.17069773137902189 0 0.1840061663436266 -0.1900566622106199 0 0.16486725365112659 -0.18785963188663279 0 0.17982600751226671 -0.1762593337595659 0 0.19629081049063871 -0.1815365299480412 0 0.1840061663436266 -0.1900566622106199 0 0.17982600751226671 -0.1762593337595659 0 0.16486725365112659 -0.18785963188663279 0 0.14658871156029241 -0.16855183333999291 0 0.16627328335530381 -0.17069773137902189 0 0.16486725365112659 -0.18785963188663279 0 0.17982600751226671 -0.1762593337595659 0 0.16627328335530381 -0.17069773137902189 0 0.14658871156029241 -0.16855183333999291 0 0.16192904395431579 -0.15800089119817939 0 0.16627328335530381 -0.17069773137902189 0 0.17526083145963689 -0.16308053239281189 0 0.16192904395431579 -0.15800089119817939 0 0.16627328335530381 -0.17069773137902189 0 0.17651024624945799 -0.1485415537171802 0 0.17526083145963689 -0.16308053239281189 0 0.16192904395431579 -0.15800089119817939 0 
</DataArray>
</Points>
<Cells>
<DataArray type="UInt32" Name="connectivity" format="ascii">
0 1 2 3 4 5 6 7 8 9 10 11 12 13 14 15 16 17 18 19 20 21 22 23 24 25 26 27 28 29 30 31 32 33 34 35 36 37 38 39 40 41 42 43 44 45 46 47 48 49 50 51 52 53 54 55 56 57 58 59 60 61 62 63 64 65 66 67 68 69 70 71 72 73 74 75 76 77 78 79 80 81 82 83 84 85 86 87 88 89 90 91 92 93 94 95 96 97 98 99 100 101 102 103 104 105 106 107 108 109 110 111 112 113 114 115 116 117 118 119 120 121 122 123 124 125 126 127 128 129 130 131 132 133 134 135 136 137 138 139 140 141 142 143 144 145 146 147 148 149 150 151 152 153 154 155 156 157 158 159 160 161 162 163 164 165 166 167 168 169 170 171 172 173 174 175 176 177 178 179 180 181 182 183 184 185 186 187 188 189 190 191 192 193 194 195 196 197 198 199 200 201 202 203 204 205 206 207 208 209 210 211 212 213 214 215 216 217 218 219 220 221 222 223 224 225 226 227 228 229 230 231 232 233 234 235 236 237 238 239 240 241 242 243 244 245 246 247 248 249 250 251 252 253 254 255 256 257 258 259 260 261 262 263 264 265 266 267 268 269 270 271 272 273 274 275 276 277 278 279 280 281 282 283 284 285 286 287 288 289 290 291 292 293 294 295 296 297 298 299 300 301 302 303 304 305 306 307 308 309 310 311 312 313 314 315 316 317 318 319 320 321 322 323 324 325 326 327 328 329 330 331 332 333 334 335 336 337 338 339 340 341 342 343 344 345 346 347 348 349 350 351 352 353 354 355 356 357 358 359 360 361 362 363 364 365 366 367 368 369 370 371 372 373 374 375 376 377 378 379 380 381 382 383 384 385 386 387 388 389 390 391 392 393 394 395 396 397 398 399 400 401 402 403 404 405 406 407 408 409 410 411 412 413 414 415 416 417 418 419 420 421 422 423 424 425 426 427 428 429 430 431 432 433 434 435 436 437 438 439 440 441 442 443 444 445 446 447 448 449 450 451 452 453 454 455 456 457 458 459 460 461 462 463 464 465 466 467 468 469 470 471 472 473 474 475 476 477 478 479 480 481 482 483 484 485 486 487 488 489 490 491 492 493 494 495 496 497 498 499 500 501 502 503 504 505 506 507 508 509 510 511 512 513 514 515 516 517 518 519 520 521 522 523 524 525 526 527 528 529 530 531 532 533 534 535 536 537 538 539 540 541 542 543 544 545 546 547 548 549 550 551 552 553 554 555 556 557 558 559 560 561 562 563 564 565 566 567 568 569 570 571 572 573 574 575 576 577 578 579 580 581 582 583 584 585 586 587 588 589 590 591 592 593 594 595 596 597 598 599 600 601 602 603 604 605 606 607 608 609 610 611 612 613 614 615 616 617 618 619 620 621 622 623 624 625 626 627 628 629 630 631 632 633 634 635 636 637 638 639 640 641 642 643 644 645 646 647 648 649 650 651 652 653 654 655 656 657 658 659 660 661 662 663 664 665 666 667 668 669 670 671 672 673 674 675 676 677 678 679 680 681 682 683 684 685 686 687 688 689 690 691 692 693 694 695 696 697 698 699 700 701 702 703 704 705 706 707 708 709 710 711 712 713 714 715 716 717 718 719 720 721 722 723 724 725 726 727 728 729 730 731 732 733 734 735 736 737 738 739 740 741 742 743 744 745 746 747 748 749 750 751 752 753 754 755 756 757 758 759 760 761 762 763 764 765 766 767 768 769 770 771 772 773 774 775 776 777 778 779 780 781 782 783 784 785 786 787 788 789 790 791 792 793 794 795 796 797 798 799 800 801 802 803 804 805 806 807 808 809 810 811 812 813 814 815 816 817 818 819 820 821 822 823 824 825 826 827 828 829 830 831 832 833 834 835 836 837 838 839 840 841 842 843 844 845 846 847 848 849 850 851 852 853 854 855 856 857 858 859 860 861 862 863 864 865 866 867 868 869 870 871 872 873 874 875 876 877 878 879 880 881 882 883 884 885 886 887 888 889 890 891 892 893 894 895 896 897 898 899 900 901 902 903 904 905 906 907 908 909 910 911 912 913 914 915 916 917 918 919 920 921 922 923 924 925 926 927 928 929 930 931 932 933 934 935 936 937 938 939 940 941 942 943 944 945 946 947 948 949 950 951 952 953 954 955 956 957 958 959 960 961 962 963 964 965 966 967 968 969 970 971 972 973 974 975 976 977 978 979 980 981 982 983 984 985 986 987 988 989 990 991 992 993 994 995 996 997 998 999 1000 1001 1002 1003 1004 1005 1006 1007 1008 1009 1010 1011 1012 1013 1014 1015 1016 1017 1018 1019 1020 1021 1022 1023 1024 1025 1026 1027 1028 1029 1030 1031 1032 1033 1034 1035 1036 1037 1038 1039 1040 1041 1042 1043 1044 1045 1046 1047 1048 1049 1050 1051 1052 1053 1054 1055 1056 1057 1058 1059 1060 1061 1062 1063 1064 1065 1066 1067 1068 1069 1070 1071 1072 1073 1074 1075 1076 1077 1078 1079 1080 1081 1082 1083 1084 1085 1086 1087 1088 1089 1090 1091 1092 1093 1094 1095 1096 1097 1098 1099 1100 1101 1102 1103 1104 1105 1106 1107 1108 1109 1110 1111 1112 1113 1114 1115 1116 1117 1118 1119 1120 1121 1122 1123 1124 1125 1126 1127 1128 1129 1130 1131 1132 1133 1134 1135 1136 1137 1138 1139 1140 1141 1142 1143 1144 1145 1146 1147 1148 1149 1150 1151 1152 1153 1154 1155 1156 1157 1158 1159 1160 1161 1162 1163 1164 1165 1166 1167 1168 1169 1170 1171 1172 1173 1174 1175 1176 1177 1178 1179 1180 1181 1182 1183 1184 1185 1186 1187 1188 1189 1190 1191 1192 1193 1194 1195 1196 1197 1198 1199 1200 1201 1202 1203 1204 1205 1206 1207 1208 1209 1210 1211 1212 1213 1214 1215 1216 1217 1218 1219 1220 1221 1222 1223 1224 1225 1226 1227 1228 1229 1230 1231 1232 1233 1234 1235 1236 1237 1238 1239 1240 1241 1242 1243 1244 1245 1246 1247 1248 1249 1250 1251 1252 1253 1254 1255 1256 1257 1258 1259 1260 1261 1262 1263 1264 1265 1266 1267 1268 1269 1270 1271 1272 1273 1274 1275 1276 1277 1278 1279 1280 1281 1282 1283 1284 1285 1286 1287 1288 1289 1290 1291 1292 1293 1294 1295 1296 1297 1298 1299 1300 1301 1302 1303 1304 1305 1306 1307 1308 1309 1310 1311 1312 1313 1314 1315 1316 1317 1318 1319 1320 1321 1322 1323 1324 1325 1326 1327 1328 1329 1330 1331 1332 1333 1334 1335 1336 1337 1338 1339 1340 1341 1342 1343 1344 1345 1346 1347 1348 1349 1350 1351 1352 1353 1354 1355 1356 1357 1358 1359 1360 1361 1362 1363 1364 1365 1366 1367 1368 1369 1370 1371 1372 1373 1374 1375 1376 1377 1378 1379 1380 1381 1382 1383 1384 1385 1386 1387 1388 1389 1390 1391 1392 1393 1394 1395 1396 1397 1398 1399 1400 1401 1402 1403 1404 1405 1406 1407 1408 1409 1410 1411 1412 1413 1414 1415 1416 1417 1418 1419 1420 1421 1422 1423 1424 1425 1426 1427 1428 1429 1430 1431 1432 1433 1434 1435 1436 1437 1438 1439 1440 1441 1442 1443 1444 1445 1446 1447 1448 1449 1450 1451 1452 1453 1454 1455 1456 1457 1458 1459 1460 1461 1462 1463 1464 1465 1466 1467 1468 1469 1470 1471 1472 1473 1474 1475 1476 1477 1478 1479 1480 1481 1482 1483 1484 1485 1486 1487 1488 1489 1490 1491 1492 1493 1494 1495 1496 1497 1498 1499 1500 1501 1502 1503 1504 1505 1506 1507 1508 1509 1510 1511 1512 1513 1514 1515 1516 1517 1518 1519 1520 1521 1522 1523 1524 1525 1526 1527 1528 1529 1530 1531 1532 1533 1534 1535 1536 1537 1538 1539 1540 1541 1542 1543 1544 1545 1546 1547 1548 1549 1550 1551 1552 1553 1554 1555 1556 1557 1558 1559 1560 1561 1562 1563 1564 1565 1566 1567 1568 1569 1570 1571 1572 1573 1574 1575 1576 1577 1578 1579 1580 1581 1582 1583 1584 1585 1586 1587 1588 1589 1590 1591 1592 1593 1594 1595 1596 1597 1598 1599 1600 1601 1602 1603 1604 1605 1606 1607 1608 1609 1610 1611 1612 1613 1614 1615 1616 1617 1618 1619 1620 1621 1622 1623 1624 1625 1626 1627 1628 1629 1630 1631 1632 1633 1634 1635 1636 1637 1638 1639 1640 1641 1642 1643 1644 1645 1646 1647 1648 1649 1650 1651 1652 1653 1654 1655 1656 1657 1658 1659 1660 1661 1662 1663 1664 1665 1666 1667 1668 1669 1670 1671 1672 1673 1674 1675 1676 1677 1678 1679 1680 1681 1682 1683 1684 1685 1686 1687 1688 1689 1690 1691 1692 1693 1694 1695 1696 1697 1698 1699 1700 1701 1702 1703 1704 1705 1706 1707 1708 1709 1710 1711 1712 1713 1714 1715 1716 1717 1718 1719 1720 1721 1722 1723 1724 1725 1726 1727 1728 1729 1730 1731 1732 1733 1734 1735 1736 1737 1738 1739 1740 1741 1742 1743 1744 1745 1746 1747 1748 1749 1750 1751 1752 1753 1754 1755 1756 1757 1758 1759 1760 1761 1762 1763 1764 1765 1766 1767 1768 1769 1770 1771 1772 1773 1774 1775 1776 1777 1778 1779 1780 1781 1782 1783 1784 1785 1786 1787 1788 1789 1790 1791 1792 1793 1794 1795 1796 1797 1798 1799 1800 1801 1802 1803 1804 1805 1806 1807 1808 1809 1810 1811 1812 1813 1814 1815 1816 1817 1818 1819 1820 1821 1822 1823 1824 1825 1826 1827 1828 1829 1830 1831 1832 1833 1834 1835 1836 1837 1838 1839 1840 1841 1842 1843 1844 1845 1846 1847 1848 1849 1850 1851 1852 1853 1854 1855 1856 1857 1858 1859 1860 1861 1862 1863 1864 1865 1866 1867 1868 1869 1870 1871 1872 1873 1874 1875 1876 1877 1878 1879 1880 1881 1882 1883 1884 1885 1886 1887 1888 1889 1890 1891 1892 1893 1894 1895 1896 1897 1898 1899 1900 1901 1902 1903 1904 1905 1906 1907 1908 1909 1910 1911 1912 1913 1914 1915 1916 1917 1918 1919 1920 1921 1922 1923 1924 1925 1926 1927 1928 1929 1930 1931 1932 1933 1934 1935 1936 1937 1938 1939 1940 1941 1942 1943 1944 1945 1946 1947 1948 1949 1950 1951 1952 1953 1954 1955 1956 1957 1958 1959 1960 1961 1962 1963 1964 1965 1966 1967 1968 1969 1970 1971 1972 1973 1974 1975 1976 1977 1978 1979 1980 1981 1982 1983 1984 1985 1986 1987 1988 1989 1990 1991 1992 1993 1994 1995 1996 1997 1998 1999 2000 2001 2002 2003 2004 2005 2006 2007 2008 2009 2010 2011 2012 2013 2014 2015 2016 2017 2018 2019 2020 2021 2022 2023 2024 2025 2026 2027 2028 2029 2030 2031 2032 2033 2034 2035 2036 2037 2038 2039 2040 2041 2042 2043 2044 2045 2046 2047 2048 2049 2050 2051 2052 2053 2054 2055 2056 2057 2058 2059 2060 2061 2062 2063 2064 2065 2066 2067 2068 2069 2070 2071 2072 2073 2074 2075 2076 2077 2078 2079 2080 2081 2082 2083 2084 2085 2086 2087 2088 2089 2090 2091 2092 2093 2094 2095 2096 2097 2098 2099 2100 2101 2102 2103 2104 2105 2106 2107 2108 2109 2110 2111 2112 2113 2114 2115 2116 2117 2118 2119 2120 2121 2122 2123 2124 2125 2126 2127 2128 2129 2130 2131 2132 2133 2134 2135 2136 2137 2138 2139 2140 2141 2142 2143 2144 2145 2146 2147 2148 2149 2150 2151 2152 2153 2154 2155 2156 2157 2158 2159 2160 2161 2162 2163 2164 2165 2166 2167 2168 2169 2170 2171 2172 2173 2174 2175 2176 2177 2178 2179 2180 2181 2182 2183 2184 2185 2186 2187 2188 2189 2190 2191 2192 2193 2194 2195 2196 2197 2198 2199 2200 2201 2202 2203 2204 2205 2206 2207 2208 2209 2210 2211 2212 2213 2214 2215 2216 2217 2218 2219 2220 2221 2222 2223 2224 2225 2226 2227 2228 2229 2230 2231 2232 2233 2234 2235 2236 2237 2238 2239 2240 2241 2242 2243 2244 2245 2246 2247 2248 2249 2250 2251 2252 2253 2254 2255 2256 2257 2258 2259 2260 2261 2262 2263 2264 2265 2266 2267 2268 2269 2270 2271 2272 2273 2274 2275 2276 2277 2278 2279 2280 2281 2282 2283 2284 2285 2286 2287 2288 2289 2290 2291 2292 2293 2294 2295 2296 2297 2298 2299 2300 2301 2302 2303 2304 2305 2306 2307 2308 2309 2310 2311 2312 2313 2314 2315 2316 2317 2318 2319 2320 2321 2322 2323 2324 2325 2326 2327 2328 2329 2330 2331 2332 2333 2334 2335 2336 2337 2338 2339 2340 2341 2342 2343 2344 2345 2346 2347 2348 2349 2350 2351 2352 2353 2354 2355 2356 2357 2358 2359 2360 2361 2362 2363 2364 2365 2366 2367 2368 2369 2370 2371 2372 2373 2374 2375 2376 2377 2378 2379 2380 2381 2382 2383 2384 2385 2386 2387 2388 2389 2390 2391 2392 2393 2394 2395 2396 2397 2398 2399 2400 2401 2402 2403 2404 2405 2406 2407 2408 2409 2410 2411 2412 2413 2414 2415 2416 2417 2418 2419 2420 2421 2422 2423 2424 2425 2426 2427 2428 2429 2430 2431 2432 2433 2434 2435 2436 2437 2438 2439 2440 2441 2442 2443 2444 2445 2446 2447 2448 2449 2450 2451 2452 2453 2454 2455 2456 2457 2458 2459 2460 2461 2462 2463 2464 2465 2466 2467 2468 2469 2470 2471 2472 2473 2474 2475 2476 2477 2478 2479 2480 2481 2482 2483 2484 2485 2486 2487 2488 2489 2490 2491 2492 2493 2494 2495 2496 2497 2498 2499 2500 2501 2502 2503 2504 2505 2506 2507 2508 2509 2510 2511 2512 2513 2514 2515 2516 2517 2518 2519 2520 2521 2522 2523 2524 2525 2526 2527 2528 2529 2530 2531 2532 2533 2534 2535 2536 2537 2538 2539 2540 2541 2542 2543 2544 2545 2546 2547 2548 2549 2550 2551 2552 2553 2554 2555 2556 2557 2558 2559 2560 2561 2562 2563 2564 2565 2566 2567 2568 2569 2570 2571 2572 2573 2574 2575 2576 2577 2578 2579 2580 2581 2582 2583 2584 2585 2586 2587 2588 2589 2590 2591 2592 2593 2594 2595 2596 2597 2598 2599 2600 2601 2602 2603 2604 2605 2606 2607 2608 2609 2610 2611 2612 2613 2614 2615 2616 2617 2618 2619 2620 2621 2622 2623 2624 2625 2626 2627 2628 2629 2630 2631 2632 2633 2634 2635 2636 2637 2638 2639 2640 2641 2642 2643 2644 2645 2646 2647 2648 2649 2650 2651 2652 2653 2654 2655 2656 2657 2658 2659 2660 2661 2662 2663 2664 2665 2666 2667 2668 2669 2670 2671 2672 2673 2674 2675 2676 2677 2678 2679 2680 2681 2682 2683 2684 2685 2686 2687 2688 2689 2690 2691 2692 2693 2694 2695 2696 2697 2698 2699 2700 2701 2702 2703 2704 2705 2706 2707 2708 2709 2710 2711 2712 2713 2714 2715 2716 2717 2718 2719 2720 2721 2722 2723 2724 2725 2726 2727 2728 2729 2730 2731 2732 2733 2734 2735 2736 2737 2738 2739 2740 2741 2742 2743 2744 2745 2746 2747 2748 2749 2750 2751 2752 2753 2754 2755 2756 2757 2758 2759 2760 2761 2762 2763 2764 2765 2766 2767 2768 2769 2770 2771 2772 2773 2774 2775 2776 2777 2778 2779 2780 2781 2782 2783 2784 2785 2786 2787 2788 2789 2790 2791 2792 2793 2794 2795 2796 2797 2798 2799 2800 2801 2802 2803 2804 2805 2806 2807 2808 2809 2810 2811 2812 2813 2814 2815 2816 2817 2818 2819 2820 2821 2822 2823 2824 2825 2826 2827 2828 2829 2830 2831 2832 2833 2834 2835 2836 2837 2838 2839 2840 2841 2842 2843 2844 2845 2846 2847 2848 2849 2850 2851 2852 2853 2854 2855 2856 2857 2858 2859 2860 2861 2862 2863 2864 2865 2866 2867 2868 2869 2870 2871 2872 2873 2874 2875 2876 2877 2878 2879 2880 2881 2882 2883 2884 2885 2886 2887 2888 2889 2890 2891 2892 2893 2894 2895 2896 2897 2898 2899 2900 2901 2902 2903 2904 2905 2906 2907 2908 2909 2910 2911 2912 2913 2914 2915 2916 2917 2918 2919 2920 2921 2922 2923 2924 2925 2926 2927 2928 2929 2930 2931 2932 2933 2934 2935 2936 2937 2938 2939 2940 2941 2942 2943 2944 2945 2946 2947 2948 2949 2950 2951 2952 2953 2954 2955 2956 2957 2958 2959 2960 2961 2962 2963 2964 2965 2966 2967 2968 2969 2970 2971 2972 2973 2974 2975 2976 2977 2978 2979 2980 2981 2982 2983 2984 2985 2986 2987 2988 2989 2990 2991 2992 2993 2994 2995 2996 2997 2998 2999 3000 3001 3002 3003 3004 3005 3006 3007 3008 3009 3010 3011 3012 3013 3014 3015 3016 3017 3018 3019 3020 3021 3022 3023 3024 3025 3026 3027 3028 3029 3030 3031 3032 3033 3034 3035 3036 3037 3038 3039 3040 3041 3042 3043 3044 3045 3046 3047 3048 3049 3050 3051 3052 3053 3054 3055 3056 3057 3058 3059 3060 3061 3062 3063 3064 3065 3066 3067 3068 3069 3070 3071 3072 3073 3074 3075 3076 3077 3078 3079 3080 3081 3082 3083 3084 3085 3086 3087 3088 3089 3090 3091 3092 3093 3094 3095 3096 3097 3098 3099 3100 3101 3102 3103 3104 3105 3106 3107 3108 3109 3110 3111 3112 3113 3114 3115 3116 3117 3118 3119 3120 3121 3122 3123 3124 3125 3126 3127 3128 3129 3130 3131 3132 3133 3134 3135 3136 3137 3138 3139 3140 3141 3142 3143 3144 3145 3146 3147 3148 3149 3150 3151 3152 3153 3154 3155 3156 3157 3158 3159 3160 3161 3162 3163 3164 3165 3166 3167 3168 3169 3170 3171 3172 3173 3174 3175 3176 3177 3178 3179 3180 3181 3182 3183 3184 3185 3186 3187 3188 3189 3190 3191 3192 3193 3194 3195 3196 3197 3198 3199 3200 3201 3202 3203 3204 3205 3206 3207 3208 3209 3210 3211 3212 3213 3214 3215 3216 3217 3218 3219 3220 3221 3222 3223 3224 3225 3226 3227 3228 3229 3230 3231 3232 3233 3234 3235 3236 3237 3238 3239 3240 3241 3242 3243 3244 3245 3246 3247 3248 3249 3250 3251 3252 3253 3254 3255 3256 3257 3258 3259 3260 3261 3262 3263 3264 3265 3266 3267 3268 3269 3270 3271 3272 3273 3274 3275 3276 3277 3278 3279 3280 3281 3282 3283 3284 3285 3286 3287 3288 3289 3290 3291 3292 3293 3294 3295 3296 3297 3298 3299 3300 3301 3302 3303 3304 3305 3306 3307 3308 3309 3310 3311 3312 3313 3314 3315 3316 3317 3318 3319 3320 3321 3322 3323 3324 3325 3326 3327 3328 3329 3330 3331 3332 3333 3334 3335 3336 3337 3338 3339 3340 3341 3342 3343 3344 3345 3346 3347 3348 3349 3350 3351 3352 3353 3354 3355 3356 3357 3358 3359 3360 3361 3362 3363 3364 3365 3366 3367 3368 3369 3370 3371 3372 3373 3374 3375 3376 3377 3378 3379 3380 3381 3382 3383 3384 3385 3386 3387 3388 3389 3390 3391 3392 3393 3394 3395 3396 3397 3398 3399 3400 3401 3402 3403 3404 3405 3406 3407 3408 3409 3410 3411 3412 3413 3414 3415 3416 3417 3418 3419 3420 3421 3422 3423 3424 3425 3426 3427 3428 3429 3430 3431 3432 3433 3434 3435 3436 3437 3438 3439 3440 3441 3442 3443 3444 3445 3446 3447 3448 3449 3450 3451 3452 3453 3454 3455 3456 3457 3458 3459 3460 3461 3462 3463 3464 3465 3466 3467 3468 3469 3470 3471 3472 3473 3474 3475 3476 3477 3478 3479 3480 3481 3482 3483 3484 3485 3486 3487 3488 3489 3490 3491 3492 3493 3494 3495 3496 3497 3498 3499 3500 3501 3502 3503 3504 3505 3506 3507 3508 3509 3510 3511 3512 3513 3514 3515 3516 3517 3518 3519 3520 3521 3522 3523 3524 3525 3526 3527 3528 3529 3530 3531 3532 3533 3534 3535 3536 3537 3538 3539 3540 3541 3542 3543 3544 3545 3546 3547 3548 3549 3550 3551 3552 3553 3554 3555 3556 3557 3558 3559 3560 3561 3562 3563 3564 3565 3566 3567 3568 3569 3570 3571 3572 3573 3574 3575 3576 3577 3578 3579 3580 3581 3582 3583 3584 3585 3586 3587 3588 3589 3590 3591 3592 3593 3594 3595 3596 3597 3598 3599 3600 3601 3602 3603 3604 3605 3606 3607 3608 3609 3610 3611 3612 3613 3614 3615 3616 3617 3618 3619 3620 3621 3622 3623 3624 3625 3626 3627 3628 3629 3630 3631 3632 3633 3634 3635 3636 3637 3638 3639 3640 3641 3642 3643 3644 3645 3646 3647 3648 3649 3650 3651 3652 3653 3654 3655 3656 3657 3658 3659 3660 3661 3662 3663 3664 3665 3666 3667 3668 3669 3670 3671 3672 3673 3674 3675 3676 3677 3678 3679 3680 3681 3682 3683 3684 3685 3686 3687 3688 3689 3690 3691 3692 3693 3694 3695 3696 3697 3698 3699 3700 3701 3702 3703 3704 3705 3706 3707 3708 3709 3710 3711 3712 3713 3714 3715 3716 3717 3718 3719 3720 3721 3722 3723 3724 3725 3726 3727 3728 3729 3730 3731 3732 3733 3734 3735 3736 3737 3738 3739 3740 3741 3742 3743 3744 3745 3746 3747 3748 3749 3750 3751 3752 3753 3754 3755 3756 3757 3758 3759 3760 3761 3762 3763 3764 3765 3766 3767 3768 3769 3770 3771 3772 3773 3774 3775 3776 3777 3778 3779 3780 3781 3782 3783 3784 3785 3786 3787 3788 3789 3790 3791 3792 3793 3794 3795 3796 3797 3798 3799 3800 3801 3802 3803 3804 3805 3806 3807 3808 3809 3810 3811 3812 3813 3814 3815 3816 3817 3818 3819 3820 3821 3822 3823 3824 3825 3826 3827 3828 3829 3830 3831 3832 3833 3834 3835 3836 3837 3838 3839 3840 3841 3842 3843 3844 3845 3846 3847 3848 3849 3850 3851 3852 3853 3854 3855 3856 3857 3858 3859 3860 3861 3862 3863 3864 3865 3866 3867 3868 3869 3870 3871 3872 3873 3874 3875 3876 3877 3878 3879 3880 3881 3882 3883 3884 3885 3886 3887 3888 3889 3890 3891 3892 3893 3894 3895 3896 3897 3898 3899 3900 3901 3902 3903 3904 3905 3906 3907 3908 3909 3910 3911 3912 3913 3914 3915 3916 3917 3918 3919 3920 3921 3922 3923 3924 3925 3926 3927 3928 3929 3930 3931 3932 3933 3934 3935 3936 3937 3938 3939 3940 3941 3942 3943 3944 3945 3946 3947 3948 3949 3950 3951 3952 3953 3954 3955 3956 3957 3958 3959 3960 3961 3962 3963 3964 3965 3966 3967 3968 3969 3970 3971 3972 3973 3974 3975 3976 3977 3978 3979 3980 3981 3982 3983 3984 3985 3986 3987 3988 3989 3990 3991 3992 3993 3994 3995 3996 3997 3998 3999 4000 4001 4002 4003 4004 4005 4006 4007 4008 4009 4010 4011 4012 4013 4014 4015 4016 4017 4018 4019 4020 4021 4022 4023 4024 4025 4026 4027 4028 4029 4030 4031 4032 4033 4034 4035 4036 4037 4038 4039 4040 4041 4042 4043 4044 4045 4046 4047 4048 4049 4050 4051 4052 4053 4054 4055 4056 4057 4058 4059 4060 4061 4062 4063 4064 4065 4066 4067 4068 4069 4070 4071 4072 4073 4074 4075 4076 4077 4078 4079 4080 4081 4082 4083 4084 4085 4086 4087 4088 4089 4090 4091 4092 4093 4094 4095 4096 4097 4098 4099 4100 4101 4102 4103 4104 4105 4106 4107 4108 4109 4110 4111 4112 4113 4114 4115 4116 4117 4118 4119 4120 4121 4122 4123 4124 4125 4126 4127 4128 4129 4130 4131 4132 4133 4134 4135 4136 4137 4138 4139 4140 4141 4142 4143 4144 4145 4146 4147 4148 4149 4150 4151 4152 4153 4154 4155 4156 4157 4158 4159 4160 4161 4162 4163 4164 4165 4166 4167 4168 4169 4170 4171 4172 4173 4174 4175 4176 4177 4178 4179 4180 4181 4182 4183 4184 4185 4186 4187 4188 4189 4190 4191 4192 4193 4194 4195 4196 4197 4198 4199 4200 4201 4202 4203 4204 4205 4206 4207 4208 4209 4210 4211 4212 4213 4214 4215 4216 4217 4218 4219 4220 4221 4222 4223 4224 4225 4226 4227 4228 4229 4230 4231 4232 4233 4234 4235 4236 4237 4238 4239 4240 4241 4242 4243 4244 4245 4246 4247 4248 4249 4250 4251 4252 4253 4254 4255 4256 4257 4258 4259 4260 4261 4262 4263 4264 4265 4266 4267 4268 4269 4270 4271 4272 4273 4274 4275 4276 4277 4278 4279 4280 4281 4282 4283 4284 4285 4286 4287 4288 4289 4290 4291 4292 4293 4294 4295 4296 4297 4298 4299 4300 4301 4302 4303 4304 4305 4306 4307 4308 4309 4310 4311 4312 4313 4314 4315 4316 4317 4318 4319 4320 4321 4322 4323 4324 4325 4326 4327 4328 4329 4330 4331 4332 4333 4334 4335 4336 4337 4338 4339 4340 4341 4342 4343 4344 4345 4346 4347 4348 4349 4350 4351 4352 4353 4354 4355 4356 4357 4358 4359 4360 4361 4362 4363 4364 4365 4366 4367 4368 4369 4370 4371 4372 4373 4374 4375 4376 4377 4378 4379 4380 4381 4382 4383 4384 4385 4386 4387 4388 4389 4390 4391 4392 4393 4394 4395 4396 4397 4398 4399 4400 4401 4402 4403 4404 4405 4406 4407 4408 4409 4410 4411 4412 4413 4414 4415 4416 4417 4418 4419 4420 4421 4422 4423 4424 4425 4426 4427 4428 4429 4430 4431 4432 4433 4434 4435 4436 4437 4438 4439 4440 4441 4442 4443 4444 4445 4446 4447 4448 4449 4450 4451 4452 4453 4454 4455 4456 4457 4458 4459 4460 4461 4462 4463 4464 4465 4466 4467 4468 4469 4470 4471 4472 4473 4474 4475 4476 4477 4478 4479 4480 4481 4482 4483 4484 4485 4486 4487 4488 4489 4490 4491 4492 4493 4494 4495 4496 4497 4498 4499 4500 4501 4502 4503 4504 4505 4506 4507 4508 4509 4510 4511 4512 4513 4514 4515 4516 4517 4518 4519 4520 4521 4522 4523 4524 4525 4526 4527 4528 4529 4530 4531 4532 4533 4534 4535 4536 4537 4538 4539 4540 4541 4542 4543 4544 4545 4546 4547 4548 4549 4550 4551 4552 4553 4554 4555 4556 4557 4558 4559 4560 4561 4562 4563 4564 4565 4566 4567 4568 4569 4570 4571 4572 4573 4574 4575 4576 4577 4578 4579 4580 4581 4582 4583 4584 4585 4586 4587 4588 4589 4590 4591 4592 4593 4594 4595 4596 4597 4598 4599 4600 4601 4602 4603 4604 4605 4606 4607 4608 4609 4610 4611 4612 4613 4614 4615 4616 4617 4618 4619 4620 4621 4622 4623 4624 4625 4626 4627 4628 4629 4630 4631 4632 4633 4634 4635 4636 4637 4638 4639 4640 4641 4642 4643 4644 4645 4646 4647 4648 4649 4650 4651 4652 4653 4654 4655 4656 4657 4658 4659 4660 4661 4662 4663 4664 4665 4666 4667 4668 4669 4670 4671 4672 4673 4674 4675 4676 4677 4678 4679 4680 4681 4682 4683 4684 4685 4686 4687 4688 4689 4690 4691 4692 4693 4694 4695 4696 4697 4698 4699 4700 4701 4702 4703 4704 4705 4706 4707 4708 4709 4710 4711 4712 4713 4714 4715 4716 4717 4718 4719 4720 4721 4722 4723 4724 4725 4726 4727 4728 4729 4730 4731 4732 4733 4734 4735 4736 4737 4738 4739 4740 4741 4742 4743 4744 4745 4746 4747 4748 4749 4750 4751 4752 4753 4754 4755 4756 4757 4758 4759 4760 4761 4762 4763 4764 4765 4766 4767 4768 4769 4770 4771 4772 4773 4774 4775 4776 4777 4778 4779 4780 4781 4782 4783 4784 4785 4786 4787 4788 4789 4790 4791 4792 4793 4794 4795 4796 4797 4798 4799 4800 4801 4802 4803 4804 4805 4806 4807 4808 4809 4810 4811 4812 4813 4814 4815 4816 4817 4818 4819 4820 4821 4822 4823 4824 4825 4826 4827 4828 4829 4830 4831 4832 4833 4834 4835 4836 4837 4838 4839 4840 4841 4842 4843 4844 4845 4846 4847 4848 4849 4850 4851 4852 4853 4854 4855 4856 4857 4858 4859 4860 4861 4862 4863 4864 4865 4866 4867 4868 4869 4870 4871 4872 4873 4874 4875 4876 4877 4878 4879 4880 4881 4882 4883 4884 4885 4886 4887 4888 4889 4890 4891 4892 4893 4894 4895 4896 4897 4898 4899 4900 4901 4902 4903 4904 4905 4906 4907 4908 4909 4910 4911 4912 4913 4914 4915 4916 4917 4918 4919 4920 4921 4922 4923 4924 4925 4926 4927 4928 4929 4930 4931 4932 4933 4934 4935 4936 4937 4938 4939 4940 4941 4942 4943 4944 4945 4946 4947 4948 4949 4950 4951 4952 4953 4954 4955 4956 4957 4958 4959 4960 4961 4962 4963 4964 4965 4966 4967 4968 4969 4970 4971 4972 4973 4974 4975 4976 4977 4978 4979 4980 4981 4982 4983 4984 4985 4986 4987 4988 4989 4990 4991 4992 4993 4994 4995 4996 4997 4998 4999 5000 5001 5002 5003 5004 5005 5006 5007 5008 5009 5010 5011 5012 5013 5014 5015 5016 5017 5018 5019 5020 5021 5022 5023 5024 5025 5026 5027 5028 5029 5030 5031 5032 5033 5034 5035 5036 5037 5038 5039 5040 5041 5042 5043 5044 5045 5046 5047 5048 5049 5050 5051 5052 5053 5054 5055 5056 5057 5058 5059 5060 5061 5062 5063 5064 5065 5066 5067 5068 5069 5070 5071 5072 5073 5074 5075 5076 5077 5078 5079 5080 5081 5082 5083 5084 5085 5086 5087 5088 5089 5090 5091 5092 5093 5094 5095 5096 5097 5098 5099 5100 5101 5102 5103 5104 5105 5106 5107 5108 5109 5110 5111 5112 5113 5114 5115 5116 5117 5118 5119 5120 5121 5122 5123 5124 5125 5126 5127 5128 5129 5130 5131 5132 5133 5134 5135 5136 5137 5138 5139 5140 5141 5142 5143 5144 5145 5146 5147 5148 5149 5150 5151 5152 5153 5154 5155 5156 5157 5158 5159 5160 5161 5162 5163 5164 5165 5166 5167 5168 5169 5170 5171 5172 5173 5174 5175 5176 5177 5178 5179 5180 5181 5182 5183 5184 5185 5186 5187 5188 5189 5190 5191 5192 5193 5194 5195 5196 5197 5198 5199 5200 5201 5202 5203 5204 5205 5206 5207 5208 5209 5210 5211 5212 5213 5214 5215 5216 5217 5218 5219 5220 5221 5222 5223 5224 5225 5226 5227 5228 5229 5230 5231 5232 5233 5234 5235 5236 5237 5238 5239 5240 5241 5242 5243 5244 5245 5246 5247 5248 5249 5250 5251 5252 5253 5254 5255 5256 5257 5258 5259 5260 5261 5262 5263 5264 5265 5266 5267 5268 5269 5270 5271 5272 5273 5274 5275 5276 5277 5278 5279 5280 5281 5282 5283 5284 5285 5286 5287 5288 5289 5290 5291 5292 5293 5294 5295 5296 5297 5298 5299 5300 5301 5302 5303 5304 5305 5306 5307 5308 5309 5310 5311 5312 5313 5314 5315 5316 5317 5318 5319 5320 5321 5322 5323 5324 5325 5326 5327 5328 5329 5330 5331 5332 5333 5334 5335 5336 5337 5338 5339 5340 5341 5342 5343 5344 5345 5346 5347 5348 5349 5350 5351 5352 5353 5354 5355 5356 5357 5358 5359 5360 5361 5362 5363 5364 5365 5366 5367 5368 5369 5370 5371 5372 5373 5374 5375 5376 5377 5378 5379 5380 5381 5382 5383 5384 5385 5386 5387 5388 5389 5390 5391 5392 5393 5394 5395 5396 5397 5398 5399 5400 5401 5402 5403 5404 5405 5406 5407 5408 5409 5410 5411 5412 5413 5414 5415 5416 5417 5418 5419 5420 5421 5422 5423 5424 5425 5426 5427 5428 5429 5430 5431 5432 5433 5434 5435 5436 5437 5438 5439 5440 5441 5442 5443 5444 5445 5446 5447 5448 5449 5450 5451 5452 5453 5454 5455 5456 5457 5458 5459 5460 5461 5462 5463 5464 5465 5466 5467 5468 5469 5470 5471 5472 5473 5474 5475 5476 5477 5478 5479 5480 5481 5482 5483 5484 5485 5486 5487 5488 5489 5490 5491 5492 5493 5494 5495 5496 5497 5498 5499 5500 5501 5502 5503 5504 5505 5506 5507 5508 5509 5510 5511 5512 5513 5514 5515 5516 5517 5518 5519 5520 5521 5522 5523 5524 5525 5526 5527 5528 5529 5530 5531 5532 5533 5534 5535 5536 5537 5538 5539 5540 5541 5542 5543 5544 5545 5546 5547 5548 5549 5550 5551 5552 5553 5554 5555 5556 5557 5558 5559 5560 5561 5562 5563 5564 5565 5566 5567 5568 5569 5570 5571 5572 5573 5574 5575 5576 5577 5578 5579 5580 5581 5582 5583 5584 5585 5586 5587 5588 5589 5590 5591 5592 5593 5594 5595 5596 5597 5598 5599 5600 5601 5602 5603 5604 5605 5606 5607 5608 5609 5610 5611 5612 5613 5614 5615 5616 5617 5618 5619 5620 5621 5622 5623 5624 5625 5626 5627 5628 5629 5630 5631 5632 5633 5634 5635 5636 5637 5638 5639 5640 5641 5642 5643 5644 5645 5646 5647 5648 5649 5650 5651 5652 5653 5654 5655 5656 5657 5658 5659 5660 5661 5662 5663 5664 5665 5666 5667 5668 5669 5670 5671 5672 5673 5674 5675 5676 5677 5678 5679 5680 5681 5682 5683 5684 5685 5686 5687 5688 5689 5690 5691 5692 5693 5694 5695 5696 5697 5698 5699 5700 5701 5702 5703 5704 5705 5706 5707 5708 5709 5710 5711 5712 5713 5714 5715 5716 5717 5718 5719 5720 5721 5722 5723 5724 5725 5726 5727 5728 5729 5730 5731 5732 5733 5734 5735 5736 5737 5738 5739 5740 5741 5742 5743 5744 5745 5746 5747 5748 5749 5750 5751 5752 5753 5754 5755 5756 5757 5758 5759 5760 5761 5762 5763 5764 5765 5766 5767 5768 5769 5770 5771 5772 5773 5774 5775 5776 5777 5778 5779 5780 5781 5782 5783 5784 5785 5786 5787 5788 5789 5790 5791 5792 5793 5794 5795 5796 5797 5798 5799 5800 5801 5802 5803 5804 5805 5806 5807 5808 5809 5810 5811 5812 5813 5814 5815 5816 5817 5818 5819 5820 5821 5822 5823 5824 5825 5826 5827 5828 5829 5830 5831 5832 5833 5834 5835 5836 5837 5838 5839 5840 5841 5842 5843 5844 5845 5846 5847 5848 5849 5850 5851 5852 5853 5854 5855 5856 5857 5858 5859 5860 5861 5862 5863 5864 5865 5866 5867 5868 5869 5870 5871 5872 5873 5874 5875 5876 5877 5878 5879 5880 5881 5882 5883 5884 5885 5886 5887 5888 5889 5890 5891 5892 5893 5894 5895 5896 5897 5898 5899 5900 5901 5902 5903 5904 5905 5906 5907 5908 5909 5910 5911 5912 5913 5914 5915 5916 5917 5918 5919 5920 5921 5922 5923 5924 5925 5926 5927 5928 5929 5930 5931 5932 5933 5934 5935 5936 5937 5938 5939 5940 5941 5942 5943 5944 5945 5946 5947 5948 5949 5950 5951 5952 5953 5954 5955 5956 5957 5958 5959 5960 5961 5962 5963 5964 5965 5966 5967 5968 5969 5970 5971 5972 5973 5974 5975 5976 5977 5978 5979 5980 5981 5982 5983 5984 5985 5986 5987 5988 5989 5990 5991 5992 5993 5994 5995 5996 5997 5998 5999 6000 6001 6002 6003 6004 6005 6006 6007 6008 6009 6010 6011 6012 6013 6014 6015 6016 6017 6018 6019 6020 6021 6022 6023 6024 6025 6026 6027 6028 6029 6030 6031 6032 6033 6034 6035 6036 6037 6038 6039 6040 6041 6042 6043 6044 6045 6046 6047 6048 6049 6050 6051 6052 6053 6054 6055 6056 6057 6058 6059 6060 6061 6062 6063 6064 6065 6066 6067 6068 6069 6070 6071 6072 6073 6074 6075 6076 6077 6078 6079 6080 6081 6082 6083 6084 6085 6086 6087 6088 6089 6090 6091 6092 6093 6094 6095 6096 6097 6098 6099 6100 6101 6102 6103 6104 6105 6106 6107 6108 6109 6110 6111 6112 6113 6114 6115 6116 6117 6118 6119 6120 6121 6122 6123 6124 6125 6126 6127 6128 6129 6130 6131 6132 6133 6134 6135 6136 6137 6138 6139 6140 6141 6142 6143 6144 6145 6146 6147 6148 6149 6150 6151 6152 6153 6154 6155 6156 6157 6158 6159 6160 6161 6162 6163 6164 6165 6166 6167 6168 6169 6170 6171 6172 6173 6174 6175 6176 6177 6178 6179 6180 6181 6182 6183 6184 6185 6186 6187 6188 6189 6190 6191 6192 6193 6194 6195 6196 6197 6198 6199 6200 6201 6202 6203 6204 6205 6206 6207 6208 6209 6210 6211 6212 6213 6214 6215 6216 6217 6218 6219 6220 6221 6222 6223 6224 6225 6226 6227 6228 6229 6230 6231 6232 6233 6234 6235 6236 6237 6238 6239 6240 6241 6242 6243 6244 6245 6246 6247 6248 6249 6250 6251 6252 6253 6254 6255 6256 6257 6258 6259 6260 6261 6262 6263 6264 6265 6266 6267 6268 6269 6270 6271 6272 6273 6274 6275 6276 6277 6278 6279 6280 6281 6282 6283 6284 6285 6286 6287 6288 6289 6290 6291 6292 6293 6294 6295 6296 6297 6298 6299 6300 6301 6302 6303 6304 6305 6306 6307 6308 6309 6310 6311 6312 6313 6314 6315 6316 6317 6318 6319 6320 6321 6322 6323 6324 6325 6326 6327 6328 6329 6330 6331 6332 6333 6334 6335 6336 6337 6338 6339 6340 6341 6342 6343 6344 6345 6346 6347 6348 6349 6350 6351 6352 6353 6354 6355 6356 6357 6358 6359 6360 6361 6362 6363 6364 6365 6366 6367 6368 6369 6370 6371 6372 6373 6374 6375 6376 6377 6378 6379 6380 6381 6382 6383 6384 6385 6386 6387 6388 6389 6390 6391 6392 6393 6394 6395 6396 6397 6398 6399 6400 6401 6402 6403 6404 6405 6406 6407 6408 6409 6410 6411 6412 6413 6414 6415 6416 6417 6418 6419 6420 6421 6422 6423 6424 6425 6426 6427 6428 6429 6430 6431 6432 6433 6434 6435 6436 6437 6438 6439 6440 6441 6442 6443 6444 6445 6446 6447 6448 6449 6450 6451 6452 6453 6454 6455 6456 6457 6458 6459 6460 6461 6462 6463 6464 6465 6466 6467 6468 6469 6470 6471 6472 6473 6474 6475 6476 6477 6478 6479 6480 6481 6482 6483 6484 6485 6486 6487 6488 6489 6490 6491 6492 6493 6494 6495 6496 6497 6498 6499 6500 6501 6502 6503 6504 6505 6506 6507 6508 6509 6510 6511 6512 6513 6514 6515 6516 6517 6518 6519 6520 6521 6522 6523 6524 6525 6526 6527 6528 6529 6530 6531 6532 6533 6534 6535 6536 6537 6538 6539 6540 6541 6542 6543 6544 6545 6546 6547 6548 6549 6550 6551 6552 6553 6554 6555 6556 6557 6558 6559 6560 6561 6562 6563 6564 6565 6566 6567 6568 6569 6570 6571 6572 6573 6574 6575 6576 6577 6578 6579 6580 6581 6582 6583 6584 6585 6586 6587 6588 6589 6590 6591 6592 6593 6594 6595 6596 6597 6598 6599 6600 6601 6602 6603 6604 6605 6606 6607 6608 6609 6610 6611 6612 6613 6614 6615 6616 6617 6618 6619 6620 6621 6622 6623 6624 6625 6626 6627 6628 6629 6630 6631 6632 6633 6634 6635 6636 6637 6638 6639 6640 6641 6642 6643 6644 6645 6646 6647 6648 6649 6650 6651 6652 6653 6654 6655 6656 6657 6658 6659 6660 6661 6662 6663 6664 6665 6666 6667 6668 6669 6670 6671 6672 6673 6674 6675 6676 6677 6678 6679 6680 6681 6682 6683 6684 6685 6686 6687 6688 6689 6690 6691 6692 6693 6694 6695 6696 6697 6698 6699 6700 6701 6702 6703 6704 6705 6706 6707 6708 6709 6710 6711 6712 6713 6714 6715 6716 6717 6718 6719 6720 6721 6722 6723 6724 6725 6726 6727 6728 6729 6730 6731 6732 6733 6734 6735 6736 6737 6738 6739 6740 6741 6742 6743 6744 6745 6746 6747 6748 6749 6750 6751 6752 6753 6754 6755 6756 6757 6758 6759 6760 6761 6762 6763 6764 6765 6766 6767 6768 6769 6770 6771 6772 6773 6774 6775 6776 6777 6778 6779 6780 6781 6782 6783 6784 6785 6786 6787 6788 6789 6790 6791 6792 6793 6794 6795 6796 6797 6798 6799 6800 6801 6802 6803 6804 6805 6806 6807 6808 6809 6810 6811 6812 6813 6814 6815 6816 6817 6818 6819 6820 6821 6822 6823 6824 6825 6826 6827 6828 6829 6830 6831 6832 6833 6834 6835 6836 6837 6838 6839 6840 6841 6842 6843 6844 6845 6846 6847 6848 6849 6850 6851 6852 6853 6854 6855 6856 6857 6858 6859 6860 6861 6862 6863 6864 6865 6866 6867 6868 6869 6870 6871 6872 6873 6874 6875 6876 6877 6878 6879 6880 6881 6882 6883 6884 6885 6886 6887 6888 6889 6890 6891 6892 6893 6894 6895 6896 6897 6898 6899 6900 6901 6902 6903 6904 6905 6906 6907 6908 6909 6910 6911 6912 6913 6914 6915 6916 6917 6918 6919 6920 6921 6922 6923 6924 6925 6926 6927 6928 6929 6930 6931 6932 6933 6934 6935 6936 6937 6938 6939 6940 6941 6942 6943 6944 6945 6946 6947 6948 6949 6950 6951 6952 6953 6954 6955 6956 6957 6958 6959 6960 6961 6962 6963 6964 6965 6966 6967 6968 6969 6970 6971 6972 6973 6974 6975 6976 6977 6978 6979 6980 6981 6982 6983 6984 6985 6986 6987 6988 6989 6990 6991 6992 6993 6994 6995 6996 6997 6998 6999 7000 7001 7002 7003 7004 7005 7006 7007 7008 7009 7010 7011 7012 7013 7014 7015 7016 7017 7018 7019 7020 7021 7022 7023 7024 7025 7026 7027 7028 7029 7030 7031 7032 7033 7034 7035 7036 7037 7038 7039 7040 7041 7042 7043 7044 7045 7046 7047 7048 7049 7050 7051 7052 7053 7054 7055 7056 7057 7058 7059 7060 7061 7062 7063 7064 7065 7066 7067 7068 7069 7070 7071 7072 7073 7074 7075 7076 7077 7078 7079 7080 7081 7082 7083 7084 7085 7086 7087 7088 7089 7090 7091 7092 7093 7094 7095 7096 7097 7098 7099 7100 7101 7102 7103 7104 7105 7106 7107 7108 7109 7110 7111 7112 7113 7114 7115 7116 7117 7118 7119 7120 7121 7122 7123 7124 7125 7126 7127 7128 7129 7130 7131 7132 7133 7134 7135 7136 7137 7138 7139 7140 7141 7142 7143 7144 7145 7146 7147 7148 7149 7150 7151 7152 7153 7154 7155 7156 7157 7158 7159 7160 7161 7162 7163 7164 7165 7166 7167 7168 7169 7170 7171 7172 7173 7174 7175 7176 7177 7178 7179 7180 7181 7182 7183 7184 7185 7186 7187 7188 7189 7190 7191 7192 7193 7194 7195 7196 7197 7198 7199 7200 7201 7202 7203 7204 7205 7206 7207 7208 7209 7210 7211 7212 7213 7214 7215 7216 7217 7218 7219 7220 7221 7222 7223 7224 7225 7226 7227 7228 7229 7230 7231 7232 7233 7234 7235 7236 7237 7238 7239 7240 7241 7242 7243 7244 7245 7246 7247 7248 7249 7250 7251 7252 7253 7254 7255 7256 7257 7258 7259 7260 7261 7262 7263 7264 7265 7266 7267 7268 7269 7270 7271 7272 7273 7274 7275 7276 7277 7278 7279 7280 7281 7282 7283 7284 7285 7286 7287 7288 7289 7290 7291 7292 7293 7294 7295 7296 7297 7298 7299 7300 7301 7302 7303 7304 7305 7306 7307 7308 7309 7310 7311 7312 7313 7314 7315 7316 7317 7318 7319 7320 7321 7322 7323 7324 7325 7326 7327 7328 7329 7330 7331 7332 7333 7334 7335 7336 7337 7338 7339 7340 7341 7342 7343 7344 7345 7346 7347 7348 7349 7350 7351 7352 7353 7354 7355 7356 7357 7358 7359 7360 7361 7362 7363 7364 7365 7366 7367 7368 7369 7370 7371 7372 7373 7374 7375 7376 7377 7378 7379 7380 7381 7382 7383 7384 7385 7386 7387 7388 7389 7390 7391 7392 7393 7394 7395 7396 7397 7398 7399 7400 7401 7402 7403 7404 7405 7406 7407 7408 7409 7410 7411 7412 7413 7414 7415 7416 7417 7418 7419 7420 7421 7422 7423 7424 7425 7426 7427 7428 7429 7430 7431 7432 7433 7434 7435 7436 7437 7438 7439 7440 7441 7442 7443 7444 7445 7446 7447 7448 7449 7450 7451 7452 7453 7454 7455 7456 7457 7458 7459 7460 7461 7462 7463 7464 7465 7466 7467 7468 7469 7470 7471 7472 7473 7474 7475 7476 7477 7478 7479 7480 7481 7482 7483 7484 7485 7486 7487 7488 7489 7490 7491 7492 7493 7494 7495 7496 7497 7498 7499 7500 7501 7502 7503 7504 7505 7506 7507 7508 7509 7510 7511 7512 7513 7514 7515 7516 7517 7518 7519 7520 7521 7522 7523 7524 7525 7526 7527 7528 7529 7530 7531 7532 7533 7534 7535 7536 7537 7538 7539 7540 7541 7542 7543 7544 7545 7546 7547 7548 7549 7550 7551 7552 7553 7554 7555 7556 7557 7558 7559 7560 7561 7562 7563 7564 7565 7566 7567 7568 7569 7570 7571 7572 7573 7574 7575 7576 7577 7578 7579 7580 7581 7582 7583 7584 7585 7586 7587 7588 7589 7590 7591 7592 7593 7594 7595 7596 7597 7598 7599 7600 7601 7602 7603 7604 7605 7606 7607 7608 7609 7610 7611 7612 7613 7614 7615 7616 7617 7618 7619 7620 7621 7622 7623 7624 7625 7626 7627 7628 7629 7630 7631 7632 7633 7634 7635 7636 7637 7638 7639 7640 7641 7642 7643 7644 7645 7646 7647 7648 7649 7650 7651 7652 7653 7654 7655 7656 7657 7658 7659 7660 7661 7662 7663 7664 7665 7666 7667 7668 7669 7670 7671 7672 7673 7674 7675 7676 7677 7678 7679 7680 7681 7682 7683 7684 7685 7686 7687 7688 7689 7690 7691 7692 7693 7694 7695 7696 7697 7698 7699 7700 7701 7702 7703 7704 7705 7706 7707 7708 7709 7710 7711 7712 7713 7714 7715 7716 7717 7718 7719 7720 7721 7722 7723 7724 7725 7726 7727 7728 7729 7730 7731 7732 7733 7734 7735 7736 7737 7738 7739 7740 7741 7742 7743 7744 7745 7746 7747 7748 7749 7750 7751 7752 7753 7754 7755 7756 7757 7758 7759 7760 7761 7762 7763 7764 7765 7766 7767 7768 7769 7770 7771 7772 7773 7774 7775 7776 7777 7778 7779 7780 7781 7782 7783 7784 7785 7786 7787 7788 7789 7790 7791 7792 7793 7794 7795 7796 7797 7798 7799 7800 7801 7802 7803 7804 7805 7806 7807 7808 7809 7810 7811 7812 7813 7814 7815 7816 7817 7818 7819 7820 7821 7822 7823 7824 7825 7826 7827 7828 7829 7830 7831 7832 7833 7834 7835 7836 7837 7838 7839 7840 7841 7842 7843 7844 7845 7846 7847 7848 7849 7850 7851 7852 7853 7854 7855 7856 7857 7858 7859 7860 7861 7862 7863 7864 7865 7866 7867 7868 7869 7870 7871 7872 7873 7874 7875 7876 7877 7878 7879 7880 7881 7882 7883 7884 7885 7886 7887 7888 7889 7890 7891 7892 7893 7894 7895 7896 7897 7898 7899 7900 7901 7902 7903 7904 7905 7906 7907 7908 7909 7910 7911 7912 7913 7914 7915 7916 7917 7918 7919 7920 7921 7922 7923 7924 7925 7926 7927 7928 7929 7930 7931 7932 7933 7934 7935 7936 7937 7938 7939 7940 7941 7942 7943 7944 7945 7946 7947 7948 7949 7950 7951 7952 7953 7954 7955 7956 7957 7958 7959 7960 7961 7962 7963 7964 7965 7966 7967 7968 7969 7970 7971 7972 7973 7974 7975 7976 7977 7978 7979 7980 7981 7982 7983 7984 7985 7986 7987 7988 7989 7990 7991 7992 7993 7994 7995 7996 7997 7998 7999 8000 8001 8002 8003 8004 8005 8006 8007 8008 8009 8010 8011 8012 8013 8014 8015 8016 8017 8018 8019 8020 8021 8022 8023 8024 8025 8026 8027 8028 8029 8030 8031 8032 8033 8034 8035 8036 8037 8038 8039 8040 8041 8042 8043 8044 8045 8046 8047 8048 8049 8050 8051 8052 8053 8054 8055 8056 8057 8058 8059 8060 8061 8062 8063 8064 8065 8066 8067 8068 8069 8070 8071 8072 8073 8074 8075 8076 8077 8078 8079 8080 8081 8082 8083 8084 8085 8086 8087 8088 8089 8090 8091 8092 8093 8094 8095 8096 8097 8098 8099 8100 8101 8102 8103 8104 8105 8106 8107 8108 8109 8110 8111 8112 8113 8114 8115 8116 8117 8118 8119 8120 8121 8122 8123 8124 8125 8126 8127 8128 8129 8130 8131 8132 8133 8134 8135 8136 8137 8138 8139 8140 8141 8142 8143 8144 8145 8146 8147 8148 8149 8150 8151 8152 8153 8154 8155 8156 8157 8158 8159 8160 8161 8162 8163 8164 8165 8166 8167 8168 8169 8170 8171 8172 8173 8174 8175 8176 8177 8178 8179 8180 8181 8182 8183 8184 8185 8186 8187 8188 8189 8190 8191 8192 8193 8194 8195 8196 8197 8198 8199 8200 8201 8202 8203 8204 8205 8206 8207 8208 8209 8210 8211 8212 8213 8214 8215 8216 8217 8218 8219 8220 8221 8222 8223 8224 8225 8226 8227 8228 8229 8230 8231 8232 8233 8234 8235 8236 8237 8238 8239 8240 8241 8242 8243 8244 8245 8246 8247 8248 8249 8250 8251 8252 8253 8254 8255 8256 8257 8258 8259 8260 8261 8262 8263 8264 8265 8266 8267 8268 8269 8270 8271 8272 8273 8274 8275 8276 8277 8278 8279 8280 8281 8282 8283 8284 8285 8286 8287 8288 8289 8290 8291 8292 8293 8294 8295 8296 8297 8298 8299 8300 8301 8302 8303 8304 8305 8306 8307 8308 8309 8310 8311 8312 8313 8314 8315 8316 8317 8318 8319 8320 8321 8322 8323 8324 8325 8326 8327 8328 8329 8330 8331 8332 8333 8334 8335 8336 8337 8338 8339 8340 8341 8342 8343 8344 8345 8346 8347 8348 8349 8350 8351 8352 8353 8354 8355 8356 8357 8358 8359 8360 8361 8362 8363 8364 8365 8366 8367 8368 8369 8370 8371 8372 8373 8374 8375 8376 8377 8378 8379 8380 8381 8382 8383 8384 8385 8386 8387 8388 8389 8390 8391 8392 8393 8394 8395 8396 8397 8398 8399 8400 8401 8402 8403 8404 8405 8406 8407 8408 8409 8410 8411 8412 8413 8414 8415 8416 8417 8418 8419 8420 8421 8422 8423 8424 8425 8426 8427 8428 8429 8430 8431 8432 8433 8434 8435 8436 8437 8438 8439 8440 8441 8442 8443 8444 8445 8446 8447 8448 8449 8450 8451 8452 8453 8454 8455 8456 8457 8458 8459 8460 8461 8462 8463 8464 8465 8466 8467 8468 8469 8470 8471 8472 8473 8474 8475 8476 8477 8478 8479 8480 8481 8482 8483 8484 8485 8486 8487 8488 8489 8490 8491 8492 8493 8494 8495 8496 8497 8498 8499 8500 8501 8502 8503 8504 8505 8506 8507 8508 8509 8510 8511 8512 8513 8514 8515 8516 8517 8518 8519 8520 8521 8522 8523 8524 8525 8526 8527 8528 8529 8530 8531 8532 8533 8534 8535 8536 8537 8538 8539 8540 8541 8542 8543 8544 8545 8546 8547 8548 8549 8550 8551 8552 8553 8554 8555 8556 8557 8558 8559 8560 8561 8562 8563 8564 8565 8566 8567 8568 8569 8570 8571 8572 8573 8574 8575 8576 8577 8578 8579 8580 8581 8582 8583 8584 8585 8586 8587 8588 8589 8590 8591 8592 8593 8594 8595 8596 8597 8598 8599 8600 8601 8602 8603 8604 8605 8606 8607 8608 8609 8610 8611 8612 8613 8614 8615 8616 8617 8618 8619 8620 8621 8622 8623 8624 8625 8626 8627 8628 8629 8630 8631 8632 8633 8634 8635 8636 8637 8638 8639 8640 8641 8642 8643 8644 8645 8646 8647 8648 8649 8650 8651 8652 8653 8654 8655 8656 8657 8658 8659 8660 8661 8662 8663 8664 8665 8666 8667 8668 8669 8670 8671 8672 8673 8674 8675 8676 8677 8678 8679 8680 8681 8682 8683 8684 8685 8686 8687 8688 8689 8690 8691 8692 8693 8694 8695 8696 8697 8698 8699 8700 8701 8702 8703 8704 8705 8706 8707 8708 8709 8710 8711 8712 8713 8714 8715 8716 8717 8718 8719 8720 8721 8722 8723 8724 8725 8726 8727 8728 8729 8730 8731 8732 8733 8734 8735 8736 8737 8738 8739 8740 8741 8742 8743 8744 8745 8746 8747 8748 8749 8750 8751 8752 8753 8754 8755 8756 8757 8758 8759 8760 8761 8762 8763 8764 8765 8766 8767 8768 8769 8770 8771 8772 8773 8774 8775 8776 8777 8778 8779 8780 8781 8782 8783 8784 8785 8786 8787 8788 8789 8790 8791 8792 8793 8794 8795 8796 8797 8798 8799 8800 8801 8802 8803 8804 8805 8806 8807 8808 8809 8810 8811 8812 8813 8814 8815 8816 8817 8818 8819 8820 8821 8822 8823 8824 8825 8826 8827 8828 8829 8830 8831 8832 8833 8834 8835 8836 8837 8838 8839 8840 8841 8842 8843 8844 8845 8846 8847 8848 8849 8850 8851 8852 8853 8854 8855 8856 8857 8858 8859 8860 8861 8862 8863 8864 8865 8866 8867 8868 8869 8870 8871 8872 8873 8874 8875 8876 8877 8878 8879 8880 8881 8882 8883 8884 8885 8886 8887 8888 8889 8890 8891 8892 8893 8894 8895 8896 8897 8898 8899 8900 8901 8902 8903 8904 8905 8906 8907 8908 8909 8910 8911 8912 8913 8914 8915 8916 8917 8918 8919 8920 8921 8922 8923 8924 8925 8926 8927 8928 8929 8930 8931 8932 8933 8934 8935 8936 8937 8938 8939 8940 8941 8942 8943 8944 8945 8946 8947 8948 8949 8950 8951 8952 8953 8954 8955 8956 8957 8958 8959 8960 8961 8962 8963 8964 8965 8966 8967 8968 8969 8970 8971 8972 8973 8974 8975 8976 8977 8978 8979 8980 8981 8982 8983 8984 8985 8986 8987 8988 8989 8990 8991 8992 8993 8994 8995 8996 8997 8998 8999 9000 9001 9002 9003 9004 9005 9006 9007 9008 9009 9010 9011 9012 9013 9014 9015 9016 9017 9018 9019 9020 9021 9022 9023 9024 9025 9026 9027 9028 9029 9030 9031 9032 9033 9034 9035 9036 9037 9038 9039 9040 9041 9042 9043 9044 9045 9046 9047 9048 9049 9050 9051 9052 9053 9054 9055 9056 9057 9058 9059 9060 9061 9062 9063 9064 9065 9066 9067 9068 9069 9070 9071 9072 9073 9074 9075 9076 9077 9078 9079 9080 9081 9082 9083 9084 9085 9086 9087 9088 9089 9090 9091 9092 9093 9094 9095 9096 9097 9098 9099 9100 9101 9102 9103 9104 9105 9106 9107 9108 9109 9110 9111 9112 9113 9114 9115 9116 9117 9118 9119 9120 9121 9122 9123 9124 9125 9126 9127 9128 9129 9130 9131 9132 9133 9134 9135 9136 9137 9138 9139 9140 9141 9142 9143 9144 9145 9146 9147 9148 9149 9150 9151 9152 9153 9154 9155 9156 9157 9158 9159 9160 9161 9162 9163 9164 9165 9166 9167 9168 9169 9170 9171 9172 9173 9174 9175 9176 9177 9178 9179 9180 9181 9182 9183 9184 9185 9186 9187 9188 9189 9190 9191 9192 9193 9194 9195 9196 9197 9198 9199 9200 9201 9202 9203 9204 9205 9206 9207 9208 9209 9210 9211 9212 9213 9214 9215 9216 9217 9218 9219 9220 9221 9222 9223 9224 9225 9226 9227 9228 9229 9230 9231 9232 9233 9234 9235 9236 9237 9238 9239 9240 9241 9242 9243 9244 9245 9246 9247 9248 9249 9250 9251 9252 9253 9254 9255 9256 9257 9258 9259 9260 9261 9262 9263 9264 9265 9266 9267 9268 9269 9270 9271 9272 9273 9274 9275 9276 9277 9278 9279 9280 9281 9282 9283 9284 9285 9286 9287 9288 9289 9290 9291 9292 9293 9294 9295 9296 9297 9298 9299 9300 9301 9302 9303 9304 9305 9306 9307 9308 9309 9310 9311 9312 9313 9314 9315 9316 9317 9318 9319 9320 9321 9322 9323 9324 9325 9326 9327 9328 9329 9330 9331 9332 9333 9334 9335 9336 9337 9338 9339 9340 9341 9342 9343 9344 9345 9346 9347 9348 9349 9350 9351 9352 9353 9354 9355 9356 9357 9358 9359 9360 9361 9362 9363 9364 9365 9366 9367 9368 9369 9370 9371 9372 9373 9374 9375 9376 9377 9378 9379 9380 9381 9382 9383 9384 9385 9386 9387 9388 9389 9390 9391 9392 9393 9394 9395 9396 9397 9398 9399 9400 9401 9402 9403 9404 9405 9406 9407 9408 9409 9410 9411 9412 9413 9414 9415 9416 9417 9418 9419 9420 9421 9422 9423 9424 9425 9426 9427 9428 9429 9430 9431 9432 9433 9434 9435 9436 9437 9438 9439 9440 9441 9442 9443 9444 9445 9446 9447 9448 9449 9450 9451 9452 9453 9454 9455 9456 9457 9458 9459 9460 9461 9462 9463 9464 9465 9466 9467 9468 9469 9470 9471 9472 9473 9474 9475 9476 9477 9478 9479 9480 9481 9482 9483 9484 9485 9486 9487 9488 9489 9490 9491 9492 9493 9494 9495 9496 9497 9498 9499 9500 9501 9502 9503 9504 9505 9506 9507 9508 9509 9510 9511 9512 9513 9514 9515 9516 9517 9518 9519 9520 9521 9522 9523 9524 9525 9526 9527 9528 9529 9530 9531 9532 9533 9534 9535 9536 9537 9538 9539 9540 9541 9542 9543 9544 9545 9546 9547 9548 9549 9550 9551 9552 9553 9554 9555 9556 9557 9558 9559 9560 9561 9562 9563 9564 9565 9566 9567 9568 9569 9570 9571 9572 9573 9574 9575 9576 9577 9578 9579 9580 9581 9582 9583 9584 9585 9586 9587 9588 9589 9590 9591 9592 9593 9594 9595 9596 9597 9598 9599 9600 9601 9602 9603 9604 9605 9606 9607 9608 9609 9610 9611 9612 9613 9614 9615 9616 9617 9618 9619 9620 9621 9622 9623 9624 9625 9626 9627 9628 9629 9630 9631 9632 9633 9634 9635 9636 9637 9638 9639 9640 9641 9642 9643 9644 9645 9646 9647 9648 9649 9650 9651 9652 9653 9654 9655 9656 9657 9658 9659 9660 9661 9662 9663 9664 9665 9666 9667 9668 9669 9670 9671 9672 9673 9674 9675 9676 9677 9678 9679 9680 9681 9682 9683 9684 9685 9686 9687 9688 9689 9690 9691 9692 9693 9694 9695 9696 9697 9698 9699 9700 9701 9702 9703 9704 9705 9706 9707 9708 9709 9710 9711 9712 9713 9714 9715 9716 9717 9718 9719 9720 9721 9722 9723 9724 9725 9726 9727 9728 9729 9730 9731 9732 9733 9734 9735 9736 9737 9738 9739 9740 9741 9742 9743 9744 9745 9746 9747 9748 9749 9750 9751 9752 9753 9754 9755 9756 9757 9758 9759 9760 9761 9762 9763 9764 9765 9766 9767 9768 9769 9770 9771 9772 9773 9774 9775 9776 9777 9778 9779 9780 9781 9782 9783 9784 9785 9786 9787 9788 9789 9790 9791 9792 9793 9794 9795 9796 9797 9798 9799 9800 9801 9802 9803 9804 9805 9806 9807 9808 9809 9810 9811 9812 9813 9814 9815 9816 9817 9818 9819 9820 9821 9822 9823 9824 9825 9826 9827 9828 9829 9830 9831 9832 9833 9834 9835 9836 9837 9838 9839 9840 9841 9842 9843 9844 9845 9846 9847 9848 9849 9850 9851 9852 9853 9854 9855 9856 9857 9858 9859 9860 9861 9862 9863 9864 9865 9866 9867 9868 9869 9870 9871 9872 9873 9874 9875 9876 9877 9878 9879 9880 9881 9882 9883 9884 9885 9886 9887 9888 9889 9890 9891 9892 9893 9894 9895 9896 9897 9898 9899 9900 9901 9902 9903 9904 9905 9906 9907 9908 9909 9910 9911 9912 9913 9914 9915 9916 9917 9918 9919 9920 9921 9922 9923 9924 9925 9926 9927 9928 9929 9930 9931 9932 9933 9934 9935 9936 9937 9938 9939 9940 9941 9942 9943 9944 9945 9946 9947 9948 9949 9950 9951 9952 9953 9954 9955 9956 9957 9958 9959 9960 9961 9962 9963 9964 9965 9966 9967 9968 9969 9970 9971 9972 9973 9974 9975 9976 9977 9978 9979 9980 9981 9982 9983 9984 9985 9986 9987 9988 9989 9990 9991 9992 9993 9994 9995 9996 9997 9998 9999 10000 10001 10002 10003 10004 10005 10006 10007 10008 10009 10010 10011 10012 10013 10014 10015 10016 10017 10018 10019 10020 10021 10022 10023 10024 10025 10026 10027 10028 10029 10030 10031 10032 10033 10034 10035 10036 10037 10038 10039 10040 10041 10042 10043 10044 10045 10046 10047 10048 10049 10050 10051 10052 10053 10054 10055 10056 10057 10058 10059 10060 10061 10062 10063 10064 10065 10066 10067 10068 10069 10070 10071 10072 10073 10074 10075 10076 10077 10078 10079 10080 10081 10082 10083 10084 10085 10086 10087 10088 10089 10090 10091 10092 10093 10094 10095 10096 10097 10098 10099 10100 10101 10102 10103 10104 10105 10106 10107 10108 10109 10110 10111 10112 10113 10114 10115 10116 10117 10118 10119 10120 10121 10122 10123 10124 10125 10126 10127 10128 10129 10130 10131 10132 10133 10134 10135 10136 10137 10138 10139 10140 10141 10142 10143 10144 10145 10146 10147 10148 10149 10150 10151 10152 10153 10154 10155 10156 10157 10158 10159 10160 10161 10162 10163 10164 10165 10166 10167 10168 10169 10170 10171 10172 10173 10174 10175 10176 10177 10178 10179 10180 10181 10182 10183 10184 10185 10186 10187 10188 10189 10190 10191 10192 10193 10194 10195 10196 10197 10198 10199 10200 10201 10202 10203 10204 10205 10206 10207 10208 10209 10210 10211 10212 10213 10214 10215 10216 10217 10218 10219 10220 10221 10222 10223 10224 10225 10226 10227 10228 10229 10230 10231 10232 10233 10234 10235 10236 10237 10238 10239 10240 10241 10242 10243 10244 10245 10246 10247 10248 10249 10250 10251 10252 10253 10254 10255 10256 10257 10258 10259 10260 10261 10262 10263 10264 10265 10266 10267 10268 10269 10270 10271 10272 10273 10274 10275 10276 10277 10278 10279 10280 10281 10282 10283 10284 10285 10286 10287 10288 10289 10290 10291 10292 10293 10294 10295 10296 10297 10298 10299 10300 10301 10302 10303 10304 10305 10306 10307 10308 10309 10310 10311 10312 10313 10314 10315 10316 10317 10318 10319 10320 10321 10322 10323 10324 10325 10326 10327 10328 10329 10330 10331 10332 10333 10334 10335 10336 10337 10338 10339 10340 10341 10342 10343 10344 10345 10346 10347 10348 10349 10350 10351 10352 10353 10354 10355 10356 10357 10358 10359 10360 10361 10362 10363 10364 10365 10366 10367 10368 10369 10370 10371 10372 10373 10374 10375 10376 10377 10378 10379 10380 10381 10382 10383 10384 10385 10386 10387 10388 10389 10390 10391 10392 10393 10394 10395 10396 10397 10398 10399 10400 10401 10402 10403 10404 10405 10406 10407 10408 10409 10410 10411 10412 10413 10414 10415 10416 10417 10418 10419 10420 10421 10422 10423 10424 10425 10426 10427 10428 10429 10430 10431 10432 10433 10434 10435 10436 10437 10438 10439 10440 10441 10442 10443 10444 10445 10446 10447 10448 10449 10450 10451 10452 10453 10454 10455 10456 10457 10458 10459 10460 10461 10462 10463 10464 10465 10466 10467 10468 10469 10470 10471 10472 10473 10474 10475 10476 10477 10478 10479 10480 10481 10482 10483 10484 10485 10486 10487 10488 10489 10490 10491 10492 10493 10494 10495 10496 10497 10498 10499 10500 10501 10502 10503 10504 10505 10506 10507 10508 10509 10510 10511 10512 10513 10514 10515 10516 10517 10518 10519 10520 10521 10522 10523 10524 10525 10526 10527 10528 10529 10530 10531 10532 10533 10534 10535 10536 10537 10538 10539 10540 10541 10542 10543 10544 10545 10546 10547 10548 10549 10550 10551 10552 10553 10554 10555 10556 10557 10558 10559 10560 10561 10562 10563 10564 10565 10566 10567 10568 10569 10570 10571 10572 10573 10574 10575 10576 10577 10578 10579 10580 10581 10582 10583 10584 10585 10586 10587 10588 10589 10590 10591 10592 10593 10594 10595 10596 10597 10598 10599 10600 10601 10602 10603 10604 10605 10606 10607 10608 10609 10610 10611 10612 10613 10614 10615 10616 10617 10618 10619 10620 10621 10622 10623 10624 10625 10626 10627 10628 10629 10630 10631 10632 10633 10634 10635 10636 10637 10638 10639 10640 10641 10642 10643 10644 10645 10646 10647 10648 10649 10650 10651 10652 10653 10654 10655 10656 10657 10658 10659 10660 10661 10662 10663 10664 10665 10666 10667 10668 10669 10670 10671 10672 10673 10674 10675 10676 10677 10678 10679 10680 10681 10682 10683 10684 10685 10686 10687 10688 10689 10690 10691 10692 10693 10694 10695 10696 10697 10698 10699 10700 10701 10702 10703 10704 10705 10706 10707 10708 10709 10710 10711 10712 10713 10714 10715 10716 10717 10718 10719 10720 10721 10722 10723 10724 10725 10726 10727 10728 10729 10730 10731 10732 10733 10734 10735 10736 10737 10738 10739 10740 10741 10742 10743 10744 10745 10746 10747 10748 10749 10750 10751 10752 10753 10754 10755 10756 10757 10758 10759 10760 10761 10762 10763 10764 10765 10766 10767 10768 10769 10770 10771 10772 10773 10774 10775 10776 10777 10778 10779 10780 10781 10782 10783 10784 10785 10786 10787 10788 10789 10790 10791 10792 10793 10794 10795 10796 10797 10798 10799 10800 10801 10802 10803 10804 10805 10806 10807 10808 10809 10810 10811 10812 10813 10814 10815 10816 10817 10818 10819 10820 10821 10822 10823 10824 10825 10826 10827 10828 10829 10830 10831 10832 10833 10834 10835 10836 10837 10838 10839 10840 10841 10842 10843 10844 10845 10846 10847 10848 10849 10850 10851 10852 10853 10854 10855 10856 10857 10858 10859 10860 10861 10862 10863 10864 10865 10866 10867 10868 10869 10870 10871 10872 10873 10874 10875 10876 10877 10878 10879 10880 10881 10882 10883 10884 10885 10886 10887 10888 10889 10890 10891 10892 10893 10894 10895 10896 10897 10898 10899 10900 10901 10902 10903 10904 10905 10906 10907 10908 10909 10910 10911 10912 10913 10914 10915 10916 10917 10918 10919 10920 10921 10922 10923 10924 10925 10926 10927 10928 10929 10930 10931 10932 10933 10934 10935 10936 10937 10938 10939 10940 10941 10942 10943 10944 10945 10946 10947 10948 10949 10950 10951 10952 10953 10954 10955 10956 10957 10958 10959 10960 10961 10962 10963 10964 10965 10966 10967 10968 10969 10970 10971 10972 10973 10974 10975 10976 10977 10978 10979 10980 10981 10982 10983 10984 10985 10986 10987 10988 10989 10990 10991 10992 10993 10994 10995 10996 10997 10998 10999 11000 11001 11002 11003 11004 11005 11006 11007 11008 11009 11010 11011 11012 11013 11014 11015 11016 11017 11018 11019 11020 11021 11022 11023 11024 11025 11026 11027 11028 11029 11030 11031 11032 11033 11034 11035 11036 11037 11038 11039 11040 11041 11042 11043 11044 11045 11046 11047 11048 11049 11050 11051 11052 11053 11054 11055 11056 11057 11058 11059 11060 11061 11062 11063 11064 11065 11066 11067 11068 11069 11070 11071 11072 11073 11074 11075 11076 11077 11078 11079 11080 11081 11082 11083 11084 11085 11086 11087 11088 11089 11090 11091 11092 11093 11094 11095 11096 11097 11098 11099 11100 11101 11102 11103 11104 11105 11106 11107 11108 11109 11110 11111 11112 11113 11114 11115 11116 11117 11118 11119 11120 11121 11122 11123 11124 11125 11126 11127 11128 11129 11130 11131 11132 11133 11134 11135 11136 11137 11138 11139 11140 11141 11142 11143 11144 11145 11146 11147 11148 11149 11150 11151 11152 11153 11154 11155 11156 11157 11158 11159 11160 11161 11162 11163 11164 11165 11166 11167 11168 11169 11170 11171 11172 11173 11174 11175 11176 11177 11178 11179 11180 11181 11182 11183 11184 11185 11186 11187 11188 11189 11190 11191 11192 11193 11194 11195 11196 11197 11198 11199 11200 11201 11202 11203 11204 11205 11206 11207 11208 11209 11210 11211 11212 11213 11214 11215 11216 11217 11218 11219 11220 11221 11222 11223 11224 11225 11226 11227 11228 11229 11230 11231 11232 11233 11234 11235 11236 11237 11238 11239 11240 11241 11242 11243 11244 11245 11246 11247 11248 11249 11250 11251 11252 11253 11254 11255 11256 11257 11258 11259 11260 11261 11262 11263 11264 11265 11266 11267 11268 11269 11270 11271 11272 11273 11274 11275 11276 11277 11278 11279 11280 11281 11282 11283 11284 11285 11286 11287 11288 11289 11290 11291 11292 11293 11294 11295 11296 11297 11298 11299 11300 11301 11302 11303 11304 11305 11306 11307 11308 11309 11310 11311 11312 11313 11314 11315 11316 11317 11318 11319 11320 11321 11322 11323 11324 11325 11326 11327 11328 11329 11330 11331 11332 11333 11334 11335 11336 11337 11338 11339 11340 11341 11342 11343 11344 11345 11346 11347 11348 11349 11350 11351 11352 11353 11354 11355 11356 11357 11358 11359 11360 11361 11362 11363 11364 11365 11366 11367 11368 11369 11370 11371 11372 11373 11374 11375 11376 11377 11378 11379 11380 11381 11382 11383 11384 11385 11386 11387 11388 11389 11390 11391 11392 11393 11394 11395 11396 11397 11398 11399 11400 11401 11402 11403 11404 11405 11406 11407 11408 11409 11410 11411 11412 11413 11414 11415 11416 11417 11418 11419 11420 11421 11422 11423 11424 11425 11426 11427 11428 11429 11430 11431 11432 11433 11434 11435 11436 11437 11438 11439 11440 11441 11442 11443 11444 11445 11446 11447 11448 11449 11450 11451 11452 11453 11454 11455 11456 11457 11458 11459 11460 11461 11462 11463 11464 11465 11466 11467 11468 11469 11470 11471 11472 11473 11474 11475 11476 11477 11478 11479 11480 11481 11482 11483 11484 11485 11486 11487 11488 11489 11490 11491 11492 11493 11494 11495 11496 11497 11498 11499 11500 11501 11502 11503 11504 11505 11506 11507 11508 11509 11510 11511 11512 11513 11514 11515 11516 11517 11518 11519 11520 11521 11522 11523 11524 11525 11526 11527 11528 11529 11530 11531 11532 11533 11534 11535 11536 11537 11538 11539 11540 11541 11542 11543 11544 11545 11546 11547 11548 11549 11550 11551 11552 11553 11554 11555 11556 11557 11558 11559 11560 11561 11562 11563 11564 11565 11566 11567 11568 11569 11570 11571 11572 11573 11574 11575 11576 11577 11578 11579 11580 11581 11582 11583 11584 11585 11586 11587 11588 11589 11590 11591 11592 11593 11594 11595 11596 11597 11598 11599 11600 11601 11602 11603 11604 11605 11606 11607 11608 11609 11610 11611 11612 11613 11614 11615 11616 11617 11618 11619 11620 11621 11622 11623 11624 11625 11626 11627 11628 11629 11630 11631 11632 11633 11634 11635 11636 11637 11638 11639 11640 11641 11642 11643 11644 11645 11646 11647 11648 11649 11650 11651 11652 11653 11654 11655 11656 11657 11658 11659 11660 11661 11662 11663 11664 11665 11666 11667 11668 11669 11670 11671 11672 11673 11674 11675 11676 11677 11678 11679 11680 11681 11682 11683 11684 11685 11686 11687 11688 11689 11690 11691 11692 11693 11694 11695 11696 11697 11698 11699 11700 11701 11702 11703 11704 11705 11706 11707 11708 11709 11710 11711 11712 11713 11714 11715 11716 11717 11718 11719 11720 11721 11722 11723 11724 11725 11726 11727 11728 11729 11730 11731 11732 11733 11734 11735 11736 11737 11738 11739 11740 11741 11742 11743 11744 11745 11746 11747 11748 11749 11750 11751 11752 11753 11754 11755 11756 11757 11758 11759 11760 11761 11762 11763 11764 11765 11766 11767 11768 11769 11770 11771 11772 11773 11774 11775 11776 11777 11778 11779 11780 11781 11782 11783 11784 11785 11786 11787 11788 11789 11790 11791 11792 11793 11794 11795 11796 11797 11798 11799 11800 11801 11802 11803 11804 11805 11806 11807 11808 11809 11810 11811 11812 11813 11814 11815 11816 11817 11818 11819 11820 11821 11822 11823 11824 11825 11826 11827 11828 11829 11830 11831 11832 11833 11834 11835 11836 11837 11838 11839 11840 11841 11842 11843 11844 11845 11846 11847 11848 11849 11850 11851 11852 11853 11854 11855 11856 11857 11858 11859 11860 11861 11862 11863 11864 11865 11866 11867 11868 11869 11870 11871 11872 11873 11874 11875 11876 11877 11878 11879 11880 11881 11882 11883 11884 11885 11886 11887 11888 11889 11890 11891 11892 11893 11894 11895 11896 11897 11898 11899 11900 11901 11902 11903 11904 11905 11906 11907 11908 11909 11910 11911 11912 11913 11914 11915 11916 11917 11918 11919 11920 11921 11922 11923 11924 11925 11926 11927 11928 11929 11930 11931 11932 11933 11934 11935 11936 11937 11938 11939 11940 11941 11942 11943 11944 11945 11946 11947 11948 11949 11950 11951 11952 11953 11954 11955 11956 11957 11958 11959 11960 11961 11962 11963 11964 11965 11966 11967 11968 11969 11970 11971 11972 11973 11974 11975 11976 11977 11978 11979 11980 11981 11982 11983 11984 11985 11986 11987 11988 11989 11990 11991 11992 11993 11994 11995 11996 11997 11998 11999 12000 12001 12002 12003 12004 12005 12006 12007 12008 12009 12010 12011 12012 12013 12014 12015 12016 12017 12018 12019 12020 12021 12022 12023 12024 12025 12026 12027 12028 12029 12030 12031 12032 12033 12034 12035 12036 12037 12038 12039 12040 12041 12042 12043 12044 12045 12046 12047 12048 12049 12050 12051 12052 12053 12054 12055 12056 12057 12058 12059 12060 12061 12062 12063 12064 12065 12066 12067 12068 12069 12070 12071 12072 12073 12074 12075 12076 12077 12078 12079 12080 12081 12082 12083 12084 12085 12086 12087 12088 12089 12090 12091 12092 12093 12094 12095 12096 12097 12098 12099 12100 12101 12102 12103 12104 12105 12106 12107 12108 12109 12110 12111 12112 12113 12114 12115 12116 12117 12118 12119 12120 12121 12122 12123 12124 12125 12126 12127 12128 12129 12130 12131 12132 12133 12134 12135 12136 12137 12138 12139 12140 12141 12142 12143 12144 12145 12146 12147 12148 12149 12150 12151 12152 12153 12154 12155 12156 12157 12158 12159 12160 12161 12162 12163 12164 12165 12166 12167 12168 12169 12170 12171 12172 12173 12174 12175 12176 12177 12178 12179 12180 12181 12182 12183 12184 12185 12186 12187 12188 12189 12190 12191 12192 12193 12194 12195 12196 12197 12198 12199 12200 12201 12202 12203 12204 12205 12206 12207 12208 12209 12210 12211 12212 12213 12214 12215 12216 12217 12218 12219 12220 12221 12222 12223 12224 12225 12226 12227 12228 12229 12230 12231 12232 12233 12234 12235 12236 12237 12238 12239 12240 12241 12242 12243 12244 12245 12246 12247 12248 12249 12250 12251 12252 12253 12254 12255 12256 12257 12258 12259 12260 12261 12262 12263 12264 12265 12266 12267 12268 12269 12270 12271 12272 12273 12274 12275 12276 12277 12278 12279 12280 12281 12282 12283 12284 12285 12286 12287 12288 12289 12290 12291 12292 12293 12294 12295 12296 12297 12298 12299 12300 12301 12302 12303 12304 12305 12306 12307 12308 12309 12310 12311 12312 12313 12314 12315 12316 12317 12318 12319 12320 12321 12322 12323 12324 12325 12326 12327 12328 12329 12330 12331 12332 12333 12334 12335 12336 12337 12338 12339 12340 12341 12342 12343 12344 12345 12346 12347 12348 12349 12350 12351 12352 12353 12354 12355 12356 12357 12358 12359 12360 12361 12362 12363 12364 12365 12366 12367 12368 12369 12370 12371 12372 12373 12374 12375 12376 12377 12378 12379 12380 12381 12382 12383 12384 12385 12386 12387 12388 12389 12390 12391 12392 12393 12394 12395 12396 12397 12398 12399 12400 12401 12402 12403 12404 12405 12406 12407 12408 12409 12410 12411 12412 12413 12414 12415 12416 12417 12418 12419 12420 12421 12422 12423 12424 12425 12426 12427 12428 12429 12430 12431 12432 12433 12434 12435 12436 12437 12438 12439 12440 12441 12442 12443 12444 12445 12446 12447 12448 12449 12450 12451 12452 12453 12454 12455 12456 12457 12458 12459 12460 12461 12462 12463 12464 12465 12466 12467 12468 12469 12470 12471 12472 12473 12474 12475 12476 12477 12478 12479 12480 12481 12482 12483 12484 12485 12486 12487 12488 12489 12490 12491 12492 12493 12494 12495 12496 12497 12498 12499 12500 12501 12502 12503 12504 12505 12506 12507 12508 12509 12510 12511 12512 12513 12514 12515 12516 12517 12518 12519 12520 12521 12522 12523 12524 12525 12526 12527 12528 12529 12530 12531 12532 12533 12534 12535 12536 12537 12538 12539 12540 12541 12542 12543 12544 12545 12546 12547 12548 12549 12550 12551 12552 12553 12554 12555 12556 12557 12558 12559 12560 12561 12562 12563 12564 12565 12566 12567 12568 12569 12570 12571 12572 12573 12574 12575 12576 12577 12578 12579 12580 12581 12582 12583 12584 12585 12586 12587 12588 12589 12590 12591 12592 12593 12594 12595 12596 12597 12598 12599 12600 12601 12602 12603 12604 12605 12606 12607 12608 12609 12610 12611 12612 12613 12614 12615 12616 12617 12618 12619 12620 12621 12622 12623 12624 12625 12626 12627 12628 12629 12630 12631 12632 12633 12634 12635 12636 12637 12638 12639 12640 12641 12642 12643 12644 12645 12646 12647 12648 12649 12650 12651 12652 12653 12654 12655 12656 12657 12658 12659 12660 12661 12662 12663 12664 12665 12666 12667 12668 12669 12670 12671 12672 12673 12674 12675 12676 12677 12678 12679 12680 12681 12682 12683 12684 12685 12686 12687 12688 12689 12690 12691 12692 12693 12694 12695 12696 12697 12698 12699 12700 12701 12702 12703 12704 12705 12706 12707 12708 12709 12710 12711 12712 12713 12714 12715 12716 12717 12718 12719 12720 12721 12722 12723 12724 12725 12726 12727 12728 12729 12730 12731 12732 12733 12734 12735 12736 12737 12738 12739 12740 12741 12742 12743 12744 12745 12746 12747 12748 12749 12750 12751 12752 12753 12754 12755 12756 12757 12758 12759 12760 12761 12762 12763 12764 12765 12766 12767 12768 12769 12770 12771 12772 12773 12774 12775 12776 12777 12778 12779 12780 12781 12782 12783 12784 12785 12786 12787 12788 12789 12790 12791 12792 12793 12794 12795 12796 12797 12798 12799 12800 12801 12802 12803 12804 12805 12806 12807 12808 12809 12810 12811 12812 12813 12814 12815 12816 12817 12818 12819 12820 12821 12822 12823 12824 12825 12826 12827 12828 12829 12830 12831 12832 12833 12834 12835 12836 12837 12838 12839 12840 12841 12842 12843 12844 12845 12846 12847 12848 12849 12850 12851 12852 12853 12854 12855 12856 12857 12858 12859 12860 12861 12862 12863 12864 12865 12866 12867 12868 12869 12870 12871 12872 12873 12874 12875 12876 12877 12878 12879 12880 12881 12882 12883 12884 12885 12886 12887 12888 12889 12890 12891 12892 12893 12894 12895 12896 12897 12898 12899 12900 12901 12902 12903 12904 12905 12906 12907 12908 12909 12910 12911 12912 12913 12914 12915 12916 12917 12918 12919 12920 12921 12922 12923 12924 12925 12926 12927 12928 12929 12930 12931 12932 12933 12934 12935 12936 12937 12938 12939 12940 12941 12942 12943 12944 12945 12946 12947 12948 12949 12950 12951 12952 12953 12954 12955 12956 12957 12958 12959 12960 12961 12962 12963 12964 12965 12966 12967 12968 12969 12970 12971 12972 12973 12974 12975 12976 12977 12978 12979 12980 12981 12982 12983 12984 12985 12986 12987 12988 12989 12990 12991 12992 12993 12994 12995 12996 12997 12998 12999 13000 13001 13002 13003 13004 13005 13006 13007 13008 13009 13010 13011 13012 13013 13014 13015 13016 13017 13018 13019 13020 13021 13022 13023 13024 13025 13026 13027 13028 13029 13030 13031 13032 13033 13034 13035 13036 13037 13038 13039 13040 13041 13042 13043 13044 13045 13046 13047 13048 13049 13050 13051 13052 13053 13054 13055 13056 13057 13058 13059 13060 13061 13062 13063 13064 13065 13066 13067 13068 13069 13070 13071 13072 13073 13074 13075 13076 13077 13078 13079 13080 13081 13082 13083 13084 13085 13086 13087 13088 13089 13090 13091 13092 13093 13094 13095 13096 13097 13098 13099 13100 13101 13102 13103 13104 13105 13106 13107 13108 13109 13110 13111 13112 13113 13114 13115 13116 13117 13118 13119 13120 13121 13122 13123 13124 13125 13126 13127 13128 13129 13130 13131 13132 13133 13134 13135 13136 13137 13138 13139 13140 13141 13142 13143 13144 13145 13146 13147 13148 13149 13150 13151 13152 13153 13154 13155 13156 13157 13158 13159 13160 13161 13162 13163 13164 13165 13166 13167 13168 13169 13170 13171 13172 13173 13174 13175 13176 13177 13178 13179 13180 13181 13182 13183 13184 13185 13186 13187 13188 13189 13190 13191 13192 13193 13194 13195 13196 13197 13198 13199 13200 13201 13202 13203 13204 13205 13206 13207 13208 13209 13210 13211 13212 13213 13214 13215 13216 13217 13218 13219 13220 13221 13222 13223 13224 13225 13226 13227 13228 13229 13230 13231 13232 13233 13234 13235 13236 13237 13238 13239 13240 13241 13242 13243 13244 13245 13246 13247 13248 13249 13250 13251 13252 13253 13254 13255 13256 13257 13258 13259 13260 13261 13262 13263 13264 13265 13266 13267 13268 13269 13270 13271 13272 13273 13274 13275 13276 13277 13278 13279 13280 13281 13282 13283 13284 13285 13286 13287 13288 13289 13290 13291 13292 13293 13294 13295 13296 13297 13298 13299 13300 13301 13302 13303 13304 13305 13306 13307 13308 13309 13310 13311 13312 13313 13314 13315 13316 13317 13318 13319 13320 13321 13322 13323 13324 13325 13326 13327 13328 13329 13330 13331 13332 13333 13334 13335 13336 13337 13338 13339 13340 13341 13342 13343 13344 13345 13346 13347 13348 13349 13350 13351 13352 13353 13354 13355 13356 13357 13358 13359 13360 13361 13362 13363 13364 13365 13366 13367 13368 13369 13370 13371 13372 13373 13374 13375 13376 13377 13378 13379 13380 13381 13382 13383 13384 13385 13386 13387 13388 13389 13390 13391 13392 13393 13394 13395 13396 13397 13398 13399 13400 13401 13402 13403 13404 13405 13406 13407 13408 13409 13410 13411 13412 13413 13414 13415 13416 13417 13418 13419 13420 13421 13422 13423 13424 13425 13426 13427 13428 13429 13430 13431 13432 13433 13434 13435 13436 13437 13438 13439 13440 13441 13442 13443 13444 13445 13446 13447 13448 13449 13450 13451 13452 13453 13454 13455 13456 13457 13458 13459 13460 13461 13462 13463 13464 13465 13466 13467 13468 13469 13470 13471 13472 13473 13474 13475 13476 13477 13478 13479 13480 13481 13482 13483 13484 13485 13486 13487 13488 13489 13490 13491 13492 13493 13494 13495 13496 13497 13498 13499 13500 13501 13502 13503 13504 13505 13506 13507 13508 13509 13510 13511 13512 13513 13514 13515 13516 13517 13518 13519 13520 13521 13522 13523 13524 13525 13526 13527 13528 13529 13530 13531 13532 13533 13534 13535 13536 13537 13538 13539 13540 13541 13542 13543 13544 13545 13546 13547 13548 13549 13550 13551 13552 13553 13554 13555 13556 13557 13558 13559 13560 13561 13562 13563 13564 13565 13566 13567 13568 13569 13570 13571 13572 13573 13574 13575 13576 13577 13578 13579 13580 13581 13582 13583 13584 13585 13586 13587 13588 13589 13590 13591 13592 13593 13594 13595 13596 13597 13598 13599 13600 13601 13602 13603 13604 13605 13606 13607 13608 13609 13610 13611 13612 13613 13614 13615 13616 13617 13618 13619 13620 13621 13622 13623 13624 13625 13626 13627 13628 13629 13630 13631 13632 13633 13634 13635 13636 13637 13638 13639 13640 13641 13642 13643 13644 13645 13646 13647 13648 13649 13650 13651 13652 13653 13654 13655 13656 13657 13658 13659 13660 13661 13662 13663 13664 13665 13666 13667 13668 13669 13670 13671 13672 13673 13674 13675 13676 13677 13678 13679 13680 13681 13682 13683 13684 13685 13686 13687 13688 13689 13690 13691 13692 13693 13694 13695 13696 13697 13698 13699 13700 13701 13702 13703 13704 13705 13706 13707 13708 13709 13710 13711 13712 13713 13714 13715 13716 13717 13718 13719 13720 13721 13722 13723 13724 13725 13726 13727 13728 13729 13730 13731 13732 13733 13734 13735 13736 13737 13738 13739 13740 13741 13742 13743 13744 13745 13746 13747 13748 13749 13750 13751 13752 13753 13754 13755 13756 13757 13758 13759 13760 13761 13762 13763 13764 13765 13766 13767 13768 13769 13770 13771 13772 13773 13774 13775 13776 13777 13778 13779 13780 13781 13782 13783 13784 13785 13786 13787 13788 13789 13790 13791 13792 13793 13794 13795 13796 13797 13798 13799 13800 13801 13802 13803 13804 13805 13806 13807 13808 13809 13810 13811 13812 13813 13814 13815 13816 13817 13818 13819 13820 13821 13822 13823 13824 13825 13826 13827 13828 13829 13830 13831 13832 13833 13834 13835 13836 13837 13838 13839 13840 13841 13842 13843 13844 13845 13846 13847 13848 13849 13850 13851 13852 13853 13854 13855 13856 13857 13858 13859 13860 13861 13862 13863 13864 13865 13866 13867 13868 13869 13870 13871 13872 13873 13874 13875 13876 13877 13878 13879 13880 13881 13882 13883 13884 13885 13886 13887 13888 13889 13890 13891 13892 13893 13894 13895 13896 13897 13898 13899 13900 13901 13902 13903 13904 13905 13906 13907 13908 13909 13910 13911 13912 13913 13914 13915 13916 13917 13918 13919 13920 13921 13922 13923 13924 13925 13926 13927 13928 13929 13930 13931 13932 13933 13934 13935 13936 13937 13938 13939 13940 13941 13942 13943 13944 13945 13946 13947 13948 13949 13950 13951 13952 13953 13954 13955 13956 13957 13958 13959 13960 13961 13962 13963 13964 13965 13966 13967 13968 13969 13970 13971 13972 13973 13974 13975 13976 13977 13978 13979 13980 13981 13982 13983 13984 13985 13986 13987 13988 13989 13990 13991 13992 13993 13994 13995 13996 13997 13998 13999 14000 14001 14002 14003 14004 14005 14006 14007 14008 14009 14010 14011 14012 14013 14014 14015 14016 14017 14018 14019 14020 14021 14022 14023 14024 14025 14026 14027 14028 14029 14030 14031 14032 14033 14034 14035 14036 14037 14038 14039 14040 14041 14042 14043 14044 14045 14046 14047 14048 14049 14050 14051 14052 14053 14054 14055 14056 14057 14058 14059 14060 14061 14062 14063 14064 14065 14066 14067 14068 14069 14070 14071 14072 14073 14074 14075 14076 14077 14078 14079 14080 14081 14082 14083 14084 14085 14086 14087 14088 14089 14090 14091 14092 14093 14094 14095 14096 14097 14098 14099 14100 14101 14102 14103 14104 14105 14106 14107 14108 14109 14110 14111 14112 14113 14114 14115 14116 14117 14118 14119 14120 14121 14122 14123 14124 14125 14126 14127 14128 14129 14130 14131 14132 14133 14134 14135 14136 14137 14138 14139 14140 14141 14142 14143 14144 14145 14146 14147 14148 14149 14150 14151 14152 14153 14154 14155 14156 14157 14158 14159 14160 14161 14162 14163 14164 14165 14166 14167 14168 14169 14170 14171 14172 14173 14174 14175 14176 14177 14178 14179 14180 14181 14182 14183 14184 14185 14186 14187 14188 14189 14190 14191 14192 14193 14194 14195 14196 14197 14198 14199 14200 14201 14202 14203 14204 14205 14206 14207 14208 14209 14210 14211 14212 14213 14214 14215 14216 14217 14218 14219 14220 14221 14222 14223 14224 14225 14226 14227 14228 14229 14230 14231 14232 14233 14234 14235 14236 14237 14238 14239 14240 14241 14242 14243 14244 14245 14246 14247 14248 14249 14250 14251 14252 14253 14254 14255 14256 14257 14258 14259 14260 14261 14262 14263 14264 14265 14266 14267 14268 14269 14270 14271 14272 14273 14274 14275 14276 14277 14278 14279 14280 14281 14282 14283 14284 14285 14286 14287 14288 14289 14290 14291 14292 14293 14294 14295 14296 14297 14298 14299 14300 14301 14302 14303 14304 14305 14306 14307 14308 14309 14310 14311 14312 14313 14314 14315 14316 14317 14318 14319 14320 14321 14322 14323 14324 14325 14326 14327 14328 14329 14330 14331 14332 14333 14334 14335 14336 14337 14338 14339 14340 14341 14342 14343 14344 14345 14346 14347 14348 14349 14350 14351 14352 14353 14354 14355 14356 14357 14358 14359 14360 14361 14362 14363 14364 14365 14366 14367 14368 14369 14370 14371 14372 14373 14374 14375 14376 14377 14378 14379 14380 14381 14382 14383 14384 14385 14386 14387 14388 14389 14390 14391 14392 14393 14394 14395 14396 14397 14398 14399 14400 14401 14402 14403 14404 14405 14406 14407 14408 14409 14410 14411 14412 14413 14414 14415 14416 14417 14418 14419 14420 14421 14422 14423 14424 14425 14426 14427 14428 14429 14430 14431 14432 14433 14434 14435 14436 14437 14438 14439 14440 14441 14442 14443 14444 14445 14446 14447 14448 14449 14450 14451 14452 14453 14454 14455 14456 14457 14458 14459 14460 14461 14462 14463 14464 14465 14466 14467 14468 14469 14470 14471 14472 14473 14474 14475 14476 14477 14478 14479 14480 14481 14482 14483 14484 14485 14486 14487 14488 14489 14490 14491 14492 14493 14494 14495 14496 14497 14498 14499 14500 14501 14502 14503 14504 14505 14506 14507 14508 14509 14510 14511 14512 14513 14514 14515 14516 14517 14518 14519 14520 14521 14522 14523 14524 14525 14526 14527 14528 14529 14530 14531 14532 14533 14534 14535 14536 14537 14538 14539 14540 14541 14542 14543 14544 14545 14546 14547 14548 14549 14550 14551 14552 14553 14554 14555 14556 14557 14558 14559 14560 14561 14562 14563 14564 14565 14566 14567 14568 14569 14570 14571 14572 14573 14574 14575 14576 14577 14578 14579 14580 14581 14582 14583 14584 14585 14586 14587 14588 14589 14590 14591 14592 14593 14594 14595 14596 14597 14598 14599 14600 14601 14602 14603 14604 14605 14606 14607 14608 14609 14610 14611 14612 14613 14614 14615 14616 14617 14618 14619 14620 14621 14622 14623 14624 14625 14626 14627 14628 14629 14630 14631 14632 14633 14634 14635 14636 14637 14638 14639 14640 14641 14642 14643 14644 14645 14646 14647 14648 14649 14650 14651 14652 14653 14654 14655 14656 14657 14658 14659 14660 14661 14662 14663 14664 14665 14666 14667 14668 14669 14670 14671 14672 14673 14674 14675 14676 14677 14678 14679 14680 14681 14682 14683 14684 14685 14686 14687 14688 14689 14690 14691 14692 14693 14694 14695 14696 14697 14698 14699 14700 14701 14702 14703 14704 14705 14706 14707 14708 14709 14710 14711 14712 14713 14714 14715 14716 14717 14718 14719 14720 14721 14722 14723 14724 14725 14726 14727 14728 14729 14730 14731 14732 14733 14734 14735 14736 14737 14738 14739 14740 14741 14742 14743 14744 14745 14746 14747 14748 14749 14750 14751 14752 14753 14754 14755 14756 14757 14758 14759 14760 14761 14762 14763 14764 14765 14766 14767 14768 14769 14770 14771 14772 14773 14774 14775 14776 14777 14778 14779 14780 14781 14782 14783 14784 14785 14786 14787 14788 14789 14790 14791 14792 14793 14794 14795 14796 14797 14798 14799 14800 14801 14802 14803 14804 14805 14806 14807 14808 14809 14810 14811 14812 14813 14814 14815 14816 14817 14818 14819 14820 14821 14822 14823 14824 14825 14826 14827 14828 14829 14830 14831 14832 14833 14834 14835 14836 14837 14838 14839 14840 14841 14842 14843 14844 14845 14846 14847 14848 14849 14850 14851 14852 14853 14854 14855 14856 14857 14858 14859 14860 14861 14862 14863 14864 14865 14866 14867 14868 14869 14870 14871 14872 14873 14874 14875 14876 14877 14878 14879 14880 14881 14882 14883 14884 14885 14886 14887 14888 14889 14890 14891 14892 14893 14894 14895 14896 14897 14898 14899 14900 14901 14902 14903 14904 14905 14906 14907 14908 14909 14910 14911 14912 14913 14914 14915 14916 14917 14918 14919 14920 14921 14922 14923 14924 14925 14926 14927 14928 14929 14930 14931 14932 14933 14934 14935 14936 14937 14938 14939 14940 14941 14942 14943 14944 14945 14946 14947 14948 14949 14950 14951 14952 14953 14954 14955 14956 14957 14958 14959 14960 14961 14962 14963 14964 14965 14966 14967 14968 14969 14970 14971 14972 14973 14974 14975 14976 14977 14978 14979 14980 14981 14982 14983 14984 14985 14986 14987 14988 14989 14990 14991 14992 14993 14994 14995 14996 14997 14998 14999 15000 15001 15002 15003 15004 15005 15006 15007 15008 15009 15010 15011 15012 15013 15014 15015 15016 15017 15018 15019 15020 15021 15022 15023 15024 15025 15026 15027 15028 15029 15030 15031 15032 15033 15034 15035 15036 15037 15038 15039 15040 15041 15042 15043 15044 15045 15046 15047 15048 15049 15050 15051 15052 15053 15054 15055 15056 15057 15058 15059 15060 15061 15062 15063 15064 15065 15066 15067 15068 15069 15070 15071 15072 15073 15074 15075 15076 15077 15078 15079 15080 15081 15082 15083 15084 15085 15086 15087 15088 15089 15090 15091 15092 15093 15094 15095 15096 15097 15098 15099 15100 15101 15102 15103 15104 15105 15106 15107 15108 15109 15110 15111 15112 15113 15114 15115 15116 15117 15118 15119 15120 15121 15122 15123 15124 15125 15126 15127 15128 15129 15130 15131 15132 15133 15134 15135 15136 15137 15138 15139 15140 15141 15142 15143 15144 15145 15146 15147 15148 15149 15150 15151 15152 15153 15154 15155 15156 15157 15158 15159 15160 15161 15162 15163 15164 15165 15166 15167 15168 15169 15170 15171 15172 15173 15174 15175 15176 15177 15178 15179 15180 15181 15182 15183 15184 15185 15186 15187 15188 15189 15190 15191 15192 15193 15194 15195 15196 15197 15198 15199 15200 15201 15202 15203 15204 15205 15206 15207 15208 15209 15210 15211 15212 15213 15214 15215 15216 15217 15218 15219 15220 15221 15222 15223 15224 15225 15226 15227 15228 15229 15230 15231 15232 15233 15234 15235 15236 15237 15238 15239 15240 15241 15242 15243 15244 15245 15246 15247 15248 15249 15250 15251 15252 15253 15254 15255 15256 15257 15258 15259 15260 15261 15262 15263 15264 15265 15266 15267 15268 15269 15270 15271 15272 15273 15274 15275 15276 15277 15278 15279 15280 15281 15282 15283 15284 15285 15286 15287 15288 15289 15290 15291 15292 15293 15294 15295 15296 15297 15298 15299 15300 15301 15302 15303 15304 15305 15306 15307 15308 15309 15310 15311 15312 15313 15314 15315 15316 15317 15318 15319 15320 15321 15322 15323 15324 15325 15326 15327 15328 15329 15330 15331 15332 15333 15334 15335 15336 15337 15338 15339 15340 15341 15342 15343 15344 15345 15346 15347 15348 15349 15350 15351 15352 15353 15354 15355 15356 15357 15358 15359 15360 15361 15362 15363 15364 15365 15366 15367 15368 15369 15370 15371 15372 15373 15374 15375 15376 15377 15378 15379 15380 15381 15382 15383 15384 15385 15386 15387 15388 15389 15390 15391 15392 15393 15394 15395 15396 15397 15398 15399 15400 15401 15402 15403 15404 15405 15406 15407 15408 15409 15410 15411 15412 15413 15414 15415 15416 15417 15418 15419 15420 15421 15422 15423 15424 15425 15426 15427 15428 15429 15430 15431 15432 15433 15434 15435 15436 15437 15438 15439 15440 15441 15442 15443 15444 15445 15446 15447 15448 15449 15450 15451 15452 15453 15454 15455 15456 15457 15458 15459 15460 15461 15462 15463 15464 15465 15466 15467 15468 15469 15470 15471 15472 15473 15474 15475 15476 15477 15478 15479 15480 15481 15482 15483 15484 15485 15486 15487 15488 15489 15490 15491 15492 15493 15494 15495 15496 15497 15498 15499 15500 15501 15502 15503 15504 15505 15506 15507 15508 15509 15510 15511 15512 15513 15514 15515 15516 15517 15518 15519 15520 15521 15522 15523 15524 15525 15526 15527 15528 15529 15530 15531 15532 15533 15534 15535 15536 15537 15538 15539 15540 15541 15542 15543 15544 15545 15546 15547 15548 15549 15550 15551 15552 15553 15554 15555 15556 15557 15558 15559 15560 15561 15562 15563 15564 15565 15566 15567 15568 15569 15570 15571 15572 15573 15574 15575 15576 15577 15578 15579 15580 15581 15582 15583 15584 15585 15586 15587 15588 15589 15590 15591 15592 15593 15594 15595 15596 15597 15598 15599 15600 15601 15602 15603 15604 15605 15606 15607 15608 15609 15610 15611 15612 15613 15614 15615 15616 15617 15618 15619 15620 15621 15622 15623 15624 15625 15626 15627 15628 15629 15630 15631 15632 15633 15634 15635 15636 15637 15638 15639 15640 15641 15642 15643 15644 15645 15646 15647 15648 15649 15650 15651 15652 15653 15654 15655 15656 15657 15658 15659 15660 15661 15662 15663 15664 15665 15666 15667 15668 15669 15670 15671 15672 15673 15674 15675 15676 15677 15678 15679 15680 15681 15682 15683 15684 15685 15686 15687 15688 15689 15690 15691 15692 15693 15694 15695 15696 15697 15698 15699 15700 15701 15702 15703 15704 15705 15706 15707 15708 15709 15710 15711 15712 15713 15714 15715 15716 15717 15718 15719 15720 15721 15722 15723 15724 15725 15726 15727 15728 15729 15730 15731 15732 15733 15734 15735 15736 15737 15738 15739 15740 15741 15742 15743 15744 15745 15746 15747 15748 15749 15750 15751 15752 15753 15754 15755 15756 15757 15758 15759 15760 15761 15762 15763 15764 15765 15766 15767 15768 15769 15770 15771 15772 15773 15774 15775 15776 15777 15778 15779 15780 15781 15782 15783 15784 15785 15786 15787 15788 15789 15790 15791 15792 15793 15794 15795 15796 15797 15798 15799 15800 15801 15802 15803 15804 15805 15806 15807 15808 15809 15810 15811 15812 15813 15814 15815 15816 15817 15818 15819 15820 15821 15822 15823 15824 15825 15826 15827 15828 15829 15830 15831 15832 15833 15834 15835 15836 15837 15838 15839 15840 15841 15842 15843 15844 15845 15846 15847 15848 15849 15850 15851 15852 15853 15854 15855 15856 15857 15858 15859 15860 15861 15862 15863 15864 15865 15866 15867 15868 15869 15870 15871 15872 15873 15874 15875 15876 15877 15878 15879 15880 15881 15882 15883 15884 15885 15886 15887 15888 15889 15890 15891 15892 15893 15894 15895 15896 15897 15898 15899 15900 15901 15902 15903 15904 15905 15906 15907 15908 15909 15910 15911 15912 15913 15914 15915 15916 15917 15918 15919 15920 15921 15922 15923 15924 15925 15926 15927 15928 15929 15930 15931 15932 15933 15934 15935 15936 15937 15938 15939 15940 15941 15942 15943 15944 15945 15946 15947 15948 15949 15950 15951 15952 15953 15954 15955 15956 15957 15958 15959 15960 15961 15962 15963 15964 15965 15966 15967 15968 15969 15970 15971 15972 15973 15974 15975 15976 15977 15978 15979 15980 15981 15982 15983 15984 15985 15986 15987 15988 15989 15990 15991 15992 15993 15994 15995 15996 15997 15998 15999 16000 16001 16002 16003 16004 16005 16006 16007 16008 16009 16010 16011 16012 16013 16014 16015 16016 16017 16018 16019 16020 16021 16022 16023 16024 16025 16026 16027 16028 16029 16030 16031 16032 16033 16034 16035 16036 16037 16038 16039 16040 16041 16042 16043 16044 16045 16046 16047 16048 16049 16050 16051 16052 16053 16054 16055 16056 16057 16058 16059 16060 16061 16062 16063 16064 16065 16066 16067 16068 16069 16070 16071 16072 16073 16074 16075 16076 16077 16078 16079 16080 16081 16082 16083 16084 16085 16086 16087 16088 16089 16090 16091 16092 16093 16094 16095 16096 16097 16098 16099 16100 16101 16102 16103 16104 16105 16106 16107 16108 16109 16110 16111 16112 16113 16114 16115 16116 16117 16118 16119 16120 16121 16122 16123 16124 16125 16126 16127 16128 16129 16130 16131 16132 16133 16134 16135 16136 16137 16138 16139 16140 16141 16142 16143 16144 16145 16146 16147 16148 16149 16150 16151 16152 16153 16154 16155 16156 16157 16158 16159 16160 16161 16162 16163 16164 16165 16166 16167 16168 16169 16170 16171 16172 16173 16174 16175 16176 16177 16178 16179 16180 16181 16182 16183 16184 16185 16186 16187 16188 16189 16190 16191 16192 16193 16194 16195 16196 16197 16198 16199 16200 16201 16202 16203 16204 16205 16206 16207 16208 16209 16210 16211 16212 16213 16214 16215 16216 16217 16218 16219 16220 16221 16222 16223 16224 16225 16226 16227 16228 16229 16230 16231 16232 16233 16234 16235 16236 16237 16238 16239 16240 16241 16242 16243 16244 16245 16246 16247 16248 16249 16250 16251 16252 16253 16254 16255 16256 16257 16258 16259 16260 16261 16262 16263 16264 16265 16266 16267 16268 16269 16270 16271 16272 16273 16274 16275 16276 16277 16278 16279 16280 16281 16282 16283 16284 16285 16286 16287 16288 16289 16290 16291 16292 16293 16294 16295 16296 16297 16298 16299 16300 16301 16302 16303 16304 16305 16306 16307 16308 16309 16310 16311 16312 16313 16314 16315 16316 16317 16318 16319 16320 16321 16322 16323 16324 16325 16326 16327 16328 16329 16330 16331 16332 16333 16334 16335 16336 16337 16338 16339 16340 16341 16342 16343 16344 16345 16346 16347 16348 16349 16350 16351 16352 16353 16354 16355 16356 16357 16358 16359 16360 16361 16362 16363 16364 16365 16366 16367 16368 16369 16370 16371 16372 16373 16374 16375 16376 16377 16378 16379 16380 16381 16382 16383 16384 16385 16386 16387 16388 16389 16390 16391 16392 16393 16394 16395 16396 16397 16398 16399 16400 16401 16402 16403 16404 16405 16406 16407 16408 16409 16410 16411 16412 16413 16414 16415 16416 16417 16418 16419 16420 16421 16422 16423 16424 16425 16426 16427 16428 16429 16430 16431 16432 16433 16434 16435 16436 16437 16438 16439 16440 16441 16442 16443 16444 16445 16446 16447 16448 16449 16450 16451 16452 16453 16454 16455 16456 16457 16458 16459 16460 16461 16462 16463 16464 16465 16466 16467 16468 16469 16470 16471 16472 16473 16474 16475 16476 16477 16478 16479 16480 16481 16482 16483 16484 16485 16486 16487 16488 16489 16490 16491 16492 16493 16494 16495 16496 16497 16498 16499 16500 16501 16502 16503 16504 16505 16506 16507 16508 16509 16510 16511 16512 16513 16514 16515 16516 16517 16518 16519 16520 16521 16522 16523 16524 16525 16526 16527 16528 16529 16530 16531 16532 16533 16534 16535 16536 16537 16538 16539 16540 16541 16542 16543 16544 16545 16546 16547 16548 16549 16550 16551 16552 16553 16554 16555 16556 16557 16558 16559 16560 16561 16562 16563 16564 16565 16566 16567 16568 16569 16570 16571 16572 16573 16574 16575 16576 16577 16578 16579 16580 16581 16582 16583 16584 16585 16586 16587 16588 16589 16590 16591 16592 16593 16594 16595 16596 16597 16598 16599 16600 16601 16602 16603 16604 16605 16606 16607 16608 16609 16610 16611 16612 16613 16614 16615 16616 16617 16618 16619 16620 16621 16622 16623 16624 16625 16626 16627 16628 16629 16630 16631 16632 16633 16634 16635 16636 16637 16638 16639 16640 16641 16642 16643 16644 16645 16646 16647 16648 16649 16650 16651 16652 16653 16654 16655 16656 16657 16658 16659 16660 16661 16662 16663 16664 16665 16666 16667 16668 16669 16670 16671 16672 16673 16674 16675 16676 16677 16678 16679 16680 16681 16682 16683 16684 16685 16686 16687 16688 16689 16690 16691 16692 16693 16694 16695 16696 16697 16698 16699 16700 16701 16702 16703 16704 16705 16706 16707 16708 16709 16710 16711 16712 16713 16714 16715 16716 16717 16718 16719 16720 16721 16722 16723 16724 16725 16726 16727 16728 16729 16730 16731 16732 16733 16734 16735 16736 16737 16738 16739 16740 16741 16742 16743 16744 16745 16746 16747 16748 16749 16750 16751 16752 16753 16754 16755 16756 16757 16758 16759 16760 16761 16762 16763 16764 16765 16766 16767 16768 16769 16770 16771 16772 16773 16774 16775 16776 16777 16778 16779 16780 16781 16782 16783 16784 16785 16786 16787 16788 16789 16790 16791 16792 16793 16794 16795 16796 16797 16798 16799 16800 16801 16802 16803 16804 16805 16806 16807 16808 16809 16810 16811 16812 16813 16814 16815 16816 16817 16818 16819 16820 16821 16822 16823 16824 16825 16826 16827 16828 16829 16830 16831 16832 16833 16834 16835 16836 16837 16838 16839 16840 16841 16842 16843 16844 16845 16846 16847 16848 16849 16850 16851 16852 16853 16854 16855 16856 16857 16858 16859 16860 16861 16862 16863 16864 16865 16866 16867 16868 16869 16870 16871 16872 16873 16874 16875 16876 16877 16878 16879 16880 16881 16882 16883 16884 16885 16886 16887 16888 16889 16890 16891 16892 16893 16894 16895 16896 16897 16898 16899 16900 16901 16902 16903 16904 16905 16906 16907 16908 16909 16910 16911 16912 16913 16914 16915 16916 16917 16918 16919 16920 16921 16922 16923 16924 16925 16926 16927 16928 16929 16930 16931 16932 16933 16934 16935 16936 16937 16938 16939 16940 16941 16942 16943 16944 16945 16946 16947 16948 16949 16950 16951 16952 16953 16954 16955 16956 16957 16958 16959 16960 16961 16962 16963 16964 16965 16966 16967 16968 16969 16970 16971 16972 16973 16974 16975 16976 16977 16978 16979 16980 16981 16982 16983 16984 16985 16986 16987 16988 16989 16990 16991 16992 16993 16994 16995 16996 16997 16998 16999 17000 17001 17002 17003 17004 17005 17006 17007 17008 17009 17010 17011 17012 17013 17014 17015 17016 17017 17018 17019 17020 17021 17022 17023 17024 17025 17026 17027 17028 17029 17030 17031 17032 17033 17034 17035 17036 17037 17038 17039 17040 17041 17042 17043 17044 17045 17046 17047 17048 17049 17050 17051 17052 17053 17054 17055 17056 17057 17058 17059 17060 17061 17062 17063 17064 17065 17066 17067 17068 17069 17070 17071 17072 17073 17074 17075 17076 17077 17078 17079 17080 17081 17082 17083 17084 17085 17086 17087 17088 17089 17090 17091 17092 17093 17094 17095 17096 17097 17098 17099 17100 17101 17102 17103 17104 17105 17106 17107 17108 17109 17110 17111 17112 17113 17114 17115 17116 17117 17118 17119 17120 17121 17122 17123 17124 17125 17126 17127 17128 17129 17130 17131 17132 17133 17134 17135 17136 17137 17138 17139 17140 17141 17142 17143 17144 17145 17146 17147 17148 17149 17150 17151 17152 17153 17154 17155 17156 17157 17158 17159 17160 17161 17162 17163 17164 17165 17166 17167 17168 17169 17170 17171 17172 17173 17174 17175 17176 17177 17178 17179 17180 17181 17182 17183 17184 17185 17186 17187 17188 17189 17190 17191 17192 17193 17194 17195 17196 17197 17198 17199 17200 17201 17202 17203 17204 17205 17206 17207 17208 17209 17210 17211 17212 17213 17214 17215 17216 17217 17218 17219 17220 17221 17222 17223 17224 17225 17226 17227 17228 17229 17230 17231 17232 17233 17234 17235 17236 17237 17238 17239 17240 17241 17242 17243 17244 17245 17246 17247 17248 17249 17250 17251 17252 17253 17254 17255 17256 17257 17258 17259 17260 17261 17262 17263 17264 17265 17266 17267 17268 17269 17270 17271 17272 17273 17274 17275 17276 17277 17278 17279 17280 17281 17282 17283 17284 17285 17286 17287 17288 17289 17290 17291 17292 17293 17294 17295 17296 17297 17298 17299 17300 17301 17302 17303 17304 17305 17306 17307 17308 17309 17310 17311 17312 17313 17314 17315 17316 17317 17318 17319 17320 17321 17322 17323 17324 17325 17326 17327 17328 17329 17330 17331 17332 17333 17334 17335 17336 17337 17338 17339 17340 17341 17342 17343 17344 17345 17346 17347 17348 17349 17350 17351 17352 17353 17354 17355 17356 17357 17358 17359 17360 17361 17362 17363 17364 17365 17366 17367 17368 17369 17370 17371 17372 17373 17374 17375 17376 17377 17378 17379 17380 17381 17382 17383 17384 17385 17386 17387 17388 17389 17390 17391 17392 17393 17394 17395 17396 17397 17398 17399 17400 17401 17402 17403 17404 17405 17406 17407 17408 17409 17410 17411 17412 17413 17414 17415 17416 17417 17418 17419 17420 17421 17422 17423 17424 17425 17426 17427 17428 17429 17430 17431 17432 17433 17434 17435 17436 17437 17438 17439 17440 17441 17442 17443 17444 17445 17446 17447 17448 17449 17450 17451 17452 17453 17454 17455 17456 17457 17458 17459 17460 17461 17462 17463 17464 17465 17466 17467 17468 17469 17470 17471 17472 17473 17474 17475 17476 17477 17478 17479 17480 17481 17482 17483 17484 17485 17486 17487 17488 17489 17490 17491 17492 17493 17494 17495 17496 17497 17498 17499 17500 17501 17502 17503 17504 17505 17506 17507 17508 17509 17510 17511 17512 17513 17514 17515 17516 17517 17518 17519 17520 17521 17522 17523 17524 17525 17526 17527 17528 17529 17530 17531 17532 17533 17534 17535 17536 17537 17538 17539 17540 17541 17542 17543 17544 17545 17546 17547 17548 17549 17550 17551 17552 17553 17554 17555 17556 17557 17558 17559 17560 17561 17562 17563 17564 17565 17566 17567 17568 17569 17570 17571 17572 17573 17574 17575 17576 17577 17578 17579 17580 17581 17582 17583 17584 17585 17586 17587 17588 17589 17590 17591 17592 17593 17594 17595 17596 17597 17598 17599 17600 17601 17602 17603 17604 17605 17606 17607 17608 17609 17610 17611 17612 17613 17614 17615 17616 17617 17618 17619 17620 17621 17622 17623 17624 17625 17626 17627 17628 17629 17630 17631 17632 17633 17634 17635 17636 17637 17638 17639 17640 17641 17642 17643 17644 17645 17646 17647 17648 17649 17650 17651 17652 17653 17654 17655 17656 17657 17658 17659 17660 17661 17662 17663 17664 17665 17666 17667 17668 17669 17670 17671 17672 17673 17674 17675 17676 17677 17678 17679 17680 17681 17682 17683 17684 17685 17686 17687 17688 17689 17690 17691 17692 17693 17694 17695 17696 17697 17698 17699 17700 17701 17702 17703 17704 17705 17706 17707 17708 17709 17710 17711 17712 17713 17714 17715 17716 17717 17718 17719 17720 17721 17722 17723 17724 17725 17726 17727 17728 17729 17730 17731 17732 17733 17734 17735 17736 17737 17738 17739 17740 17741 17742 17743 17744 17745 17746 17747 17748 17749 17750 17751 17752 17753 17754 17755 17756 17757 17758 17759 17760 17761 17762 17763 17764 17765 17766 17767 17768 17769 17770 17771 17772 17773 17774 17775 17776 17777 17778 17779 17780 17781 17782 17783 17784 17785 17786 17787 17788 17789 17790 17791 17792 17793 17794 17795 17796 17797 17798 17799 17800 17801 17802 17803 17804 17805 17806 17807 17808 17809 17810 17811 17812 17813 17814 17815 17816 17817 17818 17819 17820 17821 17822 17823 17824 17825 17826 17827 17828 17829 17830 17831 17832 17833 17834 17835 17836 17837 17838 17839 17840 17841 17842 17843 17844 17845 17846 17847 17848 17849 17850 17851 17852 17853 17854 17855 17856 17857 17858 17859 17860 17861 17862 17863 17864 17865 17866 17867 17868 17869 17870 17871 17872 17873 17874 17875 17876 17877 17878 17879 17880 17881 17882 17883 17884 17885 17886 17887 17888 17889 17890 17891 17892 17893 17894 17895 17896 17897 17898 17899 17900 17901 17902 17903 17904 17905 17906 17907 17908 17909 17910 17911 17912 17913 17914 17915 17916 17917 17918 17919 17920 17921 17922 17923 17924 17925 17926 17927 17928 17929 17930 17931 17932 17933 17934 17935 17936 17937 17938 17939 17940 17941 17942 17943 17944 17945 17946 17947 17948 17949 17950 17951 17952 17953 17954 17955 17956 17957 17958 17959 17960 17961 17962 17963 17964 17965 17966 17967 17968 17969 17970 17971 17972 17973 17974 17975 17976 17977 17978 17979 17980 17981 17982 17983 17984 17985 17986 17987 17988 17989 17990 17991 17992 17993 17994 17995 17996 17997 17998 17999 18000 18001 18002 18003 18004 18005 18006 18007 18008 18009 18010 18011 18012 18013 18014 18015 18016 18017 18018 18019 18020 18021 18022 18023 18024 18025 18026 18027 18028 18029 18030 18031 18032 18033 18034 18035 18036 18037 18038 18039 18040 18041 18042 18043 18044 18045 18046 18047 18048 18049 18050 18051 18052 18053 18054 18055 18056 18057 18058 18059 18060 18061 18062 18063 18064 18065 18066 18067 18068 18069 18070 18071 18072 18073 18074 18075 18076 18077 18078 18079 18080 18081 18082 18083 18084 18085 18086 18087 18088 18089 18090 18091 18092 18093 18094 18095 18096 18097 18098 18099 18100 18101 18102 18103 18104 18105 18106 18107 18108 18109 18110 18111 18112 18113 18114 18115 18116 18117 18118 18119 18120 18121 18122 18123 18124 18125 18126 18127 18128 18129 18130 18131 18132 18133 18134 18135 18136 18137 18138 18139 18140 18141 18142 18143 18144 18145 18146 18147 18148 18149 18150 18151 18152 18153 18154 18155 18156 18157 18158 18159 18160 18161 18162 18163 18164 18165 18166 18167 18168 18169 18170 18171 18172 18173 18174 18175 18176 18177 18178 18179 18180 18181 18182 18183 18184 18185 18186 18187 18188 18189 18190 18191 18192 18193 18194 18195 18196 18197 18198 18199 18200 18201 18202 18203 18204 18205 18206 18207 18208 18209 18210 18211 18212 18213 18214 18215 18216 18217 18218 18219 18220 18221 18222 18223 18224 18225 18226 18227 18228 18229 18230 18231 18232 18233 18234 18235 18236 18237 18238 18239 18240 18241 18242 18243 18244 18245 18246 18247 18248 18249 18250 18251 18252 18253 18254 18255 18256 18257 18258 18259 18260 18261 18262 18263 18264 18265 18266 18267 18268 18269 18270 18271 18272 18273 18274 18275 18276 18277 18278 18279 18280 18281 18282 18283 18284 18285 18286 18287 18288 18289 18290 18291 18292 18293 18294 18295 18296 18297 18298 18299 18300 18301 18302 18303 18304 18305 18306 18307 18308 18309 18310 18311 18312 18313 18314 18315 18316 18317 18318 18319 18320 18321 18322 18323 18324 18325 18326 18327 18328 18329 18330 18331 18332 18333 18334 18335 18336 18337 18338 18339 18340 18341 18342 18343 18344 18345 18346 18347 18348 18349 18350 18351 18352 18353 18354 18355 18356 18357 18358 18359 18360 18361 18362 18363 18364 18365 18366 18367 18368 18369 18370 18371 18372 18373 18374 18375 18376 18377 18378 18379 18380 18381 18382 18383 18384 18385 18386 18387 18388 18389 18390 18391 18392 18393 18394 18395 18396 18397 18398 18399 18400 18401 18402 18403 18404 18405 18406 18407 18408 18409 18410 18411 18412 18413 18414 18415 18416 18417 18418 18419 18420 18421 18422 18423 18424 18425 18426 18427 18428 18429 18430 18431 18432 18433 18434 18435 18436 18437 18438 18439 18440 18441 18442 18443 18444 18445 18446 18447 18448 18449 18450 18451 18452 18453 18454 18455 18456 18457 18458 18459 18460 18461 18462 18463 18464 18465 18466 18467 18468 18469 18470 18471 18472 18473 18474 18475 18476 18477 18478 18479 18480 18481 18482 18483 18484 18485 18486 18487 18488 18489 18490 18491 18492 18493 18494 18495 18496 18497 18498 18499 18500 18501 18502 18503 18504 18505 18506 18507 18508 18509 18510 18511 18512 18513 18514 18515 18516 18517 18518 18519 18520 18521 18522 18523 18524 18525 18526 18527 18528 18529 18530 18531 18532 18533 18534 18535 18536 18537 18538 18539 18540 18541 18542 18543 18544 18545 18546 18547 18548 18549 18550 18551 18552 18553 18554 18555 18556 18557 18558 18559 18560 18561 18562 18563 18564 18565 18566 18567 18568 18569 18570 18571 18572 18573 18574 18575 18576 18577 18578 18579 18580 18581 18582 18583 18584 18585 18586 18587 18588 18589 18590 18591 18592 18593 18594 18595 18596 18597 18598 18599 18600 18601 18602 18603 18604 18605 18606 18607 18608 18609 18610 18611 18612 18613 18614 18615 18616 18617 18618 18619 18620 18621 18622 18623 18624 18625 18626 18627 18628 18629 18630 18631 18632 18633 18634 18635 18636 18637 18638 18639 18640 18641 18642 18643 18644 18645 18646 18647 18648 18649 18650 18651 18652 18653 18654 18655 18656 18657 18658 18659 18660 18661 18662 18663 18664 18665 18666 18667 18668 18669 18670 18671 18672 18673 18674 18675 18676 18677 18678 18679 18680 18681 18682 18683 18684 18685 18686 18687 18688 18689 18690 18691 18692 18693 18694 18695 18696 18697 18698 18699 18700 18701 18702 18703 18704 18705 18706 18707 18708 18709 18710 18711 18712 18713 18714 18715 18716 18717 18718 18719 18720 18721 18722 18723 18724 18725 18726 18727 18728 18729 18730 18731 18732 18733 18734 18735 18736 18737 18738 18739 18740 18741 18742 18743 18744 18745 18746 18747 18748 18749 18750 18751 18752 18753 18754 18755 18756 18757 18758 18759 18760 18761 18762 18763 18764 18765 18766 18767 18768 18769 18770 18771 18772 18773 18774 18775 18776 18777 18778 18779 18780 18781 18782 18783 18784 18785 18786 18787 18788 18789 18790 18791 18792 18793 18794 18795 18796 18797 18798 18799 18800 18801 18802 18803 18804 18805 18806 18807 18808 18809 18810 18811 18812 18813 18814 18815 18816 18817 18818 18819 18820 18821 18822 18823 18824 18825 18826 18827 18828 18829 18830 18831 18832 18833 18834 18835 18836 18837 18838 18839 18840 18841 18842 18843 18844 18845 18846 18847 18848 18849 18850 18851 18852 18853 18854 18855 18856 18857 18858 18859 18860 18861 18862 18863 18864 18865 18866 18867 18868 18869 18870 18871 18872 18873 18874 18875 18876 18877 18878 18879 18880 18881 18882 18883 18884 18885 18886 18887 18888 18889 18890 18891 18892 18893 18894 18895 18896 18897 18898 18899 18900 18901 18902 18903 18904 18905 18906 18907 18908 18909 18910 18911 18912 18913 18914 18915 18916 18917 18918 18919 18920 18921 18922 18923 18924 18925 18926 18927 18928 18929 18930 18931 18932 18933 18934 18935 18936 18937 18938 18939 18940 18941 18942 18943 18944 18945 18946 18947 18948 18949 18950 18951 18952 18953 18954 18955 18956 18957 18958 18959 18960 18961 18962 18963 18964 18965 18966 18967 18968 18969 18970 18971 18972 18973 18974 18975 18976 18977 18978 18979 18980 18981 18982 18983 18984 18985 18986 18987 18988 18989 18990 18991 18992 18993 18994 18995 18996 18997 18998 18999 19000 19001 19002 19003 19004 19005 19006 19007 19008 19009 19010 19011 19012 19013 19014 19015 19016 19017 19018 19019 19020 19021 19022 19023 19024 19025 19026 19027 19028 19029 19030 19031 19032 19033 19034 19035 19036 19037 19038 19039 19040 19041 19042 19043 19044 19045 19046 19047 19048 19049 19050 19051 19052 19053 19054 19055 19056 19057 19058 19059 19060 19061 19062 19063 19064 19065 19066 19067 19068 19069 19070 19071 19072 19073 19074 19075 19076 19077 19078 19079 19080 19081 19082 19083 19084 19085 19086 19087 19088 19089 19090 19091 19092 19093 19094 19095 19096 19097 19098 19099 19100 19101 19102 19103 19104 19105 19106 19107 19108 19109 19110 19111 19112 19113 19114 19115 19116 19117 19118 19119 19120 19121 19122 19123 19124 19125 19126 19127 19128 19129 19130 19131 19132 19133 19134 19135 19136 19137 19138 19139 19140 19141 19142 19143 19144 19145 19146 19147 19148 19149 19150 19151 19152 19153 19154 19155 19156 19157 19158 19159 19160 19161 19162 19163 19164 19165 19166 19167 19168 19169 19170 19171 19172 19173 19174 19175 19176 19177 19178 19179 19180 19181 19182 19183 19184 19185 19186 19187 19188 19189 19190 19191 19192 19193 19194 19195 19196 19197 19198 19199 19200 19201 19202 19203 19204 19205 19206 19207 19208 19209 19210 19211 19212 19213 19214 19215 19216 19217 19218 19219 19220 19221 19222 19223 19224 19225 19226 19227 19228 19229 19230 19231 19232 19233 19234 19235 19236 19237 19238 19239 19240 19241 19242 19243 19244 19245 19246 19247 19248 19249 19250 19251 19252 19253 19254 19255 19256 19257 19258 19259 19260 19261 19262 19263 19264 19265 19266 19267 19268 19269 19270 19271 19272 19273 19274 19275 19276 19277 19278 19279 19280 19281 19282 19283 19284 19285 19286 19287 19288 19289 19290 19291 19292 19293 19294 19295 19296 19297 19298 19299 19300 19301 19302 19303 19304 19305 19306 19307 19308 19309 19310 19311 19312 19313 19314 19315 19316 19317 19318 19319 19320 19321 19322 19323 19324 19325 19326 19327 19328 19329 19330 19331 19332 19333 19334 19335 19336 19337 19338 19339 19340 19341 19342 19343 19344 19345 19346 19347 19348 19349 19350 19351 19352 19353 19354 19355 19356 19357 19358 19359 19360 19361 19362 19363 19364 19365 19366 19367 19368 19369 19370 19371 19372 19373 19374 19375 19376 19377 19378 19379 19380 19381 19382 19383 19384 19385 19386 19387 19388 19389 19390 19391 19392 19393 19394 19395 19396 19397 19398 19399 19400 19401 19402 19403 19404 19405 19406 19407 19408 19409 19410 19411 19412 19413 19414 19415 19416 19417 19418 19419 19420 19421 19422 19423 19424 19425 19426 19427 19428 19429 19430 19431 19432 19433 19434 19435 19436 19437 19438 19439 19440 19441 19442 19443 19444 19445 19446 19447 19448 19449 19450 19451 19452 19453 19454 19455 19456 19457 19458 19459 19460 19461 19462 19463 19464 19465 19466 19467 19468 19469 19470 19471 19472 19473 19474 19475 19476 19477 19478 19479 19480 19481 19482 19483 19484 19485 19486 19487 19488 19489 19490 19491 19492 19493 19494 19495 19496 19497 19498 19499 19500 19501 19502 19503 19504 19505 19506 19507 19508 19509 19510 19511 19512 19513 19514 19515 19516 19517 19518 19519 19520 19521 19522 19523 19524 19525 19526 19527 19528 19529 19530 19531 19532 19533 19534 19535 19536 19537 19538 19539 19540 19541 19542 19543 19544 19545 19546 19547 19548 19549 19550 19551 19552 19553 19554 19555 19556 19557 19558 19559 19560 19561 19562 19563 19564 19565 19566 19567 19568 19569 19570 19571 19572 19573 19574 19575 19576 19577 19578 19579 19580 19581 19582 19583 19584 19585 19586 19587 19588 19589 19590 19591 19592 19593 19594 19595 19596 19597 19598 19599 19600 19601 19602 19603 19604 19605 19606 19607 19608 19609 19610 19611 19612 19613 19614 19615 19616 19617 19618 19619 19620 19621 19622 19623 19624 19625 19626 19627 19628 19629 19630 19631 19632 19633 19634 19635 19636 19637 19638 19639 19640 19641 19642 19643 19644 19645 19646 19647 19648 19649 19650 19651 19652 19653 19654 19655 19656 19657 19658 19659 19660 19661 19662 19663 19664 19665 19666 19667 19668 19669 19670 19671 19672 19673 19674 19675 19676 19677 19678 19679 19680 19681 19682 19683 19684 19685 19686 19687 19688 19689 19690 19691 19692 19693 19694 19695 19696 19697 19698 19699 19700 19701 19702 19703 19704 19705 19706 19707 19708 19709 19710 19711 19712 19713 19714 19715 19716 19717 19718 19719 19720 19721 19722 19723 19724 19725 19726 19727 19728 19729 19730 19731 19732 19733 19734 19735 19736 19737 19738 19739 19740 19741 19742 19743 19744 19745 19746 19747 19748 19749 19750 19751 19752 19753 19754 19755 19756 19757 19758 19759 19760 19761 19762 19763 19764 19765 19766 19767 19768 19769 19770 19771 19772 19773 19774 19775 19776 19777 19778 19779 19780 19781 19782 19783 19784 19785 19786 19787 19788 19789 19790 19791 19792 19793 19794 19795 19796 19797 19798 19799 19800 19801 19802 19803 19804 19805 19806 19807 19808 19809 19810 19811 19812 19813 19814 19815 19816 19817 19818 19819 19820 19821 19822 19823 19824 19825 19826 19827 19828 19829 19830 19831 19832 19833 19834 19835 19836 19837 19838 19839 19840 19841 19842 19843 19844 19845 19846 19847 19848 19849 19850 19851 19852 19853 19854 19855 19856 19857 19858 19859 19860 19861 19862 19863 19864 19865 19866 19867 19868 19869 19870 19871 19872 19873 19874 19875 19876 19877 19878 19879 19880 19881 19882 19883 19884 19885 19886 19887 19888 19889 19890 19891 19892 19893 19894 19895 19896 19897 19898 19899 19900 19901 19902 19903 19904 19905 19906 19907 19908 19909 19910 19911 19912 19913 19914 19915 19916 19917 19918 19919 19920 19921 19922 19923 19924 19925 19926 19927 19928 19929 19930 19931 19932 19933 19934 19935 19936 19937 19938 19939 19940 19941 19942 19943 19944 19945 19946 19947 19948 19949 19950 19951 19952 19953 19954 19955 19956 19957 19958 19959 19960 19961 19962 19963 19964 19965 19966 19967 19968 19969 19970 19971 19972 19973 19974 19975 19976 19977 19978 19979 19980 19981 19982 19983 19984 19985 19986 19987 19988 19989 19990 19991 19992 19993 19994 19995 19996 19997 19998 19999 20000 20001 20002 20003 20004 20005 20006 20007 20008 20009 20010 20011 20012 20013 20014 20015 20016 20017 20018 20019 20020 20021 20022 20023 20024 20025 20026 20027 20028 20029 20030 20031 20032 20033 20034 20035 20036 20037 20038 20039 20040 20041 20042 20043 20044 20045 20046 20047 20048 20049 20050 20051 20052 20053 20054 20055 20056 20057 20058 20059 20060 20061 20062 20063 20064 20065 20066 20067 20068 20069 20070 20071 20072 20073 20074 20075 20076 20077 20078 20079 20080 20081 20082 20083 20084 20085 20086 20087 20088 20089 20090 20091 20092 20093 20094 20095 20096 20097 20098 20099 20100 20101 20102 20103 20104 20105 20106 20107 20108 20109 20110 20111 20112 20113 20114 20115 20116 20117 20118 20119 20120 20121 20122 20123 20124 20125 20126 20127 20128 20129 20130 20131 20132 20133 20134 20135 20136 20137 20138 20139 20140 20141 20142 20143 20144 20145 20146 20147 20148 20149 20150 20151 20152 20153 20154 20155 20156 20157 20158 20159 20160 20161 20162 20163 20164 20165 20166 20167 20168 20169 20170 20171 20172 20173 20174 20175 20176 20177 20178 20179 20180 20181 20182 20183 20184 20185 20186 20187 20188 20189 20190 20191 20192 20193 20194 20195 20196 20197 20198 20199 20200 20201 20202 20203 20204 20205 20206 20207 20208 20209 20210 20211 20212 20213 20214 20215 20216 20217 20218 20219 20220 20221 20222 20223 20224 20225 20226 20227 20228 20229 20230 20231 20232 20233 20234 20235 20236 20237 20238 20239 20240 20241 20242 20243 20244 20245 20246 20247 20248 20249 20250 20251 20252 20253 20254 20255 20256 20257 20258 20259 20260 20261 20262 20263 20264 20265 20266 20267 20268 20269 20270 20271 20272 20273 20274 20275 20276 20277 20278 20279 20280 20281 20282 20283 20284 20285 20286 20287 20288 20289 20290 20291 20292 20293 20294 20295 20296 20297 20298 20299 20300 20301 20302 20303 20304 20305 20306 20307 20308 20309 20310 20311 20312 20313 20314 20315 20316 20317 20318 20319 20320 20321 20322 20323 20324 20325 20326 20327 20328 20329 20330 20331 20332 20333 20334 20335 20336 20337 20338 20339 20340 20341 20342 20343 20344 20345 20346 20347 20348 20349 20350 20351 20352 20353 20354 20355 20356 20357 20358 20359 20360 20361 20362 20363 20364 20365 20366 20367 20368 20369 20370 20371 20372 20373 20374 20375 20376 20377 20378 20379 20380 20381 20382 20383 20384 20385 20386 20387 20388 20389 20390 20391 20392 20393 20394 20395 20396 20397 20398 20399 20400 20401 20402 20403 20404 20405 20406 20407 20408 20409 20410 20411 20412 20413 20414 20415 20416 20417 20418 20419 20420 20421 20422 20423 20424 20425 20426 20427 20428 20429 20430 20431 20432 20433 20434 20435 20436 20437 20438 20439 20440 20441 20442 20443 20444 20445 20446 20447 20448 20449 20450 20451 20452 20453 20454 20455 20456 20457 20458 20459 20460 20461 20462 20463 20464 20465 20466 20467 20468 20469 20470 20471 20472 20473 20474 20475 20476 20477 20478 20479 20480 20481 20482 20483 20484 20485 20486 20487 20488 20489 20490 20491 20492 20493 20494 20495 20496 20497 20498 20499 20500 20501 20502 20503 20504 20505 20506 20507 20508 20509 20510 20511 20512 20513 20514 20515 20516 20517 20518 20519 20520 20521 20522 20523 20524 20525 20526 20527 20528 20529 20530 20531 20532 20533 20534 20535 20536 20537 20538 20539 20540 20541 20542 20543 20544 20545 20546 20547 20548 20549 20550 20551 20552 20553 20554 20555 20556 20557 20558 20559 20560 20561 20562 20563 20564 20565 20566 20567 20568 20569 20570 20571 20572 20573 20574 20575 20576 20577 20578 20579 20580 20581 20582 20583 20584 20585 20586 20587 20588 20589 20590 20591 20592 20593 20594 20595 20596 20597 20598 20599 20600 20601 20602 20603 20604 20605 20606 20607 20608 20609 20610 20611 20612 20613 20614 20615 20616 20617 20618 20619 20620 20621 20622 20623 20624 20625 20626 20627 20628 20629 20630 20631 20632 20633 20634 20635 20636 20637 20638 20639 20640 20641 20642 20643 20644 20645 20646 20647 20648 20649 20650 20651 20652 20653 20654 20655 20656 20657 20658 20659 20660 20661 20662 20663 20664 20665 20666 20667 20668 20669 20670 20671 20672 20673 20674 20675 20676 20677 20678 20679 20680 20681 20682 20683 20684 20685 20686 20687 20688 20689 20690 20691 20692 20693 20694 20695 20696 20697 20698 20699 20700 20701 20702 20703 20704 20705 20706 20707 20708 20709 20710 20711 20712 20713 20714 20715 20716 20717 20718 20719 20720 20721 20722 20723 20724 20725 20726 20727 20728 20729 20730 20731 20732 20733 20734 20735 20736 20737 20738 20739 20740 20741 20742 20743 20744 20745 20746 20747 20748 20749 20750 20751 20752 20753 20754 20755 20756 20757 20758 20759 20760 20761 20762 20763 20764 20765 20766 20767 20768 20769 20770 20771 20772 20773 20774 20775 20776 20777 20778 20779 20780 20781 20782 20783 20784 20785 20786 20787 20788 20789 20790 20791 20792 20793 20794 20795 20796 20797 20798 20799 20800 20801 20802 20803 20804 20805 20806 20807 20808 20809 20810 20811 20812 20813 20814 20815 20816 20817 20818 20819 20820 20821 20822 20823 20824 20825 20826 20827 20828 20829 20830 20831 20832 20833 20834 20835 20836 20837 20838 20839 20840 20841 20842 20843 20844 20845 20846 20847 20848 20849 20850 20851 20852 20853 20854 20855 20856 20857 20858 20859 20860 20861 20862 20863 20864 20865 20866 20867 20868 20869 20870 20871 20872 20873 20874 20875 20876 20877 20878 20879 20880 20881 20882 20883 20884 20885 20886 20887 20888 20889 20890 20891 20892 20893 20894 20895 20896 20897 20898 20899 20900 20901 20902 20903 20904 20905 20906 20907 20908 20909 20910 20911 20912 20913 20914 20915 20916 20917 20918 20919 20920 20921 20922 20923 20924 20925 20926 20927 20928 20929 20930 20931 20932 20933 20934 20935 20936 20937 20938 20939 20940 20941 20942 20943 20944 20945 20946 20947 20948 20949 20950 20951 20952 20953 20954 20955 20956 20957 20958 20959 20960 20961 20962 20963 20964 20965 20966 20967 20968 20969 20970 20971 20972 20973 20974 20975 20976 20977 20978 20979 20980 20981 20982 20983 20984 20985 20986 20987 20988 20989 20990 20991 20992 20993 20994 20995 20996 20997 20998 20999 21000 21001 21002 21003 21004 21005 21006 21007 21008 21009 21010 21011 21012 21013 21014 21015 21016 21017 21018 21019 21020 21021 21022 21023 21024 21025 21026 21027 21028 21029 21030 21031 21032 21033 21034 21035 21036 21037 21038 21039 21040 21041 21042 21043 21044 21045 21046 21047 21048 21049 21050 21051 21052 21053 21054 21055 21056 21057 21058 21059 21060 21061 21062 21063 21064 21065 21066 21067 21068 21069 21070 21071 21072 21073 21074 21075 21076 21077 21078 21079 21080 21081 21082 21083 21084 21085 21086 21087 21088 21089 21090 21091 21092 21093 21094 21095 21096 21097 21098 21099 21100 21101 21102 21103 21104 21105 21106 21107 21108 21109 21110 21111 21112 21113 21114 21115 21116 21117 21118 21119 21120 21121 21122 21123 21124 21125 21126 21127 21128 21129 21130 21131 21132 21133 21134 21135 21136 21137 21138 21139 21140 21141 21142 21143 21144 21145 21146 21147 21148 21149 21150 21151 21152 21153 21154 21155 21156 21157 21158 21159 21160 21161 21162 21163 21164 21165 21166 21167 21168 21169 21170 21171 21172 21173 21174 21175 21176 21177 21178 21179 21180 21181 21182 21183 21184 21185 21186 21187 21188 21189 21190 21191 21192 21193 21194 21195 21196 21197 21198 21199 21200 21201 21202 21203 21204 21205 21206 21207 21208 21209 21210 21211 21212 21213 21214 21215 21216 21217 21218 21219 21220 21221 21222 21223 21224 21225 21226 21227 21228 21229 21230 21231 21232 21233 21234 21235 21236 21237 21238 21239 21240 21241 21242 21243 21244 21245 21246 21247 21248 21249 21250 21251 21252 21253 21254 21255 21256 21257 21258 21259 21260 21261 21262 21263 21264 21265 21266 21267 21268 21269 21270 21271 21272 21273 21274 21275 21276 21277 21278 21279 21280 21281 21282 21283 21284 21285 21286 21287 21288 21289 21290 21291 21292 21293 21294 21295 21296 21297 21298 21299 21300 21301 21302 21303 21304 21305 21306 21307 21308 21309 21310 21311 21312 21313 21314 21315 21316 21317 21318 21319 21320 21321 21322 21323 21324 21325 21326 21327 21328 21329 21330 21331 21332 21333 21334 21335 21336 21337 21338 21339 21340 21341 21342 21343 21344 21345 21346 21347 21348 21349 21350 21351 21352 21353 21354 21355 21356 21357 21358 21359 21360 21361 21362 21363 21364 21365 21366 21367 21368 21369 21370 21371 21372 21373 21374 21375 21376 21377 21378 21379 21380 21381 21382 21383 21384 21385 21386 21387 21388 21389 21390 21391 21392 21393 21394 21395 21396 21397 21398 21399 21400 21401 21402 21403 21404 21405 21406 21407 21408 21409 21410 21411 21412 21413 21414 21415 21416 21417 21418 21419 21420 21421 21422 21423 21424 21425 21426 21427 21428 21429 21430 21431 21432 21433 21434 21435 21436 21437 21438 21439 21440 21441 21442 21443 21444 21445 21446 21447 21448 21449 21450 21451 21452 21453 21454 21455 21456 21457 21458 21459 21460 21461 21462 21463 21464 21465 21466 21467 21468 21469 21470 21471 21472 21473 21474 21475 21476 21477 21478 21479 21480 21481 21482 21483 21484 21485 21486 21487 21488 21489 21490 21491 21492 21493 21494 21495 21496 21497 21498 21499 21500 21501 21502 21503 21504 21505 21506 21507 21508 21509 21510 21511 21512 21513 21514 21515 21516 21517 21518 21519 21520 21521 21522 21523 21524 21525 21526 21527 21528 21529 21530 21531 21532 21533 21534 21535 21536 21537 21538 21539 21540 21541 21542 21543 21544 21545 21546 21547 21548 21549 21550 21551 21552 21553 21554 21555 21556 21557 21558 21559 21560 21561 21562 21563 21564 21565 21566 21567 21568 21569 21570 21571 21572 21573 21574 21575 21576 21577 21578 21579 21580 21581 21582 21583 21584 21585 21586 21587 21588 21589 21590 21591 21592 21593 21594 21595 21596 21597 21598 21599 21600 21601 21602 21603 21604 21605 21606 21607 21608 21609 21610 21611 21612 21613 21614 21615 21616 21617 21618 21619 21620 21621 21622 21623 21624 21625 21626 21627 21628 21629 21630 21631 21632 21633 21634 21635 21636 21637 21638 21639 21640 21641 21642 21643 21644 21645 21646 21647 21648 21649 21650 21651 21652 21653 21654 21655 21656 21657 21658 21659 21660 21661 21662 21663 21664 21665 21666 21667 21668 21669 21670 21671 21672 21673 21674 21675 21676 21677 21678 21679 21680 21681 21682 21683 21684 21685 21686 21687 21688 21689 21690 21691 21692 21693 21694 21695 21696 21697 21698 21699 21700 21701 21702 21703 21704 21705 21706 21707 21708 21709 21710 21711 21712 21713 21714 21715 21716 21717 21718 21719 21720 21721 21722 21723 21724 21725 21726 21727 21728 21729 21730 21731 21732 21733 21734 21735 21736 21737 21738 21739 21740 21741 21742 21743 21744 21745 21746 21747 21748 21749 21750 21751 21752 21753 21754 21755 21756 21757 21758 21759 21760 21761 21762 21763 21764 21765 21766 21767 21768 21769 21770 21771 21772 21773 21774 21775 21776 21777 21778 21779 21780 21781 21782 21783 21784 21785 21786 21787 21788 21789 21790 21791 21792 21793 21794 21795 21796 21797 21798 21799 21800 21801 21802 21803 21804 21805 21806 21807 21808 21809 21810 21811 21812 21813 21814 21815 21816 21817 21818 21819 21820 21821 21822 21823 21824 21825 21826 21827 21828 21829 21830 21831 21832 21833 21834 21835 21836 21837 21838 21839 21840 21841 21842 21843 21844 21845 21846 21847 21848 21849 21850 21851 21852 21853 21854 21855 21856 21857 21858 21859 21860 21861 21862 21863 21864 21865 21866 21867 21868 21869 21870 21871 21872 21873 21874 21875 21876 21877 21878 21879 21880 21881 21882 21883 21884 21885 21886 21887 21888 21889 21890 21891 21892 21893 21894 21895 21896 21897 21898 21899 21900 21901 21902 21903 21904 21905 21906 21907 21908 21909 21910 21911 21912 21913 21914 21915 21916 21917 21918 21919 21920 21921 21922 21923 21924 21925 21926 21927 21928 21929 21930 21931 21932 21933 21934 21935 21936 21937 21938 21939 21940 21941 21942 21943 21944 21945 21946 21947 21948 21949 21950 21951 21952 21953 21954 21955 21956 21957 21958 21959 21960 21961 21962 21963 21964 21965 21966 21967 21968 21969 21970 21971 21972 21973 21974 21975 21976 21977 21978 21979 21980 21981 21982 21983 21984 21985 21986 21987 21988 21989 21990 21991 21992 21993 21994 21995 21996 21997 21998 21999 22000 22001 22002 22003 22004 22005 22006 22007 22008 22009 22010 22011 22012 22013 22014 22015 22016 22017 22018 22019 22020 22021 22022 22023 22024 22025 22026 22027 22028 22029 22030 22031 22032 22033 22034 22035 22036 22037 22038 22039 22040 22041 22042 22043 22044 22045 22046 22047 22048 22049 22050 22051 22052 22053 22054 22055 22056 22057 22058 22059 22060 22061 22062 22063 22064 22065 22066 22067 22068 22069 22070 22071 22072 22073 22074 22075 22076 22077 22078 22079 22080 22081 22082 22083 22084 22085 22086 22087 22088 22089 22090 22091 22092 22093 22094 22095 22096 22097 22098 22099 22100 22101 22102 22103 22104 22105 22106 22107 22108 22109 22110 22111 22112 22113 22114 22115 22116 22117 22118 22119 22120 22121 22122 22123 22124 22125 22126 22127 22128 22129 22130 22131 22132 22133 22134 22135 22136 22137 22138 22139 22140 22141 22142 22143 22144 22145 22146 22147 22148 22149 22150 22151 22152 22153 22154 22155 22156 22157 22158 22159 22160 22161 22162 22163 22164 22165 22166 22167 22168 22169 22170 22171 22172 22173 22174 22175 22176 22177 22178 22179 22180 22181 22182 22183 22184 22185 22186 22187 22188 22189 22190 22191 22192 22193 22194 22195 22196 22197 22198 22199 22200 22201 22202 22203 22204 22205 22206 22207 22208 22209 22210 22211 22212 22213 22214 22215 22216 22217 22218 22219 22220 22221 22222 22223 22224 22225 22226 22227 22228 22229 22230 22231 22232 22233 22234 22235 22236 22237 22238 22239 22240 22241 22242 22243 22244 22245 22246 22247 22248 22249 22250 22251 22252 22253 22254 22255 22256 22257 22258 22259 22260 22261 22262 22263 22264 22265 22266 22267 22268 22269 22270 22271 22272 22273 22274 22275 22276 22277 22278 22279 22280 22281 22282 22283 22284 22285 22286 22287 22288 22289 22290 22291 22292 22293 22294 22295 22296 22297 22298 22299 22300 22301 22302 22303 22304 22305 22306 22307 22308 22309 22310 22311 22312 22313 22314 22315 22316 22317 22318 22319 22320 22321 22322 22323 22324 22325 22326 22327 22328 22329 22330 22331 22332 22333 22334 22335 22336 22337 22338 22339 22340 22341 22342 22343 22344 22345 22346 22347 22348 22349 22350 22351 22352 22353 22354 22355 22356 22357 22358 22359 22360 22361 22362 22363 22364 22365 22366 22367 22368 22369 22370 22371 22372 22373 22374 22375 22376 22377 22378 22379 22380 22381 22382 22383 22384 22385 22386 22387 22388 22389 22390 22391 22392 22393 22394 22395 22396 22397 22398 22399 22400 22401 22402 22403 22404 22405 22406 22407 22408 22409 22410 22411 22412 22413 22414 22415 22416 22417 22418 22419 22420 22421 22422 22423 22424 22425 22426 22427 22428 22429 22430 22431 22432 22433 22434 22435 22436 22437 22438 22439 22440 22441 22442 22443 22444 22445 22446 22447 22448 22449 22450 22451 22452 22453 22454 22455 22456 22457 22458 22459 22460 22461 22462 22463 22464 22465 22466 22467 22468 22469 22470 22471 22472 22473 22474 22475 22476 22477 22478 22479 22480 22481 22482 22483 22484 22485 22486 22487 22488 22489 22490 22491 22492 22493 22494 22495 22496 22497 22498 22499 22500 22501 22502 22503 22504 22505 22506 22507 22508 22509 22510 22511 22512 22513 22514 22515 22516 22517 22518 22519 22520 22521 22522 22523 22524 22525 22526 22527 22528 22529 22530 22531 22532 22533 22534 22535 22536 22537 22538 22539 22540 22541 22542 22543 22544 22545 22546 22547 22548 22549 22550 22551 22552 22553 22554 22555 22556 22557 22558 22559 22560 22561 22562 22563 22564 22565 22566 22567 22568 22569 22570 22571 22572 22573 22574 22575 22576 22577 22578 22579 22580 22581 22582 22583 22584 22585 22586 22587 22588 22589 22590 22591 22592 22593 22594 22595 22596 22597 22598 22599 22600 22601 22602 22603 22604 22605 22606 22607 22608 22609 22610 22611 22612 22613 22614 22615 22616 22617 22618 22619 22620 22621 22622 22623 22624 22625 22626 22627 22628 22629 22630 22631 22632 22633 22634 22635 22636 22637 22638 22639 22640 22641 22642 22643 22644 22645 22646 22647 22648 22649 22650 22651 22652 22653 22654 22655 22656 22657 22658 22659 22660 22661 22662 22663 22664 22665 22666 22667 22668 22669 22670 22671 22672 22673 22674 22675 22676 22677 22678 22679 22680 22681 22682 22683 22684 22685 22686 22687 22688 22689 22690 22691 22692 22693 22694 22695 22696 22697 22698 22699 22700 22701 22702 22703 22704 22705 22706 22707 22708 22709 22710 22711 22712 22713 22714 22715 22716 22717 22718 22719 22720 22721 22722 22723 22724 22725 22726 22727 22728 22729 22730 22731 22732 22733 22734 22735 22736 22737 22738 22739 22740 22741 22742 22743 22744 22745 22746 22747 22748 22749 22750 22751 22752 22753 22754 22755 22756 22757 22758 22759 22760 22761 22762 22763 22764 22765 22766 22767 22768 22769 22770 22771 22772 22773 22774 22775 22776 22777 22778 22779 22780 22781 22782 22783 22784 22785 22786 22787 22788 22789 22790 22791 22792 22793 22794 22795 22796 22797 22798 22799 22800 22801 22802 22803 22804 22805 22806 22807 22808 22809 22810 22811 22812 22813 22814 22815 22816 22817 22818 22819 22820 22821 22822 22823 22824 22825 22826 22827 22828 22829 22830 22831 22832 22833 22834 22835 22836 22837 22838 22839 22840 22841 22842 22843 22844 22845 22846 22847 22848 22849 22850 22851 22852 22853 22854 22855 22856 22857 22858 22859 22860 22861 22862 22863 22864 22865 22866 22867 22868 22869 22870 22871 22872 22873 22874 22875 22876 22877 22878 22879 22880 22881 22882 22883 22884 22885 22886 22887 22888 22889 22890 22891 22892 22893 22894 22895 22896 22897 22898 22899 22900 22901 22902 22903 22904 22905 22906 22907 22908 22909 22910 22911 22912 22913 22914 22915 22916 22917 22918 22919 22920 22921 22922 22923 22924 22925 22926 22927 22928 22929 22930 22931 22932 22933 22934 22935 22936 22937 22938 22939 22940 22941 22942 22943 22944 22945 22946 22947 22948 22949 22950 22951 22952 22953 22954 22955 22956 22957 22958 22959 22960 22961 22962 22963 22964 22965 22966 22967 22968 22969 22970 22971 22972 22973 22974 22975 22976 22977 22978 22979 22980 22981 22982 22983 22984 22985 22986 22987 22988 22989 22990 22991 22992 22993 22994 22995 22996 22997 22998 22999 23000 23001 23002 23003 23004 23005 23006 23007 23008 23009 23010 23011 23012 23013 23014 23015 23016 23017 23018 23019 23020 23021 23022 23023 23024 23025 23026 23027 23028 23029 23030 23031 23032 23033 23034 23035 23036 23037 23038 23039 23040 23041 23042 23043 23044 23045 23046 23047 23048 23049 23050 23051 23052 23053 23054 23055 23056 23057 23058 23059 23060 23061 23062 23063 23064 23065 23066 23067 23068 23069 23070 23071 23072 23073 23074 23075 23076 23077 23078 23079 23080 23081 23082 23083 23084 23085 23086 23087 23088 23089 23090 23091 23092 23093 23094 23095 23096 23097 23098 23099 23100 23101 23102 23103 23104 23105 23106 23107 23108 23109 23110 23111 23112 23113 23114 23115 23116 23117 23118 23119 23120 23121 23122 23123 23124 23125 23126 23127 23128 23129 23130 23131 23132 23133 23134 23135 23136 23137 23138 23139 23140 23141 23142 23143 23144 23145 23146 23147 23148 23149 23150 23151 23152 23153 23154 23155 23156 23157 23158 23159 23160 23161 23162 23163 23164 23165 23166 23167 23168 23169 23170 23171 23172 23173 23174 23175 23176 23177 23178 23179 23180 23181 23182 23183 23184 23185 23186 23187 23188 23189 23190 23191 23192 23193 23194 23195 23196 23197 23198 23199 23200 23201 23202 23203 23204 23205 23206 23207 23208 23209 23210 23211 23212 23213 23214 23215 23216 23217 23218 23219 23220 23221 23222 23223 23224 23225 23226 23227 23228 23229 23230 23231 23232 23233 23234 23235 23236 23237 23238 23239 23240 23241 23242 23243 23244 23245 23246 23247 23248 23249 23250 23251 23252 23253 23254 23255 23256 23257 23258 23259 23260 23261 23262 23263 23264 23265 23266 23267 23268 23269 23270 23271 23272 23273 23274 23275 23276 23277 23278 23279 23280 23281 23282 23283 23284 23285 23286 23287 23288 23289 23290 23291 23292 23293 23294 23295 23296 23297 23298 23299 23300 23301 23302 23303 23304 23305 23306 23307 23308 23309 23310 23311 23312 23313 23314 23315 23316 23317 23318 23319 23320 23321 23322 23323 23324 23325 23326 23327 23328 23329 23330 23331 23332 23333 23334 23335 23336 23337 23338 23339 23340 23341 23342 23343 23344 23345 23346 23347 23348 23349 23350 23351 23352 23353 23354 23355 23356 23357 23358 23359 23360 23361 23362 23363 23364 23365 23366 23367 23368 23369 23370 23371 23372 23373 23374 23375 23376 23377 23378 23379 23380 23381 23382 23383 23384 23385 23386 23387 23388 23389 23390 23391 23392 23393 23394 23395 23396 23397 23398 23399 23400 23401 23402 23403 23404 23405 23406 23407 23408 23409 23410 23411 23412 23413 23414 23415 23416 23417 23418 23419 23420 23421 23422 23423 23424 23425 23426 23427 23428 23429 23430 23431 23432 23433 23434 23435 23436 23437 23438 23439 23440 23441 23442 23443 23444 23445 23446 23447 23448 23449 23450 23451 23452 23453 23454 23455 23456 23457 23458 23459 23460 23461 23462 23463 23464 23465 23466 23467 23468 23469 23470 23471 23472 23473 23474 23475 23476 23477 23478 23479 23480 23481 23482 23483 23484 23485 23486 23487 23488 23489 23490 23491 23492 23493 23494 23495 23496 23497 23498 23499 23500 23501 23502 23503 23504 23505 23506 23507 23508 23509 23510 23511 23512 23513 23514 23515 23516 23517 23518 23519 23520 23521 23522 23523 23524 23525 23526 23527 23528 23529 23530 23531 23532 23533 23534 23535 23536 23537 23538 23539 23540 23541 23542 23543 23544 23545 23546 23547 23548 23549 23550 23551 23552 23553 23554 23555 23556 23557 23558 23559 23560 23561 23562 23563 23564 23565 23566 23567 23568 23569 23570 23571 23572 23573 23574 23575 23576 23577 23578 23579 23580 23581 23582 23583 23584 23585 23586 23587 23588 23589 23590 23591 23592 23593 23594 23595 23596 23597 23598 23599 23600 23601 23602 23603 23604 23605 23606 23607 23608 23609 23610 23611 23612 23613 23614 23615 23616 23617 23618 23619 23620 23621 23622 23623 23624 23625 23626 23627 23628 23629 23630 23631 23632 23633 23634 23635 23636 23637 23638 23639 23640 23641 23642 23643 23644 23645 23646 23647 23648 23649 23650 23651 23652 23653 23654 23655 23656 23657 23658 23659 23660 23661 23662 23663 23664 23665 23666 23667 23668 23669 23670 23671 23672 23673 23674 23675 23676 23677 23678 23679 23680 23681 23682 23683 23684 23685 23686 23687 23688 23689 23690 23691 23692 23693 23694 23695 23696 23697 23698 23699 23700 23701 23702 23703 23704 23705 23706 23707 23708 23709 23710 23711 23712 23713 23714 23715 23716 23717 23718 23719 23720 23721 23722 23723 23724 23725 23726 23727 23728 23729 23730 23731 23732 23733 23734 23735 23736 23737 23738 23739 23740 23741 23742 23743 23744 23745 23746 23747 23748 23749 23750 23751 23752 23753 23754 23755 23756 23757 23758 23759 23760 23761 23762 23763 23764 23765 23766 23767 23768 23769 23770 23771 23772 23773 23774 23775 23776 23777 23778 23779 23780 23781 23782 23783 23784 23785 23786 23787 23788 23789 23790 23791 23792 23793 23794 23795 23796 23797 23798 23799 23800 23801 23802 23803 23804 23805 23806 23807 23808 23809 23810 23811 23812 23813 23814 23815 23816 23817 23818 23819 23820 23821 23822 23823 23824 23825 23826 23827 23828 23829 23830 23831 23832 23833 23834 23835 23836 23837 23838 23839 23840 23841 23842 23843 23844 23845 23846 23847 23848 23849 23850 23851 23852 23853 23854 23855 23856 23857 23858 23859 23860 23861 23862 23863 23864 23865 23866 23867 23868 23869 23870 23871 23872 23873 23874 23875 23876 23877 23878 23879 23880 23881 23882 23883 23884 23885 23886 23887 23888 23889 23890 23891 23892 23893 23894 23895 23896 23897 23898 23899 23900 23901 23902 23903 23904 23905 23906 23907 23908 23909 23910 23911 23912 23913 23914 23915 23916 23917 23918 23919 23920 23921 23922 23923 23924 23925 23926 23927 23928 23929 23930 23931 23932 23933 23934 23935 23936 23937 23938 23939 23940 23941 23942 23943 23944 23945 23946 23947 23948 23949 23950 23951 23952 23953 23954 23955 23956 23957 23958 23959 23960 23961 23962 23963 23964 23965 23966 23967 23968 23969 23970 23971 23972 23973 23974 23975 23976 23977 23978 23979 23980 23981 23982 23983 23984 23985 23986 23987 23988 23989 23990 23991 23992 23993 23994 23995 23996 23997 23998 23999 24000 24001 24002 24003 24004 24005 24006 24007 24008 24009 24010 24011 24012 24013 24014 24015 24016 24017 24018 24019 24020 24021 24022 24023 24024 24025 24026 24027 24028 24029 24030 24031 24032 24033 24034 24035 24036 24037 24038 24039 24040 24041 24042 24043 24044 24045 24046 24047 24048 24049 24050 24051 24052 24053 24054 24055 24056 24057 24058 24059 24060 24061 24062 24063 24064 24065 24066 24067 24068 24069 24070 24071 24072 24073 24074 24075 24076 24077 24078 24079 24080 24081 24082 24083 24084 24085 24086 24087 24088 24089 24090 24091 24092 24093 24094 24095 24096 24097 24098 24099 24100 24101 24102 24103 24104 24105 24106 24107 24108 24109 24110 24111 24112 24113 24114 24115 24116 24117 24118 24119 24120 24121 24122 24123 24124 24125 24126 24127 24128 24129 24130 24131 24132 24133 24134 24135 24136 24137 24138 24139 24140 24141 24142 24143 24144 24145 24146 24147 24148 24149 24150 24151 24152 24153 24154 24155 24156 24157 24158 24159 24160 24161 24162 24163 24164 24165 24166 24167 24168 24169 24170 24171 24172 24173 24174 24175 24176 24177 24178 24179 24180 24181 24182 24183 24184 24185 24186 24187 24188 24189 24190 24191 24192 24193 24194 24195 24196 24197 24198 24199 24200 24201 24202 24203 24204 24205 24206 24207 24208 24209 24210 24211 24212 24213 24214 24215 24216 24217 24218 24219 24220 24221 24222 24223 24224 24225 24226 24227 24228 24229 24230 24231 24232 24233 24234 24235 24236 24237 24238 24239 24240 24241 24242 24243 24244 24245 24246 24247 24248 24249 24250 24251 24252 24253 24254 24255 24256 24257 24258 24259 24260 24261 24262 24263 24264 24265 24266 24267 24268 24269 24270 24271 24272 24273 24274 24275 24276 24277 24278 24279 24280 24281 24282 24283 24284 24285 24286 24287 24288 24289 24290 24291 24292 24293 24294 24295 24296 24297 24298 24299 24300 24301 24302 24303 24304 24305 24306 24307 24308 24309 24310 24311 24312 24313 24314 24315 24316 24317 24318 24319 24320 24321 24322 24323 24324 24325 24326 24327 24328 24329 24330 24331 24332 24333 24334 24335 24336 24337 24338 24339 24340 24341 24342 24343 24344 24345 24346 24347 24348 24349 24350 24351 24352 24353 24354 24355 24356 24357 24358 24359 24360 24361 24362 24363 24364 24365 24366 24367 24368 24369 24370 24371 24372 24373 24374 24375 24376 24377 24378 24379 24380 24381 24382 24383 24384 24385 24386 24387 24388 24389 24390 24391 24392 24393 24394 24395 24396 24397 24398 24399 24400 24401 24402 24403 24404 24405 24406 24407 24408 24409 24410 24411 24412 24413 24414 24415 24416 24417 24418 24419 24420 24421 24422 24423 24424 24425 24426 24427 24428 24429 24430 24431 24432 24433 24434 24435 24436 24437 24438 24439 24440 24441 24442 24443 24444 24445 24446 24447 24448 24449 24450 24451 24452 24453 24454 24455 24456 24457 24458 24459 24460 24461 24462 24463 24464 24465 24466 24467 24468 24469 24470 24471 24472 24473 24474 24475 24476 24477 24478 24479 24480 24481 24482 24483 24484 24485 24486 24487 24488 24489 24490 24491 24492 24493 24494 24495 24496 24497 24498 24499 24500 24501 24502 24503 24504 24505 24506 24507 24508 24509 24510 24511 24512 24513 24514 24515 24516 24517 24518 24519 24520 24521 24522 24523 24524 24525 24526 24527 24528 24529 24530 24531 24532 24533 24534 24535 24536 24537 24538 24539 24540 24541 24542 24543 24544 24545 24546 24547 24548 24549 24550 24551 24552 24553 24554 24555 24556 24557 24558 24559 24560 24561 24562 24563 24564 24565 24566 24567 24568 24569 24570 24571 24572 24573 24574 24575 24576 24577 24578 24579 24580 24581 24582 24583 24584 24585 24586 24587 24588 24589 24590 24591 24592 24593 24594 24595 24596 24597 24598 24599 24600 24601 24602 24603 24604 24605 24606 24607 24608 24609 24610 24611 24612 24613 24614 24615 24616 24617 24618 24619 24620 24621 24622 24623 24624 24625 24626 24627 24628 24629 24630 24631 24632 24633 24634 24635 24636 24637 24638 24639 24640 24641 24642 24643 24644 24645 24646 24647 24648 24649 24650 24651 24652 24653 24654 24655 24656 24657 24658 24659 24660 24661 24662 24663 24664 24665 24666 24667 24668 24669 24670 24671 24672 24673 24674 24675 24676 24677 24678 24679 24680 24681 24682 24683 24684 24685 24686 24687 24688 24689 24690 24691 24692 24693 24694 24695 24696 24697 24698 24699 24700 24701 24702 24703 24704 24705 24706 24707 24708 24709 24710 24711 24712 24713 24714 24715 24716 24717 24718 24719 24720 24721 24722 24723 24724 24725 24726 24727 24728 24729 24730 24731 24732 24733 24734 24735 24736 24737 24738 24739 24740 24741 24742 24743 24744 24745 24746 24747 24748 24749 24750 24751 24752 24753 24754 24755 24756 24757 24758 24759 24760 24761 24762 24763 24764 24765 24766 24767 24768 24769 24770 24771 24772 24773 24774 24775 24776 24777 24778 24779 24780 24781 24782 24783 24784 24785 24786 24787 24788 24789 24790 24791 24792 24793 24794 24795 24796 24797 24798 24799 24800 24801 24802 24803 24804 24805 24806 24807 24808 24809 24810 24811 24812 24813 24814 24815 24816 24817 24818 24819 24820 24821 24822 24823 24824 24825 24826 24827 24828 24829 24830 24831 24832 24833 24834 24835 24836 24837 24838 24839 24840 24841 24842 24843 24844 24845 24846 24847 24848 24849 24850 24851 24852 24853 24854 24855 24856 24857 24858 24859 24860 24861 24862 24863 24864 24865 24866 24867 24868 24869 24870 24871 24872 24873 24874 24875 24876 24877 24878 24879 24880 24881 24882 24883 24884 24885 24886 24887 24888 24889 24890 24891 24892 24893 24894 24895 24896 24897 24898 24899 24900 24901 24902 24903 24904 24905 24906 24907 24908 24909 24910 24911 24912 24913 24914 24915 24916 24917 24918 24919 24920 24921 24922 24923 24924 24925 24926 24927 24928 24929 24930 24931 24932 24933 24934 24935 24936 24937 24938 24939 24940 24941 24942 24943 24944 24945 24946 24947 24948 24949 24950 24951 24952 24953 24954 24955 24956 24957 24958 24959 24960 24961 24962 24963 24964 24965 24966 24967 24968 24969 24970 24971 24972 24973 24974 24975 24976 24977 24978 24979 24980 24981 24982 24983 24984 24985 24986 24987 24988 24989 24990 24991 24992 24993 24994 24995 24996 24997 24998 24999 25000 25001 25002 25003 25004 25005 25006 25007 25008 25009 25010 25011 25012 25013 25014 25015 25016 25017 25018 25019 25020 25021 25022 25023 25024 25025 25026 25027 25028 25029 25030 25031 25032 25033 25034 25035 25036 25037 25038 25039 25040 25041 25042 25043 25044 25045 25046 25047 25048 25049 25050 25051 25052 25053 25054 25055 25056 25057 25058 25059 25060 25061 25062 25063 25064 25065 25066 25067 25068 25069 25070 25071 25072 25073 25074 25075 25076 25077 25078 25079 25080 25081 25082 25083 25084 25085 25086 25087 25088 25089 25090 25091 25092 25093 25094 25095 25096 25097 25098 25099 25100 25101 25102 25103 25104 25105 25106 25107 25108 25109 25110 25111 25112 25113 25114 25115 25116 25117 25118 25119 25120 25121 25122 25123 25124 25125 25126 25127 25128 25129 25130 25131 25132 25133 25134 25135 25136 25137 25138 25139 25140 25141 25142 25143 25144 25145 25146 25147 25148 25149 25150 25151 25152 25153 25154 25155 25156 25157 25158 25159 25160 25161 25162 25163 25164 25165 25166 25167 25168 25169 25170 25171 25172 25173 25174 25175 25176 25177 25178 25179 25180 25181 25182 25183 25184 25185 25186 25187 25188 25189 25190 25191 25192 25193 25194 25195 25196 25197 25198 25199 25200 25201 25202 25203 25204 25205 25206 25207 25208 25209 25210 25211 25212 25213 25214 25215 25216 25217 25218 25219 25220 25221 25222 25223 25224 25225 25226 25227 25228 25229 25230 25231 25232 25233 25234 25235 25236 25237 25238 25239 25240 25241 25242 25243 25244 25245 25246 25247 25248 25249 25250 25251 25252 25253 25254 25255 25256 25257 25258 25259 25260 25261 25262 25263 25264 25265 25266 25267 25268 25269 25270 25271 25272 25273 25274 25275 25276 25277 25278 25279 25280 25281 25282 25283 25284 25285 25286 25287 25288 25289 25290 25291 25292 25293 25294 25295 25296 25297 25298 25299 25300 25301 25302 25303 25304 25305 25306 25307 25308 25309 25310 25311 25312 25313 25314 25315 25316 25317 25318 25319 25320 25321 25322 25323 25324 25325 25326 25327 25328 25329 25330 25331 25332 25333 25334 25335 25336 25337 25338 25339 25340 25341 25342 25343 25344 25345 25346 25347 25348 25349 25350 25351 25352 25353 25354 25355 25356 25357 25358 25359 25360 25361 25362 25363 25364 25365 25366 25367 25368 25369 25370 25371 25372 25373 25374 25375 25376 25377 25378 25379 25380 25381 25382 25383 25384 25385 25386 25387 25388 25389 25390 25391 25392 25393 25394 25395 25396 25397 25398 25399 25400 25401 25402 25403 25404 25405 25406 25407 25408 25409 25410 25411 25412 25413 25414 25415 25416 25417 25418 25419 25420 25421 25422 25423 25424 25425 25426 25427 25428 25429 25430 25431 25432 25433 25434 25435 25436 25437 25438 25439 25440 25441 25442 25443 25444 25445 25446 25447 25448 25449 25450 25451 25452 25453 25454 25455 25456 25457 25458 25459 25460 25461 25462 25463 25464 25465 25466 25467 25468 25469 25470 25471 25472 25473 25474 25475 25476 25477 25478 25479 25480 25481 25482 25483 25484 25485 25486 25487 25488 25489 25490 25491 25492 25493 25494 25495 25496 25497 25498 25499 25500 25501 25502 25503 25504 25505 25506 25507 25508 25509 25510 25511 25512 25513 25514 25515 25516 25517 25518 25519 25520 25521 25522 25523 25524 25525 25526 25527 25528 25529 25530 25531 25532 25533 25534 25535 25536 25537 25538 25539 25540 25541 25542 25543 25544 25545 25546 25547 25548 25549 25550 25551 25552 25553 25554 25555 25556 25557 25558 25559 25560 25561 25562 25563 25564 25565 25566 25567 25568 25569 25570 25571 25572 25573 25574 25575 25576 25577 25578 25579 25580 25581 25582 25583 25584 25585 25586 25587 25588 25589 25590 25591 25592 25593 25594 25595 25596 25597 25598 25599 25600 25601 25602 25603 25604 25605 25606 25607 25608 25609 25610 25611 25612 25613 25614 25615 25616 25617 25618 25619 25620 25621 25622 25623 25624 25625 25626 25627 25628 25629 25630 25631 25632 25633 25634 25635 25636 25637 25638 25639 25640 25641 25642 25643 25644 25645 25646 25647 25648 25649 25650 25651 25652 25653 25654 25655 25656 25657 25658 25659 25660 25661 25662 25663 25664 25665 25666 25667 25668 25669 25670 25671 25672 25673 25674 25675 25676 25677 25678 25679 25680 25681 25682 25683 25684 25685 25686 25687 25688 25689 25690 25691 25692 25693 25694 25695 25696 25697 25698 25699 25700 25701 25702 25703 25704 25705 25706 25707 25708 25709 25710 25711 25712 25713 25714 25715 25716 25717 25718 25719 25720 25721 25722 25723 25724 25725 25726 25727 25728 25729 25730 25731 25732 25733 25734 25735 25736 25737 25738 25739 25740 25741 25742 25743 25744 25745 25746 25747 25748 25749 25750 25751 25752 25753 25754 25755 25756 25757 25758 25759 25760 25761 25762 25763 25764 25765 25766 25767 25768 25769 25770 25771 25772 25773 25774 25775 25776 25777 25778 25779 25780 25781 25782 25783 25784 25785 25786 25787 25788 25789 25790 25791 25792 25793 25794 25795 25796 25797 25798 25799 25800 25801 25802 25803 25804 25805 25806 25807 25808 25809 25810 25811 25812 25813 25814 25815 25816 25817 25818 25819 25820 25821 25822 25823 25824 25825 25826 25827 25828 25829 25830 25831 25832 25833 25834 25835 25836 25837 25838 25839 25840 25841 25842 25843 25844 25845 25846 25847 25848 25849 25850 25851 25852 25853 25854 25855 25856 25857 25858 25859 25860 25861 25862 25863 25864 25865 25866 25867 25868 25869 25870 25871 25872 25873 25874 25875 25876 25877 25878 25879 25880 25881 25882 25883 25884 25885 25886 25887 25888 25889 25890 25891 25892 25893 25894 25895 25896 25897 25898 25899 25900 25901 25902 25903 25904 25905 25906 25907 25908 25909 25910 25911 25912 25913 25914 25915 25916 25917 25918 25919 25920 25921 25922 25923 25924 25925 25926 25927 25928 25929 25930 25931 25932 25933 25934 25935 25936 25937 25938 25939 25940 25941 25942 25943 25944 25945 25946 25947 25948 25949 25950 25951 25952 25953 25954 25955 25956 25957 25958 25959 25960 25961 25962 25963 25964 25965 25966 25967 25968 25969 25970 25971 25972 25973 25974 25975 25976 25977 25978 25979 25980 25981 25982 25983 25984 25985 25986 25987 25988 25989 25990 25991 25992 25993 25994 25995 25996 25997 25998 25999 26000 26001 26002 26003 26004 26005 26006 26007 26008 26009 26010 26011 26012 26013 26014 26015 26016 26017 26018 26019 26020 26021 26022 26023 26024 26025 26026 26027 26028 26029 26030 26031 26032 26033 26034 26035 26036 26037 26038 26039 26040 26041 26042 26043 26044 26045 26046 26047 26048 26049 26050 26051 26052 26053 26054 26055 26056 26057 26058 26059 26060 26061 26062 26063 26064 26065 26066 26067 26068 26069 26070 26071 26072 26073 26074 26075 26076 26077 26078 26079 26080 26081 26082 26083 26084 26085 26086 26087 26088 26089 26090 26091 26092 26093 26094 26095 26096 26097 26098 26099 26100 26101 26102 26103 26104 26105 26106 26107 26108 26109 26110 26111 26112 26113 26114 26115 26116 26117 26118 26119 26120 26121 26122 26123 26124 26125 26126 26127 26128 26129 26130 26131 26132 26133 26134 26135 26136 26137 26138 26139 26140 26141 26142 26143 26144 26145 26146 26147 26148 26149 26150 26151 26152 26153 26154 26155 26156 26157 26158 26159 26160 26161 26162 26163 26164 26165 26166 26167 26168 26169 26170 26171 26172 26173 26174 26175 26176 26177 26178 26179 26180 26181 26182 26183 26184 26185 26186 26187 26188 26189 26190 26191 26192 26193 26194 26195 26196 26197 26198 26199 26200 26201 26202 26203 26204 26205 26206 26207 26208 26209 26210 26211 26212 26213 26214 26215 26216 26217 26218 26219 26220 26221 26222 26223 26224 26225 26226 26227 26228 26229 26230 26231 26232 26233 26234 26235 26236 26237 26238 26239 26240 26241 26242 26243 26244 26245 26246 26247 26248 26249 26250 26251 26252 26253 26254 26255 26256 26257 26258 26259 26260 26261 26262 26263 26264 26265 26266 26267 26268 26269 26270 26271 26272 26273 26274 26275 26276 26277 26278 26279 26280 26281 26282 26283 26284 26285 26286 26287 26288 26289 26290 26291 26292 26293 26294 26295 26296 26297 26298 26299 26300 26301 26302 26303 26304 26305 26306 26307 26308 26309 26310 26311 26312 26313 26314 26315 26316 26317 26318 26319 26320 26321 26322 26323 26324 26325 26326 26327 26328 26329 26330 26331 26332 26333 26334 26335 26336 26337 26338 26339 26340 26341 26342 26343 26344 26345 26346 26347 26348 26349 26350 26351 26352 26353 26354 26355 26356 26357 26358 26359 26360 26361 26362 26363 26364 26365 26366 26367 26368 26369 26370 26371 26372 26373 26374 26375 26376 26377 26378 26379 26380 26381 26382 26383 26384 26385 26386 26387 26388 26389 26390 26391 26392 26393 26394 26395 26396 26397 26398 26399 26400 26401 26402 26403 26404 26405 26406 26407 26408 26409 26410 26411 26412 26413 26414 26415 26416 26417 26418 26419 26420 26421 26422 26423 26424 26425 26426 26427 26428 26429 26430 26431 26432 26433 26434 26435 26436 26437 26438 26439 26440 26441 26442 26443 26444 26445 26446 26447 26448 26449 26450 26451 26452 26453 26454 26455 26456 26457 26458 26459 26460 26461 26462 26463 26464 26465 26466 26467 26468 26469 26470 26471 26472 26473 26474 26475 26476 26477 26478 26479 26480 26481 26482 26483 26484 26485 26486 26487 26488 26489 26490 26491 26492 26493 26494 26495 26496 26497 26498 26499 26500 26501 26502 26503 26504 26505 26506 26507 26508 26509 26510 26511 26512 26513 26514 26515 26516 26517 26518 26519 26520 26521 26522 26523 26524 26525 26526 26527 26528 26529 26530 26531 26532 26533 26534 26535 26536 26537 26538 26539 26540 26541 26542 26543 26544 26545 26546 26547 26548 26549 26550 26551 26552 26553 26554 26555 26556 26557 26558 26559 26560 26561 26562 26563 26564 26565 26566 26567 26568 26569 26570 26571 26572 26573 26574 26575 26576 26577 26578 26579 26580 26581 26582 26583 26584 26585 26586 26587 26588 26589 26590 26591 26592 26593 26594 26595 26596 26597 26598 26599 26600 26601 26602 26603 26604 26605 26606 26607 26608 26609 26610 26611 26612 26613 26614 26615 26616 26617 26618 26619 26620 26621 26622 26623 26624 26625 26626 26627 26628 26629 26630 26631 26632 26633 26634 26635 26636 26637 26638 26639 26640 26641 26642 26643 26644 26645 26646 26647 26648 26649 26650 26651 26652 26653 26654 26655 26656 26657 26658 26659 26660 26661 26662 26663 26664 26665 26666 26667 26668 26669 26670 26671 26672 26673 26674 26675 26676 26677 26678 26679 26680 26681 26682 26683 26684 26685 26686 26687 26688 26689 26690 26691 26692 26693 26694 26695 26696 26697 26698 26699 26700 26701 26702 26703 26704 26705 26706 26707 26708 26709 26710 26711 26712 26713 26714 26715 26716 26717 26718 26719 26720 26721 26722 26723 26724 26725 26726 26727 26728 26729 26730 26731 26732 26733 26734 26735 26736 26737 26738 26739 26740 26741 26742 26743 26744 26745 26746 26747 26748 26749 26750 26751 26752 26753 26754 26755 26756 26757 26758 26759 26760 26761 26762 26763 26764 26765 26766 26767 26768 26769 26770 26771 26772 26773 26774 26775 26776 26777 26778 26779 26780 26781 26782 26783 26784 26785 26786 26787 26788 26789 26790 26791 26792 26793 26794 26795 26796 26797 26798 26799 26800 26801 26802 26803 26804 26805 26806 26807 26808 26809 26810 26811 26812 26813 26814 26815 26816 26817 26818 26819 26820 26821 26822 26823 26824 26825 26826 26827 26828 26829 26830 26831 26832 26833 26834 26835 26836 26837 26838 26839 26840 26841 26842 26843 26844 26845 26846 26847 26848 26849 26850 26851 26852 26853 26854 26855 26856 26857 26858 26859 26860 26861 26862 26863 26864 26865 26866 26867 26868 26869 26870 26871 26872 26873 26874 26875 26876 26877 26878 26879 26880 26881 26882 26883 26884 26885 26886 26887 26888 26889 26890 26891 26892 26893 26894 26895 26896 26897 26898 26899 26900 26901 26902 26903 26904 26905 26906 26907 26908 26909 26910 26911 26912 26913 26914 26915 26916 26917 26918 26919 26920 26921 26922 26923 26924 26925 26926 26927 26928 26929 26930 26931 26932 26933 26934 26935 26936 26937 26938 26939 26940 26941 26942 26943 26944 26945 26946 26947 26948 26949 26950 26951 26952 26953 26954 26955 26956 26957 26958 26959 26960 26961 26962 26963 26964 26965 26966 26967 26968 26969 26970 26971 26972 26973 26974 26975 26976 26977 26978 26979 26980 26981 26982 26983 26984 26985 26986 26987 26988 26989 26990 26991 26992 26993 26994 26995 26996 26997 26998 26999 27000 27001 27002 27003 27004 27005 27006 27007 27008 27009 27010 27011 27012 27013 27014 27015 27016 27017 27018 27019 27020 27021 27022 27023 27024 27025 27026 27027 27028 27029 27030 27031 27032 27033 27034 27035 27036 27037 27038 27039 27040 27041 27042 27043 27044 27045 27046 27047 27048 27049 27050 27051 27052 27053 27054 27055 27056 27057 27058 27059 27060 27061 27062 27063 27064 27065 27066 27067 27068 27069 27070 27071 27072 27073 27074 27075 27076 27077 27078 27079 27080 27081 27082 27083 27084 27085 27086 27087 27088 27089 27090 27091 27092 27093 27094 27095 27096 27097 27098 27099 27100 27101 27102 27103 27104 27105 27106 27107 27108 27109 27110 27111 27112 27113 27114 27115 27116 27117 27118 27119 27120 27121 27122 27123 27124 27125 27126 27127 27128 27129 27130 27131 27132 27133 27134 27135 27136 27137 27138 27139 27140 27141 27142 27143 27144 27145 27146 27147 27148 27149 27150 27151 27152 27153 27154 27155 27156 27157 27158 27159 27160 27161 27162 27163 27164 27165 27166 27167 27168 27169 27170 27171 27172 27173 27174 27175 27176 27177 27178 27179 27180 27181 27182 27183 27184 27185 27186 27187 27188 27189 27190 27191 27192 27193 27194 27195 27196 27197 27198 27199 27200 27201 27202 27203 27204 27205 27206 27207 27208 27209 27210 27211 27212 27213 27214 27215 27216 27217 27218 27219 27220 27221 27222 27223 27224 27225 27226 27227 27228 27229 27230 27231 27232 27233 27234 27235 27236 27237 27238 27239 27240 27241 27242 27243 27244 27245 27246 27247 27248 27249 27250 27251 27252 27253 27254 27255 27256 27257 27258 27259 27260 27261 27262 27263 27264 27265 27266 27267 27268 27269 27270 27271 27272 27273 27274 27275 27276 27277 27278 27279 27280 27281 27282 27283 27284 27285 27286 27287 27288 27289 27290 27291 27292 27293 27294 27295 27296 27297 27298 27299 27300 27301 27302 27303 27304 27305 27306 27307 27308 27309 27310 27311 27312 27313 27314 27315 27316 27317 27318 27319 27320 27321 27322 27323 27324 27325 27326 27327 27328 27329 27330 27331 27332 27333 27334 27335 27336 27337 27338 27339 27340 27341 27342 27343 27344 27345 27346 27347 27348 27349 27350 27351 27352 27353 27354 27355 27356 27357 27358 27359 27360 27361 27362 27363 27364 27365 27366 27367 27368 27369 27370 27371 27372 27373 27374 27375 27376 27377 27378 27379 27380 27381 27382 27383 27384 27385 27386 27387 27388 27389 27390 27391 27392 27393 27394 27395 27396 27397 27398 27399 27400 27401 27402 27403 27404 27405 27406 27407 27408 27409 27410 27411 27412 27413 27414 27415 27416 27417 27418 27419 27420 27421 27422 27423 27424 27425 27426 27427 27428 27429 27430 27431 27432 27433 27434 27435 27436 27437 27438 27439 27440 27441 27442 27443 27444 27445 27446 27447 27448 27449 27450 27451 27452 27453 27454 27455 27456 27457 27458 27459 27460 27461 27462 27463 27464 27465 27466 27467 27468 27469 27470 27471 27472 27473 27474 27475 27476 27477 27478 27479 27480 27481 27482 27483 27484 27485 27486 27487 27488 27489 27490 27491 27492 27493 27494 27495 27496 27497 27498 27499 27500 27501 27502 27503 27504 27505 27506 27507 27508 27509 27510 27511 27512 27513 27514 27515 27516 27517 27518 27519 27520 27521 27522 27523 27524 27525 27526 27527 27528 27529 27530 27531 27532 27533 27534 27535 27536 27537 27538 27539 27540 27541 27542 27543 27544 27545 27546 27547 27548 27549 27550 27551 27552 27553 27554 27555 27556 27557 27558 27559 27560 27561 27562 27563 27564 27565 27566 27567 27568 27569 27570 27571 27572 27573 27574 27575 27576 27577 27578 27579 27580 27581 27582 27583 27584 27585 27586 27587 27588 27589 27590 27591 27592 27593 27594 27595 27596 27597 27598 27599 27600 27601 27602 27603 27604 27605 27606 27607 27608 27609 27610 27611 27612 27613 27614 27615 27616 27617 27618 27619 27620 27621 27622 27623 27624 27625 27626 27627 27628 27629 27630 27631 27632 27633 27634 27635 27636 27637 27638 27639 27640 27641 27642 27643 27644 27645 27646 27647 27648 27649 27650 27651 27652 27653 27654 27655 27656 27657 27658 27659 27660 27661 27662 27663 27664 27665 27666 27667 27668 27669 27670 27671 27672 27673 27674 27675 27676 27677 27678 27679 27680 27681 27682 27683 27684 27685 27686 27687 27688 27689 27690 27691 27692 27693 27694 27695 27696 27697 27698 27699 27700 27701 27702 27703 27704 27705 27706 27707 27708 27709 27710 27711 27712 27713 27714 27715 27716 27717 27718 27719 27720 27721 27722 27723 27724 27725 27726 27727 27728 27729 27730 27731 27732 27733 27734 27735 27736 27737 27738 27739 27740 27741 27742 27743 27744 27745 27746 27747 27748 27749 27750 27751 27752 27753 27754 27755 27756 27757 27758 27759 27760 27761 27762 27763 27764 27765 27766 27767 27768 27769 27770 27771 27772 27773 27774 27775 27776 27777 27778 27779 27780 27781 27782 27783 27784 27785 27786 27787 27788 27789 27790 27791 27792 27793 27794 27795 27796 27797 27798 27799 27800 27801 27802 27803 27804 27805 27806 27807 27808 27809 27810 27811 27812 27813 27814 27815 27816 27817 27818 27819 27820 27821 27822 27823 27824 27825 27826 27827 27828 27829 27830 27831 27832 27833 27834 27835 27836 27837 27838 27839 27840 27841 27842 27843 27844 27845 27846 27847 27848 27849 27850 27851 27852 27853 27854 27855 27856 27857 27858 27859 27860 27861 27862 27863 27864 27865 27866 27867 27868 27869 27870 27871 27872 27873 27874 27875 27876 27877 27878 27879 27880 27881 27882 27883 27884 27885 27886 27887 27888 27889 27890 27891 27892 27893 27894 27895 27896 27897 27898 27899 27900 27901 27902 27903 27904 27905 27906 27907 27908 27909 27910 27911 27912 27913 27914 27915 27916 27917 27918 27919 27920 27921 27922 27923 27924 27925 27926 27927 27928 27929 27930 27931 27932 27933 27934 27935 27936 27937 27938 27939 27940 27941 27942 27943 27944 27945 27946 27947 27948 27949 27950 27951 27952 27953 27954 27955 27956 27957 27958 27959 27960 27961 27962 27963 27964 27965 27966 27967 27968 27969 27970 27971 27972 27973 27974 27975 27976 27977 27978 27979 27980 27981 27982 27983 27984 27985 27986 27987 27988 27989 27990 27991 27992 27993 27994 27995 27996 27997 27998 27999 28000 28001 28002 28003 28004 28005 28006 28007 28008 28009 28010 28011 28012 28013 28014 28015 28016 28017 28018 28019 28020 28021 28022 28023 28024 28025 28026 28027 28028 28029 28030 28031 28032 28033 28034 28035 28036 28037 28038 28039 28040 28041 28042 28043 28044 28045 28046 28047 28048 28049 28050 28051 28052 28053 28054 28055 28056 28057 28058 28059 28060 28061 28062 28063 28064 28065 28066 28067 28068 28069 28070 28071 28072 28073 28074 28075 28076 28077 28078 28079 28080 28081 28082 28083 28084 28085 28086 28087 28088 28089 28090 28091 28092 28093 28094 28095 28096 28097 28098 28099 28100 28101 28102 28103 28104 28105 28106 28107 28108 28109 28110 28111 28112 28113 28114 28115 28116 28117 28118 28119 28120 28121 28122 28123 28124 28125 28126 28127 28128 28129 28130 28131 28132 28133 28134 28135 28136 28137 28138 28139 28140 28141 28142 28143 28144 28145 28146 28147 28148 28149 28150 28151 28152 28153 28154 28155 28156 28157 28158 28159 28160 28161 28162 28163 28164 28165 28166 28167 28168 28169 28170 28171 28172 28173 28174 28175 28176 28177 28178 28179 28180 28181 28182 28183 28184 28185 28186 28187 28188 28189 28190 28191 28192 28193 28194 28195 28196 28197 28198 28199 28200 28201 28202 28203 28204 28205 28206 28207 28208 28209 28210 28211 28212 28213 28214 28215 28216 28217 28218 28219 28220 28221 28222 28223 28224 28225 28226 28227 28228 28229 28230 28231 28232 28233 28234 28235 28236 28237 28238 28239 28240 28241 28242 28243 28244 28245 28246 28247 28248 28249 28250 28251 28252 28253 28254 28255 28256 28257 28258 28259 28260 28261 28262 28263 28264 28265 28266 28267 28268 28269 28270 28271 28272 28273 28274 28275 28276 28277 28278 28279 28280 28281 28282 28283 28284 28285 28286 28287 28288 28289 28290 28291 28292 28293 28294 28295 28296 28297 28298 28299 28300 28301 28302 28303 28304 28305 28306 28307 28308 28309 28310 28311 28312 28313 28314 28315 28316 28317 28318 28319 28320 28321 28322 28323 28324 28325 28326 28327 28328 28329 28330 28331 28332 28333 28334 28335 28336 28337 28338 28339 28340 28341 28342 28343 28344 28345 28346 28347 28348 28349 28350 28351 28352 28353 28354 28355 28356 28357 28358 28359 28360 28361 28362 28363 28364 28365 28366 28367 28368 28369 28370 28371 28372 28373 28374 28375 28376 28377 28378 28379 28380 28381 28382 28383 28384 28385 28386 28387 28388 28389 28390 28391 28392 28393 28394 28395 28396 28397 28398 28399 28400 28401 28402 28403 28404 28405 28406 28407 28408 28409 28410 28411 28412 28413 28414 28415 28416 28417 28418 28419 28420 28421 28422 28423 28424 28425 28426 28427 28428 28429 28430 28431 28432 28433 28434 28435 28436 28437 28438 28439 28440 28441 28442 28443 28444 28445 28446 28447 28448 28449 28450 28451 28452 28453 28454 28455 28456 28457 28458 28459 28460 28461 28462 28463 28464 28465 28466 28467 28468 28469 28470 28471 28472 28473 28474 28475 28476 28477 28478 28479 28480 28481 28482 28483 28484 28485 28486 28487 28488 28489 28490 28491 28492 28493 28494 28495 28496 28497 28498 28499 28500 28501 28502 28503 28504 28505 28506 28507 28508 28509 28510 28511 28512 28513 28514 28515 28516 28517 28518 28519 28520 28521 28522 28523 28524 28525 28526 28527 28528 28529 28530 28531 28532 28533 28534 28535 28536 28537 28538 28539 28540 28541 28542 28543 28544 28545 28546 28547 28548 28549 28550 28551 28552 28553 28554 28555 28556 28557 28558 28559 28560 28561 28562 28563 28564 28565 28566 28567 28568 28569 28570 28571 28572 28573 28574 28575 28576 28577 28578 28579 28580 28581 28582 28583 28584 28585 28586 28587 28588 28589 28590 28591 28592 28593 28594 28595 28596 28597 28598 28599 28600 28601 28602 28603 28604 28605 28606 28607 28608 28609 28610 28611 28612 28613 28614 28615 28616 28617 28618 28619 28620 28621 28622 28623 28624 28625 28626 28627 28628 28629 28630 28631 28632 28633 28634 28635 28636 28637 28638 28639 28640 28641 28642 28643 28644 28645 28646 28647 28648 28649 28650 28651 28652 28653 28654 28655 28656 28657 28658 28659 28660 28661 28662 28663 28664 28665 28666 28667 28668 28669 28670 28671 28672 28673 28674 28675 28676 28677 28678 28679 28680 28681 28682 28683 28684 28685 28686 28687 28688 28689 28690 28691 28692 28693 28694 28695 28696 28697 28698 28699 28700 28701 28702 28703 28704 28705 28706 28707 28708 28709 28710 28711 28712 28713 28714 28715 28716 28717 28718 28719 28720 28721 28722 28723 28724 28725 28726 28727 28728 28729 28730 28731 28732 28733 28734 28735 28736 28737 28738 28739 28740 28741 28742 28743 28744 28745 28746 28747 28748 28749 28750 28751 28752 28753 28754 28755 28756 28757 28758 28759 28760 28761 28762 28763 28764 28765 28766 28767 28768 28769 28770 28771 28772 28773 28774 28775 28776 28777 28778 28779 28780 28781 28782 28783 28784 28785 28786 28787 28788 28789 28790 28791 28792 28793 28794 28795 28796 28797 28798 28799 28800 28801 28802 28803 28804 28805 28806 28807 28808 28809 28810 28811 28812 28813 28814 28815 28816 28817 28818 28819 28820 28821 28822 28823 28824 28825 28826 28827 28828 28829 28830 28831 28832 28833 28834 28835 28836 28837 28838 28839 28840 28841 28842 28843 28844 28845 28846 28847 28848 28849 28850 28851 28852 28853 28854 28855 28856 28857 28858 28859 28860 28861 28862 28863 28864 28865 28866 28867 28868 28869 28870 28871 28872 28873 28874 28875 28876 28877 28878 28879 28880 28881 28882 28883 28884 28885 28886 28887 28888 28889 28890 28891 28892 28893 28894 28895 28896 28897 28898 28899 28900 28901 28902 28903 28904 28905 28906 28907 28908 28909 28910 28911 28912 28913 28914 28915 28916 28917 28918 28919 28920 28921 28922 28923 28924 28925 28926 28927 28928 28929 28930 28931 28932 28933 28934 28935 28936 28937 28938 28939 28940 28941 28942 28943 28944 28945 28946 28947 28948 28949 28950 28951 28952 28953 28954 28955 28956 28957 28958 28959 28960 28961 28962 28963 28964 28965 28966 28967 28968 28969 28970 28971 28972 28973 28974 28975 28976 28977 28978 28979 28980 28981 28982 28983 28984 28985 28986 28987 28988 28989 28990 28991 28992 28993 28994 28995 28996 28997 28998 28999 29000 29001 29002 29003 29004 29005 29006 29007 29008 29009 29010 29011 29012 29013 29014 29015 29016 29017 29018 29019 29020 29021 29022 29023 29024 29025 29026 29027 29028 29029 29030 29031 29032 29033 29034 29035 29036 29037 29038 29039 29040 29041 29042 29043 29044 29045 29046 29047 29048 29049 29050 29051 29052 29053 29054 29055 29056 29057 29058 29059 29060 29061 29062 29063 29064 29065 29066 29067 29068 29069 29070 29071 29072 29073 29074 29075 29076 29077 29078 29079 29080 29081 29082 29083 29084 29085 29086 29087 29088 29089 29090 29091 29092 29093 29094 29095 29096 29097 29098 29099 29100 29101 29102 29103 29104 29105 29106 29107 29108 29109 29110 29111 29112 29113 29114 29115 29116 29117 29118 29119 29120 29121 29122 29123 29124 29125 29126 29127 29128 29129 29130 29131 29132 29133 29134 29135 29136 29137 29138 29139 29140 29141 29142 29143 29144 29145 29146 29147 29148 29149 29150 29151 29152 29153 29154 29155 29156 29157 29158 29159 29160 29161 29162 29163 29164 29165 29166 29167 29168 29169 29170 29171 29172 29173 29174 29175 29176 29177 29178 29179 29180 29181 29182 29183 29184 29185 29186 29187 29188 29189 29190 29191 29192 29193 29194 29195 29196 29197 29198 29199 29200 29201 29202 29203 29204 29205 29206 29207 29208 29209 29210 29211 29212 29213 29214 29215 29216 29217 29218 29219 29220 29221 29222 29223 29224 29225 29226 29227 29228 29229 29230 29231 29232 29233 29234 29235 29236 29237 29238 29239 29240 29241 29242 29243 29244 29245 29246 29247 29248 29249 29250 29251 29252 29253 29254 29255 29256 29257 29258 29259 29260 29261 29262 29263 29264 29265 29266 29267 29268 29269 29270 29271 29272 29273 29274 29275 29276 29277 29278 29279 29280 29281 29282 29283 29284 29285 29286 29287 29288 29289 29290 29291 29292 29293 29294 29295 29296 29297 29298 29299 29300 29301 29302 29303 29304 29305 29306 29307 29308 29309 29310 29311 29312 29313 29314 29315 29316 29317 29318 29319 29320 29321 29322 29323 29324 29325 29326 29327 29328 29329 29330 29331 29332 29333 29334 29335 29336 29337 29338 29339 29340 29341 29342 29343 29344 29345 29346 29347 29348 29349 29350 29351 29352 29353 29354 29355 29356 29357 29358 29359 29360 29361 29362 29363 29364 29365 29366 29367 29368 29369 29370 29371 29372 29373 29374 29375 29376 29377 29378 29379 29380 29381 29382 29383 29384 29385 29386 29387 29388 29389 29390 29391 29392 29393 29394 29395 29396 29397 29398 29399 29400 29401 29402 29403 29404 29405 29406 29407 29408 29409 29410 29411 29412 29413 29414 29415 29416 29417 29418 29419 29420 29421 29422 29423 29424 29425 29426 29427 29428 29429 29430 29431 29432 29433 29434 29435 29436 29437 29438 29439 29440 29441 29442 29443 29444 29445 29446 29447 29448 29449 29450 29451 29452 29453 29454 29455 29456 29457 29458 29459 29460 29461 29462 29463 29464 29465 29466 29467 29468 29469 29470 29471 29472 29473 29474 29475 29476 29477 29478 29479 29480 29481 29482 29483 29484 29485 29486 29487 29488 29489 29490 29491 29492 29493 29494 29495 29496 29497 29498 29499 29500 29501 29502 29503 29504 29505 29506 29507 29508 29509 29510 29511 29512 29513 29514 29515 29516 29517 29518 29519 29520 29521 29522 29523 29524 29525 29526 29527 29528 29529 29530 29531 29532 29533 29534 29535 29536 29537 29538 29539 29540 29541 29542 29543 29544 29545 29546 29547 29548 29549 29550 29551 29552 29553 29554 29555 29556 29557 29558 29559 29560 29561 29562 29563 29564 29565 29566 29567 29568 29569 29570 29571 29572 29573 29574 29575 29576 29577 29578 29579 29580 29581 29582 29583 29584 29585 29586 29587 29588 29589 29590 29591 29592 29593 29594 29595 29596 29597 29598 29599 29600 29601 29602 29603 29604 29605 29606 29607 29608 29609 29610 29611 29612 29613 29614 29615 29616 29617 29618 29619 29620 29621 29622 29623 29624 29625 29626 29627 29628 29629 29630 29631 29632 29633 29634 29635 29636 29637 29638 29639 29640 29641 29642 29643 29644 29645 29646 29647 29648 29649 29650 29651 29652 29653 29654 29655 29656 29657 29658 29659 29660 29661 29662 29663 29664 29665 29666 29667 29668 29669 29670 29671 29672 29673 29674 29675 29676 29677 29678 29679 29680 29681 29682 29683 29684 29685 29686 29687 29688 29689 29690 29691 29692 29693 29694 29695 29696 29697 29698 29699 29700 29701 29702 29703 29704 29705 29706 29707 29708 29709 29710 29711 29712 29713 29714 29715 29716 29717 29718 29719 29720 29721 29722 29723 29724 29725 29726 29727 29728 29729 29730 29731 29732 29733 29734 29735 29736 29737 29738 29739 29740 29741 29742 29743 29744 29745 29746 29747 29748 29749 29750 29751 29752 29753 29754 29755 29756 29757 29758 29759 29760 29761 29762 29763 29764 29765 29766 29767 29768 29769 29770 29771 29772 29773 29774 29775 29776 29777 29778 29779 29780 29781 29782 29783 29784 29785 29786 29787 29788 29789 29790 29791 29792 29793 29794 29795 29796 29797 29798 29799 29800 29801 29802 29803 29804 29805 29806 29807 29808 29809 29810 29811 29812 29813 29814 29815 29816 29817 29818 29819 29820 29821 29822 29823 29824 29825 29826 29827 29828 29829 29830 29831 29832 29833 29834 29835 29836 29837 29838 29839 29840 29841 29842 29843 29844 29845 29846 29847 29848 29849 29850 29851 29852 29853 29854 29855 29856 29857 29858 29859 29860 29861 29862 29863 29864 29865 29866 29867 29868 29869 29870 29871 29872 29873 29874 29875 29876 29877 29878 29879 29880 29881 29882 29883 29884 29885 29886 29887 29888 29889 29890 29891 29892 29893 29894 29895 29896 29897 29898 29899 29900 29901 29902 29903 29904 29905 29906 29907 29908 29909 29910 29911 29912 29913 29914 29915 29916 29917 29918 29919 29920 29921 29922 29923 29924 29925 29926 29927 29928 29929 29930 29931 29932 29933 29934 29935 29936 29937 29938 29939 29940 29941 29942 29943 29944 29945 29946 29947 29948 29949 29950 29951 29952 29953 29954 29955 29956 29957 29958 29959 29960 29961 29962 29963 29964 29965 29966 29967 29968 29969 29970 29971 29972 29973 29974 29975 29976 29977 29978 29979 29980 29981 29982 29983 29984 29985 29986 29987 29988 29989 29990 29991 29992 29993 29994 29995 29996 29997 29998 29999 30000 30001 30002 30003 30004 30005 30006 30007 30008 30009 30010 30011 30012 30013 30014 30015 30016 30017 30018 30019 30020 30021 30022 30023 30024 30025 30026 30027 30028 30029 30030 30031 30032 30033 30034 30035 30036 30037 30038 30039 30040 30041 30042 30043 30044 30045 30046 30047 30048 30049 30050 30051 30052 30053 30054 30055 30056 30057 30058 30059 30060 30061 30062 30063 30064 30065 30066 30067 30068 30069 30070 30071 30072 30073 30074 30075 30076 30077 30078 30079 30080 30081 30082 30083 30084 30085 30086 30087 30088 30089 30090 30091 30092 30093 30094 30095 30096 30097 30098 30099 30100 30101 30102 30103 30104 30105 30106 30107 30108 30109 30110 30111 30112 30113 30114 30115 30116 30117 30118 30119 30120 30121 30122 30123 30124 30125 30126 30127 30128 30129 30130 30131 30132 30133 30134 30135 30136 30137 30138 30139 30140 30141 30142 30143 30144 30145 30146 30147 30148 30149 30150 30151 30152 30153 30154 30155 30156 30157 30158 30159 30160 30161 30162 30163 30164 30165 30166 30167 30168 30169 30170 30171 30172 30173 30174 30175 30176 30177 30178 30179 30180 30181 30182 30183 30184 30185 30186 30187 30188 30189 30190 30191 30192 30193 30194 30195 30196 30197 30198 30199 30200 30201 30202 30203 30204 30205 30206 30207 30208 30209 30210 30211 30212 30213 30214 30215 30216 30217 30218 30219 30220 30221 30222 30223 30224 30225 30226 30227 30228 30229 30230 30231 30232 30233 30234 30235 30236 30237 30238 30239 30240 30241 30242 30243 30244 30245 30246 30247 30248 30249 30250 30251 30252 30253 30254 30255 30256 30257 30258 30259 30260 30261 30262 30263 30264 30265 30266 30267 30268 30269 30270 30271 30272 30273 30274 30275 30276 30277 30278 30279 30280 30281 30282 30283 30284 30285 30286 30287 30288 30289 30290 30291 30292 30293 30294 30295 30296 30297 30298 30299 30300 30301 30302 30303 30304 30305 30306 30307 30308 30309 30310 30311 30312 30313 30314 30315 30316 30317 30318 30319 30320 30321 30322 30323 30324 30325 30326 30327 30328 30329 30330 30331 30332 30333 30334 30335 30336 30337 30338 30339 30340 30341 30342 30343 30344 30345 30346 30347 30348 30349 30350 30351 30352 30353 30354 30355 30356 30357 30358 30359 30360 30361 30362 30363 30364 30365 30366 30367 30368 30369 30370 30371 30372 30373 30374 30375 30376 30377 30378 30379 30380 30381 30382 30383 30384 30385 30386 30387 30388 30389 30390 30391 30392 30393 30394 30395 30396 30397 30398 30399 30400 30401 30402 30403 30404 30405 30406 30407 30408 30409 30410 30411 30412 30413 30414 30415 30416 30417 30418 30419 30420 30421 30422 30423 30424 30425 30426 30427 30428 30429 30430 30431 30432 30433 30434 30435 30436 30437 30438 30439 30440 30441 30442 30443 30444 30445 30446 30447 30448 30449 30450 30451 30452 30453 30454 30455 30456 30457 30458 30459 30460 30461 30462 30463 30464 30465 30466 30467 30468 30469 30470 30471 30472 30473 30474 30475 30476 30477 30478 30479 30480 30481 30482 30483 30484 30485 30486 30487 30488 30489 30490 30491 30492 30493 30494 30495 30496 30497 30498 30499 30500 30501 30502 30503 30504 30505 30506 30507 30508 30509 30510 30511 30512 30513 30514 30515 30516 30517 30518 30519 30520 30521 30522 30523 30524 30525 30526 30527 30528 30529 30530 30531 30532 30533 30534 30535 30536 30537 30538 30539 30540 30541 30542 30543 30544 30545 30546 30547 30548 30549 30550 30551 30552 30553 30554 30555 30556 30557 30558 30559 30560 30561 30562 30563 30564 30565 30566 30567 30568 30569 30570 30571 30572 30573 30574 30575 30576 30577 30578 30579 30580 30581 30582 30583 30584 30585 30586 30587 30588 30589 30590 30591 30592 30593 30594 30595 30596 30597 30598 30599 30600 30601 30602 30603 30604 30605 30606 30607 30608 30609 30610 30611 30612 30613 30614 30615 30616 30617 30618 30619 30620 30621 30622 30623 30624 30625 30626 30627 30628 30629 30630 30631 30632 30633 30634 30635 30636 30637 30638 30639 30640 30641 30642 30643 30644 30645 30646 30647 30648 30649 30650 30651 30652 30653 30654 30655 30656 30657 30658 30659 30660 30661 30662 30663 30664 30665 30666 30667 30668 30669 30670 30671 30672 30673 30674 30675 30676 30677 30678 30679 30680 30681 30682 30683 30684 30685 30686 30687 30688 30689 30690 30691 30692 30693 30694 30695 30696 30697 30698 30699 30700 30701 30702 30703 30704 30705 30706 30707 30708 30709 30710 30711 30712 30713 30714 30715 30716 30717 30718 30719 30720 30721 30722 30723 30724 30725 30726 30727 30728 30729 30730 30731 30732 30733 30734 30735 30736 30737 30738 30739 30740 30741 30742 30743 30744 30745 30746 30747 30748 30749 30750 30751 30752 30753 30754 30755 30756 30757 30758 30759 30760 30761 30762 30763 30764 30765 30766 30767 30768 30769 30770 30771 30772 30773 30774 30775 30776 30777 30778 30779 30780 30781 30782 30783 30784 30785 30786 30787 30788 30789 30790 30791 30792 30793 30794 30795 30796 30797 30798 30799 30800 30801 30802 30803 30804 30805 30806 30807 30808 30809 30810 30811 30812 30813 30814 30815 30816 30817 30818 30819 30820 30821 30822 30823 30824 30825 30826 30827 30828 30829 30830 30831 30832 30833 30834 30835 30836 30837 30838 30839 30840 30841 30842 30843 30844 30845 30846 30847 30848 30849 30850 30851 30852 30853 30854 30855 30856 30857 30858 30859 30860 30861 30862 30863 30864 30865 30866 30867 30868 30869 30870 30871 30872 30873 30874 30875 30876 30877 30878 30879 30880 30881 30882 30883 30884 30885 30886 30887 30888 30889 30890 30891 30892 30893 30894 30895 30896 30897 30898 30899 30900 30901 30902 30903 30904 30905 30906 30907 30908 30909 30910 30911 30912 30913 30914 30915 30916 30917 30918 30919 30920 30921 30922 30923 30924 30925 30926 30927 30928 30929 30930 30931 30932 30933 30934 30935 30936 30937 30938 30939 30940 30941 30942 30943 30944 30945 30946 30947 30948 30949 30950 30951 30952 30953 30954 30955 30956 30957 30958 30959 30960 30961 30962 30963 30964 30965 30966 30967 30968 30969 30970 30971 30972 30973 30974 30975 30976 30977 30978 30979 30980 30981 30982 30983 30984 30985 30986 30987 30988 30989 30990 30991 30992 30993 30994 30995 30996 30997 30998 30999 31000 31001 31002 31003 31004 31005 31006 31007 31008 31009 31010 31011 31012 31013 31014 31015 31016 31017 31018 31019 31020 31021 31022 31023 31024 31025 31026 31027 31028 31029 31030 31031 31032 31033 31034 31035 31036 31037 31038 31039 31040 31041 31042 31043 31044 31045 31046 31047 31048 31049 31050 31051 31052 31053 31054 31055 31056 31057 31058 31059 31060 31061 31062 31063 31064 31065 31066 31067 31068 31069 31070 31071 31072 31073 31074 31075 31076 31077 31078 31079 31080 31081 31082 31083 31084 31085 31086 31087 31088 31089 31090 31091 31092 31093 31094 31095 31096 31097 31098 31099 31100 31101 31102 31103 31104 31105 31106 31107 31108 31109 31110 31111 31112 31113 31114 31115 31116 31117 31118 31119 31120 31121 31122 31123 31124 31125 31126 31127 31128 31129 31130 31131 31132 31133 31134 31135 31136 31137 31138 31139 31140 31141 31142 31143 31144 31145 31146 31147 31148 31149 31150 31151 31152 31153 31154 31155 31156 31157 31158 31159 31160 31161 31162 31163 31164 31165 31166 31167 31168 31169 31170 31171 31172 31173 31174 31175 31176 31177 31178 31179 31180 31181 31182 31183 31184 31185 31186 31187 31188 31189 31190 31191 31192 31193 31194 31195 31196 31197 31198 31199 31200 31201 31202 31203 31204 31205 31206 31207 31208 31209 31210 31211 31212 31213 31214 31215 31216 31217 31218 31219 31220 31221 31222 31223 31224 31225 31226 31227 31228 31229 31230 31231 31232 31233 31234 31235 31236 31237 31238 31239 31240 31241 31242 31243 31244 31245 31246 31247 31248 31249 31250 31251 31252 31253 31254 31255 31256 31257 31258 31259 31260 31261 31262 31263 31264 31265 31266 31267 31268 31269 31270 31271 31272 31273 31274 31275 31276 31277 31278 31279 31280 31281 31282 31283 31284 31285 31286 31287 31288 31289 31290 31291 31292 31293 31294 31295 31296 31297 31298 31299 31300 31301 31302 31303 31304 31305 31306 31307 31308 31309 31310 31311 31312 31313 31314 31315 31316 31317 31318 31319 31320 31321 31322 31323 31324 31325 31326 31327 31328 31329 31330 31331 31332 31333 31334 31335 31336 31337 31338 31339 31340 31341 31342 31343 31344 31345 31346 31347 31348 31349 31350 31351 31352 31353 31354 31355 31356 31357 31358 31359 31360 31361 31362 31363 31364 31365 31366 31367 31368 31369 31370 31371 31372 31373 31374 31375 31376 31377 31378 31379 31380 31381 31382 31383 31384 31385 31386 31387 31388 31389 31390 31391 31392 31393 31394 31395 31396 31397 31398 31399 31400 31401 31402 31403 31404 31405 31406 31407 31408 31409 31410 31411 31412 31413 31414 31415 31416 31417 31418 31419 31420 31421 31422 31423 31424 31425 31426 31427 31428 31429 31430 31431 31432 31433 31434 31435 31436 31437 31438 31439 31440 31441 31442 31443 31444 31445 31446 31447 31448 31449 31450 31451 31452 31453 31454 31455 31456 31457 31458 31459 31460 31461 31462 31463 31464 31465 31466 31467 31468 31469 31470 31471 31472 31473 31474 31475 31476 31477 31478 31479 31480 31481 31482 31483 31484 31485 31486 31487 31488 31489 31490 31491 31492 31493 31494 31495 31496 31497 31498 31499 31500 31501 31502 31503 31504 31505 31506 31507 31508 31509 31510 31511 31512 31513 31514 31515 31516 31517 31518 31519 31520 31521 31522 31523 31524 31525 31526 31527 31528 31529 31530 31531 31532 31533 31534 31535 31536 31537 31538 31539 31540 31541 31542 31543 31544 31545 31546 31547 31548 31549 31550 31551 31552 31553 31554 31555 31556 31557 31558 31559 31560 31561 31562 31563 31564 31565 31566 31567 31568 31569 31570 31571 31572 31573 31574 31575 31576 31577 31578 31579 31580 31581 31582 31583 31584 31585 31586 31587 31588 31589 31590 31591 31592 31593 31594 31595 31596 31597 31598 31599 31600 31601 31602 31603 31604 31605 31606 31607 31608 31609 31610 31611 31612 31613 31614 31615 31616 31617 31618 31619 31620 31621 31622 31623 31624 31625 31626 31627 31628 31629 31630 31631 31632 31633 31634 31635 31636 31637 31638 31639 31640 31641 31642 31643 31644 31645 31646 31647 31648 31649 31650 31651 31652 31653 31654 31655 31656 31657 31658 31659 31660 31661 31662 31663 31664 31665 31666 31667 31668 31669 31670 31671 31672 31673 31674 31675 31676 31677 31678 31679 31680 31681 31682 31683 31684 31685 31686 31687 31688 31689 31690 31691 31692 31693 31694 31695 31696 31697 31698 31699 31700 31701 31702 31703 31704 31705 31706 31707 31708 31709 31710 31711 31712 31713 31714 31715 31716 31717 31718 31719 31720 31721 31722 31723 31724 31725 31726 31727 31728 31729 31730 31731 31732 31733 31734 31735 31736 31737 31738 31739 31740 31741 31742 31743 31744 31745 31746 31747 31748 31749 31750 31751 31752 31753 31754 31755 31756 31757 31758 31759 31760 31761 31762 31763 31764 31765 31766 31767 31768 31769 31770 31771 31772 31773 31774 31775 31776 31777 31778 31779 31780 31781 31782 31783 31784 31785 31786 31787 31788 31789 31790 31791 31792 31793 31794 31795 31796 31797 31798 31799 31800 31801 31802 31803 31804 31805 31806 31807 31808 31809 31810 31811 31812 31813 31814 31815 31816 31817 31818 31819 31820 31821 31822 31823 31824 31825 31826 31827 31828 31829 31830 31831 31832 31833 31834 31835 31836 31837 31838 31839 31840 31841 31842 31843 31844 31845 31846 31847 31848 31849 31850 31851 31852 31853 31854 31855 31856 31857 31858 31859 31860 31861 31862 31863 31864 31865 31866 31867 31868 31869 31870 31871 31872 31873 31874 31875 31876 31877 31878 31879 31880 31881 31882 31883 31884 31885 31886 31887 31888 31889 31890 31891 31892 31893 31894 31895 31896 31897 
</DataArray>
<DataArray type="UInt32" Name="offsets" format="ascii">
3 6 9 12 15 17 20 23 26 29 32 35 38 40 43 46 49 52 54 57 60 62 65 68 71 74 76 79 82 85 88 90 93 96 99 102 105 108 111 114 117 120 123 126 129 131 134 137 139 142 145 148 151 154 156 159 162 165 168 171 174 177 179 182 185 188 191 193 196 199 202 205 208 211 214 217 220 222 225 228 230 233 236 238 241 244 247 250 252 255 258 261 264 267 270 273 275 277 279 282 285 287 290 293 296 299 302 304 307 310 313 316 319 322 325 328 331 334 337 340 343 345 348 351 354 356 359 362 365 368 371 374 376 379 382 385 388 391 394 397 400 403 406 409 412 415 418 421 424 427 430 433 436 439 442 445 448 451 453 456 459 462 464 467 470 472 475 478 481 484 487 490 493 496 499 502 505 507 510 513 516 519 522 525 528 531 533 536 539 542 545 548 551 554 557 559 562 565 568 571 574 577 580 583 586 588 591 594 597 600 603 606 609 612 615 618 621 624 627 630 633 636 639 642 645 648 651 654 657 659 662 665 668 670 673 675 678 680 683 686 688 691 694 697 699 702 704 707 709 712 714 716 719 721 724 727 729 732 734 737 740 743 745 748 750 752 755 758 760 763 766 769 771 774 776 778 780 783 785 788 791 794 796 799 801 803 805 808 811 813 815 818 821 824 827 829 832 834 837 840 842 845 848 851 853 856 858 860 862 865 868 871 873 876 878 880 882 884 887 890 893 895 897 900 903 905 907 909 912 914 917 920 923 926 928 931 934 937 940 943 946 949 951 954 957 960 963 966 969 971 973 976 979 982 984 987 990 993 995 998 1000 1003 1005 1007 1010 1013 1016 1019 1021 1024 1027 1029 1032 1035 1038 1041 1043 1046 1048 1051 1054 1057 1060 1063 1065 1067 1070 1073 1076 1079 1082 1085 1088 1091 1093 1096 1099 1102 1104 1107 1110 1112 1115 1117 1120 1123 1126 1129 1132 1135 1138 1141 1144 1147 1150 1152 1155 1157 1160 1162 1165 1168 1171 1173 1176 1178 1181 1183 1186 1189 1192 1195 1198 1201 1203 1206 1208 1211 1214 1217 1219 1222 1225 1228 1230 1233 1235 1237 1240 1243 1246 1249 1251 1254 1257 1260 1263 1265 1267 1270 1273 1275 1278 1280 1283 1285 1287 1290 1293 1296 1298 1301 1304 1307 1310 1312 1315 1318 1321 1324 1327 1330 1333 1336 1339 1342 1345 1347 1350 1353 1356 1359 1361 1364 1367 1370 1372 1375 1377 1379 1381 1384 1387 1390 1392 1394 1397 1399 1402 1405 1407 1410 1413 1416 1419 1421 1424 1427 1430 1433 1436 1439 1442 1445 1448 1451 1454 1456 1458 1461 1464 1466 1469 1472 1475 1477 1480 1483 1486 1489 1492 1495 1497 1500 1503 1506 1508 1511 1514 1517 1519 1522 1525 1528 1531 1534 1537 1540 1543 1546 1549 1552 1554 1557 1560 1563 1565 1568 1571 1574 1577 1580 1583 1586 1588 1591 1594 1597 1600 1603 1605 1608 1611 1614 1617 1620 1623 1626 1629 1632 1635 1638 1641 1644 1647 1650 1653 1656 1659 1662 1664 1667 1670 1673 1676 1678 1681 1684 1686 1689 1692 1695 1698 1701 1704 1707 1709 1712 1715 1718 1721 1724 1727 1730 1733 1735 1738 1740 1743 1746 1748 1751 1754 1757 1759 1762 1765 1767 1770 1773 1776 1778 1781 1783 1786 1789 1791 1794 1796 1799 1802 1805 1808 1811 1814 1817 1820 1823 1826 1829 1832 1835 1838 1841 1844 1847 1850 1853 1856 1859 1862 1864 1867 1869 1872 1874 1877 1880 1883 1886 1889 1892 1895 1898 1901 1904 1907 1910 1913 1916 1919 1921 1924 1927 1930 1933 1936 1939 1942 1945 1948 1950 1953 1956 1959 1962 1965 1968 1971 1974 1977 1980 1983 1986 1989 1992 1995 1998 2001 2004 2007 2010 2013 2016 2019 2022 2025 2028 2031 2034 2037 2039 2042 2045 2047 2050 2053 2056 2058 2060 2063 2065 2068 2071 2074 2077 2080 2082 2085 2088 2091 2094 2097 2099 2102 2105 2108 2111 2114 2117 2120 2123 2126 2129 2132 2135 2138 2141 2144 2147 2150 2153 2156 2159 2162 2165 2168 2171 2174 2177 2180 2183 2186 2189 2192 2195 2198 2201 2204 2207 2210 2213 2216 2219 2222 2225 2228 2231 2234 2237 2240 2243 2246 2248 2251 2254 2257 2260 2263 2266 2269 2272 2275 2278 2281 2284 2287 2290 2293 2295 2298 2301 2304 2307 2309 2312 2315 2318 2321 2324 2327 2330 2333 2336 2339 2342 2345 2348 2351 2354 2357 2360 2363 2366 2369 2372 2375 2378 2381 2384 2387 2390 2392 2395 2398 2400 2403 2405 2407 2409 2411 2414 2417 2419 2422 2425 2428 2431 2434 2437 2440 2443 2446 2449 2452 2455 2458 2461 2464 2467 2470 2472 2475 2478 2480 2483 2485 2488 2491 2494 2497 2499 2502 2504 2507 2510 2513 2516 2518 2521 2524 2527 2529 2532 2535 2538 2541 2544 2546 2549 2551 2554 2557 2559 2561 2564 2566 2569 2572 2575 2578 2581 2584 2587 2590 2593 2596 2599 2601 2604 2607 2610 2612 2615 2618 2621 2623 2626 2629 2631 2633 2635 2638 2641 2644 2647 2650 2653 2656 2659 2662 2665 2668 2670 2673 2676 2679 2682 2685 2688 2691 2694 2696 2698 2700 2703 2706 2709 2712 2715 2718 2721 2724 2726 2728 2731 2734 2737 2739 2742 2745 2747 2750 2753 2756 2759 2762 2765 2768 2771 2774 2777 2780 2782 2785 2788 2791 2794 2797 2800 2803 2806 2808 2811 2814 2817 2820 2823 2826 2829 2832 2835 2838 2840 2843 2845 2847 2849 2852 2855 2858 2861 2864 2867 2870 2872 2874 2877 2879 2882 2885 2888 2891 2894 2896 2899 2901 2903 2906 2909 2912 2914 2917 2919 2922 2925 2928 2931 2933 2936 2939 2942 2945 2948 2951 2954 2957 2960 2963 2966 2969 2972 2975 2978 2981 2984 2986 2989 2992 2995 2997 3000 3003 3006 3009 3012 3014 3017 3020 3023 3026 3029 3032 3034 3037 3039 3042 3045 3048 3051 3054 3057 3060 3063 3065 3068 3071 3074 3076 3079 3082 3085 3088 3091 3094 3097 3100 3103 3106 3109 3112 3115 3118 3121 3124 3127 3130 3133 3136 3139 3142 3145 3148 3151 3153 3155 3157 3160 3163 3166 3169 3171 3174 3177 3180 3183 3185 3188 3191 3194 3197 3200 3203 3206 3208 3211 3214 3217 3220 3223 3226 3229 3232 3234 3237 3240 3243 3246 3249 3252 3255 3258 3261 3264 3267 3270 3272 3275 3278 3281 3284 3287 3290 3292 3295 3298 3301 3304 3307 3310 3313 3316 3318 3321 3324 3327 3329 3332 3335 3338 3341 3344 3347 3350 3353 3356 3359 3362 3365 3367 3370 3373 3376 3379 3382 3385 3388 3391 3394 3397 3400 3403 3406 3409 3412 3415 3418 3421 3424 3427 3430 3433 3436 3439 3442 3445 3448 3451 3454 3457 3460 3463 3466 3469 3472 3475 3478 3481 3484 3487 3490 3493 3496 3499 3502 3505 3508 3510 3513 3516 3519 3522 3525 3528 3531 3534 3537 3540 3543 3546 3549 3552 3555 3558 3561 3564 3567 3570 3573 3576 3579 3582 3584 3587 3590 3593 3596 3599 3602 3605 3608 3611 3614 3616 3619 3622 3624 3627 3630 3633 3636 3639 3642 3645 3648 3651 3653 3656 3658 3661 3664 3667 3670 3672 3675 3678 3680 3683 3685 3688 3691 3694 3697 3700 3702 3705 3708 3711 3714 3717 3720 3723 3726 3728 3731 3734 3737 3740 3743 3746 3749 3752 3755 3758 3761 3764 3767 3770 3772 3775 3777 3779 3782 3785 3788 3791 3794 3796 3799 3802 3805 3808 3811 3814 3817 3820 3823 3826 3829 3832 3835 3838 3841 3843 3846 3849 3852 3855 3858 3861 3864 3867 3870 3873 3876 3879 3882 3885 3888 3891 3893 3896 3899 3902 3905 3908 3910 3912 3915 3918 3920 3923 3926 3929 3932 3935 3938 3941 3944 3947 3950 3952 3955 3958 3961 3964 3967 3970 3973 3976 3979 3981 3984 3986 3989 3992 3995 3998 4001 4003 4006 4009 4012 4015 4017 4020 4023 4026 4028 4031 4034 4037 4039 4042 4045 4047 4050 4053 4056 4059 4062 4065 4068 4071 4074 4077 4080 4083 4086 4089 4092 4095 4097 4100 4103 4106 4109 4112 4115 4118 4120 4123 4126 4129 4132 4135 4138 4141 4144 4147 4150 4153 4156 4159 4162 4165 4168 4171 4174 4177 4180 4183 4186 4189 4192 4195 4198 4201 4203 4206 4209 4212 4215 4217 4220 4223 4226 4228 4231 4234 4237 4240 4243 4246 4249 4252 4255 4257 4260 4262 4265 4268 4271 4274 4277 4280 4283 4286 4289 4292 4295 4298 4301 4304 4307 4310 4313 4316 4318 4320 4323 4326 4329 4331 4334 4337 4339 4342 4345 4347 4350 4353 4356 4358 4361 4364 4366 4369 4372 4375 4378 4381 4384 4387 4390 4393 4396 4399 4402 4405 4408 4411 4414 4417 4420 4423 4426 4428 4431 4433 4436 4439 4442 4445 4448 4451 4454 4457 4460 4463 4466 4468 4471 4473 4476 4479 4482 4484 4487 4490 4493 4496 4499 4501 4504 4507 4510 4513 4516 4519 4521 4524 4527 4530 4533 4536 4539 4542 4545 4548 4551 4554 4556 4559 4562 4565 4568 4571 4574 4577 4580 4582 4585 4588 4591 4593 4596 4599 4601 4604 4607 4610 4613 4616 4618 4621 4624 4627 4630 4633 4636 4639 4642 4645 4647 4650 4653 4655 4658 4660 4663 4665 4667 4669 4672 4674 4677 4680 4683 4686 4689 4692 4694 4697 4700 4703 4706 4709 4712 4714 4717 4720 4723 4726 4729 4732 4735 4737 4740 4743 4746 4749 4751 4754 4757 4760 4763 4766 4768 4771 4773 4776 4779 4782 4785 4788 4791 4794 4797 4800 4803 4805 4808 4811 4814 4817 4820 4823 4826 4828 4831 4834 4837 4840 4843 4846 4849 4851 4854 4856 4859 4862 4865 4868 4871 4874 4877 4880 4882 4885 4888 4891 4893 4895 4898 4901 4904 4907 4910 4912 4914 4917 4919 4922 4925 4927 4930 4933 4935 4938 4941 4944 4947 4950 4953 4956 4959 4961 4964 4967 4970 4973 4976 4978 4981 4984 4987 4990 4992 4995 4998 5000 5003 5006 5009 5012 5015 5018 5021 5024 5027 5030 5033 5036 5039 5042 5045 5048 5051 5054 5057 5060 5063 5066 5069 5072 5075 5078 5081 5084 5087 5090 5093 5096 5099 5102 5105 5108 5111 5114 5117 5120 5123 5125 5128 5131 5133 5136 5139 5142 5145 5148 5150 5153 5156 5159 5162 5164 5167 5170 5173 5176 5179 5182 5185 5188 5191 5194 5197 5200 5203 5206 5209 5212 5215 5218 5221 5224 5227 5230 5233 5236 5238 5241 5244 5247 5249 5252 5255 5258 5261 5264 5267 5269 5272 5275 5278 5281 5284 5287 5290 5293 5296 5299 5302 5304 5307 5309 5311 5314 5317 5319 5322 5325 5328 5331 5334 5337 5340 5343 5346 5349 5352 5354 5357 5360 5362 5365 5368 5371 5374 5377 5380 5383 5386 5389 5392 5395 5398 5401 5404 5407 5409 5412 5415 5418 5421 5424 5427 5430 5432 5435 5437 5440 5443 5446 5449 5451 5454 5456 5459 5462 5465 5468 5471 5474 5477 5480 5483 5485 5488 5491 5494 5497 5500 5503 5506 5509 5512 5515 5518 5521 5524 5527 5530 5533 5536 5538 5541 5544 5547 5550 5553 5556 5559 5562 5565 5568 5571 5574 5577 5580 5583 5586 5589 5592 5595 5598 5601 5604 5607 5610 5613 5615 5617 5620 5623 5626 5629 5632 5635 5638 5641 5644 5647 5650 5652 5655 5658 5661 5664 5666 5669 5672 5675 5678 5680 5683 5686 5689 5692 5695 5698 5701 5704 5706 5709 5712 5715 5718 5721 5724 5727 5730 5733 5735 5738 5741 5744 5747 5750 5753 5756 5759 5762 5765 5768 5771 5774 5777 5780 5783 5786 5789 5792 5795 5797 5800 5803 5806 5809 5812 5815 5818 5821 5824 5827 5830 5833 5836 5839 5841 5844 5846 5849 5852 5855 5858 5861 5864 5867 5870 5872 5875 5878 5880 5883 5886 5889 5892 5895 5898 5901 5904 5907 5910 5913 5916 5919 5922 5925 5928 5931 5934 5937 5940 5943 5946 5949 5952 5955 5958 5961 5964 5967 5970 5973 5976 5979 5982 5985 5988 5990 5993 5996 5998 6001 6004 6007 6010 6012 6015 6017 6020 6023 6025 6028 6030 6033 6036 6039 6042 6045 6047 6050 6053 6056 6059 6062 6065 6068 6071 6074 6077 6080 6083 6085 6088 6091 6094 6096 6099 6102 6105 6108 6111 6114 6117 6120 6123 6125 6128 6131 6134 6137 6139 6141 6144 6147 6150 6153 6156 6159 6162 6165 6167 6170 6173 6176 6179 6182 6184 6187 6190 6193 6195 6198 6201 6204 6206 6209 6212 6215 6218 6220 6223 6226 6229 6232 6235 6238 6241 6244 6247 6250 6253 6256 6259 6262 6264 6267 6270 6273 6276 6279 6282 6284 6287 6289 6291 6294 6296 6299 6301 6304 6307 6310 6313 6315 6318 6321 6324 6327 6329 6332 6335 6338 6341 6344 6347 6350 6353 6356 6358 6361 6364 6367 6370 6373 6376 6379 6382 6385 6388 6391 6394 6397 6400 6402 6405 6408 6411 6413 6416 6419 6422 6424 6427 6429 6432 6435 6438 6441 6444 6447 6450 6453 6456 6459 6462 6465 6468 6471 6474 6477 6479 6482 6485 6488 6491 6494 6497 6499 6502 6505 6508 6511 6514 6517 6520 6523 6526 6529 6532 6535 6538 6541 6544 6547 6550 6553 6555 6558 6561 6564 6567 6570 6573 6576 6579 6582 6585 6588 6591 6594 6597 6600 6603 6606 6609 6612 6615 6618 6621 6624 6627 6630 6633 6636 6639 6642 6645 6648 6651 6654 6657 6659 6662 6665 6668 6671 6673 6676 6679 6682 6685 6688 6691 6694 6696 6699 6702 6705 6708 6711 6714 6717 6720 6723 6725 6728 6731 6733 6736 6739 6742 6745 6748 6750 6753 6756 6759 6761 6764 6767 6769 6772 6775 6778 6781 6784 6787 6790 6793 6796 6799 6802 6805 6808 6811 6814 6817 6820 6823 6826 6829 6831 6834 6837 6840 6843 6846 6849 6852 6855 6858 6861 6863 6865 6868 6870 6873 6876 6879 6882 6885 6887 6890 6893 6896 6899 6901 6904 6907 6910 6913 6916 6918 6921 6923 6926 6929 6931 6934 6937 6940 6943 6946 6949 6952 6955 6957 6960 6963 6966 6969 6972 6975 6977 6980 6983 6986 6989 6992 6995 6997 7000 7003 7006 7009 7011 7014 7017 7019 7022 7024 7027 7030 7032 7035 7038 7041 7044 7047 7050 7052 7055 7058 7061 7064 7066 7069 7072 7075 7078 7081 7084 7087 7090 7092 7094 7097 7100 7103 7106 7109 7112 7115 7118 7120 7123 7126 7129 7132 7135 7138 7140 7143 7146 7149 7152 7155 7158 7161 7163 7166 7169 7172 7174 7177 7180 7183 7186 7189 7192 7195 7198 7201 7204 7207 7210 7212 7215 7218 7221 7224 7226 7229 7232 7234 7237 7240 7243 7246 7248 7251 7254 7257 7259 7261 7264 7267 7270 7272 7275 7278 7281 7283 7286 7289 7292 7295 7298 7301 7304 7307 7310 7312 7315 7318 7321 7323 7326 7329 7332 7335 7338 7341 7344 7347 7350 7353 7356 7359 7361 7364 7366 7369 7372 7374 7377 7380 7382 7385 7388 7391 7394 7397 7400 7403 7405 7408 7411 7414 7417 7420 7422 7425 7427 7430 7433 7436 7438 7440 7443 7445 7447 7450 7452 7455 7458 7461 7464 7467 7470 7472 7475 7477 7480 7483 7486 7489 7492 7495 7498 7501 7504 7507 7510 7513 7516 7518 7521 7524 7526 7529 7531 7534 7537 7539 7542 7545 7548 7550 7552 7555 7558 7560 7563 7566 7569 7572 7575 7578 7581 7584 7587 7590 7593 7596 7599 7602 7605 7608 7611 7614 7617 7620 7623 7626 7629 7631 7633 7636 7638 7641 7643 7646 7649 7651 7653 7656 7659 7661 7664 7667 7669 7672 7675 7677 7680 7682 7685 7688 7691 7694 7696 7699 7702 7705 7708 7710 7713 7715 7717 7720 7722 7725 7728 7730 7732 7735 7738 7741 7743 7746 7749 7752 7755 7757 7759 7762 7765 7768 7771 7774 7776 7779 7782 7785 7788 7791 7794 7797 7800 7803 7806 7809 7811 7814 7816 7819 7821 7824 7827 7829 7832 7834 7837 7840 7843 7846 7849 7852 7855 7858 7860 7863 7866 7868 7871 7874 7877 7880 7882 7885 7888 7891 7894 7897 7900 7903 7906 7909 7912 7915 7918 7920 7923 7926 7929 7932 7935 7938 7941 7944 7947 7950 7953 7955 7958 7961 7964 7967 7970 7973 7975 7978 7980 7983 7986 7988 7991 7994 7997 8000 8003 8006 8009 8012 8015 8018 8021 8024 8027 8030 8033 8036 8039 8041 8043 8046 8049 8052 8054 8057 8060 8062 8065 8068 8071 8074 8077 8080 8083 8086 8089 8092 8095 8098 8101 8104 8107 8110 8113 8116 8119 8122 8125 8128 8131 8134 8137 8139 8141 8144 8147 8150 8153 8156 8159 8162 8165 8168 8171 8174 8176 8179 8182 8185 8188 8191 8194 8197 8200 8203 8206 8209 8212 8215 8218 8221 8224 8227 8230 8233 8236 8239 8242 8245 8248 8251 8254 8257 8260 8263 8266 8269 8272 8275 8277 8280 8283 8286 8289 8292 8294 8297 8300 8302 8305 8308 8310 8312 8315 8318 8321 8324 8327 8330 8333 8336 8339 8342 8345 8348 8351 8353 8356 8359 8361 8364 8367 8370 8373 8376 8379 8381 8384 8387 8389 8392 8395 8398 8401 8404 8407 8410 8413 8416 8419 8422 8425 8428 8430 8433 8436 8439 8442 8445 8448 8451 8453 8456 8459 8462 8465 8468 8471 8474 8477 8480 8483 8486 8489 8491 8494 8497 8499 8502 8505 8508 8511 8514 8517 8520 8523 8526 8529 8532 8535 8538 8541 8544 8547 8550 8553 8556 8559 8561 8564 8567 8569 8572 8574 8577 8580 8583 8585 8588 8591 8593 8596 8598 8601 8604 8607 8609 8612 8615 8618 8621 8623 8626 8629 8632 8635 8638 8641 8644 8646 8649 8652 8655 8657 8660 8663 8666 8669 8672 8675 8678 8681 8684 8687 8690 8693 8695 8698 8701 8704 8707 8710 8713 8716 8719 8721 8724 8727 8730 8733 8736 8739 8742 8745 8748 8751 8754 8756 8759 8762 8765 8768 8771 8774 8777 8780 8783 8786 8789 8792 8795 8798 8801 8804 8807 8810 8813 8815 8817 8820 8823 8826 8828 8831 8834 8837 8840 8843 8846 8849 8852 8855 8858 8861 8864 8866 8869 8872 8875 8878 8881 8884 8887 8890 8893 8895 8898 8901 8904 8907 8910 8913 8916 8919 8922 8925 8928 8931 8934 8937 8940 8943 8945 8948 8950 8953 8956 8959 8962 8965 8967 8970 8973 8976 8979 8981 8984 8987 8990 8992 8995 8998 9001 9003 9006 9009 9012 9015 9018 9021 9024 9027 9030 9032 9035 9038 9041 9043 9046 9049 9051 9054 9057 9060 9063 9066 9069 9071 9074 9077 9080 9083 9086 9089 9092 9095 9097 9100 9103 9106 9108 9111 9114 9117 9120 9123 9126 9129 9132 9135 9138 9141 9144 9147 9150 9153 9156 9159 9162 9165 9168 9171 9174 9177 9180 9183 9186 9189 9191 9194 9197 9200 9203 9206 9209 9212 9214 9217 9220 9223 9226 9229 9232 9235 9238 9241 9244 9247 9250 9253 9256 9259 9262 9265 9268 9271 9274 9277 9280 9283 9286 9289 9291 9294 9296 9299 9302 9305 9308 9311 9314 9316 9319 9322 9325 9327 9330 9333 9335 9338 9341 9344 9347 9350 9353 9356 9359 9362 9365 9368 9371 9373 9376 9379 9382 9385 9388 9390 9393 9396 9399 9402 9405 9408 9411 9414 9417 9420 9423 9426 9429 9431 9434 9437 9440 9442 9445 9448 9451 9454 9457 9460 9463 9466 9469 9472 9475 9478 9480 9482 9485 9488 9491 9494 9496 9499 9502 9505 9508 9511 9514 9517 9520 9523 9525 9527 9530 9533 9536 9539 9542 9544 9547 9550 9553 9556 9559 9561 9564 9567 9570 9573 9576 9578 9581 9583 9586 9589 9592 9595 9597 9600 9602 9605 9607 9609 9612 9615 9618 9621 9624 9627 9630 9632 9634 9637 9640 9643 9646 9649 9652 9654 9656 9658 9661 9663 9665 9668 9671 9674 9676 9679 9682 9685 9688 9691 9693 9695 9697 9700 9702 9705 9708 9711 9713 9716 9718 9720 9723 9726 9729 9732 9735 9738 9741 9743 9745 9748 9751 9753 9755 9757 9760 9763 9766 9769 9772 9775 9778 9781 9784 9787 9790 9793 9796 9799 9802 9805 9808 9811 9814 9817 9820 9823 9826 9829 9832 9835 9838 9841 9844 9847 9850 9853 9856 9859 9862 9865 9868 9871 9874 9877 9879 9882 9885 9888 9891 9894 9897 9900 9903 9906 9909 9911 9914 9917 9920 9923 9926 9929 9931 9934 9937 9939 9942 9945 9948 9951 9954 9957 9960 9963 9966 9969 9972 9975 9978 9980 9983 9985 9988 9991 9994 9997 9999 10002 10005 10008 10010 10013 10016 10018 10021 10024 10027 10029 10032 10035 10037 10040 10043 10046 10049 10052 10054 10057 10060 10063 10066 10069 10072 10075 10077 10080 10083 10086 10089 10092 10095 10098 10100 10103 10106 10108 10111 10114 10117 10120 10122 10125 10127 10130 10133 10136 10139 10142 10144 10147 10150 10153 10156 10158 10161 10164 10167 10170 10173 10176 10178 10180 10183 10186 10189 10192 10195 10197 10200 10203 10205 10208 10211 10214 10217 10220 10223 10226 10229 10232 10235 10237 10240 10243 10246 10249 10252 10255 10258 10261 10264 10267 10270 10273 10276 10279 10282 10285 10288 10291 10293 10296 10299 10302 10305 10308 10311 10313 10316 10319 10322 10325 10328 10331 10334 10336 10338 10341 10344 10347 10350 10352 10355 10358 10361 10364 10367 10370 10373 10375 10378 10381 10383 10386 10388 10390 10392 10395 10398 10401 10404 10407 10410 10412 10415 10418 10421 10424 10427 10429 10432 10435 10438 10441 10443 10446 10449 10452 10454 10457 10460 10463 10465 10468 10471 10474 10477 10480 10483 10486 10489 10492 10495 10498 10501 10504 10507 10510 10513 10516 10519 10522 10525 10528 10531 10534 10537 10540 10542 10545 10548 10551 10554 10557 10560 10563 10565 10568 10570 10573 10576 10579 10582 10585 10588 10590 10593 10596 10598 10601 10604 10607 10609 10612 10615 10617 10620 10623 10626 10629 10632 10634 10637 10640 10643 10645 10647 10650 10653 10656 10659 10662 10665 10668 10671 10674 10677 10680 10683 10685 10688 10691 10694 10697 10700 10703 10706 10709 10712 10714 10717 10720 10723 10726 10729 10731 10733 10736 10739 10742 10745 10748 10751 10754 10757 10760 10762 10765 10768 10771 10774 10777 10780 10783 10786 10788 10791 10794 10797 10800 10803 10806 10809 10812 10815 10818 10821 10824 10827 10830 10833 10836 10839 10842 10844 10847 10850 10853 10856 10858 10861 10863 10866 10868 10871 10874 10877 10880 10883 10886 10889 10892 10895 10898 10901 10904 10907 10910 10913 10916 10919 10921 10924 10927 10930 10933 10936 10938 10941 10944 10947 10949 10951 10954 10957 10960 10963 10966 10968 10971 10974 10977 10980 10982 10985 10988 10991 10994 10997 11000 11003 11006 11008 11011 11014 11017 11020 11023 11026 11029 11031 11034 11037 11040 11043 11046 11049 11052 11055 11058 11060 11063 11066 11069 11072 11075 11078 11081 11084 11087 11090 11093 11096 11099 11102 11105 11108 11111 11114 11116 11119 11122 11125 11128 11131 11134 11137 11140 11143 11146 11149 11152 11155 11157 11160 11163 11166 11169 11172 11175 11177 11180 11183 11185 11188 11191 11193 11196 11199 11202 11205 11208 11211 11214 11217 11220 11223 11226 11229 11232 11235 11238 11241 11244 11247 11250 11253 11256 11259 11262 11265 11268 11271 11273 11276 11278 11281 11283 11285 11288 11291 11294 11296 11299 11302 11305 11308 11311 11314 11317 11320 11323 11325 11327 11330 11332 11335 11338 11341 11344 11347 11350 11353 11356 11359 11362 11365 11368 11371 11374 11376 11379 11381 11383 11386 11388 11391 11394 11397 11400 11403 11406 11409 11412 11415 11417 11419 11422 11425 11428 11431 11434 11437 11440 11443 11446 11449 11452 11455 11458 11461 11464 11467 11470 11473 11476 11479 11482 11485 11487 11490 11493 11496 11499 11502 11504 11507 11510 11513 11516 11519 11521 11524 11527 11530 11532 11535 11538 11541 11544 11547 11550 11553 11556 11559 11561 11564 11567 11570 11573 11575 11578 11581 11584 11587 11590 11593 11595 11598 11601 11604 11607 11610 11613 11616 11618 11621 11624 11627 11630 11632 11635 11638 11641 11644 11647 11650 11653 11656 11659 11662 11664 11667 11670 11673 11676 11678 11681 11684 11687 11689 11692 11695 11698 11701 11704 11706 11709 11712 11715 11718 11721 11724 11727 11730 11733 11736 11739 11742 11745 11748 11750 11752 11755 11758 11760 11763 11766 11769 11772 11775 11778 11781 11783 11786 11789 11792 11795 11798 11801 11803 11806 11809 11812 11815 11818 11821 11824 11827 11830 11833 11836 11839 11842 11845 11848 11851 11854 11857 11860 11863 11866 11869 11872 11874 11877 11880 11883 11886 11889 11892 11895 11898 11900 11903 11906 11909 11912 11914 11917 11920 11923 11926 11929 11931 11934 11936 11939 11941 11944 11947 11950 11953 11956 11959 11962 11964 11967 11970 11973 11975 11978 11981 11984 11987 11990 11992 11995 11998 12001 12004 12007 12009 12012 12014 12017 12020 12022 12025 12027 12030 12033 12036 12039 12042 12044 12047 12050 12053 12055 12058 12061 12064 12067 12070 12073 12076 12079 12082 12085 12087 12090 12093 12096 12099 12102 12105 12108 12111 12114 12117 12120 12123 12126 12129 12132 12135 12138 12141 12144 12147 12150 12153 12155 12158 12161 12164 12167 12170 12173 12176 12179 12182 12185 12188 12191 12194 12197 12200 12203 12206 12209 12211 12214 12217 12220 12222 12225 12228 12231 12234 12237 12240 12242 12245 12248 12251 12253 12255 12258 12260 12263 12265 12267 12270 12272 12275 12278 12280 12283 12286 12288 12290 12293 12296 12299 12302 12305 12308 12311 12314 12316 12319 12321 12324 12327 12330 12333 12336 12339 12342 12345 12348 12351 12354 12357 12360 12363 12366 12369 12372 12375 12378 12381 12384 12387 12389 12392 12395 12398 12401 12404 12407 12410 12413 12415 12418 12421 12423 12426 12429 12431 12433 12436 12439 12441 12444 12447 12450 12453 12456 12459 12462 12465 12468 12471 12474 12477 12480 12483 12486 12489 12492 12495 12498 12501 12504 12507 12510 12513 12516 12519 12522 12525 12528 12531 12534 12537 12540 12543 12546 12549 12552 12555 12558 12560 12563 12565 12568 12571 12574 12577 12580 12583 12586 12589 12592 12595 12598 12601 12604 12607 12610 12613 12616 12619 12622 12625 12628 12631 12634 12637 12640 12643 12646 12649 12652 12655 12658 12661 12664 12667 12670 12673 12676 12679 12682 12685 12687 12690 12693 12695 12698 12701 12704 12707 12710 12712 12715 12717 12720 12723 12725 12728 12731 12734 12737 12740 12743 12745 12748 12751 12754 12757 12760 12763 12766 12769 12772 12775 12778 12780 12783 12786 12788 12790 12793 12795 12798 12801 12803 12806 12809 12812 12815 12817 12820 12823 12826 12829 12832 12835 12838 12841 12844 12846 12849 12851 12854 12857 12860 12863 12866 12869 12872 12874 12877 12879 12882 12885 12888 12891 12894 12897 12900 12903 12906 12908 12911 12913 12916 12919 12922 12925 12928 12931 12934 12937 12940 12943 12945 12948 12951 12954 12956 12959 12962 12964 12967 12970 12972 12975 12978 12981 12984 12986 12989 12992 12995 12997 13000 13003 13006 13009 13012 13015 13018 13021 13024 13027 13030 13033 13036 13039 13041 13044 13047 13050 13053 13056 13059 13061 13064 13066 13069 13071 13074 13077 13080 13082 13085 13088 13091 13094 13097 13100 13103 13106 13108 13111 13114 13117 13120 13123 13125 13128 13131 13133 13136 13139 13142 13145 13148 13151 13154 13157 13160 13162 13165 13168 13171 13173 13176 13179 13182 13185 13188 13191 13193 13196 13199 13202 13205 13208 13211 13214 13217 13220 13223 13226 13229 13232 13235 13238 13241 13244 13247 13250 13253 13256 13259 13262 13265 13268 13271 13274 13277 13280 13283 13286 13288 13291 13294 13297 13300 13303 13305 13308 13311 13313 13315 13318 13321 13324 13327 13329 13332 13335 13338 13341 13344 13346 13349 13352 13355 13358 13361 13364 13367 13370 13373 13376 13379 13382 13385 13388 13391 13394 13396 13399 13402 13405 13408 13411 13414 13417 13420 13422 13424 13427 13430 13433 13436 13439 13442 13444 13447 13450 13453 13456 13458 13461 13464 13467 13470 13473 13476 13479 13482 13485 13488 13491 13494 13497 13500 13503 13506 13509 13512 13515 13518 13521 13524 13527 13530 13532 13535 13538 13540 13543 13546 13549 13552 13555 13558 13561 13564 13567 13570 13573 13576 13579 13582 13585 13588 13591 13594 13597 13600 13603 13606 13609 13612 13615 13618 13621 13623 13626 13628 13631 13634 13637 13640 13643 13645 13648 13651 13654 13657 13660 13663 13666 13669 13672 13675 13678 13681 13684 13687 13690 13693 13696 13699 13702 13705 13707 13709 13712 13714 13717 13720 13723 13726 13729 13732 13735 13738 13741 13744 13747 13750 13753 13756 13759 13762 13764 13767 13770 13773 13775 13778 13781 13784 13787 13790 13793 13796 13799 13802 13805 13808 13811 13814 13816 13819 13822 13825 13828 13831 13834 13837 13840 13843 13846 13849 13852 13855 13858 13861 13864 13867 13870 13873 13876 13879 13882 13884 13887 13890 13893 13896 13899 13902 13905 13908 13911 13914 13917 13920 13923 13925 13928 13930 13933 13936 13938 13940 13943 13946 13949 13952 13955 13958 13961 13964 13967 13970 13973 13976 13979 13982 13985 13988 13991 13994 13997 14000 14002 14005 14008 14010 14013 14016 14019 14021 14024 14027 14030 14033 14036 14039 14041 14044 14047 14050 14052 14055 14058 14061 14064 14067 14070 14073 14076 14078 14081 14084 14086 14089 14092 14094 14097 14099 14102 14105 14108 14111 14113 14115 14118 14121 14123 14125 14128 14131 14133 14136 14139 14142 14145 14147 14150 14153 14155 14157 14160 14162 14165 14168 14171 14174 14177 14180 14183 14186 14189 14192 14195 14198 14201 14204 14207 14210 14213 14216 14219 14222 14224 14227 14230 14233 14236 14238 14241 14244 14247 14250 14252 14254 14257 14260 14263 14266 14269 14272 14275 14278 14281 14284 14287 14290 14292 14295 14298 14301 14303 14306 14309 14312 14315 14318 14321 14324 14326 14329 14332 14335 14337 14340 14343 14345 14347 14350 14353 14356 14358 14361 14364 14367 14369 14372 14375 14378 14381 14384 14387 14390 14393 14396 14399 14402 14405 14408 14411 14414 14417 14420 14423 14425 14428 14431 14434 14437 14440 14443 14446 14449 14452 14455 14458 14461 14464 14467 14470 14473 14476 14479 14481 14483 14486 14489 14492 14495 14498 14500 14502 14505 14507 14510 14513 14516 14519 14522 14525 14528 14531 14534 14536 14539 14542 14545 14547 14550 14553 14556 14559 14562 14565 14568 14571 14574 14577 14580 14583 14586 14589 14591 14594 14597 14600 14603 14606 14609 14612 14614 14617 14620 14622 14625 14628 14631 14634 14637 14640 14642 14645 14648 14651 14654 14656 14659 14662 14665 14668 14671 14674 14676 14679 14682 14685 14688 14691 14694 14697 14700 14702 14704 14707 14710 14713 14715 14717 14720 14723 14726 14729 14732 14734 14737 14740 14743 14746 14749 14752 14754 14757 14760 14763 14766 14768 14771 14774 14777 14780 14783 14785 14788 14791 14794 14797 14799 14802 14805 14808 14811 14814 14817 14820 14823 14826 14829 14832 14835 14838 14841 14844 14847 14850 14853 14856 14859 14862 14865 14868 14871 14874 14876 14879 14882 14885 14888 14890 14893 14895 14898 14900 14903 14906 14908 14911 14914 14916 14919 14922 14924 14927 14930 14933 14936 14939 14942 14944 14947 14950 14952 14955 14957 14959 14961 14964 14967 14969 14972 14974 14976 14979 14982 14985 14987 14990 14992 14995 14998 15001 15004 15007 15010 15012 15015 15018 15021 15023 15026 15029 15032 15035 15038 15041 15044 15046 15049 15052 15055 15057 15060 15062 15064 15067 15070 15073 15076 15079 15082 15085 15087 15090 15093 15096 15099 15102 15105 15108 15111 15113 15115 15118 15121 15124 15127 15129 15132 15135 15137 15140 15143 15146 15148 15151 15154 15157 15159 15161 15164 15167 15170 15173 15175 15178 15181 15184 15187 15190 15192 15194 15197 15200 15203 15206 15209 15212 15215 15218 15221 15224 15227 15230 15233 15236 15239 15242 15245 15248 15251 15254 15257 15260 15263 15266 15269 15272 15275 15278 15281 15284 15287 15289 15292 15295 15298 15300 15303 15306 15309 15312 15315 15318 15321 15324 15327 15330 15333 15336 15339 15342 15345 15347 15350 15352 15354 15357 15360 15362 15365 15368 15371 15374 15377 15380 15383 15386 15389 15392 15395 15398 15401 15404 15407 15410 15413 15416 15419 15422 15425 15428 15431 15433 15436 15439 15441 15443 15446 15449 15452 15455 15458 15461 15464 15466 15469 15472 15475 15477 15480 15483 15486 15489 15491 15493 15496 15499 15502 15505 15508 15511 15514 15516 15519 15522 15525 15528 15530 15533 15536 15539 15542 15544 15547 15550 15553 15556 15559 15562 15565 15568 15571 15574 15577 15580 15583 15586 15589 15592 15595 15598 15601 15603 15606 15609 15612 15615 15618 15621 15624 15627 15630 15633 15636 15639 15642 15645 15648 15651 15653 15656 15659 15662 15664 15667 15670 15673 15676 15679 15682 15685 15688 15691 15693 15696 15699 15702 15705 15708 15711 15714 15717 15720 15723 15726 15729 15732 15735 15738 15741 15744 15747 15750 15753 15756 15758 15761 15764 15767 15770 15773 15776 15779 15782 15785 15788 15791 15794 15797 15800 15803 15806 15809 15811 15814 15817 15820 15823 15826 15828 15831 15834 15837 15840 15843 15846 15849 15852 15855 15858 15861 15864 15867 15870 15873 15876 15879 15882 15885 15888 15891 15894 15897 15900 15903 15906 15909 15911 15914 15917 15919 15922 15925 15928 15930 15933 15936 15939 15942 15945 15948 15951 15954 15957 15960 15963 15966 15969 15972 15975 15977 15980 15982 15985 15988 15991 15994 15997 16000 16003 16006 16009 16011 16014 16017 16020 16023 16026 16029 16032 16035 16038 16040 16042 16045 16048 16051 16054 16057 16060 16063 16066 16069 16072 16075 16078 16081 16084 16087 16090 16093 16096 16099 16102 16105 16108 16111 16114 16117 16120 16123 16126 16129 16132 16135 16138 16141 16144 16147 16150 16153 16156 16159 16162 16165 16168 16171 16174 16177 16180 16183 16186 16189 16192 16195 16198 16201 16204 16207 16210 16213 16216 16219 16222 16225 16228 16231 16234 16237 16240 16243 16246 16249 16252 16255 16257 16260 16263 16266 16269 16272 16275 16277 16280 16283 16286 16289 16292 16295 16298 16301 16304 16306 16309 16311 16314 16317 16320 16323 16326 16329 16332 16335 16338 16341 16344 16347 16350 16353 16356 16359 16362 16365 16368 16371 16374 16377 16380 16383 16386 16389 16392 16395 16398 16401 16404 16407 16410 16413 16415 16418 16421 16424 16426 16428 16431 16434 16437 16440 16443 16446 16449 16452 16455 16458 16461 16464 16467 16470 16473 16476 16479 16482 16485 16488 16491 16494 16496 16498 16501 16504 16507 16510 16513 16516 16519 16522 16524 16527 16530 16533 16536 16539 16542 16544 16547 16550 16553 16556 16559 16561 16564 16567 16570 16573 16575 16578 16581 16584 16586 16589 16592 16595 16597 16600 16603 16605 16608 16611 16614 16617 16620 16623 16626 16629 16632 16635 16638 16641 16644 16646 16649 16652 16655 16658 16661 16664 16667 16670 16672 16675 16678 16681 16684 16687 16690 16693 16696 16699 16702 16705 16707 16710 16713 16716 16718 16721 16724 16727 16730 16732 16735 16738 16741 16744 16747 16750 16753 16756 16758 16761 16763 16766 16769 16771 16774 16777 16780 16783 16786 16788 16791 16794 16797 16800 16803 16806 16809 16812 16815 16818 16821 16824 16826 16829 16832 16835 16838 16841 16844 16847 16850 16853 16855 16858 16861 16864 16867 16870 16873 16875 16878 16881 16884 16887 16890 16893 16896 16898 16901 16904 16907 16910 16913 16915 16918 16921 16924 16927 16930 16933 16936 16939 16942 16945 16948 16951 16954 16957 16960 16963 16966 16969 16972 16975 16978 16981 16984 16987 16990 16993 16996 16999 17002 17005 17008 17011 17014 17017 17020 17023 17026 17029 17032 17035 17038 17041 17044 17047 17050 17053 17056 17058 17061 17063 17066 17069 17072 17075 17078 17081 17084 17087 17090 17093 17096 17099 17102 17105 17107 17110 17113 17116 17119 17122 17125 17128 17131 17134 17137 17140 17143 17146 17149 17152 17154 17157 17160 17162 17165 17167 17170 17173 17176 17179 17182 17184 17187 17190 17193 17196 17199 17202 17205 17208 17211 17214 17217 17220 17223 17226 17229 17232 17235 17238 17241 17244 17246 17249 17252 17255 17258 17261 17264 17267 17270 17273 17276 17279 17281 17284 17286 17289 17292 17294 17297 17299 17302 17305 17308 17311 17314 17317 17320 17322 17325 17327 17330 17333 17336 17339 17341 17344 17347 17350 17353 17355 17357 17360 17363 17365 17368 17371 17374 17377 17380 17383 17386 17389 17392 17395 17398 17401 17404 17407 17410 17413 17415 17418 17421 17424 17427 17430 17433 17436 17439 17442 17445 17448 17451 17454 17457 17459 17462 17464 17467 17470 17473 17476 17479 17482 17485 17487 17490 17492 17495 17498 17501 17504 17507 17510 17513 17516 17519 17521 17523 17526 17529 17532 17534 17537 17540 17543 17546 17548 17551 17553 17556 17559 17561 17564 17566 17568 17570 17573 17576 17578 17581 17584 17587 17589 17591 17593 17596 17599 17602 17605 17608 17611 17614 17617 17620 17623 17626 17628 17631 17634 17637 17640 17643 17646 17648 17651 17654 17657 17659 17662 17665 17668 17671 17674 17677 17680 17683 17685 17688 17691 17694 17696 17699 17702 17705 17708 17711 17714 17717 17720 17723 17726 17729 17732 17735 17738 17741 17744 17747 17750 17753 17756 17759 17762 17765 17768 17771 17774 17777 17780 17783 17786 17789 17792 17795 17798 17801 17804 17807 17810 17813 17816 17819 17822 17825 17828 17831 17834 17837 17840 17843 17846 17849 17852 17855 17858 17861 17864 17867 17870 17873 17876 17878 17881 17884 17887 17890 17893 17895 17898 17901 17904 17907 17909 17912 17915 17918 17920 17923 17926 17929 17932 17935 17938 17941 17944 17947 17950 17953 17956 17959 17962 17965 17968 17971 17974 17977 17980 17983 17986 17989 17992 17995 17998 18001 18004 18007 18010 18013 18016 18019 18022 18025 18028 18031 18034 18037 18040 18042 18045 18048 18050 18053 18056 18059 18062 18065 18068 18071 18073 18076 18079 18082 18085 18088 18091 18094 18097 18100 18103 18106 18108 18111 18114 18116 18119 18121 18124 18127 18130 18132 18135 18138 18141 18144 18147 18150 18153 18156 18158 18161 18164 18167 18170 18172 18175 18178 18181 18184 18186 18189 18191 18194 18197 18200 18203 18206 18209 18212 18215 18218 18221 18224 18227 18229 18232 18234 18237 18240 18243 18246 18249 18252 18255 18258 18261 18264 18267 18270 18273 18275 18278 18281 18284 18287 18290 18293 18296 18299 18302 18304 18307 18310 18313 18315 18318 18321 18324 18327 18330 18333 18336 18339 18342 18345 18348 18351 18354 18357 18360 18363 18366 18369 18372 18375 18378 18381 18384 18387 18390 18393 18396 18399 18402 18405 18408 18411 18414 18417 18420 18422 18425 18428 18430 18433 18436 18439 18442 18444 18447 18450 18453 18456 18459 18462 18465 18468 18471 18474 18477 18480 18483 18486 18489 18491 18494 18497 18500 18503 18506 18509 18512 18515 18518 18520 18523 18525 18528 18531 18534 18537 18540 18543 18546 18548 18551 18554 18557 18560 18563 18566 18569 18572 18575 18578 18581 18584 18587 18590 18592 18595 18598 18601 18604 18607 18610 18613 18616 18619 18622 18625 18627 18630 18633 18636 18639 18642 18645 18648 18651 18654 18657 18660 18663 18666 18669 18672 18675 18678 18681 18684 18687 18690 18693 18696 18698 18701 18703 18706 18709 18712 18715 18718 18721 18723 18726 18728 18731 18734 18737 18739 18742 18745 18748 18750 18753 18756 18759 18761 18764 18767 18769 18772 18775 18778 18781 18784 18787 18790 18792 18795 18798 18801 18804 18807 18810 18813 18815 18818 18821 18824 18827 18830 18833 18836 18839 18842 18845 18848 18851 18854 18856 18859 18862 18865 18868 18871 18874 18877 18880 18882 18885 18888 18891 18894 18897 18900 18903 18906 18909 18912 18915 18918 18921 18924 18927 18930 18933 18936 18939 18942 18944 18947 18950 18953 18956 18959 18962 18965 18968 18971 18974 18977 18980 18983 18986 18989 18992 18995 18998 19001 19004 19007 19010 19013 19016 19019 19022 19025 19028 19031 19034 19037 19040 19043 19046 19049 19052 19055 19058 19061 19064 19067 19070 19073 19076 19079 19082 19085 19088 19091 19094 19096 19099 19101 19104 19107 19110 19112 19115 19118 19120 19122 19125 19127 19130 19133 19136 19139 19142 19145 19148 19151 19154 19157 19160 19163 19166 19169 19172 19175 19178 19181 19184 19187 19190 19193 19196 19199 19202 19205 19208 19211 19214 19217 19220 19223 19226 19229 19232 19234 19237 19240 19243 19246 19248 19251 19254 19256 19259 19262 19265 19267 19270 19273 19276 19279 19281 19284 19286 19288 19291 19294 19297 19300 19302 19305 19308 19311 19313 19316 19319 19322 19324 19327 19330 19333 19336 19339 19342 19344 19347 19350 19353 19356 19359 19362 19365 19368 19371 19374 19377 19380 19383 19386 19389 19392 19395 19398 19401 19404 19406 19409 19412 19415 19418 19421 19424 19427 19430 19433 19436 19439 19442 19445 19448 19451 19454 19457 19460 19462 19465 19468 19470 19473 19476 19478 19481 19484 19487 19490 19493 19496 19499 19502 19505 19508 19511 19513 19516 19519 19522 19525 19527 19530 19533 19536 19539 19541 19544 19547 19550 19552 19555 19558 19561 19564 19567 19570 19573 19576 19579 19582 19585 19588 19591 19594 19597 19600 19603 19606 19609 19612 19615 19618 19621 19624 19627 19629 19632 19635 19638 19641 19644 19647 19650 19653 19655 19658 19661 19664 19666 19669 19672 19675 19678 19681 19684 19687 19690 19693 19696 19699 19702 19705 19708 19711 19714 19717 19720 19723 19726 19729 19732 19735 19738 19740 19743 19746 19749 19751 19754 19757 19760 19763 19766 19769 19772 19775 19777 19780 19783 19785 19788 19791 19794 19797 19799 19802 19805 19808 19811 19814 19817 19820 19822 19825 19827 19830 19833 19835 19838 19841 19843 19845 19848 19851 19854 19857 19860 19863 19866 19869 19872 19875 19878 19881 19884 19887 19890 19893 19896 19899 19902 19905 19908 19910 19913 19916 19919 19922 19924 19927 19930 19933 19936 19939 19942 19945 19948 19951 19954 19957 19960 19963 19965 19968 19971 19973 19976 19979 19982 19985 19988 19991 19994 19997 20000 20003 20006 20009 20012 20015 20018 20021 20024 20027 20030 20033 20036 20039 20042 20045 20048 20051 20054 20057 20060 20063 20066 20069 20072 20075 20078 20081 20084 20087 20090 20093 20096 20099 20102 20105 20108 20111 20114 20117 20120 20123 20126 20129 20132 20135 20138 20141 20144 20147 20150 20153 20156 20159 20162 20165 20168 20171 20174 20177 20180 20183 20186 20189 20192 20195 20198 20201 20204 20207 20210 20213 20216 20219 20222 20225 20228 20231 20234 20237 20240 20243 20246 20249 20252 20255 20258 20261 20264 20267 20270 20273 20276 20279 20282 20285 20288 20291 20294 20297 20300 20303 20306 20309 20312 20315 20318 20321 20324 20327 20330 20333 20336 20339 20342 20345 20348 20351 20354 20357 20359 20362 20365 20368 20371 20374 20377 20380 20382 20385 20388 20391 20394 20397 20400 20403 20406 20409 20411 20414 20416 20419 20422 20425 20427 20430 20433 20435 20438 20441 20444 20447 20450 20453 20456 20459 20462 20465 20468 20471 20474 20477 20480 20483 20486 20489 20492 20495 20498 20501 20504 20507 20510 20513 20516 20519 20522 20525 20528 20531 20534 20537 20540 20543 20546 20548 20551 20554 20556 20558 20561 20564 20566 20569 20572 20574 20577 20580 20583 20585 20588 20591 20594 20597 20600 20603 20606 20609 20612 20614 20617 20620 20623 20626 20629 20632 20634 20637 20640 20643 20646 20649 20652 20655 20658 20661 20664 20667 20670 20673 20676 20679 20682 20685 20688 20691 20694 20697 20700 20703 20706 20709 20712 20715 20718 20721 20724 20727 20729 20732 20735 20738 20741 20744 20747 20750 20753 20756 20759 20762 20765 20768 20771 20774 20777 20780 20783 20786 20789 20792 20795 20798 20801 20804 20807 20810 20813 20816 20819 20822 20825 20828 20831 20834 20837 20840 20843 20846 20849 20852 20855 20858 20861 20864 20867 20869 20872 20874 20877 20880 20883 20886 20888 20891 20894 20897 20900 20902 20905 20908 20911 20914 20916 20919 20922 20925 20928 20931 20934 20937 20940 20942 20945 20948 20950 20953 20955 20958 20961 20964 20967 20969 20972 20975 20977 20979 20982 20985 20988 20991 20994 20997 20999 21002 21005 21008 21011 21014 21017 21020 21023 21026 21029 21031 21033 21036 21039 21042 21045 21048 21050 21053 21056 21058 21061 21064 21067 21070 21072 21075 21078 21080 21083 21086 21089 21092 21095 21098 21101 21104 21107 21110 21113 21116 21119 21122 21125 21128 21131 21134 21137 21140 21143 21146 21149 21152 21155 21158 21161 21164 21167 21169 21172 21174 21177 21180 21183 21186 21189 21192 21195 21198 21201 21204 21207 21210 21213 21215 21218 21221 21224 21227 21229 21231 21234 21237 21240 21243 21246 21249 21252 21255 21258 21261 21264 21267 21270 21273 21276 21279 21282 21285 21288 21291 21294 21297 21300 21303 21306 21309 21312 21315 21318 21321 21324 21327 21330 21333 21336 21339 21342 21345 21348 21351 21354 21357 21359 21362 21365 21368 21370 21373 21376 21379 21382 21385 21388 21391 21394 21397 21400 21403 21406 21409 21412 21415 21418 21421 21424 21427 21430 21432 21435 21438 21440 21443 21446 21449 21452 21455 21458 21461 21464 21467 21469 21472 21475 21478 21481 21484 21486 21489 21492 21495 21498 21501 21503 21506 21508 21511 21514 21517 21520 21523 21526 21529 21532 21535 21538 21541 21544 21547 21549 21552 21555 21558 21560 21562 21565 21568 21571 21574 21577 21580 21583 21586 21588 21591 21594 21596 21599 21602 21604 21606 21609 21612 21615 21618 21621 21623 21626 21629 21632 21635 21638 21641 21644 21646 21649 21652 21654 21656 21659 21662 21665 21668 21671 21674 21676 21678 21681 21684 21687 21689 21692 21695 21698 21701 21704 21707 21710 21712 21715 21718 21721 21724 21727 21730 21733 21736 21739 21742 21745 21748 21751 21754 21757 21760 21763 21766 21769 21772 21775 21778 21781 21784 21787 21790 21792 21795 21798 21801 21804 21807 21810 21813 21815 21818 21821 21824 21827 21830 21833 21836 21839 21842 21845 21848 21850 21853 21856 21859 21862 21865 21868 21871 21874 21876 21879 21882 21885 21888 21891 21894 21897 21900 21903 21906 21909 21912 21915 21918 21921 21924 21926 21929 21932 21935 21937 21940 21943 21946 21949 21952 21954 21957 21960 21963 21966 21969 21972 21975 21978 21981 21984 21987 21990 21993 21996 21998 22001 22004 22007 22010 22012 22015 22018 22020 22023 22026 22029 22032 22035 22037 22040 22043 22046 22049 22052 22055 22058 22061 22064 22067 22070 22073 22076 22079 22081 22084 22086 22089 22092 22095 22097 22100 22102 22105 22107 22110 22113 22116 22119 22122 22125 22127 22129 22132 22135 22138 22141 22144 22147 22149 22152 22154 22157 22160 22163 22166 22169 22172 22175 22178 22181 22184 22187 22190 22193 22196 22199 22202 22205 22207 22210 22213 22216 22218 22220 22223 22226 22229 22232 22235 22237 22240 22243 22245 22247 22250 22253 22256 22259 22262 22265 22268 22271 22274 22277 22280 22283 22286 22289 22292 22295 22298 22301 22304 22307 22310 22313 22316 22319 22322 22325 22328 22331 22334 22337 22340 22343 22346 22349 22352 22355 22358 22361 22364 22367 22370 22373 22376 22379 22381 22384 22387 22389 22391 22393 22396 22399 22402 22405 22408 22411 22413 22416 22419 22422 22425 22428 22431 22434 22437 22440 22442 22445 22448 22451 22453 22456 22459 22462 22465 22468 22471 22474 22477 22480 22483 22486 22489 22492 22495 22498 22501 22504 22507 22510 22513 22515 22518 22521 22524 22527 22529 22532 22535 22538 22541 22544 22547 22550 22553 22556 22559 22562 22565 22568 22571 22574 22577 22580 22583 22586 22589 22592 22595 22598 22601 22604 22607 22610 22613 22616 22619 22622 22625 22628 22631 22633 22636 22638 22641 22644 22647 22650 22653 22656 22659 22662 22664 22667 22670 22673 22675 22678 22680 22683 22686 22689 22692 22695 22698 22701 22704 22706 22709 22712 22715 22718 22720 22723 22726 22729 22732 22734 22737 22740 22743 22746 22749 22752 22755 22757 22760 22763 22766 22769 22771 22774 22777 22780 22783 22786 22789 22792 22795 22798 22801 22804 22807 22810 22813 22816 22819 22822 22825 22828 22831 22834 22837 22840 22843 22846 22849 22852 22855 22858 22861 22864 22867 22870 22873 22876 22879 22882 22885 22888 22891 22894 22897 22900 22903 22906 22909 22911 22914 22917 22920 22923 22925 22927 22930 22933 22935 22937 22940 22943 22946 22949 22952 22955 22958 22961 22964 22967 22970 22973 22976 22979 22982 22985 22988 22991 22994 22996 22999 23002 23005 23007 23009 23012 23015 23018 23021 23024 23027 23030 23033 23036 23039 23042 23045 23048 23051 23054 23057 23060 23063 23066 23069 23072 23075 23078 23081 23084 23087 23090 23092 23095 23098 23101 23104 23107 23110 23113 23115 23118 23121 23124 23127 23130 23133 23136 23139 23142 23145 23148 23151 23154 23157 23160 23162 23165 23168 23171 23174 23177 23180 23183 23186 23188 23191 23193 23195 23198 23201 23204 23207 23210 23213 23216 23219 23222 23225 23228 23231 23233 23236 23239 23242 23245 23248 23251 23254 23257 23260 23263 23266 23269 23272 23275 23278 23281 23284 23287 23289 23292 23295 23298 23300 23303 23306 23309 23312 23315 23318 23321 23324 23326 23329 23332 23335 23338 23341 23344 23347 23350 23353 23356 23359 23362 23365 23368 23371 23373 23376 23379 23382 23384 23387 23390 23393 23396 23399 23402 23405 23408 23411 23414 23417 23420 23423 23426 23429 23432 23435 23438 23441 23444 23447 23450 23453 23456 23459 23462 23465 23468 23471 23474 23477 23480 23483 23485 23488 23490 23493 23496 23499 23502 23505 23508 23511 23514 23516 23519 23522 23525 23528 23531 23534 23537 23540 23543 23545 23548 23551 23553 23556 23559 23562 23565 23568 23570 23573 23576 23579 23582 23584 23587 23590 23593 23596 23598 23601 23604 23607 23609 23612 23614 23617 23620 23622 23625 23628 23631 23634 23637 23640 23643 23646 23649 23652 23655 23658 23661 23664 23666 23669 23672 23674 23677 23679 23682 23685 23688 23690 23693 23696 23698 23701 23704 23707 23710 23712 23715 23717 23720 23723 23726 23729 23732 23735 23737 23740 23742 23745 23748 23751 23754 23757 23759 23762 23765 23768 23771 23773 23776 23779 23782 23785 23788 23791 23793 23796 23799 23802 23805 23808 23811 23814 23817 23820 23823 23826 23829 23832 23835 23838 23841 23844 23847 23850 23853 23856 23859 23862 23865 23868 23871 23874 23877 23880 23883 23886 23889 23892 23894 23896 23899 23902 23905 23908 23911 23914 23917 23920 23923 23926 23928 23931 23934 23936 23938 23941 23943 23946 23949 23952 23955 23958 23961 23964 23966 23969 23972 23975 23978 23981 23984 23987 23990 23993 23996 23999 24002 24004 24007 24010 24013 24016 24018 24021 24024 24027 24030 24033 24036 24039 24042 24045 24048 24051 24054 24056 24059 24062 24065 24068 24071 24074 24077 24080 24083 24086 24089 24092 24095 24098 24101 24104 24107 24109 24112 24115 24118 24121 24124 24126 24129 24132 24135 24137 24140 24143 24146 24149 24152 24155 24157 24160 24162 24165 24168 24171 24173 24176 24179 24182 24185 24188 24191 24194 24197 24200 24202 24205 24208 24210 24213 24216 24219 24222 24225 24228 24231 24233 24236 24239 24242 24245 24248 24251 24254 24257 24260 24263 24266 24269 24272 24274 24277 24280 24282 24285 24288 24291 24294 24297 24300 24302 24305 24308 24311 24314 24317 24320 24322 24325 24328 24331 24334 24337 24340 24343 24345 24348 24351 24354 24357 24360 24363 24366 24369 24372 24375 24378 24381 24384 24387 24390 24393 24396 24399 24402 24405 24408 24411 24413 24416 24419 24422 24425 24428 24431 24434 24437 24440 24443 24445 24448 24451 24454 24457 24459 24461 24464 24467 24470 24473 24475 24478 24481 24484 24487 24490 24493 24496 24499 24502 24504 24507 24510 24513 24516 24519 24522 24525 24528 24531 24534 24537 24539 24542 24545 24548 24550 24553 24556 24559 24561 24564 24567 24570 24573 24576 24579 24582 24585 24588 24591 24594 24597 24599 24602 24605 24608 24611 24614 24616 24619 24622 24624 24627 24630 24633 24636 24639 24642 24645 24648 24651 24654 24657 24660 24663 24666 24668 24671 24674 24677 24680 24683 24686 24689 24691 24694 24697 24700 24702 24705 24708 24711 24714 24717 24719 24722 24725 24728 24731 24734 24737 24740 24743 24746 24748 24751 24754 24757 24760 24763 24766 24769 24772 24774 24777 24780 24783 24786 24789 24791 24794 24797 24800 24803 24806 24809 24812 24814 24817 24820 24823 24826 24829 24832 24835 24838 24841 24844 24847 24850 24853 24856 24859 24862 24865 24868 24871 24874 24877 24880 24883 24886 24889 24892 24895 24898 24901 24904 24907 24910 24913 24916 24919 24922 24925 24928 24931 24934 24937 24940 24943 24946 24949 24952 24955 24958 24960 24963 24966 24969 24972 24975 24978 24981 24983 24986 24989 24992 24995 24998 25001 25004 25007 25010 25013 25016 25019 25022 25025 25028 25031 25034 25037 25040 25043 25046 25049 25051 25053 25056 25059 25061 25063 25066 25069 25072 25075 25078 25081 25084 25086 25089 25092 25095 25098 25101 25104 25107 25110 25113 25116 25119 25122 25125 25128 25130 25133 25136 25139 25142 25145 25148 25151 25154 25156 25159 25162 25164 25167 25170 25173 25175 25178 25181 25184 25187 25190 25193 25196 25199 25202 25205 25208 25211 25214 25217 25220 25223 25226 25229 25232 25235 25238 25241 25244 25247 25250 25253 25256 25259 25261 25264 25267 25270 25273 25276 25279 25282 25285 25287 25290 25293 25296 25299 25302 25305 25307 25309 25312 25315 25318 25321 25323 25326 25329 25331 25334 25337 25339 25342 25345 25348 25351 25354 25357 25359 25362 25365 25368 25371 25374 25377 25380 25383 25385 25388 25391 25394 25397 25400 25403 25406 25409 25412 25415 25418 25420 25423 25426 25428 25431 25434 25437 25440 25443 25446 25449 25451 25454 25457 25460 25462 25465 25467 25470 25472 25475 25478 25481 25484 25487 25490 25493 25496 25499 25502 25505 25508 25511 25514 25517 25520 25523 25525 25528 25530 25533 25536 25539 25542 25545 25548 25551 25554 25557 25560 25562 25565 25568 25571 25574 25577 25580 25583 25585 25588 25591 25594 25596 25599 25601 25603 25606 25609 25611 25614 25617 25620 25623 25625 25628 25631 25634 25636 25639 25642 25645 25647 25650 25652 25654 25657 25660 25663 25666 25669 25672 25674 25677 25680 25683 25686 25689 25692 25695 25698 25700 25702 25704 25707 25709 25712 25715 25717 25719 25722 25725 25727 25730 25733 25736 25739 25742 25745 25748 25751 25754 25757 25760 25762 25765 25768 25771 25774 25777 25780 25783 25786 25789 25792 25795 25798 25801 25803 25805 25808 25811 25814 25817 25819 25822 25825 25828 25830 25833 25836 25839 25842 25845 25847 25849 25852 25855 25858 25860 25863 25866 25869 25872 25875 25878 25881 25884 25887 25890 25893 25896 25899 25902 25905 25907 25910 25913 25916 25918 25921 25924 25927 25929 25932 25935 25938 25941 25944 25947 25949 25952 25955 25958 25961 25964 25966 25969 25972 25975 25978 25981 25984 25987 25990 25992 25995 25998 26001 26004 26007 26010 26013 26016 26019 26021 26024 26027 26030 26033 26035 26038 26040 26043 26046 26048 26051 26053 26056 26059 26062 26065 26068 26071 26073 26076 26078 26080 26083 26086 26089 26092 26095 26098 26101 26104 26106 26109 26111 26114 26116 26119 26121 26124 26127 26130 26133 26136 26139 26142 26145 26148 26151 26154 26156 26159 26162 26165 26167 26170 26173 26176 26179 26182 26185 26188 26191 26193 26196 26199 26202 26205 26208 26211 26214 26217 26220 26222 26225 26228 26231 26234 26236 26239 26242 26244 26247 26250 26253 26256 26259 26262 26265 26268 26271 26273 26276 26279 26282 26284 26287 26290 26293 26296 26299 26302 26305 26308 26311 26314 26317 26320 26323 26326 26329 26332 26335 26338 26341 26343 26346 26349 26352 26355 26358 26361 26364 26367 26370 26373 26375 26378 26381 26384 26387 26390 26393 26396 26399 26402 26405 26408 26411 26414 26417 26420 26423 26426 26429 26432 26435 26438 26441 26444 26447 26450 26453 26456 26459 26462 26465 26468 26471 26474 26477 26480 26483 26486 26489 26492 26495 26498 26501 26504 26507 26510 26512 26514 26517 26520 26523 26526 26529 26532 26535 26538 26541 26544 26547 26550 26553 26555 26557 26560 26563 26566 26568 26571 26574 26576 26579 26582 26585 26587 26590 26593 26596 26598 26601 26604 26607 26610 26613 26616 26619 26622 26624 26627 26630 26632 26635 26637 26639 26642 26645 26648 26651 26654 26657 26659 26662 26664 26666 26668 26671 26674 26676 26679 26682 26684 26686 26689 26692 26695 26698 26701 26704 26707 26710 26713 26716 26719 26722 26725 26728 26731 26734 26737 26740 26743 26746 26749 26751 26754 26757 26760 26763 26766 26769 26772 26775 26778 26780 26783 26786 26789 26792 26795 26798 26801 26803 26805 26808 26811 26814 26817 26820 26823 26826 26829 26832 26835 26838 26841 26844 26847 26850 26853 26856 26859 26862 26865 26868 26871 26874 26876 26879 26881 26884 26887 26890 26893 26896 26899 26902 26904 26907 26910 26913 26915 26917 26920 26923 26925 26928 26931 26934 26937 26939 26942 26945 26948 26950 26953 26956 26959 26961 26964 26967 26970 26973 26976 26979 26982 26985 26988 26990 26992 26995 26998 27001 27004 27007 27009 27012 27015 27017 27019 27021 27024 27027 27030 27033 27036 27038 27041 27044 27047 27050 27053 27056 27059 27062 27065 27067 27070 27072 27075 27078 27081 27084 27087 27090 27093 27096 27099 27102 27105 27108 27111 27114 27117 27120 27123 27126 27129 27132 27135 27138 27141 27144 27146 27149 27152 27155 27158 27160 27162 27165 27168 27171 27173 27176 27179 27182 27185 27188 27191 27194 27197 27200 27203 27206 27209 27212 27215 27218 27221 27223 27226 27229 27232 27234 27237 27240 27242 27245 27248 27251 27254 27257 27260 27263 27266 27269 27272 27275 27278 27281 27283 27286 27289 27291 27294 27297 27300 27302 27305 27307 27310 27312 27315 27317 27319 27321 27324 27327 27330 27333 27336 27339 27342 27345 27347 27350 27353 27356 27359 27362 27365 27368 27371 27373 27376 27379 27381 27384 27387 27390 27393 27396 27399 27402 27405 27408 27411 27414 27417 27420 27423 27426 27429 27432 27435 27438 27441 27444 27446 27449 27452 27455 27458 27461 27464 27467 27470 27473 27476 27478 27481 27483 27486 27489 27491 27494 27496 27499 27501 27504 27507 27509 27512 27514 27517 27520 27522 27525 27528 27531 27533 27536 27539 27542 27545 27548 27551 27554 27557 27560 27563 27566 27569 27572 27575 27578 27581 27584 27587 27590 27593 27596 27599 27602 27605 27608 27611 27614 27617 27620 27623 27626 27629 27632 27635 27638 27641 27644 27647 27650 27653 27656 27659 27662 27665 27668 27671 27674 27677 27680 27683 27686 27689 27692 27695 27698 27701 27704 27707 27710 27713 27716 27718 27721 27724 27726 27729 27732 27735 27738 27741 27744 27746 27748 27751 27754 27757 27760 27763 27766 27769 27772 27775 27778 27781 27784 27787 27790 27793 27796 27799 27802 27804 27807 27810 27813 27815 27818 27821 27824 27827 27830 27833 27836 27839 27842 27845 27848 27851 27854 27857 27860 27863 27865 27868 27871 27874 27877 27880 27883 27886 27888 27891 27894 27897 27900 27903 27906 27909 27912 27914 27917 27919 27922 27925 27928 27931 27934 27937 27940 27943 27946 27949 27952 27955 27958 27961 27964 27967 27969 27972 27975 27978 27981 27984 27987 27990 27992 27995 27998 28001 28004 28006 28009 28012 28015 28018 28021 28024 28027 28029 28032 28035 28037 28039 28042 28045 28047 28050 28053 28056 28059 28062 28065 28067 28070 28073 28076 28079 28082 28085 28088 28091 28094 28096 28099 28102 28104 28107 28110 28112 28115 28118 28120 28123 28126 28129 28132 28135 28137 28140 28143 28146 28149 28152 28155 28158 28161 28163 28166 28169 28172 28175 28178 28181 28184 28186 28189 28192 28195 28198 28201 28204 28207 28210 28213 28216 28219 28222 28224 28227 28230 28233 28236 28239 28242 28245 28247 28249 28252 28254 28257 28259 28262 28265 28268 28271 28274 28277 28280 28283 28286 28289 28292 28295 28298 28301 28304 28306 28309 28311 28314 28317 28320 28323 28326 28329 28332 28335 28337 28340 28342 28345 28347 28350 28352 28355 28357 28360 28363 28365 28368 28371 28374 28377 28380 28382 28385 28388 28391 28394 28397 28400 28403 28406 28408 28411 28414 28417 28420 28423 28425 28428 28431 28433 28436 28438 28440 28443 28446 28449 28452 28455 28458 28461 28464 28466 28469 28472 28475 28478 28481 28484 28487 28490 28493 28496 28499 28502 28505 28507 28510 28513 28516 28519 28522 28525 28528 28530 28533 28536 28539 28541 28544 28547 28550 28553 28556 28559 28562 28565 28568 28571 28574 28577 28580 28583 28586 28589 28592 28594 28597 28600 28603 28606 28609 28612 28615 28617 28620 28623 28625 28628 28631 28634 28637 28640 28643 28646 28649 28652 28655 28658 28661 28664 28667 28670 28672 28675 28678 28681 28684 28686 28689 28692 28695 28698 28701 28704 28707 28710 28713 28716 28719 28722 28725 28728 28731 28734 28737 28740 28743 28746 28749 28752 28755 28758 28761 28763 28766 28769 28772 28775 28778 28781 28783 28786 28789 28792 28795 28798 28801 28804 28807 28810 28812 28814 28817 28820 28823 28825 28828 28830 28833 28836 28839 28842 28845 28848 28851 28854 28857 28860 28863 28866 28869 28872 28875 28877 28880 28883 28886 28889 28892 28895 28898 28901 28904 28907 28910 28913 28915 28917 28920 28923 28926 28929 28932 28935 28938 28941 28943 28946 28949 28951 28954 28957 28959 28961 28964 28967 28970 28973 28976 28979 28982 28984 28987 28990 28993 28996 28999 29002 29005 29008 29011 29013 29016 29019 29022 29024 29027 29030 29033 29036 29039 29041 29044 29047 29050 29053 29056 29059 29062 29065 29068 29071 29074 29077 29079 29082 29085 29088 29090 29093 29096 29099 29101 29104 29107 29110 29113 29116 29119 29122 29125 29128 29131 29134 29137 29140 29143 29146 29149 29152 29155 29158 29161 29164 29167 29170 29173 29176 29179 29182 29185 29188 29191 29194 29197 29199 29202 29205 29208 29211 29214 29217 29220 29223 29226 29229 29232 29235 29238 29241 29244 29247 29250 29253 29256 29259 29262 29265 29268 29271 29273 29276 29278 29281 29284 29286 29289 29292 29295 29298 29301 29304 29307 29310 29313 29315 29318 29321 29324 29327 29330 29333 29336 29339 29342 29345 29348 29351 29354 29357 29359 29362 29365 29368 29371 29373 29376 29379 29382 29384 29387 29390 29393 29396 29399 29402 29405 29408 29411 29414 29417 29420 29423 29426 29429 29432 29435 29438 29441 29444 29447 29450 29453 29456 29459 29462 29465 29468 29471 29474 29477 29480 29483 29486 29489 29492 29495 29498 29501 29504 29507 29510 29513 29516 29519 29522 29525 29528 29531 29534 29537 29540 29543 29546 29549 29552 29555 29558 29561 29564 29567 29570 29573 29576 29579 29582 29585 29588 29591 29594 29597 29600 29603 29606 29609 29612 29615 29618 29621 29624 29627 29630 29633 29636 29639 29642 29645 29648 29651 29654 29657 29660 29663 29666 29669 29672 29675 29678 29681 29684 29687 29690 29693 29696 29699 29702 29705 29708 29711 29714 29717 29720 29723 29726 29729 29732 29735 29738 29741 29744 29747 29750 29753 29756 29759 29762 29765 29768 29771 29774 29777 29780 29783 29786 29789 29792 29795 29798 29801 29804 29807 29810 29813 29816 29819 29822 29825 29828 29831 29834 29837 29840 29843 29846 29849 29852 29855 29858 29861 29864 29867 29870 29873 29876 29879 29882 29885 29888 29891 29894 29897 29900 29903 29906 29909 29912 29915 29918 29921 29924 29927 29930 29933 29936 29939 29942 29945 29948 29951 29953 29956 29959 29962 29965 29968 29971 29974 29977 29980 29983 29986 29989 29992 29995 29998 30001 30003 30006 30009 30012 30015 30018 30021 30024 30027 30029 30032 30035 30038 30041 30043 30046 30049 30052 30055 30058 30061 30064 30067 30070 30073 30076 30079 30082 30085 30088 30091 30094 30097 30100 30103 30106 30109 30111 30114 30117 30120 30123 30126 30129 30132 30135 30138 30141 30144 30147 30150 30152 30154 30157 30160 30163 30166 30169 30171 30174 30176 30179 30182 30185 30188 30191 30194 30197 30200 30203 30206 30209 30211 30214 30217 30220 30223 30226 30229 30232 30234 30237 30240 30243 30246 30249 30252 30255 30258 30261 30264 30267 30270 30273 30276 30279 30281 30283 30286 30289 30292 30295 30298 30301 30304 30307 30310 30313 30316 30319 30321 30324 30327 30330 30333 30336 30339 30342 30345 30348 30351 30354 30357 30360 30363 30366 30369 30371 30374 30377 30380 30383 30386 30389 30392 30394 30397 30400 30403 30406 30409 30412 30415 30418 30421 30424 30426 30428 30431 30434 30437 30440 30443 30446 30449 30452 30455 30458 30461 30464 30467 30470 30473 30476 30479 30482 30485 30488 30491 30494 30497 30500 30503 30506 30509 30512 30515 30518 30520 30523 30526 30529 30532 30535 30537 30540 30543 30546 30549 30552 30555 30558 30561 30564 30567 30569 30572 30575 30578 30581 30583 30586 30589 30592 30595 30598 30601 30604 30607 30610 30613 30615 30618 30620 30623 30626 30629 30632 30635 30638 30641 30644 30647 30650 30653 30656 30659 30662 30665 30668 30671 30674 30677 30680 30683 30686 30689 30692 30695 30698 30701 30704 30707 30710 30713 30715 30718 30721 30724 30727 30730 30732 30735 30738 30741 30744 30747 30750 30753 30756 30759 30762 30765 30768 30771 30774 30777 30780 30783 30786 30788 30791 30794 30796 30799 30802 30805 30807 30810 30813 30816 30819 30822 30824 30827 30830 30833 30836 30839 30842 30845 30848 30851 30854 30856 30859 30862 30865 30868 30871 30874 30876 30879 30882 30885 30888 30891 30893 30895 30898 30901 30903 30906 30909 30911 30914 30917 30920 30923 30926 30929 30932 30935 30938 30941 30943 30946 30949 30951 30954 30957 30959 30962 30965 30967 30970 30973 30975 30978 30981 30983 30986 30989 30992 30995 30998 31001 31003 31006 31009 31012 31015 31018 31021 31024 31027 31030 31033 31036 31038 31041 31044 31047 31050 31053 31056 31059 31061 31064 31067 31070 31073 31075 31078 31081 31084 31086 31089 31092 31095 31098 31101 31104 31107 31110 31113 31116 31119 31121 31124 31127 31130 31133 31136 31139 31142 31145 31148 31151 31154 31157 31160 31163 31166 31169 31172 31175 31178 31181 31184 31187 31190 31193 31195 31198 31201 31204 31207 31210 31212 31215 31218 31221 31224 31227 31230 31233 31236 31239 31242 31245 31248 31251 31254 31256 31259 31262 31264 31267 31269 31272 31275 31278 31281 31283 31286 31288 31290 31293 31295 31298 31301 31304 31307 31310 31313 31316 31318 31321 31323 31326 31329 31332 31335 31338 31341 31343 31346 31349 31352 31355 31358 31361 31363 31366 31369 31372 31375 31377 31380 31383 31386 31389 31392 31394 31397 31400 31402 31405 31408 31411 31414 31416 31419 31422 31425 31428 31430 31433 31436 31439 31442 31445 31448 31450 31453 31456 31459 31462 31465 31468 31471 31474 31477 31479 31482 31485 31488 31491 31494 31497 31499 31502 31505 31508 31511 31513 31516 31519 31522 31525 31528 31531 31534 31537 31540 31543 31546 31549 31552 31555 31558 31561 31563 31566 31569 31572 31574 31577 31580 31582 31585 31588 31591 31594 31597 31600 31603 31606 31609 31612 31615 31618 31621 31624 31627 31630 31632 31635 31637 31640 31643 31646 31649 31652 31655 31658 31661 31664 31667 31670 31673 31676 31679 31682 31685 31688 31691 31694 31697 31700 31703 31706 31709 31712 31715 31717 31720 31723 31725 31728 31731 31734 31737 31740 31743 31746 31749 31752 31755 31757 31760 31763 31766 31769 31771 31774 31777 31780 31783 31785 31788 31791 31794 31797 31800 31803 31806 31809 31812 31814 31817 31820 31823 31826 31829 31832 31835 31838 31841 31844 31847 31850 31853 31856 31859 31862 31865 31868 31871 31874 31877 31880 31883 31886 31889 31892 31895 31898 
</DataArray>
<DataArray type="UInt32" Name="types" format="ascii">
5 5 5 5 5 3 5 5 5 5 5 5 5 3 5 5 5 5 3 5 5 3 5 5 5 5 3 5 5 5 5 3 5 5 5 5 5 5 5 5 5 5 5 5 5 3 5 5 3 5 5 5 5 5 3 5 5 5 5 5 5 5 3 5 5 5 5 3 5 5 5 5 5 5 5 5 5 3 5 5 3 5 5 3 5 5 5 5 3 5 5 5 5 5 5 5 3 3 3 5 5 3 5 5 5 5 5 3 5 5 5 5 5 5 5 5 5 5 5 5 5 3 5 5 5 3 5 5 5 5 5 5 3 5 5 5 5 5 5 5 5 5 5 5 5 5 5 5 5 5 5 5 5 5 5 5 5 5 3 5 5 5 3 5 5 3 5 5 5 5 5 5 5 5 5 5 5 3 5 5 5 5 5 5 5 5 3 5 5 5 5 5 5 5 5 3 5 5 5 5 5 5 5 5 5 3 5 5 5 5 5 5 5 5 5 5 5 5 5 5 5 5 5 5 5 5 5 5 5 3 5 5 5 3 5 3 5 3 5 5 3 5 5 5 3 5 3 5 3 5 3 3 5 3 5 5 3 5 3 5 5 5 3 5 3 3 5 5 3 5 5 5 3 5 3 3 3 5 3 5 5 5 3 5 3 3 3 5 5 3 3 5 5 5 5 3 5 3 5 5 3 5 5 5 3 5 3 3 3 5 5 5 3 5 3 3 3 3 5 5 5 3 3 5 5 3 3 3 5 3 5 5 5 5 3 5 5 5 5 5 5 5 3 5 5 5 5 5 5 3 3 5 5 5 3 5 5 5 3 5 3 5 3 3 5 5 5 5 3 5 5 3 5 5 5 5 3 5 3 5 5 5 5 5 3 3 5 5 5 5 5 5 5 5 3 5 5 5 3 5 5 3 5 3 5 5 5 5 5 5 5 5 5 5 5 3 5 3 5 3 5 5 5 3 5 3 5 3 5 5 5 5 5 5 3 5 3 5 5 5 3 5 5 5 3 5 3 3 5 5 5 5 3 5 5 5 5 3 3 5 5 3 5 3 5 3 3 5 5 5 3 5 5 5 5 3 5 5 5 5 5 5 5 5 5 5 5 3 5 5 5 5 3 5 5 5 3 5 3 3 3 5 5 5 3 3 5 3 5 5 3 5 5 5 5 3 5 5 5 5 5 5 5 5 5 5 5 3 3 5 5 3 5 5 5 3 5 5 5 5 5 5 3 5 5 5 3 5 5 5 3 5 5 5 5 5 5 5 5 5 5 5 3 5 5 5 3 5 5 5 5 5 5 5 3 5 5 5 5 5 3 5 5 5 5 5 5 5 5 5 5 5 5 5 5 5 5 5 5 5 3 5 5 5 5 3 5 5 3 5 5 5 5 5 5 5 3 5 5 5 5 5 5 5 5 3 5 3 5 5 3 5 5 5 3 5 5 3 5 5 5 3 5 3 5 5 3 5 3 5 5 5 5 5 5 5 5 5 5 5 5 5 5 5 5 5 5 5 5 5 5 3 5 3 5 3 5 5 5 5 5 5 5 5 5 5 5 5 5 5 5 3 5 5 5 5 5 5 5 5 5 3 5 5 5 5 5 5 5 5 5 5 5 5 5 5 5 5 5 5 5 5 5 5 5 5 5 5 5 5 5 3 5 5 3 5 5 5 3 3 5 3 5 5 5 5 5 3 5 5 5 5 5 3 5 5 5 5 5 5 5 5 5 5 5 5 5 5 5 5 5 5 5 5 5 5 5 5 5 5 5 5 5 5 5 5 5 5 5 5 5 5 5 5 5 5 5 5 5 5 5 5 5 3 5 5 5 5 5 5 5 5 5 5 5 5 5 5 5 3 5 5 5 5 3 5 5 5 5 5 5 5 5 5 5 5 5 5 5 5 5 5 5 5 5 5 5 5 5 5 5 5 3 5 5 3 5 3 3 3 3 5 5 3 5 5 5 5 5 5 5 5 5 5 5 5 5 5 5 5 5 3 5 5 3 5 3 5 5 5 5 3 5 3 5 5 5 5 3 5 5 5 3 5 5 5 5 5 3 5 3 5 5 3 3 5 3 5 5 5 5 5 5 5 5 5 5 5 3 5 5 5 3 5 5 5 3 5 5 3 3 3 5 5 5 5 5 5 5 5 5 5 5 3 5 5 5 5 5 5 5 5 3 3 3 5 5 5 5 5 5 5 5 3 3 5 5 5 3 5 5 3 5 5 5 5 5 5 5 5 5 5 5 3 5 5 5 5 5 5 5 5 3 5 5 5 5 5 5 5 5 5 5 3 5 3 3 3 5 5 5 5 5 5 5 3 3 5 3 5 5 5 5 5 3 5 3 3 5 5 5 3 5 3 5 5 5 5 3 5 5 5 5 5 5 5 5 5 5 5 5 5 5 5 5 5 3 5 5 5 3 5 5 5 5 5 3 5 5 5 5 5 5 3 5 3 5 5 5 5 5 5 5 5 3 5 5 5 3 5 5 5 5 5 5 5 5 5 5 5 5 5 5 5 5 5 5 5 5 5 5 5 5 5 3 3 3 5 5 5 5 3 5 5 5 5 3 5 5 5 5 5 5 5 3 5 5 5 5 5 5 5 5 3 5 5 5 5 5 5 5 5 5 5 5 5 3 5 5 5 5 5 5 3 5 5 5 5 5 5 5 5 3 5 5 5 3 5 5 5 5 5 5 5 5 5 5 5 5 3 5 5 5 5 5 5 5 5 5 5 5 5 5 5 5 5 5 5 5 5 5 5 5 5 5 5 5 5 5 5 5 5 5 5 5 5 5 5 5 5 5 5 5 5 5 5 5 3 5 5 5 5 5 5 5 5 5 5 5 5 5 5 5 5 5 5 5 5 5 5 5 5 3 5 5 5 5 5 5 5 5 5 5 3 5 5 3 5 5 5 5 5 5 5 5 5 3 5 3 5 5 5 5 3 5 5 3 5 3 5 5 5 5 5 3 5 5 5 5 5 5 5 5 3 5 5 5 5 5 5 5 5 5 5 5 5 5 5 3 5 3 3 5 5 5 5 5 3 5 5 5 5 5 5 5 5 5 5 5 5 5 5 5 3 5 5 5 5 5 5 5 5 5 5 5 5 5 5 5 5 3 5 5 5 5 5 3 3 5 5 3 5 5 5 5 5 5 5 5 5 5 3 5 5 5 5 5 5 5 5 5 3 5 3 5 5 5 5 5 3 5 5 5 5 3 5 5 5 3 5 5 5 3 5 5 3 5 5 5 5 5 5 5 5 5 5 5 5 5 5 5 5 3 5 5 5 5 5 5 5 3 5 5 5 5 5 5 5 5 5 5 5 5 5 5 5 5 5 5 5 5 5 5 5 5 5 5 5 3 5 5 5 5 3 5 5 5 3 5 5 5 5 5 5 5 5 5 3 5 3 5 5 5 5 5 5 5 5 5 5 5 5 5 5 5 5 5 5 3 3 5 5 5 3 5 5 3 5 5 3 5 5 5 3 5 5 3 5 5 5 5 5 5 5 5 5 5 5 5 5 5 5 5 5 5 5 5 3 5 3 5 5 5 5 5 5 5 5 5 5 5 3 5 3 5 5 5 3 5 5 5 5 5 3 5 5 5 5 5 5 3 5 5 5 5 5 5 5 5 5 5 5 3 5 5 5 5 5 5 5 5 3 5 5 5 3 5 5 3 5 5 5 5 5 3 5 5 5 5 5 5 5 5 5 3 5 5 3 5 3 5 3 3 3 5 3 5 5 5 5 5 5 3 5 5 5 5 5 5 3 5 5 5 5 5 5 5 3 5 5 5 5 3 5 5 5 5 5 3 5 3 5 5 5 5 5 5 5 5 5 5 3 5 5 5 5 5 5 5 3 5 5 5 5 5 5 5 3 5 3 5 5 5 5 5 5 5 5 3 5 5 5 3 3 5 5 5 5 5 3 3 5 3 5 5 3 5 5 3 5 5 5 5 5 5 5 5 3 5 5 5 5 5 3 5 5 5 5 3 5 5 3 5 5 5 5 5 5 5 5 5 5 5 5 5 5 5 5 5 5 5 5 5 5 5 5 5 5 5 5 5 5 5 5 5 5 5 5 5 5 5 5 5 3 5 5 3 5 5 5 5 5 3 5 5 5 5 3 5 5 5 5 5 5 5 5 5 5 5 5 5 5 5 5 5 5 5 5 5 5 5 5 3 5 5 5 3 5 5 5 5 5 5 3 5 5 5 5 5 5 5 5 5 5 5 3 5 3 3 5 5 3 5 5 5 5 5 5 5 5 5 5 5 3 5 5 3 5 5 5 5 5 5 5 5 5 5 5 5 5 5 5 3 5 5 5 5 5 5 5 3 5 3 5 5 5 5 3 5 3 5 5 5 5 5 5 5 5 5 3 5 5 5 5 5 5 5 5 5 5 5 5 5 5 5 5 5 3 5 5 5 5 5 5 5 5 5 5 5 5 5 5 5 5 5 5 5 5 5 5 5 5 5 3 3 5 5 5 5 5 5 5 5 5 5 5 3 5 5 5 5 3 5 5 5 5 3 5 5 5 5 5 5 5 5 3 5 5 5 5 5 5 5 5 5 3 5 5 5 5 5 5 5 5 5 5 5 5 5 5 5 5 5 5 5 5 3 5 5 5 5 5 5 5 5 5 5 5 5 5 5 3 5 3 5 5 5 5 5 5 5 5 3 5 5 3 5 5 5 5 5 5 5 5 5 5 5 5 5 5 5 5 5 5 5 5 5 5 5 5 5 5 5 5 5 5 5 5 5 5 5 5 3 5 5 3 5 5 5 5 3 5 3 5 5 3 5 3 5 5 5 5 5 3 5 5 5 5 5 5 5 5 5 5 5 5 3 5 5 5 3 5 5 5 5 5 5 5 5 5 3 5 5 5 5 3 3 5 5 5 5 5 5 5 5 3 5 5 5 5 5 3 5 5 5 3 5 5 5 3 5 5 5 5 3 5 5 5 5 5 5 5 5 5 5 5 5 5 5 3 5 5 5 5 5 5 3 5 3 3 5 3 5 3 5 5 5 5 3 5 5 5 5 3 5 5 5 5 5 5 5 5 5 3 5 5 5 5 5 5 5 5 5 5 5 5 5 5 3 5 5 5 3 5 5 5 3 5 3 5 5 5 5 5 5 5 5 5 5 5 5 5 5 5 5 3 5 5 5 5 5 5 3 5 5 5 5 5 5 5 5 5 5 5 5 5 5 5 5 5 5 3 5 5 5 5 5 5 5 5 5 5 5 5 5 5 5 5 5 5 5 5 5 5 5 5 5 5 5 5 5 5 5 5 5 5 3 5 5 5 5 3 5 5 5 5 5 5 5 3 5 5 5 5 5 5 5 5 5 3 5 5 3 5 5 5 5 5 3 5 5 5 3 5 5 3 5 5 5 5 5 5 5 5 5 5 5 5 5 5 5 5 5 5 5 5 3 5 5 5 5 5 5 5 5 5 5 3 3 5 3 5 5 5 5 5 3 5 5 5 5 3 5 5 5 5 5 3 5 3 5 5 3 5 5 5 5 5 5 5 5 3 5 5 5 5 5 5 3 5 5 5 5 5 5 3 5 5 5 5 3 5 5 3 5 3 5 5 3 5 5 5 5 5 5 3 5 5 5 5 3 5 5 5 5 5 5 5 5 3 3 5 5 5 5 5 5 5 5 3 5 5 5 5 5 5 3 5 5 5 5 5 5 5 3 5 5 5 3 5 5 5 5 5 5 5 5 5 5 5 5 3 5 5 5 5 3 5 5 3 5 5 5 5 3 5 5 5 3 3 5 5 5 3 5 5 5 3 5 5 5 5 5 5 5 5 5 3 5 5 5 3 5 5 5 5 5 5 5 5 5 5 5 5 3 5 3 5 5 3 5 5 3 5 5 5 5 5 5 5 3 5 5 5 5 5 3 5 3 5 5 5 3 3 5 3 3 5 3 5 5 5 5 5 5 3 5 3 5 5 5 5 5 5 5 5 5 5 5 5 5 3 5 5 3 5 3 5 5 3 5 5 5 3 3 5 5 3 5 5 5 5 5 5 5 5 5 5 5 5 5 5 5 5 5 5 5 5 5 5 5 3 3 5 3 5 3 5 5 3 3 5 5 3 5 5 3 5 5 3 5 3 5 5 5 5 3 5 5 5 5 3 5 3 3 5 3 5 5 3 3 5 5 5 3 5 5 5 5 3 3 5 5 5 5 5 3 5 5 5 5 5 5 5 5 5 5 5 3 5 3 5 3 5 5 3 5 3 5 5 5 5 5 5 5 5 3 5 5 3 5 5 5 5 3 5 5 5 5 5 5 5 5 5 5 5 5 3 5 5 5 5 5 5 5 5 5 5 5 3 5 5 5 5 5 5 3 5 3 5 5 3 5 5 5 5 5 5 5 5 5 5 5 5 5 5 5 5 5 3 3 5 5 5 3 5 5 3 5 5 5 5 5 5 5 5 5 5 5 5 5 5 5 5 5 5 5 5 5 5 5 5 5 3 3 5 5 5 5 5 5 5 5 5 5 5 3 5 5 5 5 5 5 5 5 5 5 5 5 5 5 5 5 5 5 5 5 5 5 5 5 5 5 5 5 5 5 5 5 5 3 5 5 5 5 5 3 5 5 3 5 5 3 3 5 5 5 5 5 5 5 5 5 5 5 5 5 3 5 5 3 5 5 5 5 5 5 3 5 5 3 5 5 5 5 5 5 5 5 5 5 5 5 5 3 5 5 5 5 5 5 5 3 5 5 5 5 5 5 5 5 5 5 5 5 3 5 5 3 5 5 5 5 5 5 5 5 5 5 5 5 5 5 5 5 5 5 5 5 3 5 5 3 5 3 5 5 5 3 5 5 3 5 3 5 5 5 3 5 5 5 5 3 5 5 5 5 5 5 5 3 5 5 5 3 5 5 5 5 5 5 5 5 5 5 5 5 3 5 5 5 5 5 5 5 5 3 5 5 5 5 5 5 5 5 5 5 5 3 5 5 5 5 5 5 5 5 5 5 5 5 5 5 5 5 5 5 5 3 3 5 5 5 3 5 5 5 5 5 5 5 5 5 5 5 5 3 5 5 5 5 5 5 5 5 5 3 5 5 5 5 5 5 5 5 5 5 5 5 5 5 5 5 3 5 3 5 5 5 5 5 3 5 5 5 5 3 5 5 5 3 5 5 5 3 5 5 5 5 5 5 5 5 5 3 5 5 5 3 5 5 3 5 5 5 5 5 5 3 5 5 5 5 5 5 5 5 3 5 5 5 3 5 5 5 5 5 5 5 5 5 5 5 5 5 5 5 5 5 5 5 5 5 5 5 5 5 5 5 3 5 5 5 5 5 5 5 3 5 5 5 5 5 5 5 5 5 5 5 5 5 5 5 5 5 5 5 5 5 5 5 5 5 3 5 3 5 5 5 5 5 5 3 5 5 5 3 5 5 3 5 5 5 5 5 5 5 5 5 5 5 5 3 5 5 5 5 5 3 5 5 5 5 5 5 5 5 5 5 5 5 5 3 5 5 5 3 5 5 5 5 5 5 5 5 5 5 5 5 3 3 5 5 5 5 3 5 5 5 5 5 5 5 5 5 3 3 5 5 5 5 5 3 5 5 5 5 5 3 5 5 5 5 5 3 5 3 5 5 5 5 3 5 3 5 3 3 5 5 5 5 5 5 5 3 3 5 5 5 5 5 5 3 3 3 5 3 3 5 5 5 3 5 5 5 5 5 3 3 3 5 3 5 5 5 3 5 3 3 5 5 5 5 5 5 5 3 3 5 5 3 3 3 5 5 5 5 5 5 5 5 5 5 5 5 5 5 5 5 5 5 5 5 5 5 5 5 5 5 5 5 5 5 5 5 5 5 5 5 5 5 5 5 3 5 5 5 5 5 5 5 5 5 5 3 5 5 5 5 5 5 3 5 5 3 5 5 5 5 5 5 5 5 5 5 5 5 5 3 5 3 5 5 5 5 3 5 5 5 3 5 5 3 5 5 5 3 5 5 3 5 5 5 5 5 3 5 5 5 5 5 5 5 3 5 5 5 5 5 5 5 3 5 5 3 5 5 5 5 3 5 3 5 5 5 5 5 3 5 5 5 5 3 5 5 5 5 5 5 3 3 5 5 5 5 5 3 5 5 3 5 5 5 5 5 5 5 5 5 5 3 5 5 5 5 5 5 5 5 5 5 5 5 5 5 5 5 5 5 3 5 5 5 5 5 5 3 5 5 5 5 5 5 5 3 3 5 5 5 5 3 5 5 5 5 5 5 5 3 5 5 3 5 3 3 3 5 5 5 5 5 5 3 5 5 5 5 5 3 5 5 5 5 3 5 5 5 3 5 5 5 3 5 5 5 5 5 5 5 5 5 5 5 5 5 5 5 5 5 5 5 5 5 5 5 5 5 3 5 5 5 5 5 5 5 3 5 3 5 5 5 5 5 5 3 5 5 3 5 5 5 3 5 5 3 5 5 5 5 5 3 5 5 5 3 3 5 5 5 5 5 5 5 5 5 5 5 5 3 5 5 5 5 5 5 5 5 5 3 5 5 5 5 5 3 3 5 5 5 5 5 5 5 5 5 3 5 5 5 5 5 5 5 5 3 5 5 5 5 5 5 5 5 5 5 5 5 5 5 5 5 5 5 3 5 5 5 5 3 5 3 5 3 5 5 5 5 5 5 5 5 5 5 5 5 5 5 5 5 5 3 5 5 5 5 5 3 5 5 5 3 3 5 5 5 5 5 3 5 5 5 5 3 5 5 5 5 5 5 5 5 3 5 5 5 5 5 5 5 3 5 5 5 5 5 5 5 5 5 3 5 5 5 5 5 5 5 5 5 5 5 5 5 5 5 5 5 5 3 5 5 5 5 5 5 5 5 5 5 5 5 5 3 5 5 5 5 5 5 3 5 5 3 5 5 3 5 5 5 5 5 5 5 5 5 5 5 5 5 5 5 5 5 5 5 5 5 5 5 5 5 5 3 5 3 5 3 3 5 5 5 3 5 5 5 5 5 5 5 5 5 3 3 5 3 5 5 5 5 5 5 5 5 5 5 5 5 5 5 3 5 3 3 5 3 5 5 5 5 5 5 5 5 5 3 3 5 5 5 5 5 5 5 5 5 5 5 5 5 5 5 5 5 5 5 5 5 5 3 5 5 5 5 5 3 5 5 5 5 5 3 5 5 5 3 5 5 5 5 5 5 5 5 5 3 5 5 5 5 3 5 5 5 5 5 5 3 5 5 5 5 5 5 5 3 5 5 5 5 3 5 5 5 5 5 5 5 5 5 5 3 5 5 5 5 3 5 5 5 3 5 5 5 5 5 3 5 5 5 5 5 5 5 5 5 5 5 5 5 5 3 3 5 5 3 5 5 5 5 5 5 5 3 5 5 5 5 5 5 3 5 5 5 5 5 5 5 5 5 5 5 5 5 5 5 5 5 5 5 5 5 5 5 3 5 5 5 5 5 5 5 5 3 5 5 5 5 3 5 5 5 5 5 3 5 3 5 3 5 5 5 5 5 5 5 3 5 5 5 3 5 5 5 5 5 3 5 5 5 5 5 3 5 3 5 5 3 5 3 5 5 5 5 5 3 5 5 5 3 5 5 5 5 5 5 5 5 5 5 3 5 5 5 5 5 5 5 5 5 5 5 5 5 5 5 5 5 5 5 5 5 5 3 5 5 5 5 5 5 5 5 5 5 5 5 5 5 5 5 5 5 3 5 5 5 3 5 5 5 5 5 5 3 5 5 5 3 3 5 3 5 3 3 5 3 5 5 3 5 5 3 3 5 5 5 5 5 5 5 5 3 5 3 5 5 5 5 5 5 5 5 5 5 5 5 5 5 5 5 5 5 5 5 5 5 3 5 5 5 5 5 5 5 5 3 5 5 3 5 5 3 3 5 5 3 5 5 5 5 5 5 5 5 5 5 5 5 5 5 5 5 5 5 5 5 5 5 5 5 5 5 5 5 5 5 5 5 5 5 5 5 5 5 5 3 5 3 5 5 5 5 5 5 5 5 5 5 5 5 5 5 5 5 5 5 5 5 5 5 5 5 5 5 5 5 5 5 5 5 5 5 5 5 5 5 5 5 3 5 5 3 5 5 5 5 5 3 5 3 5 5 3 5 5 5 5 5 5 3 5 5 5 5 5 5 5 5 5 5 5 3 5 5 3 3 5 3 5 5 3 5 5 5 5 3 5 5 5 5 5 5 5 5 5 3 5 3 5 5 5 5 5 5 5 3 5 3 5 5 5 5 5 5 5 5 5 3 5 3 5 5 5 5 5 5 5 5 5 5 3 5 5 5 3 5 5 3 5 5 3 5 5 5 5 3 5 5 5 3 5 5 5 5 5 5 5 5 5 5 5 5 5 5 3 5 5 5 5 5 5 3 5 3 5 3 5 5 5 3 5 5 5 5 5 5 5 5 3 5 5 5 5 5 3 5 5 3 5 5 5 5 5 5 5 5 5 3 5 5 5 3 5 5 5 5 5 5 3 5 5 5 5 5 5 5 5 5 5 5 5 5 5 5 5 5 5 5 5 5 5 5 5 5 5 5 5 5 5 5 3 5 5 5 5 5 3 5 5 3 3 5 5 5 5 3 5 5 5 5 5 3 5 5 5 5 5 5 5 5 5 5 5 5 5 5 5 5 3 5 5 5 5 5 5 5 5 3 3 5 5 5 5 5 5 3 5 5 5 5 3 5 5 5 5 5 5 5 5 5 5 5 5 5 5 5 5 5 5 5 5 5 5 5 5 3 5 5 3 5 5 5 5 5 5 5 5 5 5 5 5 5 5 5 5 5 5 5 5 5 5 5 5 5 5 5 3 5 3 5 5 5 5 5 3 5 5 5 5 5 5 5 5 5 5 5 5 5 5 5 5 5 5 5 5 3 3 5 3 5 5 5 5 5 5 5 5 5 5 5 5 5 5 5 5 3 5 5 5 3 5 5 5 5 5 5 5 5 5 5 5 5 5 3 5 5 5 5 5 5 5 5 5 5 5 5 5 5 5 5 5 5 5 5 5 5 3 5 5 5 5 5 5 5 5 5 5 5 5 5 3 5 3 5 5 3 3 5 5 5 5 5 5 5 5 5 5 5 5 5 5 5 5 5 5 5 5 3 5 5 3 5 5 5 3 5 5 5 5 5 5 3 5 5 5 3 5 5 5 5 5 5 5 5 3 5 5 3 5 5 3 5 3 5 5 5 5 3 3 5 5 3 3 5 5 3 5 5 5 5 3 5 5 3 3 5 3 5 5 5 5 5 5 5 5 5 5 5 5 5 5 5 5 5 5 5 5 3 5 5 5 5 3 5 5 5 5 3 3 5 5 5 5 5 5 5 5 5 5 5 5 3 5 5 5 3 5 5 5 5 5 5 5 3 5 5 5 3 5 5 3 3 5 5 5 3 5 5 5 3 5 5 5 5 5 5 5 5 5 5 5 5 5 5 5 5 5 5 3 5 5 5 5 5 5 5 5 5 5 5 5 5 5 5 5 5 5 3 3 5 5 5 5 5 3 3 5 3 5 5 5 5 5 5 5 5 5 3 5 5 5 3 5 5 5 5 5 5 5 5 5 5 5 5 5 5 3 5 5 5 5 5 5 5 3 5 5 3 5 5 5 5 5 5 3 5 5 5 5 3 5 5 5 5 5 5 3 5 5 5 5 5 5 5 5 3 3 5 5 5 3 3 5 5 5 5 5 3 5 5 5 5 5 5 3 5 5 5 5 3 5 5 5 5 5 3 5 5 5 5 3 5 5 5 5 5 5 5 5 5 5 5 5 5 5 5 5 5 5 5 5 5 5 5 5 5 3 5 5 5 5 3 5 3 5 3 5 5 3 5 5 3 5 5 3 5 5 5 5 5 5 3 5 5 3 5 3 3 3 5 5 3 5 3 3 5 5 5 3 5 3 5 5 5 5 5 5 3 5 5 5 3 5 5 5 5 5 5 5 3 5 5 5 3 5 3 3 5 5 5 5 5 5 5 3 5 5 5 5 5 5 5 5 3 3 5 5 5 5 3 5 5 3 5 5 5 3 5 5 5 3 3 5 5 5 5 3 5 5 5 5 5 3 3 5 5 5 5 5 5 5 5 5 5 5 5 5 5 5 5 5 5 5 5 5 5 5 5 5 5 5 5 5 5 5 3 5 5 5 3 5 5 5 5 5 5 5 5 5 5 5 5 5 5 5 3 5 3 3 5 5 3 5 5 5 5 5 5 5 5 5 5 5 5 5 5 5 5 5 5 5 5 5 5 5 3 5 5 3 3 5 5 5 5 5 5 5 3 5 5 5 3 5 5 5 5 3 3 5 5 5 5 5 5 5 3 5 5 5 5 3 5 5 5 5 3 5 5 5 5 5 5 5 5 5 5 5 5 5 5 5 5 5 5 5 3 5 5 5 5 5 5 5 5 5 5 5 5 5 5 5 5 3 5 5 5 3 5 5 5 5 5 5 5 5 5 3 5 5 5 5 5 5 5 5 5 5 5 5 5 5 5 5 5 5 5 5 5 3 5 5 5 5 5 5 5 5 5 5 5 5 5 5 5 5 5 3 5 5 5 5 5 3 5 5 5 5 5 5 5 5 5 5 5 5 5 5 5 5 5 5 5 5 5 5 5 5 5 5 5 3 5 5 3 5 5 5 3 5 5 5 5 5 5 5 5 5 5 5 5 5 5 5 3 5 3 5 5 5 5 5 5 5 5 5 3 5 5 5 5 5 5 5 5 5 3 3 5 5 5 5 5 5 5 5 5 5 5 5 5 5 5 5 5 5 5 5 5 5 5 5 5 5 5 5 5 5 5 5 5 5 5 5 5 5 5 5 5 5 5 5 5 5 5 5 5 5 5 5 5 5 5 5 5 5 5 5 5 5 5 5 5 5 5 5 5 5 5 3 5 5 5 5 5 5 3 5 5 5 5 5 5 5 5 5 3 5 3 5 5 5 5 5 5 5 5 5 5 5 5 5 5 5 5 5 5 5 5 5 5 5 5 5 5 5 5 5 5 5 5 5 5 3 5 5 5 3 3 5 5 5 5 5 5 5 5 5 5 5 5 5 5 5 5 5 5 5 5 5 5 3 3 5 5 5 5 5 5 5 5 3 5 5 5 5 5 5 3 5 5 5 5 5 3 5 5 5 5 3 5 5 5 3 5 5 5 3 5 5 3 5 5 5 5 5 5 5 5 5 5 5 5 5 3 5 5 5 5 5 5 5 5 3 5 5 5 5 5 5 5 5 5 5 5 3 5 5 5 3 5 5 5 5 3 5 5 5 5 5 5 5 5 3 5 3 5 5 3 5 5 5 5 5 3 5 5 5 5 5 5 5 5 5 5 5 5 3 5 5 5 5 5 5 5 5 5 3 5 5 5 5 5 5 3 5 5 5 5 5 5 5 3 5 5 5 5 5 3 5 5 5 5 5 5 5 5 5 5 5 5 5 5 5 5 5 5 5 5 5 5 5 5 5 5 5 5 5 5 5 5 5 5 5 5 5 5 5 5 5 5 5 5 5 5 5 3 5 3 5 5 5 5 5 5 5 5 5 5 5 5 5 5 3 5 5 5 5 5 5 5 5 5 5 5 5 5 5 5 3 5 5 3 5 3 5 5 5 5 5 3 5 5 5 5 5 5 5 5 5 5 5 5 5 5 5 5 5 5 5 5 3 5 5 5 5 5 5 5 5 5 5 5 3 5 3 5 5 3 5 3 5 5 5 5 5 5 5 3 5 3 5 5 5 5 3 5 5 5 5 3 3 5 5 3 5 5 5 5 5 5 5 5 5 5 5 5 5 5 5 5 3 5 5 5 5 5 5 5 5 5 5 5 5 5 5 3 5 3 5 5 5 5 5 5 5 3 5 3 5 5 5 5 5 5 5 5 5 3 3 5 5 5 3 5 5 5 5 3 5 3 5 5 3 5 3 3 3 5 5 3 5 5 5 3 3 3 5 5 5 5 5 5 5 5 5 5 5 3 5 5 5 5 5 5 3 5 5 5 3 5 5 5 5 5 5 5 5 3 5 5 5 3 5 5 5 5 5 5 5 5 5 5 5 5 5 5 5 5 5 5 5 5 5 5 5 5 5 5 5 5 5 5 5 5 5 5 5 5 5 5 5 5 5 5 5 5 5 5 5 5 5 5 5 5 5 5 5 5 5 5 5 5 3 5 5 5 5 5 3 5 5 5 5 3 5 5 5 3 5 5 5 5 5 5 5 5 5 5 5 5 5 5 5 5 5 5 5 5 5 5 5 5 5 5 5 5 5 5 5 5 5 5 5 5 5 5 5 5 3 5 5 3 5 5 5 5 5 5 5 3 5 5 5 5 5 5 5 5 5 5 5 3 5 5 3 5 3 5 5 5 3 5 5 5 5 5 5 5 5 3 5 5 5 5 3 5 5 5 5 3 5 3 5 5 5 5 5 5 5 5 5 5 5 5 3 5 3 5 5 5 5 5 5 5 5 5 5 5 5 5 3 5 5 5 5 5 5 5 5 5 3 5 5 5 3 5 5 5 5 5 5 5 5 5 5 5 5 5 5 5 5 5 5 5 5 5 5 5 5 5 5 5 5 5 5 5 5 5 5 5 3 5 5 3 5 5 5 5 3 5 5 5 5 5 5 5 5 5 5 5 5 5 5 5 3 5 5 5 5 5 5 5 5 5 3 5 3 5 5 5 5 5 5 5 3 5 5 5 5 5 5 5 5 5 5 5 5 5 5 3 5 5 5 5 5 5 5 5 5 5 5 3 5 5 5 5 5 5 5 5 5 5 5 5 5 5 5 5 5 5 5 5 5 5 5 3 5 3 5 5 5 5 5 5 3 5 3 5 5 5 3 5 5 5 3 5 5 5 3 5 5 3 5 5 5 5 5 5 5 3 5 5 5 5 5 5 5 3 5 5 5 5 5 5 5 5 5 5 5 5 5 3 5 5 5 5 5 5 5 5 3 5 5 5 5 5 5 5 5 5 5 5 5 5 5 5 5 5 5 5 5 3 5 5 5 5 5 5 5 5 5 5 5 5 5 5 5 5 5 5 5 5 5 5 5 5 5 5 5 5 5 5 5 5 5 5 5 5 5 5 5 5 5 5 5 5 5 5 5 5 5 5 3 5 3 5 5 5 3 5 5 3 3 5 3 5 5 5 5 5 5 5 5 5 5 5 5 5 5 5 5 5 5 5 5 5 5 5 5 5 5 5 5 5 5 5 5 5 5 5 3 5 5 5 5 3 5 5 3 5 5 5 3 5 5 5 5 3 5 3 3 5 5 5 5 3 5 5 5 3 5 5 5 3 5 5 5 5 5 5 3 5 5 5 5 5 5 5 5 5 5 5 5 5 5 5 5 5 5 5 5 3 5 5 5 5 5 5 5 5 5 5 5 5 5 5 5 5 5 5 3 5 5 3 5 5 3 5 5 5 5 5 5 5 5 5 5 5 3 5 5 5 5 3 5 5 5 5 3 5 5 5 3 5 5 5 5 5 5 5 5 5 5 5 5 5 5 5 5 5 5 5 5 5 5 5 5 5 3 5 5 5 5 5 5 5 5 3 5 5 5 3 5 5 5 5 5 5 5 5 5 5 5 5 5 5 5 5 5 5 5 5 5 5 5 5 3 5 5 5 3 5 5 5 5 5 5 5 5 3 5 5 3 5 5 5 5 3 5 5 5 5 5 5 5 3 5 3 5 5 3 5 5 3 3 5 5 5 5 5 5 5 5 5 5 5 5 5 5 5 5 5 5 5 5 5 3 5 5 5 5 3 5 5 5 5 5 5 5 5 5 5 5 5 5 3 5 5 3 5 5 5 5 5 5 5 5 5 5 5 5 5 5 5 5 5 5 5 5 5 5 5 5 5 5 5 5 5 5 5 5 5 5 5 5 5 5 5 5 5 5 5 5 5 5 5 5 5 5 5 5 5 5 5 5 5 5 5 5 5 5 5 5 5 5 5 5 5 5 5 5 5 5 5 5 5 5 5 5 5 5 5 5 5 5 5 5 5 5 5 5 5 5 5 5 5 5 5 5 5 5 5 5 5 5 5 5 5 5 5 5 5 5 5 5 5 5 5 5 5 5 5 5 5 5 5 5 3 5 5 5 5 5 5 5 3 5 5 5 5 5 5 5 5 5 3 5 3 5 5 5 3 5 5 3 5 5 5 5 5 5 5 5 5 5 5 5 5 5 5 5 5 5 5 5 5 5 5 5 5 5 5 5 5 5 5 5 5 5 5 5 5 3 5 5 3 3 5 5 3 5 5 3 5 5 5 3 5 5 5 5 5 5 5 5 5 3 5 5 5 5 5 5 3 5 5 5 5 5 5 5 5 5 5 5 5 5 5 5 5 5 5 5 5 5 5 5 5 5 5 5 5 5 5 5 3 5 5 5 5 5 5 5 5 5 5 5 5 5 5 5 5 5 5 5 5 5 5 5 5 5 5 5 5 5 5 5 5 5 5 5 5 5 5 5 5 5 5 5 5 5 5 3 5 3 5 5 5 5 3 5 5 5 5 3 5 5 5 5 3 5 5 5 5 5 5 5 5 3 5 5 3 5 3 5 5 5 5 3 5 5 3 3 5 5 5 5 5 5 3 5 5 5 5 5 5 5 5 5 5 3 3 5 5 5 5 5 3 5 5 3 5 5 5 5 3 5 5 3 5 5 5 5 5 5 5 5 5 5 5 5 5 5 5 5 5 5 5 5 5 5 5 5 5 5 5 5 5 3 5 3 5 5 5 5 5 5 5 5 5 5 5 5 5 3 5 5 5 5 3 3 5 5 5 5 5 5 5 5 5 5 5 5 5 5 5 5 5 5 5 5 5 5 5 5 5 5 5 5 5 5 5 5 5 5 5 5 5 5 5 5 5 5 3 5 5 5 3 5 5 5 5 5 5 5 5 5 5 5 5 5 5 5 5 5 5 5 5 3 5 5 3 5 5 5 5 5 5 5 5 5 3 5 5 5 5 5 3 5 5 5 5 5 3 5 3 5 5 5 5 5 5 5 5 5 5 5 5 5 3 5 5 5 3 3 5 5 5 5 5 5 5 5 3 5 5 3 5 5 3 3 5 5 5 5 5 3 5 5 5 5 5 5 5 3 5 5 3 3 5 5 5 5 5 5 3 3 5 5 5 3 5 5 5 5 5 5 5 3 5 5 5 5 5 5 5 5 5 5 5 5 5 5 5 5 5 5 5 5 5 5 5 5 5 5 3 5 5 5 5 5 5 5 3 5 5 5 5 5 5 5 5 5 5 5 3 5 5 5 5 5 5 5 5 3 5 5 5 5 5 5 5 5 5 5 5 5 5 5 5 5 3 5 5 5 3 5 5 5 5 5 3 5 5 5 5 5 5 5 5 5 5 5 5 5 5 3 5 5 5 5 3 5 5 3 5 5 5 5 5 3 5 5 5 5 5 5 5 5 5 5 5 5 5 5 3 5 3 5 5 5 3 5 3 5 3 5 5 5 5 5 5 3 3 5 5 5 5 5 5 3 5 3 5 5 5 5 5 5 5 5 5 5 5 5 5 5 5 5 5 3 5 5 5 3 3 5 5 5 5 5 3 5 5 3 3 5 5 5 5 5 5 5 5 5 5 5 5 5 5 5 5 5 5 5 5 5 5 5 5 5 5 5 5 5 5 5 5 5 5 5 5 5 5 5 5 5 5 5 5 3 5 5 3 3 3 5 5 5 5 5 5 3 5 5 5 5 5 5 5 5 5 3 5 5 5 3 5 5 5 5 5 5 5 5 5 5 5 5 5 5 5 5 5 5 5 5 3 5 5 5 5 3 5 5 5 5 5 5 5 5 5 5 5 5 5 5 5 5 5 5 5 5 5 5 5 5 5 5 5 5 5 5 5 5 5 5 3 5 3 5 5 5 5 5 5 5 5 3 5 5 5 3 5 3 5 5 5 5 5 5 5 5 3 5 5 5 5 3 5 5 5 5 3 5 5 5 5 5 5 5 3 5 5 5 5 3 5 5 5 5 5 5 5 5 5 5 5 5 5 5 5 5 5 5 5 5 5 5 5 5 5 5 5 5 5 5 5 5 5 5 5 5 5 5 5 5 5 5 5 5 5 5 3 5 5 5 5 3 3 5 5 3 3 5 5 5 5 5 5 5 5 5 5 5 5 5 5 5 5 5 5 5 3 5 5 5 3 3 5 5 5 5 5 5 5 5 5 5 5 5 5 5 5 5 5 5 5 5 5 5 5 5 5 5 5 3 5 5 5 5 5 5 5 3 5 5 5 5 5 5 5 5 5 5 5 5 5 5 5 3 5 5 5 5 5 5 5 5 3 5 3 3 5 5 5 5 5 5 5 5 5 5 5 5 3 5 5 5 5 5 5 5 5 5 5 5 5 5 5 5 5 5 5 3 5 5 5 3 5 5 5 5 5 5 5 5 3 5 5 5 5 5 5 5 5 5 5 5 5 5 5 5 3 5 5 5 3 5 5 5 5 5 5 5 5 5 5 5 5 5 5 5 5 5 5 5 5 5 5 5 5 5 5 5 5 5 5 5 5 5 3 5 3 5 5 5 5 5 5 5 5 3 5 5 5 5 5 5 5 5 5 3 5 5 3 5 5 5 5 5 3 5 5 5 5 3 5 5 5 5 3 5 5 5 3 5 3 5 5 3 5 5 5 5 5 5 5 5 5 5 5 5 5 5 3 5 5 3 5 3 5 5 5 3 5 5 3 5 5 5 5 3 5 3 5 5 5 5 5 5 3 5 3 5 5 5 5 5 3 5 5 5 5 3 5 5 5 5 5 5 3 5 5 5 5 5 5 5 5 5 5 5 5 5 5 5 5 5 5 5 5 5 5 5 5 5 5 5 5 5 5 5 5 5 3 3 5 5 5 5 5 5 5 5 5 5 3 5 5 3 3 5 3 5 5 5 5 5 5 5 3 5 5 5 5 5 5 5 5 5 5 5 5 3 5 5 5 5 3 5 5 5 5 5 5 5 5 5 5 5 5 3 5 5 5 5 5 5 5 5 5 5 5 5 5 5 5 5 5 3 5 5 5 5 5 3 5 5 5 3 5 5 5 5 5 5 3 5 3 5 5 5 3 5 5 5 5 5 5 5 5 5 3 5 5 3 5 5 5 5 5 5 5 3 5 5 5 5 5 5 5 5 5 5 5 5 5 3 5 5 3 5 5 5 5 5 5 3 5 5 5 5 5 5 3 5 5 5 5 5 5 5 3 5 5 5 5 5 5 5 5 5 5 5 5 5 5 5 5 5 5 5 5 5 5 3 5 5 5 5 5 5 5 5 5 5 3 5 5 5 5 3 3 5 5 5 5 3 5 5 5 5 5 5 5 5 5 3 5 5 5 5 5 5 5 5 5 5 5 3 5 5 5 3 5 5 5 3 5 5 5 5 5 5 5 5 5 5 5 5 3 5 5 5 5 5 3 5 5 3 5 5 5 5 5 5 5 5 5 5 5 5 5 5 3 5 5 5 5 5 5 5 3 5 5 5 3 5 5 5 5 5 3 5 5 5 5 5 5 5 5 5 3 5 5 5 5 5 5 5 5 3 5 5 5 5 5 3 5 5 5 5 5 5 5 3 5 5 5 5 5 5 5 5 5 5 5 5 5 5 5 5 5 5 5 5 5 5 5 5 5 5 5 5 5 5 5 5 5 5 5 5 5 5 5 5 5 5 5 5 5 5 5 5 3 5 5 5 5 5 5 5 3 5 5 5 5 5 5 5 5 5 5 5 5 5 5 5 5 5 5 5 5 5 5 3 3 5 5 3 3 5 5 5 5 5 5 5 3 5 5 5 5 5 5 5 5 5 5 5 5 5 5 3 5 5 5 5 5 5 5 5 3 5 5 3 5 5 5 3 5 5 5 5 5 5 5 5 5 5 5 5 5 5 5 5 5 5 5 5 5 5 5 5 5 5 5 5 3 5 5 5 5 5 5 5 5 3 5 5 5 5 5 5 3 3 5 5 5 5 3 5 5 3 5 5 3 5 5 5 5 5 5 3 5 5 5 5 5 5 5 5 3 5 5 5 5 5 5 5 5 5 5 5 3 5 5 3 5 5 5 5 5 5 5 3 5 5 5 3 5 3 5 3 5 5 5 5 5 5 5 5 5 5 5 5 5 5 5 5 5 3 5 3 5 5 5 5 5 5 5 5 5 5 3 5 5 5 5 5 5 5 3 5 5 5 3 5 3 3 5 5 3 5 5 5 5 3 5 5 5 3 5 5 5 3 5 3 3 5 5 5 5 5 5 3 5 5 5 5 5 5 5 5 3 3 3 5 3 5 5 3 3 5 5 3 5 5 5 5 5 5 5 5 5 5 5 3 5 5 5 5 5 5 5 5 5 5 5 5 5 3 3 5 5 5 5 3 5 5 5 3 5 5 5 5 5 3 3 5 5 5 3 5 5 5 5 5 5 5 5 5 5 5 5 5 5 5 3 5 5 5 3 5 5 5 3 5 5 5 5 5 5 3 5 5 5 5 5 3 5 5 5 5 5 5 5 5 3 5 5 5 5 5 5 5 5 5 3 5 5 5 5 3 5 3 5 5 3 5 3 5 5 5 5 5 5 3 5 3 3 5 5 5 5 5 5 5 5 3 5 3 5 3 5 3 5 5 5 5 5 5 5 5 5 5 5 3 5 5 5 3 5 5 5 5 5 5 5 5 3 5 5 5 5 5 5 5 5 5 3 5 5 5 5 3 5 5 3 5 5 5 5 5 5 5 5 5 3 5 5 5 3 5 5 5 5 5 5 5 5 5 5 5 5 5 5 5 5 5 5 5 3 5 5 5 5 5 5 5 5 5 5 3 5 5 5 5 5 5 5 5 5 5 5 5 5 5 5 5 5 5 5 5 5 5 5 5 5 5 5 5 5 5 5 5 5 5 5 5 5 5 5 5 5 5 5 5 5 3 3 5 5 5 5 5 5 5 5 5 5 5 5 5 3 3 5 5 5 3 5 5 3 5 5 5 3 5 5 5 3 5 5 5 5 5 5 5 5 3 5 5 3 5 3 3 5 5 5 5 5 5 3 5 3 3 3 5 5 3 5 5 3 3 5 5 5 5 5 5 5 5 5 5 5 5 5 5 5 5 5 5 5 5 5 3 5 5 5 5 5 5 5 5 5 3 5 5 5 5 5 5 5 3 3 5 5 5 5 5 5 5 5 5 5 5 5 5 5 5 5 5 5 5 5 5 5 5 3 5 3 5 5 5 5 5 5 5 3 5 5 5 3 3 5 5 3 5 5 5 5 3 5 5 5 3 5 5 5 3 5 5 5 5 5 5 5 5 5 3 3 5 5 5 5 5 3 5 5 3 3 3 5 5 5 5 5 3 5 5 5 5 5 5 5 5 5 3 5 3 5 5 5 5 5 5 5 5 5 5 5 5 5 5 5 5 5 5 5 5 5 5 5 5 3 5 5 5 5 3 3 5 5 5 3 5 5 5 5 5 5 5 5 5 5 5 5 5 5 5 5 3 5 5 5 3 5 5 3 5 5 5 5 5 5 5 5 5 5 5 5 5 3 5 5 3 5 5 5 3 5 3 5 3 5 3 3 3 5 5 5 5 5 5 5 5 3 5 5 5 5 5 5 5 5 3 5 5 3 5 5 5 5 5 5 5 5 5 5 5 5 5 5 5 5 5 5 5 5 5 3 5 5 5 5 5 5 5 5 5 5 3 5 3 5 5 3 5 3 5 3 5 5 3 5 3 5 5 3 5 5 5 3 5 5 5 5 5 5 5 5 5 5 5 5 5 5 5 5 5 5 5 5 5 5 5 5 5 5 5 5 5 5 5 5 5 5 5 5 5 5 5 5 5 5 5 5 5 5 5 5 5 5 5 5 5 5 5 5 5 5 5 5 5 3 5 5 3 5 5 5 5 5 5 3 3 5 5 5 5 5 5 5 5 5 5 5 5 5 5 5 5 5 5 3 5 5 5 3 5 5 5 5 5 5 5 5 5 5 5 5 5 5 5 5 3 5 5 5 5 5 5 5 3 5 5 5 5 5 5 5 5 3 5 3 5 5 5 5 5 5 5 5 5 5 5 5 5 5 5 5 3 5 5 5 5 5 5 5 3 5 5 5 5 3 5 5 5 5 5 5 5 3 5 5 3 3 5 5 3 5 5 5 5 5 5 3 5 5 5 5 5 5 5 5 5 3 5 5 3 5 5 3 5 5 3 5 5 5 5 5 3 5 5 5 5 5 5 5 5 3 5 5 5 5 5 5 5 3 5 5 5 5 5 5 5 5 5 5 5 5 3 5 5 5 5 5 5 5 3 3 5 3 5 3 5 5 5 5 5 5 5 5 5 5 5 5 5 5 5 3 5 3 5 5 5 5 5 5 5 5 3 5 3 5 3 5 3 5 3 5 5 3 5 5 5 5 5 3 5 5 5 5 5 5 5 5 3 5 5 5 5 5 3 5 5 3 5 3 3 5 5 5 5 5 5 5 5 3 5 5 5 5 5 5 5 5 5 5 5 5 5 3 5 5 5 5 5 5 5 3 5 5 5 3 5 5 5 5 5 5 5 5 5 5 5 5 5 5 5 5 5 3 5 5 5 5 5 5 5 3 5 5 3 5 5 5 5 5 5 5 5 5 5 5 5 5 5 5 3 5 5 5 5 3 5 5 5 5 5 5 5 5 5 5 5 5 5 5 5 5 5 5 5 5 5 5 5 5 5 3 5 5 5 5 5 5 3 5 5 5 5 5 5 5 5 5 3 3 5 5 5 3 5 3 5 5 5 5 5 5 5 5 5 5 5 5 5 5 5 3 5 5 5 5 5 5 5 5 5 5 5 5 3 3 5 5 5 5 5 5 5 5 3 5 5 3 5 5 3 3 5 5 5 5 5 5 5 3 5 5 5 5 5 5 5 5 5 3 5 5 5 3 5 5 5 5 5 3 5 5 5 5 5 5 5 5 5 5 5 5 3 5 5 5 3 5 5 5 3 5 5 5 5 5 5 5 5 5 5 5 5 5 5 5 5 5 5 5 5 5 5 5 5 5 5 5 5 5 5 5 5 3 5 5 5 5 5 5 5 5 5 5 5 5 5 5 5 5 5 5 5 5 5 5 5 5 3 5 3 5 5 3 5 5 5 5 5 5 5 5 5 3 5 5 5 5 5 5 5 5 5 5 5 5 5 5 3 5 5 5 5 3 5 5 5 3 5 5 5 5 5 5 5 5 5 5 5 5 5 5 5 5 5 5 5 5 5 5 5 5 5 5 5 5 5 5 5 5 5 5 5 5 5 5 5 5 5 5 5 5 5 5 5 5 5 5 5 5 5 5 5 5 5 5 5 5 5 5 5 5 5 5 5 5 5 5 5 5 5 5 5 5 5 5 5 5 5 5 5 5 5 5 5 5 5 5 5 5 5 5 5 5 5 5 5 5 5 5 5 5 5 5 5 5 5 5 5 5 5 5 5 5 5 5 5 5 5 5 5 5 5 5 5 5 5 5 5 5 5 5 5 5 5 5 5 5 5 5 5 5 5 5 5 5 5 5 5 5 5 5 5 5 5 5 5 5 5 5 5 5 5 5 5 5 5 5 5 5 5 5 5 5 5 5 5 5 5 5 5 5 5 5 5 5 5 3 5 5 5 5 5 5 5 5 5 5 5 5 5 5 5 5 3 5 5 5 5 5 5 5 5 3 5 5 5 5 3 5 5 5 5 5 5 5 5 5 5 5 5 5 5 5 5 5 5 5 5 5 5 3 5 5 5 5 5 5 5 5 5 5 5 5 5 3 3 5 5 5 5 5 3 5 3 5 5 5 5 5 5 5 5 5 5 5 3 5 5 5 5 5 5 5 3 5 5 5 5 5 5 5 5 5 5 5 5 5 5 5 3 3 5 5 5 5 5 5 5 5 5 5 5 5 3 5 5 5 5 5 5 5 5 5 5 5 5 5 5 5 5 3 5 5 5 5 5 5 5 3 5 5 5 5 5 5 5 5 5 5 3 3 5 5 5 5 5 5 5 5 5 5 5 5 5 5 5 5 5 5 5 5 5 5 5 5 5 5 5 5 5 5 3 5 5 5 5 5 3 5 5 5 5 5 5 5 5 5 5 3 5 5 5 5 3 5 5 5 5 5 5 5 5 5 5 3 5 3 5 5 5 5 5 5 5 5 5 5 5 5 5 5 5 5 5 5 5 5 5 5 5 5 5 5 5 5 5 5 5 3 5 5 5 5 5 3 5 5 5 5 5 5 5 5 5 5 5 5 5 5 5 5 5 5 3 5 5 3 5 5 5 3 5 5 5 5 5 3 5 5 5 5 5 5 5 5 5 5 3 5 5 5 5 5 5 3 5 5 5 5 5 3 3 5 5 3 5 5 3 5 5 5 5 5 5 5 5 5 5 3 5 5 3 5 5 3 5 5 3 5 5 3 5 5 3 5 5 5 5 5 5 3 5 5 5 5 5 5 5 5 5 5 5 3 5 5 5 5 5 5 5 3 5 5 5 5 3 5 5 5 3 5 5 5 5 5 5 5 5 5 5 5 3 5 5 5 5 5 5 5 5 5 5 5 5 5 5 5 5 5 5 5 5 5 5 5 5 3 5 5 5 5 5 3 5 5 5 5 5 5 5 5 5 5 5 5 5 5 3 5 5 3 5 3 5 5 5 5 3 5 3 3 5 3 5 5 5 5 5 5 5 3 5 3 5 5 5 5 5 5 3 5 5 5 5 5 5 3 5 5 5 5 3 5 5 5 5 5 3 5 5 3 5 5 5 5 3 5 5 5 5 3 5 5 5 5 5 5 3 5 5 5 5 5 5 5 5 5 3 5 5 5 5 5 5 3 5 5 5 5 3 5 5 5 5 5 5 5 5 5 5 5 5 5 5 5 5 3 5 5 5 3 5 5 3 5 5 5 5 5 5 5 5 5 5 5 5 5 5 5 5 3 5 3 5 5 5 5 5 5 5 5 5 5 5 5 5 5 5 5 5 5 5 5 5 5 5 5 5 5 3 5 5 3 5 5 5 5 5 5 5 5 5 5 3 5 5 5 5 3 5 5 5 5 3 5 5 5 5 5 5 5 5 5 3 5 5 5 5 5 5 5 5 5 5 5 5 5 5 5 5 5 5 5 5 5 5 5 5 5 5 5 5 
</DataArray>
</Cells>
<PointData Scalars="" Vectors="displacement," Tensors="">
<DataArray type="Float64" Name="displacement" NumberOfComponents="3" format="ascii">
-0.074994589220743452 -0.074995776721812901 0 -0.069920931989522608 -0.07366284304740317 0 -0.063221304018728247 -0.074990006380803886 0 -0.074994589220743452 -0.074995776721812901 0 -0.073803619482231325 -0.072265088630761046 0 -0.069920931989522608 -0.07366284304740317 0 -0.074994589220743452 -0.074995776721812901 0 -0.073803619482231325 -0.072265088630761046 0 -0.074995798332239252 -0.067297069652366204 0 -0.073803619482231325 -0.072265088630761046 0 -0.074995798332239252 -0.067297069652366204 0 -0.074258252918628281 -0.071221140974006072 0 -0.074995798332239252 -0.067297069652366204 0 -0.074258252918628281 -0.071221140974006072 0 -0.075238680871782024 -0.065914315762576059 0 -0.072755324015471107 -0.07322906633047753 0 -0.072468764265760224 -0.073819543744176555 0 -0.074258252918628281 -0.071221140974006072 0 -0.080685872158521771 -0.071872542505943729 0 -0.081188343473557925 -0.068668257282984188 0 -0.074258252918628281 -0.071221140974006072 0 -0.081188343473557925 -0.068668257282984188 0 -0.078494062994654598 -0.066202479321756338 0 -0.073803619482231325 -0.072265088630761046 0 -0.074258252918628281 -0.071221140974006072 0 -0.069920931989522608 -0.07366284304740317 0 -0.074258252918628281 -0.071221140974006072 0 -0.069920931989522608 -0.07366284304740317 0 -0.068238607292636283 -0.074955675448809281 0 -0.069920931989522608 -0.07366284304740317 0 -0.065072430679719087 -0.074198802382464638 0 -0.068238607292636283 -0.074955675448809281 0 -0.069920931989522608 -0.07366284304740317 0 -0.063221304018728247 -0.074990006380803886 0 -0.065072430679719087 -0.074198802382464638 0 -0.06319857529914244 -0.074999991190094414 0 -0.061603009292562461 -0.077828979939121148 0 -0.059082946654306863 -0.074999987912885244 0 -0.063200800256436332 -0.07500096067845019 0 -0.064220723798300974 -0.075368515892457091 0 -0.059082946654306863 -0.074999987912885244 0 -0.05847346009478982 -0.078196184816575212 0 -0.055700028576296835 -0.0773503558157288 0 -0.059082946654306863 -0.074999987912885244 0 -0.054967283272995139 -0.074999985774328301 0 -0.055700028576296835 -0.0773503558157288 0 -0.061603009292562461 -0.077828979939121148 0 -0.059082946654306863 -0.074999987912885244 0 -0.05847346009478982 -0.078196184816575212 0 -0.061603009292562461 -0.077828979939121148 0 -0.05847346009478982 -0.078196184816575212 0 -0.060020031623982666 -0.080650671659235521 0 -0.064220723798300974 -0.075368515892457091 0 -0.06642358763694145 -0.074065135103397989 0 -0.05847346009478982 -0.078196184816575212 0 -0.05649964154999941 -0.079880606390216088 0 -0.060020031623982666 -0.080650671659235521 0 -0.05847346009478982 -0.078196184816575212 0 -0.05649964154999941 -0.079880606390216088 0 -0.055700028576296835 -0.0773503558157288 0 -0.056947093625141311 -0.075963572425558054 0 -0.06642358763694145 -0.074065135103397989 0 -0.05222161197040584 -0.079264300239676219 0 -0.052076573189316903 -0.07921556988882382 0 -0.051975462634054982 -0.079263482580864006 0 -0.05222161197040584 -0.079264300239676219 0 -0.052076573189316903 -0.07921556988882382 0 -0.052101371711769741 -0.079242288610679168 0 -0.052076573189316903 -0.07921556988882382 0 -0.051975462634054982 -0.079263482580864006 0 -0.052002137877749141 -0.079091039106372343 0 -0.085190632393794236 -0.072235752113092341 0 -0.08647012243241739 -0.069236431206145518 0 -0.083624262386070805 -0.070094111654178573 0 -0.06642358763694145 -0.074065135103397989 0 -0.067050334915154039 -0.072806770081339706 0 -0.08647012243241739 -0.069236431206145518 0 -0.083624262386070805 -0.070094111654178573 0 -0.084541325076341725 -0.068172131754682577 0 -0.052002137877749141 -0.079091039106372343 0 -0.052101371711769741 -0.079242288610679168 0 -0.052106066949347184 -0.079084812535772417 0 -0.052076573189316903 -0.07921556988882382 0 -0.052002137877749141 -0.079091039106372343 0 -0.052101371711769741 -0.079242288610679168 0 -0.085190632393794236 -0.072235752113092341 0 -0.080685872158521771 -0.071872542505943729 0 -0.083624262386070805 -0.070094111654178573 0 -0.06642358763694145 -0.074065135103397989 0 -0.072468764265760224 -0.073819543744176555 0 -0.065072430679719087 -0.074198802382464638 0 -0.064745878841193441 -0.075319910256546871 0 -0.068238607292636283 -0.074955675448809281 0 -0.083624262386070805 -0.070094111654178573 0 -0.081188343473557925 -0.068668257282984188 0 -0.083154846146444861 -0.068417570058067159 0 -0.083624262386070805 -0.070094111654178573 0 -0.083154846146444861 -0.068417570058067159 0 -0.084541325076341725 -0.068172131754682577 0 -0.080685872158521771 -0.071872542505943729 0 -0.083624262386070805 -0.070094111654178573 0 -0.081188343473557925 -0.068668257282984188 0 -0.081188343473557925 -0.068668257282984188 0 -0.081118364314090419 -0.066561868427383764 0 -0.078494062994654598 -0.066202479321756338 0 -0.081118364314090419 -0.066561868427383764 0 -0.080658864513528994 -0.06458581036804574 0 -0.078494062994654598 -0.066202479321756338 0 -0.081118364314090419 -0.066561868427383764 0 -0.082146373755622573 -0.066555265367186173 0 -0.082041279609076825 -0.065585367084796176 0 -0.081118364314090419 -0.066561868427383764 0 -0.082383056235737495 -0.067423570142089592 0 -0.082146373755622573 -0.066555265367186173 0 -0.081188343473557925 -0.068668257282984188 0 -0.081118364314090419 -0.066561868427383764 0 -0.082383056235737495 -0.067423570142089592 0 -0.081188343473557925 -0.068668257282984188 0 -0.083154846146444861 -0.068417570058067159 0 -0.082383056235737495 -0.067423570142089592 0 -0.083154846146444861 -0.068417570058067159 0 -0.082383056235737495 -0.067423570142089592 0 -0.08344725228870345 -0.067253620811794299 0 -0.083154846146444861 -0.068417570058067159 0 -0.08344725228870345 -0.067253620811794299 0 -0.084541325076341725 -0.068172131754682577 0 -0.08344725228870345 -0.067253620811794299 0 -0.084541325076341725 -0.068172131754682577 0 -0.08452043900412394 -0.066888539935194669 0 -0.080700797616654329 -0.062839049667021418 0 -0.080657512079158666 -0.062329472837972751 0 -0.08344725228870345 -0.067253620811794299 0 -0.083044744724273298 -0.066652808284462794 0 -0.083815953196845802 -0.065326757374787867 0 -0.08344725228870345 -0.067253620811794299 0 -0.083701397373372344 -0.066365701004927946 0 -0.08452043900412394 -0.066888539935194669 0 -0.080648905937668561 -0.062524919667005907 0 -0.080657512079158666 -0.062329472837972751 0 -0.083044744724273298 -0.066652808284462794 0 -0.082041279609076825 -0.065585367084796176 0 -0.083685282770111544 -0.065441561144185076 0 -0.082383056235737495 -0.067423570142089592 0 -0.082146373755622573 -0.066555265367186173 0 -0.083044744724273298 -0.066652808284462794 0 -0.082383056235737495 -0.067423570142089592 0 -0.08344725228870345 -0.067253620811794299 0 -0.083044744724273298 -0.066652808284462794 0 -0.082146373755622573 -0.066555265367186173 0 -0.083044744724273298 -0.066652808284462794 0 -0.082041279609076825 -0.065585367084796176 0 -0.082041279609076825 -0.065585367084796176 0 -0.083685282770111544 -0.065441561144185076 0 -0.082269407440914821 -0.063729675156144569 0 -0.080657512079158666 -0.062329472837972751 0 -0.081161466008889543 -0.059640001492227576 0 -0.083685282770111544 -0.065441561144185076 0 -0.082269407440914821 -0.063729675156144569 0 -0.084150914421611447 -0.061693729401378745 0 -0.082269407440914821 -0.063729675156144569 0 -0.080658864513528994 -0.06458581036804574 0 -0.080850425703029333 -0.061434210160741638 0 -0.080658864513528994 -0.06458581036804574 0 -0.080850425703029333 -0.061434210160741638 0 -0.078528942722679976 -0.063945454070846494 0 -0.082041279609076825 -0.065585367084796176 0 -0.082269407440914821 -0.063729675156144569 0 -0.080658864513528994 -0.06458581036804574 0 -0.081118364314090419 -0.066561868427383764 0 -0.082041279609076825 -0.065585367084796176 0 -0.080658864513528994 -0.06458581036804574 0 -0.08647012243241739 -0.069236431206145518 0 -0.087316783803960893 -0.066767845031513784 0 -0.085726614373728263 -0.067096164568422476 0 -0.052002137877749141 -0.079091039106372343 0 -0.05202382711186207 -0.078804731139360623 0 -0.052106066949347184 -0.079084812535772417 0 -0.067050334915154039 -0.072806770081339706 0 -0.066995515369737094 -0.070537843952139134 0 -0.087316783803960893 -0.066767845031513784 0 -0.085726614373728263 -0.067096164568422476 0 -0.086267731450315258 -0.066067689333304092 0 -0.08647012243241739 -0.069236431206145518 0 -0.085726614373728263 -0.067096164568422476 0 -0.084541325076341725 -0.068172131754682577 0 -0.085726614373728263 -0.067096164568422476 0 -0.084541325076341725 -0.068172131754682577 0 -0.08452043900412394 -0.066888539935194669 0 -0.083701397373372344 -0.066365701004927946 0 -0.085199354753883738 -0.065698741508612019 0 -0.085146159090942974 -0.064161032958920991 0 -0.080657512079158666 -0.062329472837972751 0 -0.080172675734365789 -0.059748257894198555 0 -0.085726614373728263 -0.067096164568422476 0 -0.08452043900412394 -0.066888539935194669 0 -0.085199354753883738 -0.065698741508612019 0 -0.083701397373372344 -0.066365701004927946 0 -0.08452043900412394 -0.066888539935194669 0 -0.085199354753883738 -0.065698741508612019 0 -0.085726614373728263 -0.067096164568422476 0 -0.085199354753883738 -0.065698741508612019 0 -0.086267731450315258 -0.066067689333304092 0 -0.085199354753883738 -0.065698741508612019 0 -0.086267731450315258 -0.066067689333304092 0 -0.086817701791551946 -0.064741466353188087 0 -0.087316783803960893 -0.066767845031513784 0 -0.086817701791551946 -0.064741466353188087 0 -0.088262081818235819 -0.064707794044473813 0 -0.087316783803960893 -0.066767845031513784 0 -0.086267731450315258 -0.066067689333304092 0 -0.086817701791551946 -0.064741466353188087 0 -0.086817701791551946 -0.064741466353188087 0 -0.086381554802203331 -0.063698458745027747 0 -0.085146159090942974 -0.064161032958920991 0 -0.086817701791551946 -0.064741466353188087 0 -0.086381554802203331 -0.063698458745027747 0 -0.087241300770060329 -0.0635930072992969 0 -0.085199354753883738 -0.065698741508612019 0 -0.086817701791551946 -0.064741466353188087 0 -0.085146159090942974 -0.064161032958920991 0 -0.080172675734365789 -0.059748257894198555 0 -0.078350922631522324 -0.055722501153302677 0 -0.080762661232879562 -0.058751234081550884 0 -0.080141234353394097 -0.056500684997343273 0 -0.082017413600991393 -0.056526272402066063 0 -0.080762661232879562 -0.058751234081550884 0 -0.080141234353394097 -0.056500684997343273 0 -0.079820898535517645 -0.058738949228285528 0 -0.081424674466178376 -0.055833612637362341 0 -0.078350922631522324 -0.055722501153302677 0 -0.086294287644794507 -0.062346830877038351 0 -0.087241300770060329 -0.0635930072992969 0 -0.087642000642691079 -0.062424150820574183 0 -0.086381554802203331 -0.063698458745027747 0 -0.086294287644794507 -0.062346830877038351 0 -0.087241300770060329 -0.0635930072992969 0 -0.078350922631522324 -0.055722501153302677 0 -0.074158606481903797 -0.057120412314639706 0 -0.086381554802203331 -0.063698458745027747 0 -0.085146159090942974 -0.064161032958920991 0 -0.086294287644794507 -0.062346830877038351 0 -0.07950396347524552 -0.060986507278039392 0 -0.080762661232879562 -0.058751234081550884 0 -0.079820898535517645 -0.058738949228285528 0 -0.082269407440914821 -0.063729675156144569 0 -0.080850425703029333 -0.061434210160741638 0 -0.084150914421611447 -0.061693729401378745 0 -0.084657515103865391 -0.058071747018217462 0 -0.080850425703029333 -0.061434210160741638 0 -0.084150914421611447 -0.061693729401378745 0 -0.081424674466178376 -0.055833612637362341 0 -0.081161466008889543 -0.059640001492227576 0 -0.084657515103865391 -0.058071747018217462 0 -0.080850425703029333 -0.061434210160741638 0 -0.079797999662670413 -0.058023962721433731 0 -0.080850425703029333 -0.061434210160741638 0 -0.078024738949549186 -0.060961569093259796 0 -0.079797999662670413 -0.058023962721433731 0 -0.078024738949549186 -0.060961569093259796 0 -0.074991272556188163 -0.057962397888397563 0 -0.079797999662670413 -0.058023962721433731 0 -0.080850425703029333 -0.061434210160741638 0 -0.078024738949549186 -0.060961569093259796 0 -0.078528942722679976 -0.063945454070846494 0 -0.078024738949549186 -0.060961569093259796 0 -0.07627200207354598 -0.062711348765736641 0 -0.078528942722679976 -0.063945454070846494 0 -0.077218408734541208 -0.062847234998473681 0 -0.076283553236873275 -0.060373529288112467 0 -0.076237448184167098 -0.063490896585799331 0 -0.081218228040974297 -0.060453946195545234 0 -0.080639491201860661 -0.058308508906690176 0 -0.078142281691555099 -0.058800848642560188 0 -0.078607039645573917 -0.059655480359893084 0 -0.076901367679904423 -0.058638469131874121 0 -0.078607039645573917 -0.059655480359893084 0 -0.078608851307786068 -0.059685891325019627 0 -0.078607039645573917 -0.059655480359893084 0 -0.078615822809371252 -0.058433858412150007 0 -0.078024738949549186 -0.060961569093259796 0 -0.07627200207354598 -0.062711348765736641 0 -0.075632224139004181 -0.060335959301692686 0 -0.078024738949549186 -0.060961569093259796 0 -0.075632224139004181 -0.060335959301692686 0 -0.074991272556188163 -0.057962397888397563 0 -0.078615822809371252 -0.058433858412150007 0 -0.078590203780262893 -0.056567052813049537 0 -0.080639491201860661 -0.058308508906690176 0 -0.079185331687707902 -0.057530882277334633 0 -0.080060154753337998 -0.056147003508936422 0 -0.079185331687707902 -0.057530882277334633 0 -0.078142281691555099 -0.058800848642560188 0 -0.078353895282143551 -0.056112637750634832 0 -0.078142281691555099 -0.058800848642560188 0 -0.076520868594466732 -0.055858419689355301 0 -0.078353895282143551 -0.056112637750634832 0 -0.079185331687707902 -0.057530882277334633 0 -0.078353895282143551 -0.056112637750634832 0 -0.080060154753337998 -0.056147003508936422 0 -0.080639491201860661 -0.058308508906690176 0 -0.079185331687707902 -0.057530882277334633 0 -0.078142281691555099 -0.058800848642560188 0 -0.07500141728602501 -0.057143922731698639 0 -0.076901367679904423 -0.058638469131874121 0 -0.07500000698148182 -0.057141983242074326 0 -0.078142281691555099 -0.058800848642560188 0 -0.076520868594466732 -0.055858419689355301 0 -0.074999750700425624 -0.05714463618394118 0 -0.076283553236873275 -0.060373529288112467 0 -0.074998139602209246 -0.061498034605255748 0 -0.076283553236873275 -0.060373529288112467 0 -0.076237448184167098 -0.063490896585799331 0 -0.074998139602209246 -0.061498034605255748 0 -0.076237448184167098 -0.063490896585799331 0 -0.074998139602209246 -0.061498034605255748 0 -0.075238680871782024 -0.065914315762576059 0 -0.074995798332239252 -0.067297069652366204 0 -0.074998139602209246 -0.061498034605255748 0 -0.075238680871782024 -0.065914315762576059 0 -0.076237448184167098 -0.063490896585799331 0 -0.075238680871782024 -0.065914315762576059 0 -0.076097708895652177 -0.066088210963989105 0 -0.074258252918628281 -0.071221140974006072 0 -0.075238680871782024 -0.065914315762576059 0 -0.076097708895652177 -0.066088210963989105 0 -0.074258252918628281 -0.071221140974006072 0 -0.076097708895652177 -0.066088210963989105 0 -0.078494062994654598 -0.066202479321756338 0 -0.076097708895652177 -0.066088210963989105 0 -0.078494062994654598 -0.066202479321756338 0 -0.077229002811016176 -0.0645203482771846 0 -0.078494062994654598 -0.066202479321756338 0 -0.078528942722679976 -0.063945454070846494 0 -0.077229002811016176 -0.0645203482771846 0 -0.080658864513528994 -0.06458581036804574 0 -0.078494062994654598 -0.066202479321756338 0 -0.078528942722679976 -0.063945454070846494 0 -0.077138201853295202 -0.062862162769865837 0 -0.078528942722679976 -0.063945454070846494 0 -0.077200838475601982 -0.063157899214943053 0 -0.078528942722679976 -0.063945454070846494 0 -0.077200838475601982 -0.063157899214943053 0 -0.077229002811016176 -0.0645203482771846 0 -0.078607039645573917 -0.059655480359893084 0 -0.078760630113472757 -0.060151323702497775 0 -0.076237448184167098 -0.063490896585799331 0 -0.077200838475601982 -0.063157899214943053 0 -0.077229002811016176 -0.0645203482771846 0 -0.077218408734541208 -0.062847234998473681 0 -0.076237448184167098 -0.063490896585799331 0 -0.077200838475601982 -0.063157899214943053 0 -0.076237448184167098 -0.063490896585799331 0 -0.076097708895652177 -0.066088210963989105 0 -0.077229002811016176 -0.0645203482771846 0 -0.032019965713361527 -0.078655015726728797 0 -0.028597313282188407 -0.074513483163528807 0 -0.037736424494324017 -0.080979743465153783 0 -0.03753294466135005 -0.085555525958901049 0 -0.035105336489201139 -0.082060981825070045 0 -0.041212661418585192 -0.082029641650033736 0 -0.038377025652414194 -0.081089674311452337 0 -0.038134561442541716 -0.084286602500963315 0 -0.041212661418585192 -0.082029641650033736 0 -0.041057421130434382 -0.084810157758623134 0 -0.038134561442541716 -0.084286602500963315 0 -0.041212661418585192 -0.082029641650033736 0 -0.043796041423964177 -0.083231576733092658 0 -0.041057421130434382 -0.084810157758623134 0 -0.041212661418585192 -0.082029641650033736 0 -0.040134814686200518 -0.079564741251088117 0 -0.042380064890166005 -0.079285256886477112 0 -0.041212661418585192 -0.082029641650033736 0 -0.040134814686200518 -0.079564741251088117 0 -0.038377025652414194 -0.081089674311452337 0 -0.032019965713361527 -0.078655015726728797 0 -0.033136759020115675 -0.078483631232498491 0 -0.040134814686200518 -0.079564741251088117 0 -0.038377025652414194 -0.081089674311452337 0 -0.038447929430261332 -0.077742149482320014 0 -0.037736424494324017 -0.080979743465153783 0 -0.038447929430261332 -0.077742149482320014 0 -0.034599902025301631 -0.078534715525537035 0 -0.038447929430261332 -0.077742149482320014 0 -0.038504285230392649 -0.074999329479650975 0 -0.041035010153929116 -0.077189067002189929 0 -0.038447929430261332 -0.077742149482320014 0 -0.038504285230392649 -0.074999329479650975 0 -0.03598314340042779 -0.076448012650852729 0 -0.038504285230392649 -0.074999329479650975 0 -0.041035010153929116 -0.077189067002189929 0 -0.042620187259008457 -0.074999907108164662 0 -0.040134814686200518 -0.079564741251088117 0 -0.038447929430261332 -0.077742149482320014 0 -0.041035010153929116 -0.077189067002189929 0 -0.040134814686200518 -0.079564741251088117 0 -0.041035010153929116 -0.077189067002189929 0 -0.042380064890166005 -0.079285256886477112 0 -0.042380064890166005 -0.079285256886477112 0 -0.043729279628953344 -0.076962617079376239 0 -0.044682196773260456 -0.078934479444474154 0 -0.041035010153929116 -0.077189067002189929 0 -0.042380064890166005 -0.079285256886477112 0 -0.043729279628953344 -0.076962617079376239 0 -0.042620187259008457 -0.074999907108164662 0 -0.043729279628953344 -0.076962617079376239 0 -0.046735795854496734 -0.074999875252258263 0 -0.041035010153929116 -0.077189067002189929 0 -0.042620187259008457 -0.074999907108164662 0 -0.043729279628953344 -0.076962617079376239 0 -0.043729279628953344 -0.076962617079376239 0 -0.046735795854496734 -0.074999875252258263 0 -0.045840811666959178 -0.077407550198624941 0 -0.045840811666959178 -0.077407550198624941 0 -0.044682196773260456 -0.078934479444474154 0 -0.047060019275824948 -0.078843086130700485 0 -0.043729279628953344 -0.076962617079376239 0 -0.045840811666959178 -0.077407550198624941 0 -0.044682196773260456 -0.078934479444474154 0 -0.044682196773260456 -0.078934479444474154 0 -0.045852329625556167 -0.080390209839397042 0 -0.047060019275824948 -0.078843086130700485 0 -0.045852329625556167 -0.080390209839397042 0 -0.045384886259250801 -0.082332312385706027 0 -0.046900904782706219 -0.081582331335948818 0 -0.045852329625556167 -0.080390209839397042 0 -0.043838991953347776 -0.081019917611421965 0 -0.045384886259250801 -0.082332312385706027 0 -0.044682196773260456 -0.078934479444474154 0 -0.045852329625556167 -0.080390209839397042 0 -0.043838991953347776 -0.081019917611421965 0 -0.041212661418585192 -0.082029641650033736 0 -0.042380064890166005 -0.079285256886477112 0 -0.043838991953347776 -0.081019917611421965 0 -0.042380064890166005 -0.079285256886477112 0 -0.044682196773260456 -0.078934479444474154 0 -0.043838991953347776 -0.081019917611421965 0 -0.041212661418585192 -0.082029641650033736 0 -0.043838991953347776 -0.081019917611421965 0 -0.043796041423964177 -0.083231576733092658 0 -0.043838991953347776 -0.081019917611421965 0 -0.043796041423964177 -0.083231576733092658 0 -0.045384886259250801 -0.082332312385706027 0 -0.043796041423964177 -0.083231576733092658 0 -0.045384886259250801 -0.082332312385706027 0 -0.045473711829110752 -0.084071429066794726 0 -0.045384886259250801 -0.082332312385706027 0 -0.047533959569369809 -0.083342387094388709 0 -0.045473711829110752 -0.084071429066794726 0 -0.045384886259250801 -0.082332312385706027 0 -0.046900904782706219 -0.081582331335948818 0 -0.047533959569369809 -0.083342387094388709 0 -0.04302044329373135 -0.077786977737675234 0 -0.043497176881392506 -0.07856295836275716 0 -0.047616914923682897 -0.08304010955167937 0 -0.049814988826492969 -0.083192391603095953 0 -0.048611412907877717 -0.080882271753300788 0 -0.046900904782706219 -0.081582331335948818 0 -0.047533959569369809 -0.083342387094388709 0 -0.048611412907877717 -0.080882271753300788 0 -0.049729882977038724 -0.081734553123937528 0 -0.04995936552590554 -0.080821222289295253 0 -0.048932434036680419 -0.079206208045226961 0 -0.048388652884124105 -0.076279263330858493 0 -0.049326916833167415 -0.07722865117527844 0 -0.049729882977038724 -0.081734553123937528 0 -0.04995936552590554 -0.080821222289295253 0 -0.050940021918262642 -0.080681798533368293 0 -0.04995936552590554 -0.080821222289295253 0 -0.048932434036680419 -0.079206208045226961 0 -0.049671364150819367 -0.079590924089934595 0 -0.048388652884124105 -0.076279263330858493 0 -0.049032367948901971 -0.07918212901036438 0 -0.049814988826492969 -0.083192391603095953 0 -0.048932434036680419 -0.079206208045226961 0 -0.048611412907877717 -0.080882271753300788 0 -0.04995936552590554 -0.080821222289295253 0 -0.050106180707073261 -0.080020661888546632 0 -0.050598811798619206 -0.0801160400962318 0 -0.04995936552590554 -0.080821222289295253 0 -0.050106180707073261 -0.080020661888546632 0 -0.049671364150819367 -0.079590924089934595 0 -0.050106180707073261 -0.080020661888546632 0 -0.050340841941181498 -0.07947706601913819 0 -0.050598811798619206 -0.0801160400962318 0 -0.050106180707073261 -0.080020661888546632 0 -0.050340841941181498 -0.07947706601913819 0 -0.049671364150819367 -0.079590924089934595 0 -0.048932434036680419 -0.079206208045226961 0 -0.047477000068422391 -0.080172275810735216 0 -0.047060019275824948 -0.078843086130700485 0 -0.048932434036680419 -0.079206208045226961 0 -0.048611412907877717 -0.080882271753300788 0 -0.047477000068422391 -0.080172275810735216 0 -0.045852329625556167 -0.080390209839397042 0 -0.046900904782706219 -0.081582331335948818 0 -0.047477000068422391 -0.080172275810735216 0 -0.046900904782706219 -0.081582331335948818 0 -0.048611412907877717 -0.080882271753300788 0 -0.047477000068422391 -0.080172275810735216 0 -0.045852329625556167 -0.080390209839397042 0 -0.047477000068422391 -0.080172275810735216 0 -0.047060019275824948 -0.078843086130700485 0 -0.045840811666959178 -0.077407550198624941 0 -0.047060019275824948 -0.078843086130700485 0 -0.049038783881490286 -0.078134890378276561 0 -0.048324900696390671 -0.077044050308521808 0 -0.049884720556972253 -0.077156214600398232 0 -0.045840811666959178 -0.077407550198624941 0 -0.047939722484994007 -0.076789814581877586 0 -0.049438026330947911 -0.078322041423016076 0 -0.048932434036680419 -0.079206208045226961 0 -0.047060019275824948 -0.078843086130700485 0 -0.049038783881490286 -0.078134890378276561 0 -0.046735795854496734 -0.074999875252258263 0 -0.050851620386958479 -0.074999977284574956 0 -0.049426006253170257 -0.076393837151285976 0 -0.046735795854496734 -0.074999875252258263 0 -0.047939722484994007 -0.076789814581877586 0 -0.049426006253170257 -0.076393837151285976 0 -0.046735795854496734 -0.074999875252258263 0 -0.045840811666959178 -0.077407550198624941 0 -0.047939722484994007 -0.076789814581877586 0 -0.047939722484994007 -0.076789814581877586 0 -0.049426006253170257 -0.076393837151285976 0 -0.049438026330947911 -0.078322041423016076 0 -0.049426006253170257 -0.076393837151285976 0 -0.049438026330947911 -0.078322041423016076 0 -0.052195610215843832 -0.07692113651023165 0 -0.050851620386958479 -0.074999977284574956 0 -0.049426006253170257 -0.076393837151285976 0 -0.052195610215843832 -0.07692113651023165 0 -0.049884720556972253 -0.077156214600398232 0 -0.052823618958030623 -0.076965159846155942 0 -0.049438026330947911 -0.078322041423016076 0 -0.052973318648043138 -0.079107131672532333 0 -0.052195610215843832 -0.07692113651023165 0 -0.050340841941181498 -0.07947706601913819 0 -0.049038783881490286 -0.078134890378276561 0 -0.051423469568742983 -0.078809198799015018 0 -0.048932434036680419 -0.079206208045226961 0 -0.049671364150819367 -0.079590924089934595 0 -0.049038783881490286 -0.078134890378276561 0 -0.050340841941181498 -0.07947706601913819 0 -0.049671364150819367 -0.079590924089934595 0 -0.049038783881490286 -0.078134890378276561 0 -0.052973318648043138 -0.079107131672532333 0 -0.052195610215843832 -0.07692113651023165 0 -0.055700028576296835 -0.0773503558157288 0 -0.050851620386958479 -0.074999977284574956 0 -0.052195610215843832 -0.07692113651023165 0 -0.054967283272995139 -0.074999985774328301 0 -0.052195610215843832 -0.07692113651023165 0 -0.054967283272995139 -0.074999985774328301 0 -0.055700028576296835 -0.0773503558157288 0 -0.05649964154999941 -0.079880606390216088 0 -0.052973318648043138 -0.079107131672532333 0 -0.055700028576296835 -0.0773503558157288 0 -0.056947093625141311 -0.075963572425558054 0 -0.052823618958030623 -0.076965159846155942 0 -0.05222161197040584 -0.079264300239676219 0 -0.052101371711769741 -0.079242288610679168 0 -0.051952312771014537 -0.079375588852810264 0 -0.05222161197040584 -0.079264300239676219 0 -0.051423469568742983 -0.078809198799015018 0 -0.051952312771014537 -0.079375588852810264 0 -0.052101371711769741 -0.079242288610679168 0 -0.051952312771014537 -0.079375588852810264 0 -0.052090308361949555 -0.079225212310955792 0 -0.051423469568742983 -0.078809198799015018 0 -0.051952312771014537 -0.079375588852810264 0 -0.051119776562743413 -0.07967594606638756 0 -0.050340841941181498 -0.07947706601913819 0 -0.051423469568742983 -0.078809198799015018 0 -0.051119776562743413 -0.07967594606638756 0 -0.050340841941181498 -0.07947706601913819 0 -0.051119776562743413 -0.07967594606638756 0 -0.050598811798619206 -0.0801160400962318 0 -0.051119776562743413 -0.07967594606638756 0 -0.050598811798619206 -0.0801160400962318 0 -0.050940021918262642 -0.080681798533368293 0 -0.051952312771014537 -0.079375588852810264 0 -0.052362236198242498 -0.0792159308956394 0 -0.052090308361949555 -0.079225212310955792 0 -0.051952312771014537 -0.079375588852810264 0 -0.051119776562743413 -0.07967594606638756 0 -0.050940021918262642 -0.080681798533368293 0 -0.049683959581201871 -0.077447657943020956 0 -0.049326916833167415 -0.07722865117527844 0 -0.052362236198242498 -0.0792159308956394 0 -0.052220514596654277 -0.079110405989619659 0 -0.052090308361949555 -0.079225212310955792 0 -0.04995936552590554 -0.080821222289295253 0 -0.050598811798619206 -0.0801160400962318 0 -0.050940021918262642 -0.080681798533368293 0 -0.052362236198242498 -0.0792159308956394 0 -0.05240223283154196 -0.079079999538446591 0 -0.052220514596654277 -0.079110405989619659 0 -0.052658447724333653 -0.07896444708007988 0 -0.052362236198242498 -0.0792159308956394 0 -0.05240223283154196 -0.079079999538446591 0 -0.05240223283154196 -0.079079999538446591 0 -0.052308628351944622 -0.079001194974893038 0 -0.052375420482839455 -0.078888663308705254 0 -0.05240223283154196 -0.079079999538446591 0 -0.052308628351944622 -0.079001194974893038 0 -0.052220514596654277 -0.079110405989619659 0 -0.052308628351944622 -0.079001194974893038 0 -0.052220514596654277 -0.079110405989619659 0 -0.052208824425615703 -0.07893248767769806 0 -0.052220514596654277 -0.079110405989619659 0 -0.052106066949347184 -0.079084812535772417 0 -0.052208824425615703 -0.07893248767769806 0 -0.052101371711769741 -0.079242288610679168 0 -0.052106066949347184 -0.079084812535772417 0 -0.052090308361949555 -0.079225212310955792 0 -0.052220514596654277 -0.079110405989619659 0 -0.052106066949347184 -0.079084812535772417 0 -0.052090308361949555 -0.079225212310955792 0 -0.05202382711186207 -0.078804731139360623 0 -0.052106066949347184 -0.079084812535772417 0 -0.052208824425615703 -0.07893248767769806 0 -0.05202382711186207 -0.078804731139360623 0 -0.052208824425615703 -0.07893248767769806 0 -0.052208757060302938 -0.078708932595760506 0 -0.052208824425615703 -0.07893248767769806 0 -0.052333002074792981 -0.0787534995396207 0 -0.052208757060302938 -0.078708932595760506 0 -0.05240223283154196 -0.079079999538446591 0 -0.052375420482839455 -0.078888663308705254 0 -0.052562186374082574 -0.078779070990345132 0 -0.052308628351944622 -0.079001194974893038 0 -0.052208824425615703 -0.07893248767769806 0 -0.052375420482839455 -0.078888663308705254 0 -0.052375420482839455 -0.078888663308705254 0 -0.052450740930441685 -0.078753675757851818 0 -0.052333002074792981 -0.0787534995396207 0 -0.052375420482839455 -0.078888663308705254 0 -0.052450740930441685 -0.078753675757851818 0 -0.052562186374082574 -0.078779070990345132 0 -0.052208824425615703 -0.07893248767769806 0 -0.052375420482839455 -0.078888663308705254 0 -0.052333002074792981 -0.0787534995396207 0 -0.052333002074792981 -0.0787534995396207 0 -0.052324079932992762 -0.078593487526290681 0 -0.052208757060302938 -0.078708932595760506 0 -0.052324079932992762 -0.078593487526290681 0 -0.052164218357010433 -0.078448364608482632 0 -0.052512942365094829 -0.078423840148458657 0 -0.052333002074792981 -0.0787534995396207 0 -0.052440383606234223 -0.078664394515172889 0 -0.052324079932992762 -0.078593487526290681 0 -0.052450740930441685 -0.078753675757851818 0 -0.052333002074792981 -0.0787534995396207 0 -0.052440383606234223 -0.078664394515172889 0 -0.052450740930441685 -0.078753675757851818 0 -0.052440383606234223 -0.078664394515172889 0 -0.052542824814542415 -0.078686443663739988 0 -0.050888154617036649 -0.071235488370024608 0 -0.050643687554124836 -0.071023026441964038 0 -0.052440383606234223 -0.078664394515172889 0 -0.052324079932992762 -0.078593487526290681 0 -0.052512942365094829 -0.078423840148458657 0 -0.052440383606234223 -0.078664394515172889 0 -0.052512942365094829 -0.078423840148458657 0 -0.052559898785956106 -0.078680165102200481 0 -0.05202382711186207 -0.078804731139360623 0 -0.052208757060302938 -0.078708932595760506 0 -0.052164218357010433 -0.078448364608482632 0 -0.066995515369737094 -0.070537843952139134 0 -0.066434553800992474 -0.06615421077822399 0 -0.052324079932992762 -0.078593487526290681 0 -0.052208757060302938 -0.078708932595760506 0 -0.052164218357010433 -0.078448364608482632 0 -0.071774846676057477 -0.065945055355712032 0 -0.066434553800992474 -0.06615421077822399 0 -0.086817701791551946 -0.064741466353188087 0 -0.087800983007546338 -0.064640973743194427 0 -0.087241300770060329 -0.0635930072992969 0 -0.066434553800992474 -0.06615421077822399 0 -0.066207224166031697 -0.061613965624073924 0 -0.087800983007546338 -0.064640973743194427 0 -0.087241300770060329 -0.0635930072992969 0 -0.088362597206678037 -0.063526623313799505 0 -0.087241300770060329 -0.0635930072992969 0 -0.088362597206678037 -0.063526623313799505 0 -0.087642000642691079 -0.062424150820574183 0 -0.074158606481903797 -0.057120412314639706 0 -0.063368604845133791 -0.058044143480724224 0 -0.088362597206678037 -0.063526623313799505 0 -0.087642000642691079 -0.062424150820574183 0 -0.088904732262408068 -0.062454785541848287 0 -0.061373111211846923 -0.064134618620733344 0 -0.062528302586824736 -0.062412814487167338 0 -0.063298187950252424 -0.065774971280582031 0 -0.053875091718000909 -0.058444470576844057 0 -0.054142886622918808 -0.059673287874339814 0 -0.054431779312962898 -0.059009445356151768 0 -0.062145959201902218 -0.057918467761334837 0 -0.05521574082440165 -0.065388998548719796 0 -0.063035835974289994 -0.056450135905458616 0 -0.060813685430520965 -0.05641998664825712 0 -0.063163708060963816 -0.056994374518420328 0 -0.062145959201902218 -0.057918467761334837 0 -0.057365337545812946 -0.056330918704018323 0 -0.064064159759473716 -0.06342192908731438 0 -0.059721037650101561 -0.06335909740302445 0 -0.062777550743447402 -0.057894818265470036 0 -0.062145959201902218 -0.057918467761334837 0 -0.063368604845133791 -0.058044143480724224 0 -0.061373111211846923 -0.064134618620733344 0 -0.062528302586824736 -0.062412814487167338 0 -0.062329343305965748 -0.062409755865664954 0 -0.066207224166031697 -0.061613965624073924 0 -0.063368604845133791 -0.058044143480724224 0 -0.066434553800992474 -0.06615421077822399 0 -0.05521574082440165 -0.065388998548719796 0 -0.060422714632191496 -0.065854883900558395 0 -0.061373111211846923 -0.064134618620733344 0 -0.063298187950252424 -0.065774971280582031 0 -0.05521574082440165 -0.065388998548719796 0 -0.049127942431169219 -0.064265922724304633 0 -0.054776236135497175 -0.059653404765008008 0 -0.054431779312962898 -0.059009445356151768 0 -0.055121262600868436 -0.058826866119939508 0 -0.054142886622918808 -0.059673287874339814 0 -0.054776236135497175 -0.059653404765008008 0 -0.054431779312962898 -0.059009445356151768 0 -0.057365337545812946 -0.056330918704018323 0 -0.046124669841620357 -0.052979813426997889 0 -0.054431779312962898 -0.059009445356151768 0 -0.05424194505542522 -0.058450842745330932 0 -0.055121262600868436 -0.058826866119939508 0 -0.057365337545812946 -0.056330918704018323 0 -0.047123210373706301 -0.0571220394865515 0 -0.053875091718000909 -0.058444470576844057 0 -0.054431779312962898 -0.059009445356151768 0 -0.05424194505542522 -0.058450842745330932 0 -0.054148470615323012 -0.055091425334864892 0 -0.045982251414023186 -0.054966732422675309 0 -0.047171431014731167 -0.052193085928957154 0 -0.041165279899357005 -0.055910887106894437 0 -0.041753973666143467 -0.054544243756921733 0 -0.038217822342323966 -0.054585760226010957 0 -0.046124669841620357 -0.052979813426997889 0 -0.047123210373706301 -0.0571220394865515 0 -0.047418699757768808 -0.061105409375145962 0 -0.046216574900308005 -0.063899012064638189 0 -0.042982740241172289 -0.06121908325472445 0 -0.049127942431169219 -0.064265922724304633 0 -0.047123210373706301 -0.0571220394865515 0 -0.049127942431169219 -0.064265922724304633 0 -0.039891961614924899 -0.064034245395807154 0 -0.046066769282881066 -0.067910956281866552 0 -0.045056846478217526 -0.067055740496474475 0 -0.043540094648162789 -0.067969169782048394 0 -0.045056846478217526 -0.067055740496474475 0 -0.046689435962349209 -0.066472131994891312 0 -0.044888403770597815 -0.06613457150503925 0 -0.049517472986515071 -0.070810614257629786 0 -0.043913640543433392 -0.072187562262232469 0 -0.045056846478217526 -0.067055740496474475 0 -0.044888403770597815 -0.06613457150503925 0 -0.044098248152915243 -0.066792878161033103 0 -0.049989998474467702 -0.06439167870956046 0 -0.050879172197013517 -0.066405012571156052 0 -0.050433472737201647 -0.066321974105860229 0 -0.049989998474467702 -0.06439167870956046 0 -0.051755751939738158 -0.064341655486127067 0 -0.050879172197013517 -0.066405012571156052 0 -0.049127942431169219 -0.064265922724304633 0 -0.049517472986515071 -0.070810614257629786 0 -0.046066769282881066 -0.067910956281866552 0 -0.045056846478217526 -0.067055740496474475 0 -0.046689435962349209 -0.066472131994891312 0 -0.05521574082440165 -0.065388998548719796 0 -0.050643687554124836 -0.071023026441964038 0 -0.050643687554124836 -0.071023026441964038 0 -0.049772534704558967 -0.072534026015592099 0 -0.049517472986515071 -0.070810614257629786 0 -0.049772534704558967 -0.072534026015592099 0 -0.05025996716472108 -0.069549071558706752 0 -0.049913292463770902 -0.069484427974273857 0 -0.050044464437298188 -0.070054346720930874 0 -0.049517472986515071 -0.070810614257629786 0 -0.050643687554124836 -0.071023026441964038 0 -0.052658447724333653 -0.07896444708007988 0 -0.05240223283154196 -0.079079999538446591 0 -0.052569979001769303 -0.078606983172858844 0 -0.048661450512538049 -0.071847643551663287 0 -0.048830184287660221 -0.072564890689022152 0 -0.047718672433207897 -0.072630782349244638 0 -0.048720974680460293 -0.072817243526265119 0 -0.048830184287660221 -0.072564890689022152 0 -0.047718672433207897 -0.072630782349244638 0 -0.049587208587045434 -0.075034086157236918 0 -0.049772534704558967 -0.072534026015592099 0 -0.052450740930441685 -0.078753675757851818 0 -0.052542824814542415 -0.078686443663739988 0 -0.052562186374082574 -0.078779070990345132 0 -0.048388652884124105 -0.076279263330858493 0 -0.049772534704558967 -0.072534026015592099 0 -0.048388652884124105 -0.076279263330858493 0 -0.043913640543433392 -0.072187562262232469 0 -0.04302044329373135 -0.077786977737675234 0 -0.04254277338321448 -0.072919449859237179 0 -0.047616914923682897 -0.08304010955167937 0 -0.049814988826492969 -0.083192391603095953 0 -0.047274002462110991 -0.085241056154314737 0 -0.047616914923682897 -0.08304010955167937 0 -0.047274002462110991 -0.085241056154314737 0 -0.046628948487653012 -0.085116398532660745 0 -0.043913640543433392 -0.072187562262232469 0 -0.04254277338321448 -0.072919449859237179 0 -0.04254277338321448 -0.072919449859237179 0 -0.03930496804008219 -0.073725282258075758 0 -0.047533959569369809 -0.083342387094388709 0 -0.046422832833345695 -0.085680809072218492 0 -0.045473711829110752 -0.084071429066794726 0 -0.039328644982733023 -0.071726528257618924 0 -0.039354032655285857 -0.071733245679230978 0 -0.039333408435725331 -0.071707458754235967 0 -0.046422832833345695 -0.085680809072218492 0 -0.045473711829110752 -0.084071429066794726 0 -0.044001838143894349 -0.085229935758922362 0 -0.043796041423964177 -0.083231576733092658 0 -0.045473711829110752 -0.084071429066794726 0 -0.044001838143894349 -0.085229935758922362 0 -0.03930496804008219 -0.073725282258075758 0 -0.03493571793035654 -0.074418186362670488 0 -0.033443389311333664 -0.066230104628538719 0 -0.032134414824944113 -0.067474669449953339 0 -0.031006112655219954 -0.065782722699380819 0 -0.039852369207949573 -0.076534548722883497 0 -0.03930496804008219 -0.073725282258075758 0 -0.043796041423964177 -0.083231576733092658 0 -0.043985222947984411 -0.085323642902868396 0 -0.041057421130434382 -0.084810157758623134 0 -0.033443389311333664 -0.066230104628538719 0 -0.032134414824944113 -0.067474669449953339 0 -0.033690455941772453 -0.068769136909304834 0 -0.03930496804008219 -0.073725282258075758 0 -0.038915031514482216 -0.067211340107316067 0 -0.032134414824944113 -0.067474669449953339 0 -0.032275113765882067 -0.068681981220718002 0 -0.033690455941772453 -0.068769136909304834 0 -0.040736876035462825 -0.066924096497630578 0 -0.040373890970102966 -0.06767529889667255 0 -0.040114965831565152 -0.067433123229411529 0 -0.039354032655285857 -0.071733245679230978 0 -0.039333408435725331 -0.071707458754235967 0 -0.039349361475385099 -0.071684468315113464 0 -0.041574487057763294 -0.069676619514728408 0 -0.038915031514482216 -0.067211340107316067 0 -0.045056846478217526 -0.067055740496474475 0 -0.044098248152915243 -0.066792878161033103 0 -0.043540094648162789 -0.067969169782048394 0 -0.041574487057763294 -0.069676619514728408 0 -0.039891961614924899 -0.064034245395807154 0 -0.043913640543433392 -0.072187562262232469 0 -0.041574487057763294 -0.069676619514728408 0 -0.04254277338321448 -0.072919449859237179 0 -0.041574487057763294 -0.069676619514728408 0 -0.04077904033127483 -0.071198106924396182 0 -0.041056022233921657 -0.071248789880484623 0 -0.041274554031456669 -0.070770208671543461 0 -0.046216574900308005 -0.063899012064638189 0 -0.042982740241172289 -0.06121908325472445 0 -0.042448678856335485 -0.062351197969478522 0 -0.040373890970102966 -0.06767529889667255 0 -0.040137173294301838 -0.067680983351520979 0 -0.040114965831565152 -0.067433123229411529 0 -0.039891961614924899 -0.064034245395807154 0 -0.038154830395794294 -0.064034329920789709 0 -0.037958630577285483 -0.065201789432547688 0 -0.038388488886815918 -0.064276519216961342 0 -0.038477790845542217 -0.065187059331322267 0 -0.039891961614924899 -0.064034245395807154 0 -0.0387013550310676 -0.060647014493119197 0 -0.0387013550310676 -0.060647014493119197 0 -0.038154830395794294 -0.064034329920789709 0 -0.046124669841620357 -0.052979813426997889 0 -0.034308646239600005 -0.051192547309220612 0 -0.047123210373706301 -0.0571220394865515 0 -0.0387013550310676 -0.060647014493119197 0 -0.041753973666143467 -0.054544243756921733 0 -0.037565318597740913 -0.052832193621456108 0 -0.038217822342323966 -0.054585760226010957 0 -0.041165279899357005 -0.055910887106894437 0 -0.038217822342323966 -0.054585760226010957 0 -0.037855657669847644 -0.055859916335795387 0 -0.037565318597740913 -0.052832193621456108 0 -0.038217822342323966 -0.054585760226010957 0 -0.037808904021444746 -0.055422767985942908 0 -0.0387013550310676 -0.060647014493119197 0 -0.034178237583662029 -0.051857699765626118 0 -0.034209187135243777 -0.051924134317588931 0 -0.034178237583662029 -0.051857699765626118 0 -0.038217822342323966 -0.054585760226010957 0 -0.037813766780946376 -0.055419135183170473 0 -0.037855657669847644 -0.055859916335795387 0 -0.034208826625912056 -0.05179099146814363 0 -0.033740354790720913 -0.046884317968901974 0 -0.036553897686634675 -0.046924986504547309 0 -0.034178237583662029 -0.051857699765626118 0 -0.033259763411252689 -0.051128119144731567 0 -0.034178237583662029 -0.051857699765626118 0 -0.034308646239600005 -0.051192547309220612 0 -0.034308646239600005 -0.051192547309220612 0 -0.033259763411252689 -0.051128119144731567 0 -0.030674227302408996 -0.057967126929621422 0 -0.029067768449030969 -0.056500350654311866 0 -0.028064169124935166 -0.056693731880354196 0 -0.033259763411252689 -0.051128119144731567 0 -0.020787727287752005 -0.049586224612882535 0 -0.030674227302408996 -0.057967126929621422 0 -0.028064169124935166 -0.056693731880354196 0 -0.027138723715658442 -0.057906611487573138 0 -0.03087169418387083 -0.057564758765498047 0 -0.030674227302408996 -0.057967126929621422 0 -0.0299250311367272 -0.056720143091795065 0 -0.030674227302408996 -0.057967126929621422 0 -0.0299250311367272 -0.056720143091795065 0 -0.029067768449030969 -0.056500350654311866 0 -0.030669012846358708 -0.055171950565671944 0 -0.03087169418387083 -0.057564758765498047 0 -0.0299250311367272 -0.056720143091795065 0 -0.0387013550310676 -0.060647014493119197 0 -0.03833563870621904 -0.060398719672152761 0 -0.030640999029227883 -0.055192148224586547 0 -0.0299250311367272 -0.056720143091795065 0 -0.029432295354804509 -0.055549469126159677 0 -0.0299250311367272 -0.056720143091795065 0 -0.029067768449030969 -0.056500350654311866 0 -0.029432295354804509 -0.055549469126159677 0 -0.029067768449030969 -0.056500350654311866 0 -0.028522772108154053 -0.055810562247405646 0 -0.029432295354804509 -0.055549469126159677 0 -0.028522772108154053 -0.055810562247405646 0 -0.027628651179058532 -0.055230250816579528 0 -0.028064169124935166 -0.056693731880354196 0 -0.029067768449030969 -0.056500350654311866 0 -0.028522772108154053 -0.055810562247405646 0 -0.028064169124935166 -0.056693731880354196 0 -0.028738910856834003 -0.054954683500377847 0 -0.030533698757212468 -0.054055685640467255 0 -0.027574691781368232 -0.05412796455439952 0 -0.028522772108154053 -0.055810562247405646 0 -0.028738910856834003 -0.054954683500377847 0 -0.027628651179058532 -0.055230250816579528 0 -0.038154830395794294 -0.064034329920789709 0 -0.029162744812564267 -0.062251266861967712 0 -0.033750328319505425 -0.069307557413664359 0 -0.033262791288194246 -0.069127216263913382 0 -0.031442350937801136 -0.06937319384518717 0 -0.028522772108154053 -0.055810562247405646 0 -0.028738910856834003 -0.054954683500377847 0 -0.029432295354804509 -0.055549469126159677 0 -0.028738910856834003 -0.054954683500377847 0 -0.029432295354804509 -0.055549469126159677 0 -0.030533698757212468 -0.054055685640467255 0 -0.030640999029227883 -0.055192148224586547 0 -0.029432295354804509 -0.055549469126159677 0 -0.030533698757212468 -0.054055685640467255 0 -0.032275113765882067 -0.068681981220718002 0 -0.033262791288194246 -0.069127216263913382 0 -0.033690455941772453 -0.068769136909304834 0 -0.033750328319505425 -0.069307557413664359 0 -0.033262791288194246 -0.069127216263913382 0 -0.033704181599166078 -0.068753130197771684 0 -0.038154830395794294 -0.064034329920789709 0 -0.038915031514482216 -0.067211340107316067 0 -0.038768498927698021 -0.067311326092640442 0 -0.038915031514482216 -0.067211340107316067 0 -0.032275113765882067 -0.068681981220718002 0 -0.033262791288194246 -0.069127216263913382 0 -0.031442350937801136 -0.06937319384518717 0 -0.027628651179058532 -0.055230250816579528 0 -0.026439654973062221 -0.057906797202252787 0 -0.024622927735986282 -0.054218360266729139 0 -0.027574691781368232 -0.05412796455439952 0 -0.027628651179058532 -0.055230250816579528 0 -0.024622927735986282 -0.054218360266729139 0 -0.029162744812564267 -0.062251266861967712 0 -0.019681790801624958 -0.060624352778570603 0 -0.031442350937801136 -0.06937319384518717 0 -0.029146113076336411 -0.069431869344205088 0 -0.030531195040626725 -0.067891704423729757 0 -0.028738910856834003 -0.054954683500377847 0 -0.027574691781368232 -0.05412796455439952 0 -0.027628651179058532 -0.055230250816579528 0 -0.027628651179058532 -0.055230250816579528 0 -0.026439654973062221 -0.057906797202252787 0 -0.027107702517261158 -0.057914194846164474 0 -0.021298507756757293 -0.051628006127310014 0 -0.020787727287752005 -0.049586224612882535 0 -0.027628651179058532 -0.055230250816579528 0 -0.028064169124935166 -0.056693731880354196 0 -0.027138723715658442 -0.057906611487573138 0 -0.018825088811433608 -0.049637705039758014 0 -0.020787727287752005 -0.049586224612882535 0 0.0072809102379059422 -0.04578236347625482 0 1.5231581422680606e-05 -0.050493297879364636 0 0.00077903791413128857 -0.059169343633476326 0 -0.018825088811433608 -0.049637705039758014 0 -0.014045914022358396 -0.047507826087457246 0 -0.018825088811433608 -0.049637705039758014 0 -0.019681790801624958 -0.060624352778570603 0 0.0072809102379059422 -0.04578236347625482 0 1.5231581422680606e-05 -0.050493297879364636 0 -0.0074277563851618744 -0.045905152121793483 0 1.5231581422680606e-05 -0.050493297879364636 0 -0.0043939074321005271 -0.055279564004135764 0 -0.0074277563851618744 -0.045905152121793483 0 1.5231581422680606e-05 -0.050493297879364636 0 -0.0043939074321005271 -0.055279564004135764 0 0.00077903791413128857 -0.059169343633476326 0 0.00039514378234817814 -0.06032376026347671 0 -0.0038899211513690542 -0.061551093906048154 0 -0.010595216933116621 -0.060013122363006245 0 -0.019681790801624958 -0.060624352778570603 0 -0.014843321506755019 -0.060345351399204876 0 -0.0043939074321005271 -0.055279564004135764 0 0.00077903791413128857 -0.059169343633476326 0 -0.0097815106395112515 -0.059062243603327354 0 0.00039514378234817814 -0.06032376026347671 0 -0.0038899211513690542 -0.061551093906048154 0 -0.0034083088950380442 -0.068011842973496189 0 -0.019681790801624958 -0.060624352778570603 0 -0.02074438697168433 -0.066879115676533374 0 -0.029146113076336411 -0.069431869344205088 0 -0.028365656522622056 -0.067839973161689063 0 -0.030531195040626725 -0.067891704423729757 0 -0.028365656522622056 -0.067839973161689063 0 -0.030531195040626725 -0.067891704423729757 0 -0.02961896631412499 -0.066714611748320385 0 -0.0031989112089895284 -0.06812034548048386 0 -0.0040874097656445514 -0.069958146791236381 0 -0.0021137961957935878 -0.081020660300054281 0 -0.0038899211513690542 -0.061551093906048154 0 -0.0032431469391125357 -0.068158120558481694 0 -0.0064897874075516932 -0.065017293483925306 0 -0.019952553316263541 -0.066522003496001042 0 -0.02074438697168433 -0.066879115676533374 0 -0.0032431469391125357 -0.068158120558481694 0 -0.0040874097656445514 -0.069958146791236381 0 -0.0073049762207123481 -0.069645301559942988 0 -0.02074438697168433 -0.066879115676533374 0 -0.020643578339548833 -0.066831042804368648 0 -0.032134414824944113 -0.067474669449953339 0 -0.030531195040626725 -0.067891704423729757 0 -0.031006112655219954 -0.065782722699380819 0 -0.032275113765882067 -0.068681981220718002 0 -0.031442350937801136 -0.06937319384518717 0 -0.030531195040626725 -0.067891704423729757 0 -0.032134414824944113 -0.067474669449953339 0 -0.032275113765882067 -0.068681981220718002 0 -0.030531195040626725 -0.067891704423729757 0 -0.030531195040626725 -0.067891704423729757 0 -0.031006112655219954 -0.065782722699380819 0 -0.02961896631412499 -0.066714611748320385 0 -0.031006112655219954 -0.065782722699380819 0 -0.02961896631412499 -0.066714611748320385 0 -0.028574853204431788 -0.065344335704121598 0 -0.02074438697168433 -0.066879115676533374 0 -0.028597313282188407 -0.074513483163528807 0 -0.03493571793035654 -0.074418186362670488 0 -0.028597313282188407 -0.074513483163528807 0 -0.028365656522622056 -0.067839973161689063 0 -0.02961896631412499 -0.066714611748320385 0 -0.028574853204431788 -0.065344335704121598 0 -0.0040874097656445514 -0.069958146791236381 0 -0.0021137961957935878 -0.081020660300054281 0 -0.005780906543930717 -0.074058593812380183 0 -0.012898118899363809 -0.032764173143908344 0 -0.010810054793148107 -0.035163819047773007 0 -0.01354479621911249 -0.030805414675501824 0 -0.012898118899363809 -0.032764173143908344 0 -0.013975591671537783 -0.033778637953318758 0 -0.014978247542863071 -0.031755709064571327 0 -0.012898118899363809 -0.032764173143908344 0 -0.014001100460568837 -0.031383886758227578 0 -0.014978247542863071 -0.031755709064571327 0 -0.014001100460568837 -0.031383886758227578 0 -0.014532765201859922 -0.030445816425535756 0 -0.014978247542863071 -0.031755709064571327 0 -0.012898118899363809 -0.032764173143908344 0 -0.014001100460568837 -0.031383886758227578 0 -0.01354479621911249 -0.030805414675501824 0 -0.013058234894857624 -0.031603857754326219 0 -0.012577611284243883 -0.030907665998783713 0 -0.013037787152101181 -0.030457815926686192 0 -0.016307042198279526 -0.037400713819938328 0 -0.015656477430632108 -0.034228091760714355 0 -0.011820359012795328 -0.033479901745165595 0 -0.01354479621911249 -0.030805414675501824 0 -0.013660029089172418 -0.03013732454534657 0 -0.013058234894857624 -0.031603857754326219 0 -0.013037787152101181 -0.030457815926686192 0 -0.013660029089172418 -0.03013732454534657 0 -0.012090754771002288 -0.033543718207420213 0 -0.011820359012795328 -0.033479901745165595 0 -0.01354479621911249 -0.030805414675501824 0 -0.023370649794026734 -0.039801822989012484 0 -0.021263494690472048 -0.036021852640145444 0 -0.012090754771002288 -0.033543718207420213 0 -0.012884303713973396 -0.034775169011645353 0 -0.01354479621911249 -0.030805414675501824 0 -0.011814519570609035 -0.033487794114713233 0 -0.012884303713973396 -0.034775169011645353 0 -0.010581828394891163 -0.035998823921140961 0 -0.023370649794026734 -0.039801822989012484 0 -0.025351153938550416 -0.043900822002039368 0 -0.012090754771002288 -0.033543718207420213 0 -0.011814519570609035 -0.033487794114713233 0 -0.012884303713973396 -0.034775169011645353 0 -0.023295782624036206 -0.039781241650109628 0 -0.023370649794026734 -0.039801822989012484 0 -0.010810054793148107 -0.035163819047773007 0 -0.012649481425853615 -0.034340570853521282 0 -0.012960674908378695 -0.035888138262798526 0 -0.012898118899363809 -0.032764173143908344 0 -0.010810054793148107 -0.035163819047773007 0 -0.012649481425853615 -0.034340570853521282 0 -0.012898118899363809 -0.032764173143908344 0 -0.012649481425853615 -0.034340570853521282 0 -0.013975591671537783 -0.033778637953318758 0 -0.012649481425853615 -0.034340570853521282 0 -0.013975591671537783 -0.033778637953318758 0 -0.012960674908378695 -0.035888138262798526 0 -0.013975591671537783 -0.033778637953318758 0 -0.012960674908378695 -0.035888138262798526 0 -0.015483332077885483 -0.035591362365773115 0 -0.010810054793148107 -0.035163819047773007 0 -0.012960674908378695 -0.035888138262798526 0 -0.0116339461532952 -0.03872542923905211 0 -0.012960674908378695 -0.035888138262798526 0 -0.014019153113258843 -0.039014139613546536 0 -0.015483332077885483 -0.035591362365773115 0 -0.012960674908378695 -0.035888138262798526 0 -0.0116339461532952 -0.03872542923905211 0 -0.014019153113258843 -0.039014139613546536 0 -0.0096736996168972009 -0.043084452756936245 0 -0.011862065599299729 -0.041241887595886692 0 -0.015010474797997721 -0.043636409817869079 0 -0.014019153113258843 -0.039014139613546536 0 -0.011862065599299729 -0.041241887595886692 0 -0.015010474797997721 -0.043636409817869079 0 -0.0116339461532952 -0.03872542923905211 0 -0.014019153113258843 -0.039014139613546536 0 -0.011862065599299729 -0.041241887595886692 0 -0.019628653458371149 -0.047156369979081833 0 -0.025351153938550416 -0.043900822002039368 0 -0.020480631108087909 -0.05173190681096472 0 -0.019571466886798054 -0.051718311282400189 0 -0.019819188707403672 -0.050373830573308936 0 -0.020787727287752005 -0.049586224612882535 0 -0.019628653458371149 -0.047156369979081833 0 -0.0096736996168972009 -0.043084452756936245 0 -0.011862065599299729 -0.041241887595886692 0 -0.0089907769145887838 -0.041735210452333908 0 -0.018825088811433608 -0.049637705039758014 0 -0.019628653458371149 -0.047156369979081833 0 -0.0116339461532952 -0.03872542923905211 0 -0.011862065599299729 -0.041241887595886692 0 -0.0089907769145887838 -0.041735210452333908 0 -0.010810054793148107 -0.035163819047773007 0 -0.0116339461532952 -0.03872542923905211 0 -0.0089907769145887838 -0.041735210452333908 0 -0.012884303713973396 -0.034775169011645353 0 -0.012140896526039575 -0.039189812174580743 0 -0.010581828394891163 -0.035998823921140961 0 -0.016307042198279526 -0.037400713819938328 0 -0.019628653458371149 -0.047156369979081833 0 -0.031355976202149985 -0.043548715401217901 0 -0.029236767923655788 -0.044683105621254264 0 -0.030747406565840706 -0.042317160929679611 0 -0.025351153938550416 -0.043900822002039368 0 -0.025660615766148968 -0.043995333435273509 0 -0.025136735024068768 -0.050414410451242987 0 -0.027131029559699715 -0.049899577854651218 0 -0.026247530403817606 -0.048073821449706851 0 -0.033259763411252689 -0.051128119144731567 0 -0.025351153938550416 -0.043900822002039368 0 -0.025136735024068768 -0.050414410451242987 0 -0.027031854205721309 -0.050438095299081956 0 -0.027131029559699715 -0.049899577854651218 0 -0.029671415006317405 -0.0471154078664471 0 -0.031355976202149985 -0.043548715401217901 0 -0.029236767923655788 -0.044683105621254264 0 -0.029477490490846685 -0.047112996656309997 0 -0.029671415006317405 -0.0471154078664471 0 -0.029236767923655788 -0.044683105621254264 0 -0.036534513612424678 -0.052948500310767747 0 -0.04049351150932453 -0.053003498175517784 0 -0.039109377773537152 -0.051202835564179663 0 -0.036534513612424678 -0.052948500310767747 0 -0.039109377773537152 -0.051202835564179663 0 -0.03814216635919556 -0.049140034903933053 0 -0.04049351150932453 -0.053003498175517784 0 -0.039109377773537152 -0.051202835564179663 0 -0.040132197173473681 -0.049167724557709805 0 -0.034308646239600005 -0.051192547309220612 0 -0.03541157540311634 -0.046903412457430689 0 -0.039109377773537152 -0.051202835564179663 0 -0.03814216635919556 -0.049140034903933053 0 -0.040132197173473681 -0.049167724557709805 0 -0.042271531736553396 -0.047219970656134674 0 -0.036730382718131116 -0.042658752656878726 0 -0.053141780760778884 -0.045815750917230752 0 -0.052238209363204141 -0.047843842085600476 0 -0.053402692283320591 -0.047241439544467349 0 -0.029236767923655788 -0.044683105621254264 0 -0.029010534877150447 -0.04226509816196572 0 -0.030747406565840706 -0.042317160929679611 0 -0.03814216635919556 -0.049140034903933053 0 -0.040132197173473681 -0.049167724557709805 0 -0.039757557581508479 -0.045317352334991824 0 -0.03541157540311634 -0.046903412457430689 0 -0.036730382718131116 -0.042658752656878726 0 -0.053231080389381694 -0.04816768242711772 0 -0.052238209363204141 -0.047843842085600476 0 -0.053402692283320591 -0.047241439544467349 0 -0.053231080389381694 -0.04816768242711772 0 -0.052238209363204141 -0.047843842085600476 0 -0.052358592151848092 -0.049239835304202645 0 -0.053231080389381694 -0.04816768242711772 0 -0.053011431562998215 -0.049364885649231631 0 -0.052358592151848092 -0.049239835304202645 0 -0.036730382718131116 -0.042658752656878726 0 -0.037557936978701294 -0.039439295068666072 0 -0.038969288450866967 -0.035816062422992352 0 -0.03636036777274354 -0.04192486824398977 0 -0.03572001797082381 -0.035206213595727141 0 -0.032903456715527794 -0.038885331731689864 0 -0.036730382718131116 -0.042658752656878726 0 -0.023370649794026734 -0.039801822989012484 0 -0.032903456715527794 -0.038885331731689864 0 -0.032376210853140956 -0.041314131506483907 0 -0.029647834390156405 -0.040791081542325261 0 -0.030747406565840706 -0.042317160929679611 0 -0.032376210853140956 -0.041314131506483907 0 -0.031319090749567249 -0.043503283918858 0 -0.030747406565840706 -0.042317160929679611 0 -0.029647834390156405 -0.040791081542325261 0 -0.029010534877150447 -0.04226509816196572 0 -0.030747406565840706 -0.042317160929679611 0 -0.011862506597888867 -0.031393931247864167 0 -0.012577611284243883 -0.030907665998783713 0 -0.012179595903757525 -0.030551219004714011 0 -0.032903456715527794 -0.038885331731689864 0 -0.02925967497577071 -0.036810142537384447 0 -0.013058234894857624 -0.031603857754326219 0 -0.011862506597888867 -0.031393931247864167 0 -0.012577611284243883 -0.030907665998783713 0 -0.012577611284243883 -0.030907665998783713 0 -0.012179595903757525 -0.030551219004714011 0 -0.012612819980726046 -0.030312097410227209 0 -0.012577611284243883 -0.030907665998783713 0 -0.012612819980726046 -0.030312097410227209 0 -0.013037787152101181 -0.030457815926686192 0 -0.055358997013290501 -0.037366059460613041 0 -0.055267745979253734 -0.037473717707686933 0 -0.055130388206171839 -0.037243121241986823 0 -0.037129109374016159 -0.037421071420906928 0 -0.041897662473635827 -0.039119751141595348 0 -0.041897662473635827 -0.039119751141595348 0 -0.037557936978701294 -0.039439295068666072 0 -0.036975145306657693 -0.037582316218582934 0 -0.033086722084173889 -0.042121868334051231 0 -0.03748825641745173 -0.042948446751838808 0 -0.031115344778440874 -0.038004489707472527 0 -0.031432234026494643 -0.037221697904648125 0 -0.030761534046241729 -0.037570260230051118 0 -0.032903456715527794 -0.038885331731689864 0 -0.037557936978701294 -0.039439295068666072 0 -0.031115344778440874 -0.038004489707472527 0 -0.030761534046241729 -0.037570260230051118 0 -0.030798544893828876 -0.037945817263648728 0 -0.037129109374016159 -0.037421071420906928 0 -0.037557936978701294 -0.039439295068666072 0 -0.055267745979253734 -0.037473717707686933 0 -0.055130388206171839 -0.037243121241986823 0 -0.05491672339602794 -0.03740389077511469 0 -0.041897662473635827 -0.039119751141595348 0 -0.05623172341024265 -0.041420047510800848 0 -0.05623172341024265 -0.041420047510800848 0 -0.071973075993277139 -0.042971475495708754 0 -0.055537693501150849 -0.049833284479805291 0 -0.057140267071674182 -0.047301769240189147 0 -0.058023505555246734 -0.050298817758250423 0 -0.055537693501150849 -0.049833284479805291 0 -0.055006042953901546 -0.047137699429898629 0 -0.057140267071674182 -0.047301769240189147 0 -0.053231080389381694 -0.04816768242711772 0 -0.053011431562998215 -0.049364885649231631 0 -0.055006042953901546 -0.047137699429898629 0 -0.041897662473635827 -0.039119751141595348 0 -0.045250212020552953 -0.040748124235435196 0 -0.053065250742332586 -0.049352992047155889 0 -0.055537693501150849 -0.049833284479805291 0 -0.055006042953901546 -0.047137699429898629 0 -0.053231080389381694 -0.04816768242711772 0 -0.053402692283320591 -0.047241439544467349 0 -0.055006042953901546 -0.047137699429898629 0 -0.053141780760778884 -0.045815750917230752 0 -0.053402692283320591 -0.047241439544467349 0 -0.055006042953901546 -0.047137699429898629 0 -0.053141780760778884 -0.045815750917230752 0 -0.055006042953901546 -0.047137699429898629 0 -0.055701799848927959 -0.046049181983328809 0 -0.046124669841620357 -0.052979813426997889 0 -0.042271531736553396 -0.047219970656134674 0 -0.054032376051594111 -0.043790545733074372 0 -0.053141780760778884 -0.045815750917230752 0 -0.055344023370492129 -0.044812568401027153 0 -0.053141780760778884 -0.045815750917230752 0 -0.055344023370492129 -0.044812568401027153 0 -0.055701799848927959 -0.046049181983328809 0 -0.056681321955166612 -0.04384145987372972 0 -0.054032376051594111 -0.043790545733074372 0 -0.055344023370492129 -0.044812568401027153 0 -0.056681321955166612 -0.04384145987372972 0 -0.056810510445749404 -0.044636331917530074 0 -0.055344023370492129 -0.044812568401027153 0 -0.055344023370492129 -0.044812568401027153 0 -0.056880745152584983 -0.04548043620656167 0 -0.055701799848927959 -0.046049181983328809 0 -0.056810510445749404 -0.044636331917530074 0 -0.055344023370492129 -0.044812568401027153 0 -0.056880745152584983 -0.04548043620656167 0 -0.055006042953901546 -0.047137699429898629 0 -0.055701799848927959 -0.046049181983328809 0 -0.057140267071674182 -0.047301769240189147 0 -0.056880745152584983 -0.04548043620656167 0 -0.055701799848927959 -0.046049181983328809 0 -0.057140267071674182 -0.047301769240189147 0 -0.056880745152584983 -0.04548043620656167 0 -0.057140267071674182 -0.047301769240189147 0 -0.057761324107684642 -0.045697084200506902 0 -0.057140267071674182 -0.047301769240189147 0 -0.058654257113356333 -0.046192383351378957 0 -0.059407313727468852 -0.04790758340731914 0 -0.057140267071674182 -0.047301769240189147 0 -0.058654257113356333 -0.046192383351378957 0 -0.057761324107684642 -0.045697084200506902 0 -0.062473778848333501 -0.05446681516362914 0 -0.062211755655566595 -0.056115865360020153 0 -0.056880745152584983 -0.04548043620656167 0 -0.057761324107684642 -0.045697084200506902 0 -0.05780955366055919 -0.044517927646298409 0 -0.072316754692324375 -0.055042498198396093 0 -0.067922989711036608 -0.054984204249351069 0 -0.067733030006982262 -0.05591493134049258 0 -0.058654257113356333 -0.046192383351378957 0 -0.057761324107684642 -0.045697084200506902 0 -0.05780955366055919 -0.044517927646298409 0 -0.056681321955166612 -0.04384145987372972 0 -0.056810510445749404 -0.044636331917530074 0 -0.057699085320831886 -0.04427479548583458 0 -0.057365337545812946 -0.056330918704018323 0 -0.062211755655566595 -0.056115865360020153 0 -0.060813685430520965 -0.05641998664825712 0 -0.063163708060963816 -0.056994374518420328 0 -0.063266853315868468 -0.057432967095407475 0 -0.067922989711036608 -0.054984204249351069 0 -0.067634984371182719 -0.055497031945757239 0 -0.067733030006982262 -0.05591493134049258 0 -0.056810510445749404 -0.044636331917530074 0 -0.056880745152584983 -0.04548043620656167 0 -0.057699085320831886 -0.04427479548583458 0 -0.063368604845133791 -0.058044143480724224 0 -0.062566031618578058 -0.057396968656171513 0 -0.056880745152584983 -0.04548043620656167 0 -0.05780955366055919 -0.044517927646298409 0 -0.057749554929773746 -0.044251571667361253 0 -0.062145959201902218 -0.057918467761334837 0 -0.062566031618578058 -0.057396968656171513 0 -0.062566031618578058 -0.057396968656171513 0 -0.062211755655566595 -0.056115865360020153 0 -0.062180767758011644 -0.056000459749837694 0 -0.062211755655566595 -0.056115865360020153 0 -0.072316754692324375 -0.055042498198396093 0 -0.067733030006982262 -0.05591493134049258 0 -0.074617118327502688 -0.058756970293776543 0 -0.058654257113356333 -0.046192383351378957 0 -0.05780955366055919 -0.044517927646298409 0 -0.060810229757494859 -0.045510660152463814 0 -0.05780955366055919 -0.044517927646298409 0 -0.057747057103634952 -0.044250771947973666 0 -0.060810229757494859 -0.045510660152463814 0 -0.062211755655566595 -0.056115865360020153 0 -0.075859223590689071 -0.051883855517150565 0 -0.073901993652420658 -0.047659950970574683 0 -0.075859223590689071 -0.051883855517150565 0 -0.058654257113356333 -0.046192383351378957 0 -0.059407313727468852 -0.04790758340731914 0 -0.060810229757494859 -0.045510660152463814 0 -0.073901993652420658 -0.047659950970574683 0 -0.071973075993277139 -0.042971475495708754 0 -0.088921143238327768 -0.048031298088496217 0 -0.090031187075990893 -0.045999790382545779 0 -0.088134527759681558 -0.046966187800832837 0 -0.057140267071674182 -0.047301769240189147 0 -0.059407313727468852 -0.04790758340731914 0 -0.058023505555246734 -0.050298817758250423 0 -0.071973075993277139 -0.042971475495708754 0 -0.083829506291612052 -0.044956693224538886 0 -0.090031187075990893 -0.045999790382545779 0 -0.088136706558894717 -0.045633711144450549 0 -0.088134527759681558 -0.046966187800832837 0 -0.090177758877557981 -0.045683753847443102 0 -0.092034138514711344 -0.043529102281069182 0 -0.089049883857660675 -0.042591839240313498 0 -0.093131366517573366 -0.046239823168377457 0 -0.090177758877557981 -0.045683753847443102 0 -0.092034138514711344 -0.043529102281069182 0 -0.093131366517573366 -0.046239823168377457 0 -0.092034138514711344 -0.043529102281069182 0 -0.095187019465239858 -0.042667891555978471 0 -0.071973075993277139 -0.042971475495708754 0 -0.070507532348033503 -0.038003612373056481 0 -0.092034138514711344 -0.043529102281069182 0 -0.091307234670166951 -0.040387291067902897 0 -0.095187019465239858 -0.042667891555978471 0 -0.092034138514711344 -0.043529102281069182 0 -0.091307234670166951 -0.040387291067902897 0 -0.089049883857660675 -0.042591839240313498 0 -0.091307234670166951 -0.040387291067902897 0 -0.091729167098765371 -0.037608261264942607 0 -0.093942185023266372 -0.03873028181819578 0 -0.091307234670166951 -0.040387291067902897 0 -0.091729167098765371 -0.037608261264942607 0 -0.089975580934899629 -0.037702271232150641 0 -0.091729167098765371 -0.037608261264942607 0 -0.090454945003202433 -0.036255950213578289 0 -0.091695203998036504 -0.03579102039157981 0 -0.091729167098765371 -0.037608261264942607 0 -0.089975580934899629 -0.037702271232150641 0 -0.090454945003202433 -0.036255950213578289 0 -0.091729167098765371 -0.037608261264942607 0 -0.093942185023266372 -0.03873028181819578 0 -0.09283243957561986 -0.035992048553533405 0 -0.093942185023266372 -0.03873028181819578 0 -0.09283243957561986 -0.035992048553533405 0 -0.095364851688021696 -0.036335583481772515 0 -0.091307234670166951 -0.040387291067902897 0 -0.093942185023266372 -0.03873028181819578 0 -0.095187019465239858 -0.042667891555978471 0 -0.055022076945894526 -0.036367476801910083 0 -0.05511125543649105 -0.03651009323826012 0 -0.054783091974492347 -0.036872406228932737 0 -0.093942185023266372 -0.03873028181819578 0 -0.097208765247484979 -0.039073700082000187 0 -0.095187019465239858 -0.042667891555978471 0 -0.06437437443049436 -0.034123946335042156 0 -0.070507532348033503 -0.038003612373056481 0 -0.06437437443049436 -0.034123946335042156 0 -0.074667248142924553 -0.033349726931517103 0 -0.093942185023266372 -0.03873028181819578 0 -0.097208765247484979 -0.039073700082000187 0 -0.095364851688021696 -0.036335583481772515 0 -0.063076296928571446 -0.026592112116972863 0 -0.064248719214288305 -0.028247428662975773 0 -0.062949601280441456 -0.028657257525461218 0 -0.06437437443049436 -0.034123946335042156 0 -0.050058386078602968 -0.032174688868238294 0 -0.054972400248055137 -0.036324848640814908 0 -0.05533699345376198 -0.036369990153799686 0 -0.055267835857731609 -0.035733122802955951 0 -0.063076296928571446 -0.026592112116972863 0 -0.062949601280441456 -0.028657257525461218 0 -0.061882045215437019 -0.028621198829590886 0 -0.054972400248055137 -0.036324848640814908 0 -0.05511125543649105 -0.03651009323826012 0 -0.05533699345376198 -0.036369990153799686 0 -0.06437437443049436 -0.034123946335042156 0 -0.063895251750214418 -0.033948604825625339 0 -0.05511125543649105 -0.03651009323826012 0 -0.055091536706438578 -0.036885826276462384 0 -0.055345899657644131 -0.036901030453909488 0 -0.05511125543649105 -0.03651009323826012 0 -0.055091536706438578 -0.036885826276462384 0 -0.054783091974492347 -0.036872406228932737 0 -0.055130388206171839 -0.037243121241986823 0 -0.05491672339602794 -0.03740389077511469 0 -0.054783091974492347 -0.036872406228932737 0 -0.05491672339602794 -0.03740389077511469 0 -0.054572593348833527 -0.037338129882308384 0 -0.054783091974492347 -0.036872406228932737 0 -0.055130388206171839 -0.037243121241986823 0 -0.055091536706438578 -0.036885826276462384 0 -0.054783091974492347 -0.036872406228932737 0 -0.055130388206171839 -0.037243121241986823 0 -0.055091536706438578 -0.036885826276462384 0 -0.055345899657644131 -0.036901030453909488 0 -0.037129109374016159 -0.037421071420906928 0 -0.03897552694455346 -0.032501526815941352 0 -0.055358997013290501 -0.037366059460613041 0 -0.055130388206171839 -0.037243121241986823 0 -0.055345899657644131 -0.036901030453909488 0 -0.017189537511541061 -0.025726454330278474 0 -0.017052864764045678 -0.025886111520918045 0 -0.017172377452163053 -0.026046808814496798 0 -0.017052864764045678 -0.025886111520918045 0 -0.01699685300154663 -0.025996557955164461 0 -0.017172377452163053 -0.026046808814496798 0 -0.037129109374016159 -0.037421071420906928 0 -0.027293465205100856 -0.035226401123093776 0 -0.017189537511541061 -0.025726454330278474 0 -0.017052864764045678 -0.025886111520918045 0 -0.016836717238379099 -0.025981486755839906 0 -0.031432234026494643 -0.037221697904648125 0 -0.030761534046241729 -0.037570260230051118 0 -0.031746894304974654 -0.036441407979797225 0 -0.012179595903757525 -0.030551219004714011 0 -0.012612819980726046 -0.030312097410227209 0 -0.012433265063832287 -0.02963074112613423 0 -0.02925967497577071 -0.036810142537384447 0 -0.027293465205100856 -0.035226401123093776 0 -0.012612819980726046 -0.030312097410227209 0 -0.012433265063832287 -0.02963074112613423 0 -0.012817648304811753 -0.029955609437598965 0 -0.017052864764045678 -0.025886111520918045 0 -0.016953742445171914 -0.02597579565387417 0 -0.01699685300154663 -0.025996557955164461 0 -0.017052864764045678 -0.025886111520918045 0 -0.016836717238379099 -0.025981486755839906 0 -0.016953742445171914 -0.02597579565387417 0 -0.016953742445171914 -0.02597579565387417 0 -0.01699685300154663 -0.025996557955164461 0 -0.016917323210125956 -0.026034786759462018 0 -0.016836717238379099 -0.025981486755839906 0 -0.016953742445171914 -0.02597579565387417 0 -0.016917323210125956 -0.026034786759462018 0 -0.016917323210125956 -0.026034786759462018 0 -0.01697194740070029 -0.026086512555250047 0 -0.016812831034553204 -0.02615892122414417 0 -0.01699685300154663 -0.025996557955164461 0 -0.016917323210125956 -0.026034786759462018 0 -0.01697194740070029 -0.026086512555250047 0 -0.016836717238379099 -0.025981486755839906 0 -0.016917323210125956 -0.026034786759462018 0 -0.016812831034553204 -0.02615892122414417 0 -0.01697194740070029 -0.026086512555250047 0 -0.016812831034553204 -0.02615892122414417 0 -0.016959335808381788 -0.026255002922023304 0 -0.01697194740070029 -0.026086512555250047 0 -0.017172377452163053 -0.026046808814496798 0 -0.016959335808381788 -0.026255002922023304 0 -0.017172377452163053 -0.026046808814496798 0 -0.017179791910538745 -0.026413826107948041 0 -0.016959335808381788 -0.026255002922023304 0 -0.03897552694455346 -0.032501526815941352 0 -0.042650029140867581 -0.031449878619715273 0 -0.01699685300154663 -0.025996557955164461 0 -0.01697194740070029 -0.026086512555250047 0 -0.017172377452163053 -0.026046808814496798 0 -0.05511125543649105 -0.03651009323826012 0 -0.055345899657644131 -0.036901030453909488 0 -0.05533699345376198 -0.036369990153799686 0 -0.017179791910538745 -0.026413826107948041 0 -0.016903558511377422 -0.02654408288464187 0 -0.016959335808381788 -0.026255002922023304 0 -0.042650029140867581 -0.031449878619715273 0 -0.050058386078602968 -0.032174688868238294 0 -0.017179791910538745 -0.026413826107948041 0 -0.016903558511377422 -0.02654408288464187 0 -0.017184313310790504 -0.026769711184644628 0 -0.016903558511377422 -0.02654408288464187 0 -0.016742729903834082 -0.026379665041052068 0 -0.016570662639795973 -0.026685054573125394 0 -0.016903558511377422 -0.02654408288464187 0 -0.016570662639795973 -0.026685054573125394 0 -0.016903198091359917 -0.026777511615837812 0 -0.016903558511377422 -0.02654408288464187 0 -0.016742729903834082 -0.026379665041052068 0 -0.016959335808381788 -0.026255002922023304 0 -0.016812831034553204 -0.02615892122414417 0 -0.016742729903834082 -0.026379665041052068 0 -0.016959335808381788 -0.026255002922023304 0 -0.016742729903834082 -0.026379665041052068 0 -0.016439454660303419 -0.026277047551562262 0 -0.016570662639795973 -0.026685054573125394 0 -0.016812831034553204 -0.02615892122414417 0 -0.016742729903834082 -0.026379665041052068 0 -0.016439454660303419 -0.026277047551562262 0 -0.020904977958737588 -0.031620622747176072 0 -0.0194567359165435 -0.03036878832690024 0 -0.016439454660303419 -0.026277047551562262 0 -0.016570662639795973 -0.026685054573125394 0 -0.015932028623591124 -0.026787653266882264 0 -0.013936754331854326 -0.027934749083684152 0 -0.015971763872526079 -0.027698953790328867 0 -0.015932028623591124 -0.026787653266882264 0 -0.013936754331854326 -0.027934749083684152 0 -0.015026535181361593 -0.029007837899895951 0 -0.015971763872526079 -0.027698953790328867 0 -0.013936754331854326 -0.027934749083684152 0 -0.015026535181361593 -0.029007837899895951 0 -0.014014287799374341 -0.029324325867800156 0 -0.016836717238379099 -0.025981486755839906 0 -0.016812831034553204 -0.02615892122414417 0 -0.016439454660303419 -0.026277047551562262 0 -0.027293465205100856 -0.035226401123093776 0 -0.020904977958737588 -0.031620622747176072 0 -0.013936754331854326 -0.027934749083684152 0 -0.014014287799374341 -0.029324325867800156 0 -0.013244568991774822 -0.029687346300206766 0 -0.012433265063832287 -0.02963074112613423 0 -0.013936754331854326 -0.027934749083684152 0 -0.013244568991774822 -0.029687346300206766 0 -0.014014287799374341 -0.029324325867800156 0 -0.013244568991774822 -0.029687346300206766 0 -0.013566152613224679 -0.029825691059120425 0 -0.013566152613224679 -0.029825691059120425 0 -0.013135220453917153 -0.029991359373343636 0 -0.013344686214826424 -0.03011125538937388 0 -0.013244568991774822 -0.029687346300206766 0 -0.013566152613224679 -0.029825691059120425 0 -0.013135220453917153 -0.029991359373343636 0 -0.013566152613224679 -0.029825691059120425 0 -0.013344686214826424 -0.03011125538937388 0 -0.013660029089172418 -0.03013732454534657 0 -0.012433265063832287 -0.02963074112613423 0 -0.013244568991774822 -0.029687346300206766 0 -0.012817648304811753 -0.029955609437598965 0 -0.013244568991774822 -0.029687346300206766 0 -0.013135220453917153 -0.029991359373343636 0 -0.012817648304811753 -0.029955609437598965 0 -0.012612819980726046 -0.030312097410227209 0 -0.012817648304811753 -0.029955609437598965 0 -0.013037787152101181 -0.030457815926686192 0 -0.013135220453917153 -0.029991359373343636 0 -0.012817648304811753 -0.029955609437598965 0 -0.013037787152101181 -0.030457815926686192 0 -0.013135220453917153 -0.029991359373343636 0 -0.013037787152101181 -0.030457815926686192 0 -0.013344686214826424 -0.03011125538937388 0 -0.013037787152101181 -0.030457815926686192 0 -0.013344686214826424 -0.03011125538937388 0 -0.013660029089172418 -0.03013732454534657 0 -0.014001100460568837 -0.031383886758227578 0 -0.01354479621911249 -0.030805414675501824 0 -0.014532765201859922 -0.030445816425535756 0 -0.015026535181361593 -0.029007837899895951 0 -0.014014287799374341 -0.029324325867800156 0 -0.014532765201859922 -0.030445816425535756 0 -0.01354479621911249 -0.030805414675501824 0 -0.013660029089172418 -0.03013732454534657 0 -0.014532765201859922 -0.030445816425535756 0 -0.014014287799374341 -0.029324325867800156 0 -0.013566152613224679 -0.029825691059120425 0 -0.013660029089172418 -0.03013732454534657 0 -0.014014287799374341 -0.029324325867800156 0 -0.013660029089172418 -0.03013732454534657 0 -0.014532765201859922 -0.030445816425535756 0 -0.079645780510712832 -0.050174802595914274 0 -0.0810638966728566 -0.049536714143191385 0 -0.081344023608792546 -0.051787215420026407 0 -0.079645780510712832 -0.050174802595914274 0 -0.0810638966728566 -0.049536714143191385 0 -0.07854285033126282 -0.048262630564102772 0 -0.080305355739798787 -0.049178551003841997 0 -0.082087914962695227 -0.050827284514986401 0 -0.0810638966728566 -0.049536714143191385 0 -0.081344023608792546 -0.051787215420026407 0 -0.083457961087338869 -0.05059681828294621 0 -0.080736655980204741 -0.047458113679520471 0 -0.080950321344784165 -0.046449959289742493 0 -0.082583810315501646 -0.046332584164281217 0 -0.080736655980204741 -0.047458113679520471 0 -0.080950321344784165 -0.046449959289742493 0 -0.080072408396345732 -0.046026103497790551 0 -0.080950321344784165 -0.046449959289742493 0 -0.080072408396345732 -0.046026103497790551 0 -0.080932828819992933 -0.044930601332612612 0 -0.080305355739798787 -0.049178551003841997 0 -0.077795224449228539 -0.047796197615204108 0 -0.080736655980204741 -0.047458113679520471 0 -0.080072408396345732 -0.046026103497790551 0 -0.078072510109423385 -0.046859179255908712 0 -0.07854285033126282 -0.048262630564102772 0 -0.076772926818742551 -0.049139077486482122 0 -0.078240709657800375 -0.04936276316108161 0 -0.077795224449228539 -0.047796197615204108 0 -0.075002494126104283 -0.046552618416267906 0 -0.076772926818742551 -0.049139077486482122 0 -0.074999957705129724 -0.05008165755497665 0 -0.075000061884534661 -0.046551670458837416 0 -0.07854285033126282 -0.048262630564102772 0 -0.076772926818742551 -0.049139077486482122 0 -0.075000061884534661 -0.046551670458837416 0 -0.076772926818742551 -0.049139077486482122 0 -0.076958533783331201 -0.051499031184703344 0 -0.074999957705129724 -0.05008165755497665 0 -0.079645780510712832 -0.050174802595914274 0 -0.078240709657800375 -0.04936276316108161 0 -0.078945174356694792 -0.051677686257198145 0 -0.076958533783331201 -0.051499031184703344 0 -0.078240709657800375 -0.04936276316108161 0 -0.079209931757860327 -0.052767140739247036 0 -0.076772926818742551 -0.049139077486482122 0 -0.076958533783331201 -0.051499031184703344 0 -0.078240709657800375 -0.04936276316108161 0 -0.079645780510712832 -0.050174802595914274 0 -0.07854285033126282 -0.048262630564102772 0 -0.078240709657800375 -0.04936276316108161 0 -0.078104791267431833 -0.051692155485087633 0 -0.078325669326968439 -0.053184809794870683 0 -0.076958533783331201 -0.051499031184703344 0 -0.079209931757860327 -0.052767140739247036 0 -0.077192328054495468 -0.05396753580263932 0 -0.076958533783331201 -0.051499031184703344 0 -0.074999966557860356 -0.053611890745246554 0 -0.077192328054495468 -0.05396753580263932 0 -0.076958533783331201 -0.051499031184703344 0 -0.074999957705129724 -0.05008165755497665 0 -0.074999966557860356 -0.053611890745246554 0 -0.07500000698148182 -0.057141983242074326 0 -0.074999966557860356 -0.053611890745246554 0 -0.076520868594466732 -0.055858419689355301 0 -0.074999966557860356 -0.053611890745246554 0 -0.077192328054495468 -0.05396753580263932 0 -0.076520868594466732 -0.055858419689355301 0 -0.079209931757860327 -0.052767140739247036 0 -0.077192328054495468 -0.05396753580263932 0 -0.078353895282143551 -0.056112637750634832 0 -0.079209931757860327 -0.052767140739247036 0 -0.078353895282143551 -0.056112637750634832 0 -0.080114790900020799 -0.056138608434264547 0 -0.077192328054495468 -0.05396753580263932 0 -0.076520868594466732 -0.055858419689355301 0 -0.078353895282143551 -0.056112637750634832 0 -0.078654235761673075 -0.05654400107599318 0 -0.078590203780262893 -0.056567052813049537 0 -0.078945174356694792 -0.051677686257198145 0 -0.079569128512678555 -0.05391277557474438 0 -0.081344023608792546 -0.051787215420026407 0 -0.078325669326968439 -0.053184809794870683 0 -0.078590203780262893 -0.056567052813049537 0 -0.079645780510712832 -0.050174802595914274 0 -0.078945174356694792 -0.051677686257198145 0 -0.081344023608792546 -0.051787215420026407 0 -0.079569128512678555 -0.05391277557474438 0 -0.081344023608792546 -0.051787215420026407 0 -0.082561851477635576 -0.053932312067853955 0 -0.078590203780262893 -0.056567052813049537 0 -0.080870580481069293 -0.05614289805682663 0 -0.081344023608792546 -0.051787215420026407 0 -0.082561851477635576 -0.053932312067853955 0 -0.084059284147398244 -0.052553399590042904 0 -0.08550436506570698 -0.05396346948292758 0 -0.082561851477635576 -0.053932312067853955 0 -0.084059284147398244 -0.052553399590042904 0 -0.08550436506570698 -0.05396346948292758 0 -0.084059284147398244 -0.052553399590042904 0 -0.085843710040655996 -0.05161437889411586 0 -0.081424674466178376 -0.055833612637362341 0 -0.080870580481069293 -0.05614289805682663 0 -0.084059284147398244 -0.052553399590042904 0 -0.085843710040655996 -0.05161437889411586 0 -0.083457961087338869 -0.05059681828294621 0 -0.085624384763763176 -0.048911458708822242 0 -0.085581868272208025 -0.049203396651299199 0 -0.083167589594964939 -0.048310297448664968 0 -0.081573672598607608 -0.052694089634596916 0 -0.082087914962695227 -0.050827284514986401 0 -0.081344023608792546 -0.051787215420026407 0 -0.084059284147398244 -0.052553399590042904 0 -0.083457961087338869 -0.05059681828294621 0 -0.079829776593158278 -0.053384789461907091 0 -0.079801802574343106 -0.053425236435910163 0 -0.079884440867523457 -0.053456790084594655 0 -0.076703826622926449 -0.055104281730415962 0 -0.072316754692324375 -0.055042498198396093 0 -0.074617118327502688 -0.058756970293776543 0 -0.078350922631522324 -0.055722501153302677 0 -0.075859223590689071 -0.051883855517150565 0 -0.079894272631215485 -0.053388399424475284 0 -0.079829776593158278 -0.053384789461907091 0 -0.079884440867523457 -0.053456790084594655 0 -0.081424674466178376 -0.055833612637362341 0 -0.081573672598607608 -0.052694089634596916 0 -0.085579515800721248 -0.049186991891411555 0 -0.08712282026501271 -0.048718750137733996 0 -0.08633742585628966 -0.048419916477855818 0 -0.085624384763763176 -0.048911458708822242 0 -0.085579515800721248 -0.049186991891411555 0 -0.08633742585628966 -0.048419916477855818 0 -0.081595134331717167 -0.052634835815084713 0 -0.081573672598607608 -0.052694089634596916 0 -0.088921143238327768 -0.048031298088496217 0 -0.087771524609820989 -0.050075780244938993 0 -0.08712282026501271 -0.048718750137733996 0 -0.075859223590689071 -0.051883855517150565 0 -0.081573672598607608 -0.052694089634596916 0 -0.087771524609820989 -0.050075780244938993 0 -0.085579515800721248 -0.049186991891411555 0 -0.08712282026501271 -0.048718750137733996 0 -0.088921143238327768 -0.048031298088496217 0 -0.088134527759681558 -0.046966187800832837 0 -0.08712282026501271 -0.048718750137733996 0 -0.088134527759681558 -0.046966187800832837 0 -0.08712282026501271 -0.048718750137733996 0 -0.0868332035533248 -0.047089086646705774 0 -0.08712282026501271 -0.048718750137733996 0 -0.0868332035533248 -0.047089086646705774 0 -0.08633742585628966 -0.048419916477855818 0 -0.085624384763763176 -0.048911458708822242 0 -0.085878517186981154 -0.047635641903437324 0 -0.084633987390604348 -0.047141351736671396 0 -0.0868332035533248 -0.047089086646705774 0 -0.08633742585628966 -0.048419916477855818 0 -0.085878517186981154 -0.047635641903437324 0 -0.0868332035533248 -0.047089086646705774 0 -0.085878517186981154 -0.047635641903437324 0 -0.085848927975130926 -0.046538549935595613 0 -0.085624384763763176 -0.048911458708822242 0 -0.08633742585628966 -0.048419916477855818 0 -0.085878517186981154 -0.047635641903437324 0 -0.085878517186981154 -0.047635641903437324 0 -0.085848927975130926 -0.046538549935595613 0 -0.084633987390604348 -0.047141351736671396 0 -0.0868332035533248 -0.047089086646705774 0 -0.085848927975130926 -0.046538549935595613 0 -0.086229860360870436 -0.045206607098070672 0 -0.085848927975130926 -0.046538549935595613 0 -0.084292353553016966 -0.044642230356262164 0 -0.086229860360870436 -0.045206607098070672 0 -0.088136706558894717 -0.045633711144450549 0 -0.0868332035533248 -0.047089086646705774 0 -0.086229860360870436 -0.045206607098070672 0 -0.088136706558894717 -0.045633711144450549 0 -0.088134527759681558 -0.046966187800832837 0 -0.0868332035533248 -0.047089086646705774 0 -0.083167589594964939 -0.048310297448664968 0 -0.084633987390604348 -0.047141351736671396 0 -0.082583810315501646 -0.046332584164281217 0 -0.080736655980204741 -0.047458113679520471 0 -0.083167589594964939 -0.048310297448664968 0 -0.082583810315501646 -0.046332584164281217 0 -0.085624384763763176 -0.048911458708822242 0 -0.083167589594964939 -0.048310297448664968 0 -0.084633987390604348 -0.047141351736671396 0 -0.084633987390604348 -0.047141351736671396 0 -0.082583810315501646 -0.046332584164281217 0 -0.084292353553016966 -0.044642230356262164 0 -0.085848927975130926 -0.046538549935595613 0 -0.084633987390604348 -0.047141351736671396 0 -0.084292353553016966 -0.044642230356262164 0 -0.082583810315501646 -0.046332584164281217 0 -0.084292353553016966 -0.044642230356262164 0 -0.081693010195051416 -0.043374835597681648 0 -0.084292353553016966 -0.044642230356262164 0 -0.084552792628299608 -0.041941106739993517 0 -0.086438059532920844 -0.043056431696382277 0 -0.084292353553016966 -0.044642230356262164 0 -0.084552792628299608 -0.041941106739993517 0 -0.081693010195051416 -0.043374835597681648 0 -0.084552792628299608 -0.041941106739993517 0 -0.081693010195051416 -0.043374835597681648 0 -0.082935483237411983 -0.039737390237638288 0 -0.082259209162286046 -0.042871343535203214 0 -0.083332756361367138 -0.040168849933609994 0 -0.082664500207636327 -0.043502023720698155 0 -0.083959901715407348 -0.039803935231907749 0 -0.08146585851721716 -0.041118668179441743 0 -0.083829506291612052 -0.044956693224538886 0 -0.08558630835830236 -0.045163599227842764 0 -0.090177758877557981 -0.045683753847443102 0 -0.087234546619079895 -0.045143674390750843 0 -0.089049883857660675 -0.042591839240313498 0 -0.08530122476742541 -0.04506905787089157 0 -0.08558630835830236 -0.045163599227842764 0 -0.084292353553016966 -0.044642230356262164 0 -0.087234546619079895 -0.045143674390750843 0 -0.086438059532920844 -0.043056431696382277 0 -0.087234546619079895 -0.045143674390750843 0 -0.086438059532920844 -0.043056431696382277 0 -0.089049883857660675 -0.042591839240313498 0 -0.084552792628299608 -0.041941106739993517 0 -0.086438059532920844 -0.043056431696382277 0 -0.087086191537962696 -0.040989421147829774 0 -0.086438059532920844 -0.043056431696382277 0 -0.089049883857660675 -0.042591839240313498 0 -0.087086191537962696 -0.040989421147829774 0 -0.091307234670166951 -0.040387291067902897 0 -0.089049883857660675 -0.042591839240313498 0 -0.088925938874459654 -0.039318535102031489 0 -0.089049883857660675 -0.042591839240313498 0 -0.088925938874459654 -0.039318535102031489 0 -0.087086191537962696 -0.040989421147829774 0 -0.091307234670166951 -0.040387291067902897 0 -0.088925938874459654 -0.039318535102031489 0 -0.089975580934899629 -0.037702271232150641 0 -0.084552792628299608 -0.041941106739993517 0 -0.087086191537962696 -0.040989421147829774 0 -0.086167184195426225 -0.03843961450934652 0 -0.088925938874459654 -0.039318535102031489 0 -0.087086191537962696 -0.040989421147829774 0 -0.086167184195426225 -0.03843961450934652 0 -0.086167184195426225 -0.03843961450934652 0 -0.088556712867301685 -0.036585012939593292 0 -0.086504973005070041 -0.035617597124807852 0 -0.086167184195426225 -0.03843961450934652 0 -0.084610221871591978 -0.036098512288149288 0 -0.086504973005070041 -0.035617597124807852 0 -0.088925938874459654 -0.039318535102031489 0 -0.086167184195426225 -0.03843961450934652 0 -0.088556712867301685 -0.036585012939593292 0 -0.088925938874459654 -0.039318535102031489 0 -0.088556712867301685 -0.036585012939593292 0 -0.089975580934899629 -0.037702271232150641 0 -0.088556712867301685 -0.036585012939593292 0 -0.089975580934899629 -0.037702271232150641 0 -0.090454945003202433 -0.036255950213578289 0 -0.084552792628299608 -0.041941106739993517 0 -0.086167184195426225 -0.03843961450934652 0 -0.082935483237411983 -0.039737390237638288 0 -0.083332756361367138 -0.040168849933609994 0 -0.0839909227151171 -0.038501674896488911 0 -0.086167184195426225 -0.03843961450934652 0 -0.082935483237411983 -0.039737390237638288 0 -0.084610221871591978 -0.036098512288149288 0 -0.083959901715407348 -0.039803935231907749 0 -0.08150777814959391 -0.037886430396650635 0 -0.084610221871591978 -0.036098512288149288 0 -0.08150777814959391 -0.037886430396650635 0 -0.079114708669959427 -0.040937889321762969 0 -0.078414585885249535 -0.037839027719406469 0 -0.08150777814959391 -0.037886430396650635 0 -0.079114708669959427 -0.040937889321762969 0 -0.08146585851721716 -0.041118668179441743 0 -0.083959901715407348 -0.039803935231907749 0 -0.08150777814959391 -0.037886430396650635 0 -0.08146585851721716 -0.041118668179441743 0 -0.082664500207636327 -0.043502023720698155 0 -0.08146585851721716 -0.041118668179441743 0 -0.079593616303577627 -0.044146869616339408 0 -0.079114708669959427 -0.040937889321762969 0 -0.08146585851721716 -0.041118668179441743 0 -0.079593616303577627 -0.044146869616339408 0 -0.080072408396345732 -0.046026103497790551 0 -0.079593616303577627 -0.044146869616339408 0 -0.080932828819992933 -0.044930601332612612 0 -0.080072408396345732 -0.046026103497790551 0 -0.078072510109423385 -0.046859179255908712 0 -0.079593616303577627 -0.044146869616339408 0 -0.081638584809459583 -0.044384594531702209 0 -0.082259209162286046 -0.042871343535203214 0 -0.080950321344784165 -0.046449959289742493 0 -0.082583810315501646 -0.046332584164281217 0 -0.081693010195051416 -0.043374835597681648 0 -0.080950321344784165 -0.046449959289742493 0 -0.082664500207636327 -0.043502023720698155 0 -0.080932828819992933 -0.044930601332612612 0 -0.082664500207636327 -0.043502023720698155 0 -0.079593616303577627 -0.044146869616339408 0 -0.080932828819992933 -0.044930601332612612 0 -0.078072510109423385 -0.046859179255908712 0 -0.074999963054299235 -0.046549250115894732 0 -0.077281677873108121 -0.043759631680093641 0 -0.078072510109423385 -0.046859179255908712 0 -0.079593616303577627 -0.044146869616339408 0 -0.077281677873108121 -0.043759631680093641 0 -0.079114708669959427 -0.040937889321762969 0 -0.079593616303577627 -0.044146869616339408 0 -0.077281677873108121 -0.043759631680093641 0 -0.077281677873108121 -0.043759631680093641 0 -0.074999629864414205 -0.042372337684557497 0 -0.076935476933801178 -0.040360483117508124 0 -0.074999963054299235 -0.046549250115894732 0 -0.077281677873108121 -0.043759631680093641 0 -0.074999629864414205 -0.042372337684557497 0 -0.074999629864414205 -0.042372337684557497 0 -0.076935476933801178 -0.040360483117508124 0 -0.07499972532195015 -0.038192841941243852 0 -0.079114708669959427 -0.040937889321762969 0 -0.077281677873108121 -0.043759631680093641 0 -0.076935476933801178 -0.040360483117508124 0 -0.079114708669959427 -0.040937889321762969 0 -0.076935476933801178 -0.040360483117508124 0 -0.078414585885249535 -0.037839027719406469 0 -0.076935476933801178 -0.040360483117508124 0 -0.078414585885249535 -0.037839027719406469 0 -0.07499972532195015 -0.038192841941243852 0 -0.07499972532195015 -0.038192841941243852 0 -0.077642710112316549 -0.034649664925251566 0 -0.074999751290366318 -0.034014112674533352 0 -0.078414585885249535 -0.037839027719406469 0 -0.07499972532195015 -0.038192841941243852 0 -0.077642710112316549 -0.034649664925251566 0 -0.078414585885249535 -0.037839027719406469 0 -0.077642710112316549 -0.034649664925251566 0 -0.080046886779185866 -0.035020895495608141 0 -0.077642710112316549 -0.034649664925251566 0 -0.080046886779185866 -0.035020895495608141 0 -0.078379665998076747 -0.031352764896219631 0 -0.077642710112316549 -0.034649664925251566 0 -0.074999751290366318 -0.034014112674533352 0 -0.078379665998076747 -0.031352764896219631 0 -0.08150777814959391 -0.037886430396650635 0 -0.080046886779185866 -0.035020895495608141 0 -0.082747035993413501 -0.034318065123526954 0 -0.08150777814959391 -0.037886430396650635 0 -0.078414585885249535 -0.037839027719406469 0 -0.080046886779185866 -0.035020895495608141 0 -0.080046886779185866 -0.035020895495608141 0 -0.081302805085312277 -0.032475434006953463 0 -0.078379665998076747 -0.031352764896219631 0 -0.080046886779185866 -0.035020895495608141 0 -0.081302805085312277 -0.032475434006953463 0 -0.082747035993413501 -0.034318065123526954 0 -0.081302805085312277 -0.032475434006953463 0 -0.081583452439730808 -0.029770970467523007 0 -0.083661208457147695 -0.031766906486630268 0 -0.081302805085312277 -0.032475434006953463 0 -0.081583452439730808 -0.029770970467523007 0 -0.078379665998076747 -0.031352764896219631 0 -0.081583452439730808 -0.029770970467523007 0 -0.078379665998076747 -0.031352764896219631 0 -0.079039143695137287 -0.027401203325552115 0 -0.074999751290366318 -0.034014112674533352 0 -0.078379665998076747 -0.031352764896219631 0 -0.074999791954028061 -0.029835140564762195 0 -0.078379665998076747 -0.031352764896219631 0 -0.076803132430998414 -0.027525268501822086 0 -0.079039143695137287 -0.027401203325552115 0 -0.078379665998076747 -0.031352764896219631 0 -0.074999791954028061 -0.029835140564762195 0 -0.076803132430998414 -0.027525268501822086 0 -0.074999791954028061 -0.029835140564762195 0 -0.076803132430998414 -0.027525268501822086 0 -0.074999797205417371 -0.025656781813546664 0 -0.076803132430998414 -0.027525268501822086 0 -0.074999797205417371 -0.025656781813546664 0 -0.076193368319986049 -0.024959110097018726 0 -0.074999741969353106 -0.025650004601421972 0 -0.075484463262096235 -0.024005672304186064 0 -0.074999997832458143 -0.025655839539861027 0 -0.076315566949311103 -0.02474177256121712 0 -0.074999998923655317 -0.023857729629494607 0 -0.076283728458137121 -0.024697735481565192 0 -0.074999913467912391 -0.023857483805801272 0 -0.076369217081009147 -0.023159682855139981 0 -0.075484463262096235 -0.024005672304186064 0 -0.075001449852854077 -0.023857876322541147 0 -0.069111256249467679 -0.020380743367843783 0 -0.072383904545400529 -0.020434275863965075 0 -0.072737286373875484 -0.022858888363454219 0 -0.069111256249467679 -0.020380743367843783 0 -0.072383904545400529 -0.020434275863965075 0 -0.072524892617153808 -0.018008940157860837 0 -0.076283728458137121 -0.024697735481565192 0 -0.076369217081009147 -0.023159682855139981 0 -0.079274677261793783 -0.022558991456450257 0 -0.075484463262096235 -0.024005672304186064 0 -0.076883407138206045 -0.02122001249869428 0 -0.075484463262096235 -0.024005672304186064 0 -0.076361887774591741 -0.025231030086421566 0 -0.076803132430998414 -0.027525268501822086 0 -0.076193368319986049 -0.024959110097018726 0 -0.079039143695137287 -0.027401203325552115 0 -0.078983170558095644 -0.027477090212740307 0 -0.076361887774591741 -0.025231030086421566 0 -0.076234589514589432 -0.02544240254393575 0 -0.072737286373875484 -0.022858888363454219 0 -0.075173341160858803 -0.020492161067439604 0 -0.076234589514589432 -0.02544240254393575 0 -0.075173341160858803 -0.020492161067439604 0 -0.078528519051086806 -0.022100421921533442 0 -0.075173341160858803 -0.020492161067439604 0 -0.078447719593952053 -0.019071654084368658 0 -0.078528519051086806 -0.022100421921533442 0 -0.072383904545400529 -0.020434275863965075 0 -0.075173341160858803 -0.020492161067439604 0 -0.072524892617153808 -0.018008940157860837 0 -0.072383904545400529 -0.020434275863965075 0 -0.072737286373875484 -0.022858888363454219 0 -0.075173341160858803 -0.020492161067439604 0 -0.079394574832149831 -0.018526912467283201 0 -0.076883407138206045 -0.02122001249869428 0 -0.082226129379773139 -0.020429414591991522 0 -0.079133034011063599 -0.020124190172682577 0 -0.079274677261793783 -0.022558991456450257 0 -0.075173341160858803 -0.020492161067439604 0 -0.076075124489149201 -0.015642903260695947 0 -0.072524892617153808 -0.018008940157860837 0 -0.076075124489149201 -0.015642903260695947 0 -0.079107960449615211 -0.015929086082295412 0 -0.078447719593952053 -0.019071654084368658 0 -0.075173341160858803 -0.020492161067439604 0 -0.076075124489149201 -0.015642903260695947 0 -0.078447719593952053 -0.019071654084368658 0 -0.076075124489149201 -0.015642903260695947 0 -0.079107960449615211 -0.015929086082295412 0 -0.079614790022391052 -0.013552581616187517 0 -0.079394574832149831 -0.018526912467283201 0 -0.082081188817420075 -0.016052478409227633 0 -0.082226129379773139 -0.020429414591991522 0 -0.079133034011063599 -0.020124190172682577 0 -0.080669395411590225 -0.018050527479279245 0 -0.079133034011063599 -0.020124190172682577 0 -0.076846682713445136 -0.018848371022104453 0 -0.076588275697878211 -0.021618453210988875 0 -0.079133034011063599 -0.020124190172682577 0 -0.076846682713445136 -0.018848371022104453 0 -0.080669395411590225 -0.018050527479279245 0 -0.07499999664223872 -0.019430976948495552 0 -0.076846682713445136 -0.018848371022104453 0 -0.076588275697878211 -0.021618453210988875 0 -0.074999913467912391 -0.023857483805801272 0 -0.07499999664223872 -0.019430976948495552 0 -0.076588275697878211 -0.021618453210988875 0 -0.074999913467912391 -0.023857483805801272 0 -0.076588275697878211 -0.021618453210988875 0 -0.076369217081009147 -0.023159682855139981 0 -0.076588275697878211 -0.021618453210988875 0 -0.076369217081009147 -0.023159682855139981 0 -0.079274677261793783 -0.022558991456450257 0 -0.079133034011063599 -0.020124190172682577 0 -0.076588275697878211 -0.021618453210988875 0 -0.079274677261793783 -0.022558991456450257 0 -0.083513779725331472 -0.01813783791604133 0 -0.085835119700270246 -0.017607122115447703 0 -0.084372721675216589 -0.016149037949706069 0 -0.085835119700270246 -0.017607122115447703 0 -0.085893091003628047 -0.015773699041270621 0 -0.084372721675216589 -0.016149037949706069 0 -0.083513779725331472 -0.01813783791604133 0 -0.084372721675216589 -0.016149037949706069 0 -0.082649629035768529 -0.016172973844683834 0 -0.085835119700270246 -0.017607122115447703 0 -0.085893091003628047 -0.015773699041270621 0 -0.087639489990076772 -0.016052761376117528 0 -0.085835119700270246 -0.017607122115447703 0 -0.087496637444905351 -0.018443820621443389 0 -0.087639489990076772 -0.016052761376117528 0 -0.085893091003628047 -0.015773699041270621 0 -0.086579101998026153 -0.014527456939706258 0 -0.087639489990076772 -0.016052761376117528 0 -0.085893091003628047 -0.015773699041270621 0 -0.086579101998026153 -0.014527456939706258 0 -0.084782796211854999 -0.014522134504164091 0 -0.085893091003628047 -0.015773699041270621 0 -0.084782796211854999 -0.014522134504164091 0 -0.084372721675216589 -0.016149037949706069 0 -0.084372721675216589 -0.016149037949706069 0 -0.083547157059346247 -0.014759552435204579 0 -0.082649629035768529 -0.016172973844683834 0 -0.084782796211854999 -0.014522134504164091 0 -0.084372721675216589 -0.016149037949706069 0 -0.083547157059346247 -0.014759552435204579 0 -0.084782796211854999 -0.014522134504164091 0 -0.083547157059346247 -0.014759552435204579 0 -0.083612258627323868 -0.01373406164314122 0 -0.083547157059346247 -0.014759552435204579 0 -0.082094469225787614 -0.014713419612822276 0 -0.082740274595336463 -0.013760084754847317 0 -0.082094469225787614 -0.014713419612822276 0 -0.081583381119118767 -0.013774122287225105 0 -0.082740274595336463 -0.013760084754847317 0 -0.082094469225787614 -0.014713419612822276 0 -0.081106658214616906 -0.015785734348887196 0 -0.080801002099909383 -0.014585180630133652 0 -0.082094469225787614 -0.014713419612822276 0 -0.080801002099909383 -0.014585180630133652 0 -0.081583381119118767 -0.013774122287225105 0 -0.082094469225787614 -0.014713419612822276 0 -0.081106658214616906 -0.015785734348887196 0 -0.082649629035768529 -0.016172973844683834 0 -0.083547157059346247 -0.014759552435204579 0 -0.082094469225787614 -0.014713419612822276 0 -0.082649629035768529 -0.016172973844683834 0 -0.080801002099909383 -0.014585180630133652 0 -0.079107960449615211 -0.015929086082295412 0 -0.079614790022391052 -0.013552581616187517 0 -0.081106658214616906 -0.015785734348887196 0 -0.080801002099909383 -0.014585180630133652 0 -0.079107960449615211 -0.015929086082295412 0 -0.079107960449615211 -0.015929086082295412 0 -0.081135416276439068 -0.01761929761600832 0 -0.078447719593952053 -0.019071654084368658 0 -0.081106658214616906 -0.015785734348887196 0 -0.079107960449615211 -0.015929086082295412 0 -0.081135416276439068 -0.01761929761600832 0 -0.083513779725331472 -0.01813783791604133 0 -0.082649629035768529 -0.016172973844683834 0 -0.081135416276439068 -0.01761929761600832 0 -0.081106658214616906 -0.015785734348887196 0 -0.082649629035768529 -0.016172973844683834 0 -0.081135416276439068 -0.01761929761600832 0 -0.083513779725331472 -0.01813783791604133 0 -0.081135416276439068 -0.01761929761600832 0 -0.081751897742327717 -0.020985364151335471 0 -0.081135416276439068 -0.01761929761600832 0 -0.081751897742327717 -0.020985364151335471 0 -0.078447719593952053 -0.019071654084368658 0 -0.081751897742327717 -0.020985364151335471 0 -0.078447719593952053 -0.019071654084368658 0 -0.078528519051086806 -0.022100421921533442 0 -0.076234589514589432 -0.02544240254393575 0 -0.078528519051086806 -0.022100421921533442 0 -0.080663081181331517 -0.02460774857041554 0 -0.081751897742327717 -0.020985364151335471 0 -0.078528519051086806 -0.022100421921533442 0 -0.080663081181331517 -0.02460774857041554 0 -0.081751897742327717 -0.020985364151335471 0 -0.084398849773022672 -0.023713858900540567 0 -0.080663081181331517 -0.02460774857041554 0 -0.084398849773022672 -0.023713858900540567 0 -0.085474288474456733 -0.020386493109220853 0 -0.086407835290939941 -0.022917397743438182 0 -0.081751897742327717 -0.020985364151335471 0 -0.084398849773022672 -0.023713858900540567 0 -0.085474288474456733 -0.020386493109220853 0 -0.084398849773022672 -0.023713858900540567 0 -0.086407835290939941 -0.022917397743438182 0 -0.086451474909791909 -0.025366136497288888 0 -0.083513779725331472 -0.01813783791604133 0 -0.081751897742327717 -0.020985364151335471 0 -0.085474288474456733 -0.020386493109220853 0 -0.083513779725331472 -0.01813783791604133 0 -0.085835119700270246 -0.017607122115447703 0 -0.085474288474456733 -0.020386493109220853 0 -0.087496637444905351 -0.018443820621443389 0 -0.087464381073242364 -0.02149513831889081 0 -0.088689327477470201 -0.019006422316444106 0 -0.085474288474456733 -0.020386493109220853 0 -0.087496637444905351 -0.018443820621443389 0 -0.087464381073242364 -0.02149513831889081 0 -0.085835119700270246 -0.017607122115447703 0 -0.085474288474456733 -0.020386493109220853 0 -0.087496637444905351 -0.018443820621443389 0 -0.087464381073242364 -0.02149513831889081 0 -0.088689327477470201 -0.019006422316444106 0 -0.089137441961729069 -0.02352142624301895 0 -0.085474288474456733 -0.020386493109220853 0 -0.087464381073242364 -0.02149513831889081 0 -0.086407835290939941 -0.022917397743438182 0 -0.087464381073242364 -0.02149513831889081 0 -0.086407835290939941 -0.022917397743438182 0 -0.088383707936602773 -0.024049292896462793 0 -0.087464381073242364 -0.02149513831889081 0 -0.088383707936602773 -0.024049292896462793 0 -0.089137441961729069 -0.02352142624301895 0 -0.085237520843461728 -0.027646470264486113 0 -0.084861726971958679 -0.027930921550988169 0 -0.088383707936602773 -0.024049292896462793 0 -0.089476126841594339 -0.025630678714084351 0 -0.089137441961729069 -0.02352142624301895 0 -0.088383707936602773 -0.024049292896462793 0 -0.088386930505270495 -0.026624821982629325 0 -0.09097121138551803 -0.027308483972972704 0 -0.088386930505270495 -0.026624821982629325 0 -0.088805704761215506 -0.028530858756706745 0 -0.09097121138551803 -0.027308483972972704 0 -0.088386930505270495 -0.026624821982629325 0 -0.086451474909791909 -0.025366136497288888 0 -0.086770391399175584 -0.02830450574493814 0 -0.088383707936602773 -0.024049292896462793 0 -0.088386930505270495 -0.026624821982629325 0 -0.086451474909791909 -0.025366136497288888 0 -0.086407835290939941 -0.022917397743438182 0 -0.088383707936602773 -0.024049292896462793 0 -0.086451474909791909 -0.025366136497288888 0 -0.084398849773022672 -0.023713858900540567 0 -0.086451474909791909 -0.025366136497288888 0 -0.083698979945589044 -0.027224123004524266 0 -0.086451474909791909 -0.025366136497288888 0 -0.086770391399175584 -0.02830450574493814 0 -0.083698979945589044 -0.027224123004524266 0 -0.086770391399175584 -0.02830450574493814 0 -0.087997386936415387 -0.030294634486449944 0 -0.085236396989055579 -0.032596227217232238 0 -0.086770391399175584 -0.02830450574493814 0 -0.083698979945589044 -0.027224123004524266 0 -0.085236396989055579 -0.032596227217232238 0 -0.087997386936415387 -0.030294634486449944 0 -0.088805704761215506 -0.028530858756706745 0 -0.090177974024827343 -0.029977968460504198 0 -0.087997386936415387 -0.030294634486449944 0 -0.088827782678296746 -0.032176800727969648 0 -0.090177974024827343 -0.029977968460504198 0 -0.088805704761215506 -0.028530858756706745 0 -0.09097121138551803 -0.027308483972972704 0 -0.090177974024827343 -0.029977968460504198 0 -0.086770391399175584 -0.02830450574493814 0 -0.087997386936415387 -0.030294634486449944 0 -0.088805704761215506 -0.028530858756706745 0 -0.088386930505270495 -0.026624821982629325 0 -0.086770391399175584 -0.02830450574493814 0 -0.088805704761215506 -0.028530858756706745 0 -0.078983170558095644 -0.027477090212740307 0 -0.081765829362707335 -0.02970124859751708 0 -0.076234589514589432 -0.02544240254393575 0 -0.080663081181331517 -0.02460774857041554 0 -0.079906399972687933 -0.028591884212859346 0 -0.080663081181331517 -0.02460774857041554 0 -0.083698979945589044 -0.027224123004524266 0 -0.079906399972687933 -0.028591884212859346 0 -0.084398849773022672 -0.023713858900540567 0 -0.080663081181331517 -0.02460774857041554 0 -0.083698979945589044 -0.027224123004524266 0 -0.083698979945589044 -0.027224123004524266 0 -0.079906399972687933 -0.028591884212859346 0 -0.085236396989055579 -0.032596227217232238 0 -0.081765829362707335 -0.02970124859751708 0 -0.083418059819001245 -0.030935581551900307 0 -0.081302805085312277 -0.032475434006953463 0 -0.083661208457147695 -0.031766906486630268 0 -0.082747035993413501 -0.034318065123526954 0 -0.083661208457147695 -0.031766906486630268 0 -0.082747035993413501 -0.034318065123526954 0 -0.085236396989055579 -0.032596227217232238 0 -0.082747035993413501 -0.034318065123526954 0 -0.084610221871591978 -0.036098512288149288 0 -0.085236396989055579 -0.032596227217232238 0 -0.08150777814959391 -0.037886430396650635 0 -0.082747035993413501 -0.034318065123526954 0 -0.084610221871591978 -0.036098512288149288 0 -0.088827782678296746 -0.032176800727969648 0 -0.088138865681296391 -0.034198943905435722 0 -0.090459578622950412 -0.033123737754957902 0 -0.088827782678296746 -0.032176800727969648 0 -0.09093586835331581 -0.031677371674477012 0 -0.090177974024827343 -0.029977968460504198 0 -0.088827782678296746 -0.032176800727969648 0 -0.090459578622950412 -0.033123737754957902 0 -0.09093586835331581 -0.031677371674477012 0 -0.085236396989055579 -0.032596227217232238 0 -0.086504973005070041 -0.035617597124807852 0 -0.088138865681296391 -0.034198943905435722 0 -0.087997386936415387 -0.030294634486449944 0 -0.088827782678296746 -0.032176800727969648 0 -0.085236396989055579 -0.032596227217232238 0 -0.088827782678296746 -0.032176800727969648 0 -0.085236396989055579 -0.032596227217232238 0 -0.088138865681296391 -0.034198943905435722 0 -0.084610221871591978 -0.036098512288149288 0 -0.085236396989055579 -0.032596227217232238 0 -0.086504973005070041 -0.035617597124807852 0 -0.088556712867301685 -0.036585012939593292 0 -0.086504973005070041 -0.035617597124807852 0 -0.088138865681296391 -0.034198943905435722 0 -0.088556712867301685 -0.036585012939593292 0 -0.088138865681296391 -0.034198943905435722 0 -0.089686464307427424 -0.035001443535898423 0 -0.088138865681296391 -0.034198943905435722 0 -0.089686464307427424 -0.035001443535898423 0 -0.090459578622950412 -0.033123737754957902 0 -0.088556712867301685 -0.036585012939593292 0 -0.089686464307427424 -0.035001443535898423 0 -0.090454945003202433 -0.036255950213578289 0 -0.090454945003202433 -0.036255950213578289 0 -0.091695203998036504 -0.03579102039157981 0 -0.091019015919063501 -0.034706866640037345 0 -0.089686464307427424 -0.035001443535898423 0 -0.090454945003202433 -0.036255950213578289 0 -0.091019015919063501 -0.034706866640037345 0 -0.091729167098765371 -0.037608261264942607 0 -0.091695203998036504 -0.03579102039157981 0 -0.09283243957561986 -0.035992048553533405 0 -0.091695203998036504 -0.03579102039157981 0 -0.092255883368838609 -0.035331156314217439 0 -0.09283243957561986 -0.035992048553533405 0 -0.091695203998036504 -0.03579102039157981 0 -0.092255883368838609 -0.035331156314217439 0 -0.091824557764342646 -0.034824964358864056 0 -0.092255883368838609 -0.035331156314217439 0 -0.091824557764342646 -0.034824964358864056 0 -0.092865031691593991 -0.034464458295245408 0 -0.091695203998036504 -0.03579102039157981 0 -0.091824557764342646 -0.034824964358864056 0 -0.091019015919063501 -0.034706866640037345 0 -0.091824557764342646 -0.034824964358864056 0 -0.091019015919063501 -0.034706866640037345 0 -0.09196758482824037 -0.033817471366036689 0 -0.091824557764342646 -0.034824964358864056 0 -0.09196758482824037 -0.033817471366036689 0 -0.092865031691593991 -0.034464458295245408 0 -0.089686464307427424 -0.035001443535898423 0 -0.091019015919063501 -0.034706866640037345 0 -0.090459578622950412 -0.033123737754957902 0 -0.09196758482824037 -0.033817471366036689 0 -0.09093586835331581 -0.031677371674477012 0 -0.092610313285885412 -0.030196701219679434 0 -0.090459578622950412 -0.033123737754957902 0 -0.09196758482824037 -0.033817471366036689 0 -0.09093586835331581 -0.031677371674477012 0 -0.082163417011958617 -0.030070723919215857 0 -0.083363204940432353 -0.028552917066289318 0 -0.091019015919063501 -0.034706866640037345 0 -0.090459578622950412 -0.033123737754957902 0 -0.09196758482824037 -0.033817471366036689 0 -0.09196758482824037 -0.033817471366036689 0 -0.092865031691593991 -0.034464458295245408 0 -0.092610313285885412 -0.030196701219679434 0 -0.080392771051186904 -0.029580957516109573 0 -0.079826678506931731 -0.026653148514664281 0 -0.08348076755039982 -0.029466046170477878 0 -0.083075162177994349 -0.029952448766619694 0 -0.082844143475957421 -0.028541233763315896 0 -0.080392771051186904 -0.029580957516109573 0 -0.07513493903060825 -0.028693368342530674 0 -0.080392771051186904 -0.029580957516109573 0 -0.083363204940432353 -0.028552917066289318 0 -0.080392771051186904 -0.029580957516109573 0 -0.082163417011958617 -0.030070723919215857 0 -0.080392771051186904 -0.029580957516109573 0 -0.074667248142924553 -0.033349726931517103 0 -0.093486047436029757 -0.033596889860396953 0 -0.092597038814465252 -0.034675897242108254 0 -0.09283243957561986 -0.035992048553533405 0 -0.093486047436029757 -0.033596889860396953 0 -0.09283243957561986 -0.035992048553533405 0 -0.095364851688021696 -0.036335583481772515 0 -0.082163417011958617 -0.030070723919215857 0 -0.082662268661808175 -0.030940906014347687 0 -0.092255883368838609 -0.035331156314217439 0 -0.092865031691593991 -0.034464458295245408 0 -0.09283243957561986 -0.035992048553533405 0 -0.065487280793170372 -0.029974960822900704 0 -0.064248719214288305 -0.028247428662975773 0 -0.063911531695765772 -0.029673122791101628 0 -0.064248719214288305 -0.028247428662975773 0 -0.062949601280441456 -0.028657257525461218 0 -0.063911531695765772 -0.029673122791101628 0 -0.062509029895316107 -0.029355200521893061 0 -0.062016777329580143 -0.030076422700860198 0 -0.061882045215437019 -0.028621198829590886 0 -0.062949601280441456 -0.028657257525461218 0 -0.063089278447748892 -0.029458220488444917 0 -0.062509029895316107 -0.029355200521893061 0 -0.062949601280441456 -0.028657257525461218 0 -0.063089278447748892 -0.029458220488444917 0 -0.063911531695765772 -0.029673122791101628 0 -0.062949601280441456 -0.028657257525461218 0 -0.062509029895316107 -0.029355200521893061 0 -0.061882045215437019 -0.028621198829590886 0 -0.062016777329580143 -0.030076422700860198 0 -0.062581733514254737 -0.030838368563776957 0 -0.061741023225589296 -0.031550190774824162 0 -0.062509029895316107 -0.029355200521893061 0 -0.062016777329580143 -0.030076422700860198 0 -0.06287001041598482 -0.030046270375895856 0 -0.063089278447748892 -0.029458220488444917 0 -0.06287001041598482 -0.030046270375895856 0 -0.063911531695765772 -0.029673122791101628 0 -0.063089278447748892 -0.029458220488444917 0 -0.062509029895316107 -0.029355200521893061 0 -0.06287001041598482 -0.030046270375895856 0 -0.06287001041598482 -0.030046270375895856 0 -0.062581733514254737 -0.030838368563776957 0 -0.063406166956927232 -0.030597113986991799 0 -0.062016777329580143 -0.030076422700860198 0 -0.06287001041598482 -0.030046270375895856 0 -0.062581733514254737 -0.030838368563776957 0 -0.065487280793170372 -0.029974960822900704 0 -0.063911531695765772 -0.029673122791101628 0 -0.064371285014946183 -0.030785662551068751 0 -0.077388085618815314 -0.028241866970649069 0 -0.078291610215228222 -0.027545093840723147 0 -0.078561437128847084 -0.026773687839687737 0 -0.06287001041598482 -0.030046270375895856 0 -0.063911531695765772 -0.029673122791101628 0 -0.063406166956927232 -0.030597113986991799 0 -0.063911531695765772 -0.029673122791101628 0 -0.063406166956927232 -0.030597113986991799 0 -0.064371285014946183 -0.030785662551068751 0 -0.07513493903060825 -0.028693368342530674 0 -0.072442038961909191 -0.026421440732925971 0 -0.063406166956927232 -0.030597113986991799 0 -0.064371285014946183 -0.030785662551068751 0 -0.06329275219266603 -0.031646036394895535 0 -0.078291610215228222 -0.027545093840723147 0 -0.078561437128847084 -0.026773687839687737 0 -0.079165867203305915 -0.026805857064162004 0 -0.079826678506931731 -0.026653148514664281 0 -0.072442038961909191 -0.026421440732925971 0 -0.057007260022664701 -0.022413076642221929 0 -0.055935579510775789 -0.022327377301010472 0 -0.055630892685118484 -0.023413710634257585 0 -0.072442038961909191 -0.026421440732925971 0 -0.057533888374923785 -0.027283979293400078 0 -0.08263577195544286 -0.026556121163149086 0 -0.084382766470171955 -0.026661742064331233 0 -0.08599676482468592 -0.022918133435485617 0 -0.062581733514254737 -0.030838368563776957 0 -0.06329275219266603 -0.031646036394895535 0 -0.061741023225589296 -0.031550190774824162 0 -0.062581733514254737 -0.030838368563776957 0 -0.063406166956927232 -0.030597113986991799 0 -0.06329275219266603 -0.031646036394895535 0 -0.083723757625220135 -0.025375027396001188 0 -0.084307806107077429 -0.024747633843170316 0 -0.084439314921598924 -0.024675451004921894 0 -0.072442038961909191 -0.026421440732925971 0 -0.07023024078029115 -0.021543279384079211 0 -0.084382766470171955 -0.026661742064331233 0 -0.08599676482468592 -0.022918133435485617 0 -0.088926158725606538 -0.022927251349785585 0 -0.079826678506931731 -0.026653148514664281 0 -0.084613570717169628 -0.023546620382372506 0 -0.084382422891272998 -0.024682049758222611 0 -0.084126512428630049 -0.024443122871612651 0 -0.084412667822208381 -0.02435091539670068 0 -0.084307806107077429 -0.024747633843170316 0 -0.084439314921598924 -0.024675451004921894 0 -0.084854736383373847 -0.024138336346628823 0 -0.083957308939816011 -0.025176907481774136 0 -0.083883138064097723 -0.024687279800121201 0 -0.083468626719509637 -0.024720453941689816 0 -0.083957308939816011 -0.025176907481774136 0 -0.084382422891272998 -0.024682049758222611 0 -0.083883138064097723 -0.024687279800121201 0 -0.079826678506931731 -0.026653148514664281 0 -0.082330309955958178 -0.024790378230968149 0 -0.084382422891272998 -0.024682049758222611 0 -0.083883138064097723 -0.024687279800121201 0 -0.084126512428630049 -0.024443122871612651 0 -0.083883138064097723 -0.024687279800121201 0 -0.08362957116342408 -0.024267246577859287 0 -0.084126512428630049 -0.024443122871612651 0 -0.083883138064097723 -0.024687279800121201 0 -0.083468626719509637 -0.024720453941689816 0 -0.08362957116342408 -0.024267246577859287 0 -0.083761168852857296 -0.027549974691776193 0 -0.085629497215386971 -0.023775065436833994 0 -0.083468626719509637 -0.024720453941689816 0 -0.083083955175478647 -0.025118545336357569 0 -0.08296631713649362 -0.024374266766848101 0 -0.089476126841594339 -0.025630678714084351 0 -0.090018757991403867 -0.023390678521413945 0 -0.089137441961729069 -0.02352142624301895 0 -0.089476126841594339 -0.025630678714084351 0 -0.09052056728012696 -0.026517613227744048 0 -0.090018757991403867 -0.023390678521413945 0 -0.089476126841594339 -0.025630678714084351 0 -0.09052056728012696 -0.026517613227744048 0 -0.09008387734625091 -0.026521444376831703 0 -0.082862324300956025 -0.028004515291390249 0 -0.082825023302757345 -0.02800473613905945 0 -0.082873528704520819 -0.028077715629134609 0 -0.083761168852857296 -0.027549974691776193 0 -0.084095623506842895 -0.027942815501671336 0 -0.09097121138551803 -0.027308483972972704 0 -0.091858141843203039 -0.028838197238990174 0 -0.090177974024827343 -0.029977968460504198 0 -0.084861726971958679 -0.027930921550988169 0 -0.084095623506842895 -0.027942815501671336 0 -0.091858141843203039 -0.028838197238990174 0 -0.090177974024827343 -0.029977968460504198 0 -0.092610313285885412 -0.030196701219679434 0 -0.09093586835331581 -0.031677371674477012 0 -0.090177974024827343 -0.029977968460504198 0 -0.092610313285885412 -0.030196701219679434 0 -0.083761168852857296 -0.027549974691776193 0 -0.083363204940432353 -0.028552917066289318 0 -0.084095623506842895 -0.027942815501671336 0 -0.083363204940432353 -0.028552917066289318 0 -0.083957308939816011 -0.025176907481774136 0 -0.083468626719509637 -0.024720453941689816 0 -0.083083955175478647 -0.025118545336357569 0 -0.079826678506931731 -0.026653148514664281 0 -0.083761168852857296 -0.027549974691776193 0 -0.080924588587365495 -0.027343342546897027 0 -0.081548594910206648 -0.027385369904732292 0 -0.081524333997527176 -0.027245794881604137 0 -0.081289395993492941 -0.026913538823117662 0 -0.080924588587365495 -0.027343342546897027 0 -0.081524333997527176 -0.027245794881604137 0 -0.016337241257464129 -0.026875058605341888 0 -0.016437450397958041 -0.026910992337687897 0 -0.016244566241254872 -0.02677034223331046 0 -0.016337241257464129 -0.026875058605341888 0 -0.016592014445608358 -0.027066367772458275 0 -0.016437450397958041 -0.026910992337687897 0 -0.016570662639795973 -0.026685054573125394 0 -0.016337241257464129 -0.026875058605341888 0 -0.015932028623591124 -0.026787653266882264 0 -0.016570662639795973 -0.026685054573125394 0 -0.016337241257464129 -0.026875058605341888 0 -0.016707507393436981 -0.026913936865489992 0 -0.016337241257464129 -0.026875058605341888 0 -0.016707507393436981 -0.026913936865489992 0 -0.016592014445608358 -0.027066367772458275 0 -0.016707507393436981 -0.026913936865489992 0 -0.016876177028589491 -0.027132011739218892 0 -0.016592014445608358 -0.027066367772458275 0 -0.016707507393436981 -0.026913936865489992 0 -0.016903198091359917 -0.026777511615837812 0 -0.017018185750892065 -0.02696078870964266 0 -0.016707507393436981 -0.026913936865489992 0 -0.017018185750892065 -0.02696078870964266 0 -0.016876177028589491 -0.027132011739218892 0 -0.016570662639795973 -0.026685054573125394 0 -0.016707507393436981 -0.026913936865489992 0 -0.016903198091359917 -0.026777511615837812 0 -0.050058386078602968 -0.032174688868238294 0 -0.044563514760733232 -0.030391975420139133 0 -0.016903198091359917 -0.026777511615837812 0 -0.017184313310790504 -0.026769711184644628 0 -0.017018185750892065 -0.02696078870964266 0 -0.016903558511377422 -0.02654408288464187 0 -0.016903198091359917 -0.026777511615837812 0 -0.017184313310790504 -0.026769711184644628 0 -0.062016777329580143 -0.030076422700860198 0 -0.061882045215437019 -0.028621198829590886 0 -0.061030438691833618 -0.030022360025901255 0 -0.044563514760733232 -0.030391975420139133 0 -0.041214645670734219 -0.02816016726198035 0 -0.062016777329580143 -0.030076422700860198 0 -0.061030438691833618 -0.030022360025901255 0 -0.061741023225589296 -0.031550190774824162 0 -0.061030438691833618 -0.030022360025901255 0 -0.061741023225589296 -0.031550190774824162 0 -0.060171575350255663 -0.031450259563586019 0 -0.055935579510775789 -0.022327377301010472 0 -0.055630892685118484 -0.023413710634257585 0 -0.054901240345819023 -0.0222686411663898 0 -0.057533888374923785 -0.027283979293400078 0 -0.041214645670734219 -0.02816016726198035 0 -0.055630892685118484 -0.023413710634257585 0 -0.054293320723042472 -0.023305038507698432 0 -0.054901240345819023 -0.0222686411663898 0 -0.016939075277507713 -0.027137120027399465 0 -0.017152621343989174 -0.02686733654190478 0 -0.016803803193606366 -0.026858956674048268 0 -0.039576501786085648 -0.026383313300529575 0 -0.041214645670734219 -0.02816016726198035 0 -0.041214645670734219 -0.02816016726198035 0 -0.025883576269352705 -0.027287884170195318 0 -0.025883576269352705 -0.027287884170195318 0 -0.022257583378768084 -0.027086610346070902 0 -0.016939075277507713 -0.027137120027399465 0 -0.016803803193606366 -0.026858956674048268 0 -0.016581041505007311 -0.027094708307138917 0 -0.016939075277507713 -0.027137120027399465 0 -0.016581041505007311 -0.027094708307138917 0 -0.016778895081232585 -0.027353684342927065 0 -0.016581041505007311 -0.027094708307138917 0 -0.016321842065912914 -0.026960987562623384 0 -0.016396755907480236 -0.027164056593848612 0 -0.016581041505007311 -0.027094708307138917 0 -0.016536035583486527 -0.027241938720384717 0 -0.016396755907480236 -0.027164056593848612 0 -0.016581041505007311 -0.027094708307138917 0 -0.016437450397958041 -0.026910992337687897 0 -0.016321842065912914 -0.026960987562623384 0 -0.016803803193606366 -0.026858956674048268 0 -0.016581041505007311 -0.027094708307138917 0 -0.016437450397958041 -0.026910992337687897 0 -0.016677551936574414 -0.02750526443954587 0 -0.016638287810856141 -0.027474624676453487 0 -0.016778895081232585 -0.027353684342927065 0 -0.016519148525994991 -0.027560103117115202 0 -0.016638287810856141 -0.027474624676453487 0 -0.01660984386862057 -0.027657276475182166 0 -0.016519148525994991 -0.027560103117115202 0 -0.016638287810856141 -0.027474624676453487 0 -0.016497440841931263 -0.02744486922992298 0 -0.016519148525994991 -0.027560103117115202 0 -0.016497440841931263 -0.02744486922992298 0 -0.01638718368456878 -0.027559612899779002 0 -0.016677551936574414 -0.02750526443954587 0 -0.016638287810856141 -0.027474624676453487 0 -0.016688551008895641 -0.027498316914683792 0 -0.039487045115644132 -0.017104375165798522 0 -0.040873911428155975 -0.014699085886175356 0 -0.016638287810856141 -0.027474624676453487 0 -0.016611407736727996 -0.027361815703679765 0 -0.016778895081232585 -0.027353684342927065 0 -0.016638287810856141 -0.027474624676453487 0 -0.016497440841931263 -0.02744486922992298 0 -0.016611407736727996 -0.027361815703679765 0 -0.016497440841931263 -0.02744486922992298 0 -0.016458887047019671 -0.027320448014879709 0 -0.016611407736727996 -0.027361815703679765 0 -0.016581041505007311 -0.027094708307138917 0 -0.016536035583486527 -0.027241938720384717 0 -0.016778895081232585 -0.027353684342927065 0 -0.016458887047019671 -0.027320448014879709 0 -0.016536035583486527 -0.027241938720384717 0 -0.016611407736727996 -0.027361815703679765 0 -0.016536035583486527 -0.027241938720384717 0 -0.016611407736727996 -0.027361815703679765 0 -0.016778895081232585 -0.027353684342927065 0 -0.016458887047019671 -0.027320448014879709 0 -0.016536035583486527 -0.027241938720384717 0 -0.016396755907480236 -0.027164056593848612 0 -0.054293320723042472 -0.023305038507698432 0 -0.053700046111033545 -0.024264426881874527 0 -0.054330856190000935 -0.024322186898461481 0 -0.039576501786085648 -0.026383313300529575 0 -0.040119168965165576 -0.023844988855815839 0 -0.045540621426384063 -0.015240371756328908 0 -0.065158493191809233 -0.016696833070846462 0 -0.045540621426384063 -0.015240371756328908 0 -0.040119168965165576 -0.023844988855815839 0 -0.053084793871594864 -0.025152511795170789 0 -0.053700046111033545 -0.024264426881874527 0 -0.054330856190000935 -0.024322186898461481 0 -0.095092572510059967 -0.01688826149734814 0 -0.093536666509883556 -0.01727911531412641 0 -0.092906913829229443 -0.019349215099002878 0 -0.093536666509883556 -0.01727911531412641 0 -0.09157535262353568 -0.017550941784995392 0 -0.093481267464360335 -0.016137283054789026 0 -0.092871356952140272 -0.017203627818889376 0 -0.091967634508584264 -0.017077332177134124 0 -0.092851527357392383 -0.016331084865042429 0 -0.09157535262353568 -0.017550941784995392 0 -0.092906913829229443 -0.019349215099002878 0 -0.091037788919651086 -0.019251102450607759 0 -0.093536666509883556 -0.01727911531412641 0 -0.09157535262353568 -0.017550941784995392 0 -0.092906913829229443 -0.019349215099002878 0 -0.055630892685118484 -0.023413710634257585 0 -0.054293320723042472 -0.023305038507698432 0 -0.054330856190000935 -0.024322186898461481 0 -0.088926158725606538 -0.022927251349785585 0 -0.092906913829229443 -0.019349215099002878 0 -0.091037788919651086 -0.019251102450607759 0 -0.07023024078029115 -0.021543279384079211 0 -0.065158493191809233 -0.016696833070846462 0 -0.08905195386798162 -0.020540660671620439 0 -0.088818637970324604 -0.020611992519284882 0 -0.08599676482468592 -0.022918133435485617 0 -0.088926158725606538 -0.022927251349785585 0 -0.08921525797079205 -0.019506422707287169 0 -0.088926158725606538 -0.022927251349785585 0 -0.091037788919651086 -0.019251102450607759 0 -0.08921525797079205 -0.019506422707287169 0 -0.084439314921598924 -0.024675451004921894 0 -0.085084476370578213 -0.023992157586530352 0 -0.084854736383373847 -0.024138336346628823 0 -0.084613570717169628 -0.023546620382372506 0 -0.088818637970324604 -0.020611992519284882 0 -0.092017001446572114 -0.018258688095885853 0 -0.091967634508584264 -0.017077332177134124 0 -0.091164899793628934 -0.01762139904199821 0 -0.092871356952140272 -0.017203627818889376 0 -0.092017001446572114 -0.018258688095885853 0 -0.091967634508584264 -0.017077332177134124 0 -0.090822393869913379 -0.018558059782338571 0 -0.088818637970324604 -0.020611992519284882 0 -0.09157535262353568 -0.017550941784995392 0 -0.091037788919651086 -0.019251102450607759 0 -0.089576546052773626 -0.019456590366666641 0 -0.092132650338040023 -0.015848884306054297 0 -0.091103725077615355 -0.016615412178156971 0 -0.091158733412150139 -0.014872917914213669 0 -0.091967634508584264 -0.017077332177134124 0 -0.092132650338040023 -0.015848884306054297 0 -0.091103725077615355 -0.016615412178156971 0 -0.091967634508584264 -0.017077332177134124 0 -0.092132650338040023 -0.015848884306054297 0 -0.092851527357392383 -0.016331084865042429 0 -0.092132650338040023 -0.015848884306054297 0 -0.092283423255714064 -0.01451980007036959 0 -0.091158733412150139 -0.014872917914213669 0 -0.092283423255714064 -0.01451980007036959 0 -0.091158733412150139 -0.014872917914213669 0 -0.091588312734389887 -0.012970572729103 0 -0.092283423255714064 -0.01451980007036959 0 -0.093402582048421556 -0.015192948068906986 0 -0.093056977480407255 -0.013005855747805231 0 -0.092132650338040023 -0.015848884306054297 0 -0.092283423255714064 -0.01451980007036959 0 -0.093402582048421556 -0.015192948068906986 0 -0.093402582048421556 -0.015192948068906986 0 -0.092851527357392383 -0.016331084865042429 0 -0.093481267464360335 -0.016137283054789026 0 -0.092132650338040023 -0.015848884306054297 0 -0.093402582048421556 -0.015192948068906986 0 -0.092851527357392383 -0.016331084865042429 0 -0.092871356952140272 -0.017203627818889376 0 -0.092851527357392383 -0.016331084865042429 0 -0.093481267464360335 -0.016137283054789026 0 -0.090822393869913379 -0.018558059782338571 0 -0.09152722010675475 -0.017835751868160828 0 -0.095092572510059967 -0.01688826149734814 0 -0.093536666509883556 -0.01727911531412641 0 -0.094198425139148431 -0.016248172268363219 0 -0.093536666509883556 -0.01727911531412641 0 -0.093481267464360335 -0.016137283054789026 0 -0.094198425139148431 -0.016248172268363219 0 -0.095092572510059967 -0.01688826149734814 0 -0.094198425139148431 -0.016248172268363219 0 -0.094817303518316576 -0.015976471522661271 0 -0.094198425139148431 -0.016248172268363219 0 -0.094415071084232277 -0.015419703091092911 0 -0.094817303518316576 -0.015976471522661271 0 -0.094198425139148431 -0.016248172268363219 0 -0.093891328627707785 -0.015531637600157499 0 -0.094415071084232277 -0.015419703091092911 0 -0.093481267464360335 -0.016137283054789026 0 -0.094198425139148431 -0.016248172268363219 0 -0.093891328627707785 -0.015531637600157499 0 -0.093402582048421556 -0.015192948068906986 0 -0.093481267464360335 -0.016137283054789026 0 -0.093891328627707785 -0.015531637600157499 0 -0.093402582048421556 -0.015192948068906986 0 -0.093891328627707785 -0.015531637600157499 0 -0.094221367440494933 -0.014926117237552586 0 -0.089359773790419386 -0.010847181502987881 0 -0.088597255053126822 -0.0094137042251403943 0 -0.093402582048421556 -0.015192948068906986 0 -0.094221367440494933 -0.014926117237552586 0 -0.094141311943721995 -0.014048279759641574 0 -0.094221367440494933 -0.014926117237552586 0 -0.094679016394765433 -0.014999514734617303 0 -0.094686397146856519 -0.014548165021397769 0 -0.094221367440494933 -0.014926117237552586 0 -0.094686397146856519 -0.014548165021397769 0 -0.094141311943721995 -0.014048279759641574 0 -0.094221367440494933 -0.014926117237552586 0 -0.094415071084232277 -0.015419703091092911 0 -0.094679016394765433 -0.014999514734617303 0 -0.093891328627707785 -0.015531637600157499 0 -0.094221367440494933 -0.014926117237552586 0 -0.094415071084232277 -0.015419703091092911 0 -0.094415071084232277 -0.015419703091092911 0 -0.094968657121317662 -0.015323295262288476 0 -0.094679016394765433 -0.014999514734617303 0 -0.094968657121317662 -0.015323295262288476 0 -0.094679016394765433 -0.014999514734617303 0 -0.095083409406541128 -0.014816750415391631 0 -0.094686397146856519 -0.014548165021397769 0 -0.095083409406541128 -0.014816750415391631 0 -0.09492649915698699 -0.014124262553243994 0 -0.094679016394765433 -0.014999514734617303 0 -0.094686397146856519 -0.014548165021397769 0 -0.095083409406541128 -0.014816750415391631 0 -0.095083409406541128 -0.014816750415391631 0 -0.095269114796218704 -0.014897439132765634 0 -0.09492649915698699 -0.014124262553243994 0 -0.05028890305275803 -0.007724264733318712 0 -0.049176932333330668 -0.0073585833453887394 0 -0.046917559729956093 0.0022663990081471697 0 -0.043779882196199868 -0.0124836964932007 0 -0.051224223197771104 0.00058751406346530812 0 -0.049176932333330668 -0.0073585833453887394 0 -0.044453190022903703 -0.01042426409001241 0 -0.049176932333330668 -0.0073585833453887394 0 -0.041800424289729306 -0.0050119469789868245 0 -0.044453190022903703 -0.01042426409001241 0 -0.041800424289729306 -0.0050119469789868245 0 -0.094968657121317662 -0.015323295262288476 0 -0.09534747103936865 -0.014914334662009737 0 -0.095319983987518495 -0.01587879306343255 0 -0.094968657121317662 -0.015323295262288476 0 -0.095083409406541128 -0.014816750415391631 0 -0.09534747103936865 -0.014914334662009737 0 -0.039658349222995978 -0.0093275884667905692 0 -0.039324493843415978 -0.010931118733840334 0 -0.043347481856162037 -0.0076150244956193084 0 -0.094415071084232277 -0.015419703091092911 0 -0.094968657121317662 -0.015323295262288476 0 -0.094817303518316576 -0.015976471522661271 0 -0.094968657121317662 -0.015323295262288476 0 -0.095319983987518495 -0.01587879306343255 0 -0.094817303518316576 -0.015976471522661271 0 -0.044078825260554989 -0.016130695605448792 0 -0.045302527509550883 -0.013931753513396015 0 -0.045010505321387714 -0.015362925280330737 0 -0.095092572510059967 -0.01688826149734814 0 -0.095319983987518495 -0.01587879306343255 0 -0.094817303518316576 -0.015976471522661271 0 -0.045540621426384063 -0.015240371756328908 0 -0.044453190022903703 -0.01042426409001241 0 -0.045540621426384063 -0.015240371756328908 0 -0.040873911428155975 -0.014699085886175356 0 -0.016519148525994991 -0.027560103117115202 0 -0.01660984386862057 -0.027657276475182166 0 -0.016414826243490725 -0.027675085088241819 0 -0.044453190022903703 -0.01042426409001241 0 -0.040873911428155975 -0.014699085886175356 0 -0.088894371283615589 -0.018650270759003364 0 -0.08937390041885386 -0.017475614696532908 0 -0.088682572837199033 -0.01760721196481577 0 -0.088894371283615589 -0.018650270759003364 0 -0.08937390041885386 -0.017475614696532908 0 -0.089361026149506195 -0.018928175042488084 0 -0.088894371283615589 -0.018650270759003364 0 -0.088689327477470201 -0.019006422316444106 0 -0.088682572837199033 -0.01760721196481577 0 -0.087496637444905351 -0.018443820621443389 0 -0.088689327477470201 -0.019006422316444106 0 -0.088682572837199033 -0.01760721196481577 0 -0.088894371283615589 -0.018650270759003364 0 -0.088689327477470201 -0.019006422316444106 0 -0.088710457085269964 -0.018968657593756256 0 -0.085923444631337262 -0.022438583027730295 0 -0.085629497215386971 -0.023775065436833994 0 -0.088689327477470201 -0.019006422316444106 0 -0.090456104925862896 -0.023277817052009361 0 -0.089137441961729069 -0.02352142624301895 0 -0.085629497215386971 -0.023775065436833994 0 -0.085888359595522629 -0.023740794071033827 0 -0.085629497215386971 -0.023775065436833994 0 -0.086625132482466921 -0.02247218486813677 0 -0.083468626719509637 -0.024720453941689816 0 -0.08296631713649362 -0.024374266766848101 0 -0.08362957116342408 -0.024267246577859287 0 -0.088894371283615589 -0.018650270759003364 0 -0.088710457085269964 -0.018968657593756256 0 -0.089361026149506195 -0.018928175042488084 0 -0.089361026149506195 -0.018928175042488084 0 -0.090588390220056797 -0.018551384332796489 0 -0.090235489192475427 -0.017558671668233643 0 -0.086625132482466921 -0.02247218486813677 0 -0.087596463632952676 -0.021524018907496747 0 -0.08362957116342408 -0.024267246577859287 0 -0.084126512428630049 -0.024443122871612651 0 -0.084305045173171514 -0.024136249755049102 0 -0.088818637970324604 -0.020611992519284882 0 -0.087596463632952676 -0.021524018907496747 0 -0.085084476370578213 -0.023992157586530352 0 -0.084854736383373847 -0.024138336346628823 0 -0.084305045173171514 -0.024136249755049102 0 -0.092017001446572114 -0.018258688095885853 0 -0.090588390220056797 -0.018551384332796489 0 -0.091164899793628934 -0.01762139904199821 0 -0.084382422891272998 -0.024682049758222611 0 -0.084854736383373847 -0.024138336346628823 0 -0.084412667822208381 -0.02435091539670068 0 -0.084854736383373847 -0.024138336346628823 0 -0.084412667822208381 -0.02435091539670068 0 -0.084305045173171514 -0.024136249755049102 0 -0.082330309955958178 -0.024790378230968149 0 -0.083034510322669092 -0.024289528327546411 0 -0.084126512428630049 -0.024443122871612651 0 -0.084412667822208381 -0.02435091539670068 0 -0.084305045173171514 -0.024136249755049102 0 -0.090588390220056797 -0.018551384332796489 0 -0.091164899793628934 -0.01762139904199821 0 -0.090235489192475427 -0.017558671668233643 0 -0.091164899793628934 -0.01762139904199821 0 -0.090235489192475427 -0.017558671668233643 0 -0.091103725077615355 -0.016615412178156971 0 -0.091967634508584264 -0.017077332177134124 0 -0.091164899793628934 -0.01762139904199821 0 -0.091103725077615355 -0.016615412178156971 0 -0.08937390041885386 -0.017475614696532908 0 -0.089361026149506195 -0.018928175042488084 0 -0.090235489192475427 -0.017558671668233643 0 -0.08937390041885386 -0.017475614696532908 0 -0.090235489192475427 -0.017558671668233643 0 -0.090002026973139276 -0.016209492618288097 0 -0.090002026973139276 -0.016209492618288097 0 -0.091103725077615355 -0.016615412178156971 0 -0.091158733412150139 -0.014872917914213669 0 -0.090235489192475427 -0.017558671668233643 0 -0.090002026973139276 -0.016209492618288097 0 -0.091103725077615355 -0.016615412178156971 0 -0.090002026973139276 -0.016209492618288097 0 -0.091158733412150139 -0.014872917914213669 0 -0.089461566601413758 -0.014594444757116683 0 -0.090002026973139276 -0.016209492618288097 0 -0.089461566601413758 -0.014594444757116683 0 -0.089035404389091494 -0.015968900556146411 0 -0.089461566601413758 -0.014594444757116683 0 -0.089035404389091494 -0.015968900556146411 0 -0.088630047572336695 -0.014293003333965852 0 -0.08937390041885386 -0.017475614696532908 0 -0.089035404389091494 -0.015968900556146411 0 -0.088682572837199033 -0.01760721196481577 0 -0.08937390041885386 -0.017475614696532908 0 -0.090002026973139276 -0.016209492618288097 0 -0.089035404389091494 -0.015968900556146411 0 -0.089035404389091494 -0.015968900556146411 0 -0.088682572837199033 -0.01760721196481577 0 -0.087639489990076772 -0.016052761376117528 0 -0.087496637444905351 -0.018443820621443389 0 -0.088682572837199033 -0.01760721196481577 0 -0.087639489990076772 -0.016052761376117528 0 -0.086579101998026153 -0.014527456939706258 0 -0.087639489990076772 -0.016052761376117528 0 -0.088630047572336695 -0.014293003333965852 0 -0.089035404389091494 -0.015968900556146411 0 -0.087639489990076772 -0.016052761376117528 0 -0.088630047572336695 -0.014293003333965852 0 -0.087130084828005425 -0.013924876226913296 0 -0.085367472898875738 -0.013467752246073543 0 -0.086607850556842988 -0.013750757713973175 0 -0.086096828001348144 -0.0124295207788509 0 -0.084168652810363676 -0.013003331088441665 0 -0.086579101998026153 -0.014527456939706258 0 -0.088630047572336695 -0.014293003333965852 0 -0.086534575249769305 -0.013056770817450507 0 -0.086096828001348144 -0.0124295207788509 0 -0.087101531379840558 -0.011074564497304637 0 -0.084386518218555404 -0.011706222266037347 0 -0.087365324347628712 -0.010934079352165253 0 -0.085414245446619547 -0.011970003239196446 0 -0.087360592901819592 -0.0097149223657375348 0 -0.085419526304824897 -0.010170900401684045 0 -0.085730962214265391 -0.0088698778940192458 0 -0.087101531379840558 -0.011074564497304637 0 -0.088242728583921362 -0.012504474267470429 0 -0.089511693494031611 -0.010427425244261369 0 -0.086096828001348144 -0.0124295207788509 0 -0.087101531379840558 -0.011074564497304637 0 -0.088242728583921362 -0.012504474267470429 0 -0.086607850556842988 -0.013750757713973175 0 -0.086096828001348144 -0.0124295207788509 0 -0.088242728583921362 -0.012504474267470429 0 -0.089461566601413758 -0.014594444757116683 0 -0.086607850556842988 -0.013750757713973175 0 -0.088242728583921362 -0.012504474267470429 0 -0.088081459329860085 -0.014194419684461137 0 -0.087130084828005425 -0.013924876226913296 0 -0.089461566601413758 -0.014594444757116683 0 -0.088242728583921362 -0.012504474267470429 0 -0.090135245629291552 -0.012645561922238117 0 -0.091158733412150139 -0.014872917914213669 0 -0.089461566601413758 -0.014594444757116683 0 -0.090135245629291552 -0.012645561922238117 0 -0.091158733412150139 -0.014872917914213669 0 -0.090135245629291552 -0.012645561922238117 0 -0.091588312734389887 -0.012970572729103 0 -0.090135245629291552 -0.012645561922238117 0 -0.091007831286250035 -0.011371293600137876 0 -0.091588312734389887 -0.012970572729103 0 -0.090135245629291552 -0.012645561922238117 0 -0.091007831286250035 -0.011371293600137876 0 -0.089511693494031611 -0.010427425244261369 0 -0.088242728583921362 -0.012504474267470429 0 -0.090135245629291552 -0.012645561922238117 0 -0.089511693494031611 -0.010427425244261369 0 -0.087365324347628712 -0.010934079352165253 0 -0.089387838447703843 -0.0102004218781729 0 -0.087360592901819592 -0.0097149223657375348 0 -0.089469794728903054 -0.0093240886943492373 0 -0.088993487927980119 -0.0077039429388137447 0 -0.089387838447703843 -0.0102004218781729 0 -0.090505318823822303 -0.0098562717923034084 0 -0.089469794728903054 -0.0093240886943492373 0 -0.088993487927980119 -0.0077039429388137447 0 -0.091611416244838317 -0.0092271766819605784 0 -0.091007831286250035 -0.011371293600137876 0 -0.089511693494031611 -0.010427425244261369 0 -0.091611416244838317 -0.0092271766819605784 0 -0.088993487927980119 -0.0077039429388137447 0 -0.091611416244838317 -0.0092271766819605784 0 -0.09016821039043714 -0.0064631180208441141 0 -0.088993487927980119 -0.0077039429388137447 0 -0.087091810175304304 -0.0080237588441772721 0 -0.087550001836216515 -0.0067054905327186198 0 -0.087091810175304304 -0.0080237588441772721 0 -0.087550001836216515 -0.0067054905327186198 0 -0.085904004965426162 -0.0070817043697546794 0 -0.087091810175304304 -0.0080237588441772721 0 -0.085904004965426162 -0.0070817043697546794 0 -0.085730962214265391 -0.0088698778940192458 0 -0.087360592901819592 -0.0097149223657375348 0 -0.087091810175304304 -0.0080237588441772721 0 -0.085730962214265391 -0.0088698778940192458 0 -0.087360592901819592 -0.0097149223657375348 0 -0.088993487927980119 -0.0077039429388137447 0 -0.087091810175304304 -0.0080237588441772721 0 -0.084841525894549671 -0.0060072658607827588 0 -0.088597255053126822 -0.0094137042251403943 0 -0.094839270637023729 -0.012897141270365677 0 -0.09492649915698699 -0.014124262553243994 0 -0.095439208629756966 -0.013602123494684953 0 -0.095269114796218704 -0.014897439132765634 0 -0.09492649915698699 -0.014124262553243994 0 -0.095439208629756966 -0.013602123494684953 0 -0.094839270637023729 -0.012897141270365677 0 -0.09492649915698699 -0.014124262553243994 0 -0.094141311943721995 -0.014048279759641574 0 -0.049176932333330668 -0.0073585833453887394 0 -0.062388100936743358 -0.0048885917109780467 0 -0.094686397146856519 -0.014548165021397769 0 -0.09492649915698699 -0.014124262553243994 0 -0.094141311943721995 -0.014048279759641574 0 -0.096089002451929084 -0.010557210769239418 0 -0.094939816857414414 -0.012869930329947632 0 -0.094824573528486167 -0.0098447282694292936 0 -0.094939816857414414 -0.012869930329947632 0 -0.093637731119778855 -0.010574281009777883 0 -0.094824573528486167 -0.0098447282694292936 0 -0.093637731119778855 -0.010574281009777883 0 -0.092313102184117507 -0.011465236667888375 0 -0.091611416244838317 -0.0092271766819605784 0 -0.093637731119778855 -0.010574281009777883 0 -0.093056977480407255 -0.013005855747805231 0 -0.092313102184117507 -0.011465236667888375 0 -0.093402582048421556 -0.015192948068906986 0 -0.094939816857414414 -0.012869930329947632 0 -0.093056977480407255 -0.013005855747805231 0 -0.094939816857414414 -0.012869930329947632 0 -0.093637731119778855 -0.010574281009777883 0 -0.093056977480407255 -0.013005855747805231 0 -0.093056977480407255 -0.013005855747805231 0 -0.091588312734389887 -0.012970572729103 0 -0.092313102184117507 -0.011465236667888375 0 -0.092283423255714064 -0.01451980007036959 0 -0.093056977480407255 -0.013005855747805231 0 -0.091588312734389887 -0.012970572729103 0 -0.091007831286250035 -0.011371293600137876 0 -0.092313102184117507 -0.011465236667888375 0 -0.091611416244838317 -0.0092271766819605784 0 -0.091007831286250035 -0.011371293600137876 0 -0.091588312734389887 -0.012970572729103 0 -0.092313102184117507 -0.011465236667888375 0 -0.091611416244838317 -0.0092271766819605784 0 -0.091978545048305868 -0.0071159287809516259 0 -0.093168003806245445 -0.0084569495821712089 0 -0.091611416244838317 -0.0092271766819605784 0 -0.091978545048305868 -0.0071159287809516259 0 -0.09016821039043714 -0.0064631180208441141 0 -0.091978545048305868 -0.0071159287809516259 0 -0.093168003806245445 -0.0084569495821712089 0 -0.093075938791306989 -0.0061169717126695958 0 -0.093168003806245445 -0.0084569495821712089 0 -0.094421174792568494 -0.0078379273385441074 0 -0.093075938791306989 -0.0061169717126695958 0 -0.093637731119778855 -0.010574281009777883 0 -0.091611416244838317 -0.0092271766819605784 0 -0.093168003806245445 -0.0084569495821712089 0 -0.093637731119778855 -0.010574281009777883 0 -0.093168003806245445 -0.0084569495821712089 0 -0.094824573528486167 -0.0098447282694292936 0 -0.093168003806245445 -0.0084569495821712089 0 -0.094824573528486167 -0.0098447282694292936 0 -0.094421174792568494 -0.0078379273385441074 0 -0.094824573528486167 -0.0098447282694292936 0 -0.094421174792568494 -0.0078379273385441074 0 -0.095650390954295159 -0.0087921506142107347 0 -0.094421174792568494 -0.0078379273385441074 0 -0.095620026726030885 -0.0072838105435827551 0 -0.094468035834731248 -0.0059838931178653769 0 -0.094421174792568494 -0.0078379273385441074 0 -0.095620026726030885 -0.0072838105435827551 0 -0.095650390954295159 -0.0087921506142107347 0 -0.095620026726030885 -0.0072838105435827551 0 -0.095650390954295159 -0.0087921506142107347 0 -0.097228907258393546 -0.0084259327461630312 0 -0.095620026726030885 -0.0072838105435827551 0 -0.096599321924338941 -0.0062137558130323746 0 -0.097228907258393546 -0.0084259327461630312 0 -0.096089002451929084 -0.010557210769239418 0 -0.095650390954295159 -0.0087921506142107347 0 -0.097228907258393546 -0.0084259327461630312 0 -0.096089002451929084 -0.010557210769239418 0 -0.094824573528486167 -0.0098447282694292936 0 -0.095650390954295159 -0.0087921506142107347 0 -0.084841525894549671 -0.0060072658607827588 0 -0.07411757706082038 -0.0020853895323728073 0 -0.070951154347311141 0.0062898794326511189 0 -0.070034544093560289 0.0039332523141329357 0 -0.082169605161957412 0.0032626615784307738 0 -0.075951138907197305 0.0017587305744457356 0 -0.082889813849298874 0.015101408078970383 0 -0.082022052900245834 0.016154854563824178 0 -0.081457785467790061 0.018398210188451301 0 -0.071751327532978901 0.0046277181320917076 0 -0.071323405198469331 0.0067980316882727205 0 -0.072210636726161473 0.0033994333873412731 0 -0.094933980314924379 -0.0033183032444472189 0 -0.095204782446303454 -0.0051705938073762182 0 -0.096599321924338941 -0.0062137558130323746 0 -0.082889813849298874 0.015101408078970383 0 -0.082022052900245834 0.016154854563824178 0 -0.082558229108028361 0.013731852629434851 0 -0.073528234058535258 0.0058430401831565211 0 -0.070951154347311141 0.0062898794326511189 0 -0.094933980314924379 -0.0033183032444472189 0 -0.094139469004051721 -0.003916102692702414 0 -0.092388237202097837 -0.0013441923016467611 0 -0.094139469004051721 -0.003916102692702414 0 -0.095204782446303454 -0.0051705938073762182 0 -0.094355492776554667 -0.0049765436117807371 0 -0.094933980314924379 -0.0033183032444472189 0 -0.094139469004051721 -0.003916102692702414 0 -0.095204782446303454 -0.0051705938073762182 0 -0.095444178269582292 -0.0061637327802572719 0 -0.095204782446303454 -0.0051705938073762182 0 -0.096599321924338941 -0.0062137558130323746 0 -0.073528234058535258 0.0058430401831565211 0 -0.075951138907197305 0.0017587305744457356 0 -0.095620026726030885 -0.0072838105435827551 0 -0.095444178269582292 -0.0061637327802572719 0 -0.096599321924338941 -0.0062137558130323746 0 -0.095620026726030885 -0.0072838105435827551 0 -0.095444178269582292 -0.0061637327802572719 0 -0.094468035834731248 -0.0059838931178653769 0 -0.095444178269582292 -0.0061637327802572719 0 -0.095204782446303454 -0.0051705938073762182 0 -0.094468035834731248 -0.0059838931178653769 0 -0.095204782446303454 -0.0051705938073762182 0 -0.094468035834731248 -0.0059838931178653769 0 -0.094355492776554667 -0.0049765436117807371 0 -0.094468035834731248 -0.0059838931178653769 0 -0.093722730488369016 -0.0048856755344177634 0 -0.094355492776554667 -0.0049765436117807371 0 -0.094468035834731248 -0.0059838931178653769 0 -0.093722730488369016 -0.0048856755344177634 0 -0.093075938791306989 -0.0061169717126695958 0 -0.094421174792568494 -0.0078379273385441074 0 -0.094468035834731248 -0.0059838931178653769 0 -0.093075938791306989 -0.0061169717126695958 0 -0.092735586693121791 -0.0032581505614286536 0 -0.091244660298848368 -0.0029877978822324177 0 -0.094139469004051721 -0.003916102692702414 0 -0.088514623587029884 -0.0018740514395782803 0 -0.092388237202097837 -0.0013441923016467611 0 -0.094139469004051721 -0.003916102692702414 0 -0.093722730488369016 -0.0048856755344177634 0 -0.092939133285575515 -0.0042367729101735778 0 -0.094139469004051721 -0.003916102692702414 0 -0.093722730488369016 -0.0048856755344177634 0 -0.094355492776554667 -0.0049765436117807371 0 -0.093722730488369016 -0.0048856755344177634 0 -0.092939133285575515 -0.0042367729101735778 0 -0.093075938791306989 -0.0061169717126695958 0 -0.092939133285575515 -0.0042367729101735778 0 -0.093075938791306989 -0.0061169717126695958 0 -0.091789436446673242 -0.005483072728739595 0 -0.091978545048305868 -0.0071159287809516259 0 -0.091789436446673242 -0.005483072728739595 0 -0.09016821039043714 -0.0064631180208441141 0 -0.091978545048305868 -0.0071159287809516259 0 -0.093075938791306989 -0.0061169717126695958 0 -0.091789436446673242 -0.005483072728739595 0 -0.092939133285575515 -0.0042367729101735778 0 -0.091789436446673242 -0.005483072728739595 0 -0.090825985227546827 -0.0035759997953969118 0 -0.091244660298848368 -0.0029877978822324177 0 -0.089360011406077342 -0.0026124441284697667 0 -0.088514623587029884 -0.0018740514395782803 0 -0.088142303145185341 -0.0002832831571905285 0 -0.087904487337719009 -0.00092175784620491695 0 -0.088142303145185341 -0.0002832831571905285 0 -0.087931396114105026 0.0003216112215124255 0 -0.087904487337719009 -0.00092175784620491695 0 -0.088142303145185341 -0.0002832831571905285 0 -0.087931396114105026 0.0003216112215124255 0 -0.088236523791640417 0.0011040735759626156 0 -0.087931396114105026 0.0003216112215124255 0 -0.088236523791640417 0.0011040735759626156 0 -0.087908475923782731 0.0015196490539007004 0 -0.088142303145185341 -0.0002832831571905285 0 -0.088236523791640417 0.0011040735759626156 0 -0.089633656038941426 0.00019053850884873569 0 -0.088236523791640417 0.0011040735759626156 0 -0.088843641250231059 0.0021358883286994074 0 -0.087723176593118499 0.0026580819494915627 0 -0.088236523791640417 0.0011040735759626156 0 -0.089633656038941426 0.00019053850884873569 0 -0.088843641250231059 0.0021358883286994074 0 -0.088514623587029884 -0.0018740514395782803 0 -0.088142303145185341 -0.0002832831571905285 0 -0.089633656038941426 0.00019053850884873569 0 -0.088514623587029884 -0.0018740514395782803 0 -0.092388237202097837 -0.0013441923016467611 0 -0.089633656038941426 0.00019053850884873569 0 -0.092388237202097837 -0.0013441923016467611 0 -0.090975397184391057 0.00029084540604946388 0 -0.091902198320817974 0.001134154557631782 0 -0.092388237202097837 -0.0013441923016467611 0 -0.090975397184391057 0.00029084540604946388 0 -0.089633656038941426 0.00019053850884873569 0 -0.089633656038941426 0.00019053850884873569 0 -0.090298229790097287 0.00092609270277317147 0 -0.088843641250231059 0.0021358883286994074 0 -0.084794184207160631 0.003815077249693692 0 -0.085536009815672928 0.003596470399876631 0 -0.088843641250231059 0.0021358883286994074 0 -0.091902198320817974 0.001134154557631782 0 -0.087250950101392513 0.0041919659443133998 0 -0.090975397184391057 0.00029084540604946388 0 -0.089633656038941426 0.00019053850884873569 0 -0.090298229790097287 0.00092609270277317147 0 -0.090298229790097287 0.00092609270277317147 0 -0.088843641250231059 0.0021358883286994074 0 -0.091902198320817974 0.001134154557631782 0 -0.090975397184391057 0.00029084540604946388 0 -0.090298229790097287 0.00092609270277317147 0 -0.091902198320817974 0.001134154557631782 0 -0.083147873598875918 0.012459408137025585 0 -0.082642181018858368 0.010166422805580142 0 -0.08416262017778528 0.006596791769002984 0 -0.084839597851802492 0.011240507002905438 0 -0.083191810739222452 0.011442170455116264 0 -0.08416262017778528 0.006596791769002984 0 -0.070314590439297137 0.005609620903383304 0 -0.072152471721527653 0.0057900246072635081 0 -0.082082721377930531 0.0090284210971380841 0 -0.082642181018858368 0.010166422805580142 0 -0.08416262017778528 0.006596791769002984 0 -0.081596491706705285 0.010866310300419292 0 -0.080594916629072463 0.01191478834359385 0 -0.080517872636524893 0.0098125457188109159 0 -0.082082721377930531 0.0090284210971380841 0 -0.081596491706705285 0.010866310300419292 0 -0.080517872636524893 0.0098125457188109159 0 -0.082082721377930531 0.0090284210971380841 0 -0.082642181018858368 0.010166422805580142 0 -0.081596491706705285 0.010866310300419292 0 -0.082642181018858368 0.010166422805580142 0 -0.081596491706705285 0.010866310300419292 0 -0.082077188884350935 0.011491587110615742 0 -0.081596491706705285 0.010866310300419292 0 -0.082077188884350935 0.011491587110615742 0 -0.080594916629072463 0.01191478834359385 0 -0.083147873598875918 0.012459408137025585 0 -0.082077188884350935 0.011491587110615742 0 -0.080594916629072463 0.01191478834359385 0 -0.083147873598875918 0.012459408137025585 0 -0.082642181018858368 0.010166422805580142 0 -0.082077188884350935 0.011491587110615742 0 -0.070314590439297137 0.005609620903383304 0 -0.070951154347311141 0.0062898794326511189 0 -0.082889813849298874 0.015101408078970383 0 -0.084839597851802492 0.011240507002905438 0 -0.082558229108028361 0.013731852629434851 0 -0.056289972083883977 0.005343422373737701 0 -0.056418404266133558 0.0047637062720280211 0 -0.05715100015235821 0.004866013605134451 0 -0.094933980314924379 -0.0033183032444472189 0 -0.092388237202097837 -0.0013441923016467611 0 -0.091902198320817974 0.001134154557631782 0 -0.082169605161957412 0.0032626615784307738 0 -0.084794184207160631 0.003815077249693692 0 -0.084839597851802492 0.011240507002905438 0 -0.083191810739222452 0.011442170455116264 0 -0.082558229108028361 0.013731852629434851 0 -0.086927050914523657 -0.0049640767032287291 0 -0.088727480352715604 -0.0053223364435887434 0 -0.088017726290592541 -0.0024046506895725201 0 -0.086927050914523657 -0.0049640767032287291 0 -0.088017726290592541 -0.0024046506895725201 0 -0.086311931177018617 -0.002897827538472971 0 -0.086927050914523657 -0.0049640767032287291 0 -0.086311931177018617 -0.002897827538472971 0 -0.085520962683835675 -0.0052214611464939734 0 -0.085904004965426162 -0.0070817043697546794 0 -0.086927050914523657 -0.0049640767032287291 0 -0.085520962683835675 -0.0052214611464939734 0 -0.087550001836216515 -0.0067054905327186198 0 -0.085904004965426162 -0.0070817043697546794 0 -0.086927050914523657 -0.0049640767032287291 0 -0.087550001836216515 -0.0067054905327186198 0 -0.086927050914523657 -0.0049640767032287291 0 -0.088727480352715604 -0.0053223364435887434 0 -0.088993487927980119 -0.0077039429388137447 0 -0.087550001836216515 -0.0067054905327186198 0 -0.088727480352715604 -0.0053223364435887434 0 -0.088993487927980119 -0.0077039429388137447 0 -0.088727480352715604 -0.0053223364435887434 0 -0.09016821039043714 -0.0064631180208441141 0 -0.088727480352715604 -0.0053223364435887434 0 -0.09016821039043714 -0.0064631180208441141 0 -0.090825985227546827 -0.0035759997953969118 0 -0.091789436446673242 -0.005483072728739595 0 -0.09016821039043714 -0.0064631180208441141 0 -0.090825985227546827 -0.0035759997953969118 0 -0.088727480352715604 -0.0053223364435887434 0 -0.090825985227546827 -0.0035759997953969118 0 -0.088017726290592541 -0.0024046506895725201 0 -0.089360011406077342 -0.0026124441284697667 0 -0.088396494629542188 -0.0024707007907955963 0 -0.087904487337719009 -0.00092175784620491695 0 -0.088258114552052597 -1.9032014221749483e-05 0 -0.088017726290592541 -0.0024046506895725201 0 -0.087931396114105026 0.0003216112215124255 0 -0.087904487337719009 -0.00092175784620491695 0 -0.088258114552052597 -1.9032014221749483e-05 0 -0.087931396114105026 0.0003216112215124255 0 -0.088258114552052597 -1.9032014221749483e-05 0 -0.087998604073532757 0.0012935074645046491 0 -0.088258114552052597 -1.9032014221749483e-05 0 -0.087390242055992023 -0.00062249068813161458 0 -0.088017726290592541 -0.0024046506895725201 0 -0.087390242055992023 -0.00062249068813161458 0 -0.088017726290592541 -0.0024046506895725201 0 -0.086311931177018617 -0.002897827538472971 0 -0.087390242055992023 -0.00062249068813161458 0 -0.086311931177018617 -0.002897827538472971 0 -0.085437770246264769 -0.0012403160898766679 0 -0.085437770246264769 -0.0012403160898766679 0 -0.083343634155684951 -0.0017366730867457122 0 -0.084479610692374529 -0.0033601495212578591 0 -0.085437770246264769 -0.0012403160898766679 0 -0.083343634155684951 -0.0017366730867457122 0 -0.084275405829635192 0.00022391379703777788 0 -0.083343634155684951 -0.0017366730867457122 0 -0.084479610692374529 -0.0033601495212578591 0 -0.082929756678944533 -0.0039949048698795231 0 -0.086311931177018617 -0.002897827538472971 0 -0.085437770246264769 -0.0012403160898766679 0 -0.084479610692374529 -0.0033601495212578591 0 -0.084479610692374529 -0.0033601495212578591 0 -0.084063516560546836 -0.0056374327506095228 0 -0.085520962683835675 -0.0052214611464939734 0 -0.086311931177018617 -0.002897827538472971 0 -0.084479610692374529 -0.0033601495212578591 0 -0.085520962683835675 -0.0052214611464939734 0 -0.084479610692374529 -0.0033601495212578591 0 -0.084063516560546836 -0.0056374327506095228 0 -0.082929756678944533 -0.0039949048698795231 0 -0.084063516560546836 -0.0056374327506095228 0 -0.084607180820974279 -0.0072205265950246031 0 -0.083472019677653997 -0.0074338901548620774 0 -0.084063516560546836 -0.0056374327506095228 0 -0.085520962683835675 -0.0052214611464939734 0 -0.084607180820974279 -0.0072205265950246031 0 -0.085904004965426162 -0.0070817043697546794 0 -0.085520962683835675 -0.0052214611464939734 0 -0.084607180820974279 -0.0072205265950246031 0 -0.081718198794488633 -0.0066153425198368001 0 -0.081285872700714204 -0.0050302108683250267 0 -0.080605191396189019 -0.0072606224430040141 0 -0.081718198794488633 -0.0066153425198368001 0 -0.082614212164090872 -0.0059557570026860362 0 -0.082352746141062805 -0.007742991556385706 0 -0.081718198794488633 -0.0066153425198368001 0 -0.080605191396189019 -0.0072606224430040141 0 -0.081266494308928225 -0.0092186410931855839 0 -0.082614212164090872 -0.0059557570026860362 0 -0.083472019677653997 -0.0074338901548620774 0 -0.082352746141062805 -0.007742991556385706 0 -0.084063516560546836 -0.0056374327506095228 0 -0.082614212164090872 -0.0059557570026860362 0 -0.083472019677653997 -0.0074338901548620774 0 -0.084063516560546836 -0.0056374327506095228 0 -0.082614212164090872 -0.0059557570026860362 0 -0.082929756678944533 -0.0039949048698795231 0 -0.082614212164090872 -0.0059557570026860362 0 -0.081285872700714204 -0.0050302108683250267 0 -0.082929756678944533 -0.0039949048698795231 0 -0.081718198794488633 -0.0066153425198368001 0 -0.082614212164090872 -0.0059557570026860362 0 -0.081285872700714204 -0.0050302108683250267 0 -0.081285872700714204 -0.0050302108683250267 0 -0.081805553789718419 -0.0028469627454057751 0 -0.080705440525816505 -0.0035799572063182996 0 -0.081285872700714204 -0.0050302108683250267 0 -0.081805553789718419 -0.0028469627454057751 0 -0.082929756678944533 -0.0039949048698795231 0 -0.083343634155684951 -0.0017366730867457122 0 -0.081805553789718419 -0.0028469627454057751 0 -0.082929756678944533 -0.0039949048698795231 0 -0.083343634155684951 -0.0017366730867457122 0 -0.081805553789718419 -0.0028469627454057751 0 -0.082175675053922495 -0.00011936565465230423 0 -0.081805553789718419 -0.0028469627454057751 0 -0.0801636263618246 -0.0021332346992051351 0 -0.082175675053922495 -0.00011936565465230423 0 -0.0801636263618246 -0.0021332346992051351 0 -0.078307818865679155 -0.0015259826146101225 0 -0.078670364895624345 -0.0030662468158192272 0 -0.078307818865679155 -0.0015259826146101225 0 -0.078670364895624345 -0.0030662468158192272 0 -0.077295651602745208 -0.0027529998917540984 0 -0.0801636263618246 -0.0021332346992051351 0 -0.078670364895624345 -0.0030662468158192272 0 -0.079588573174358565 -0.0043933481536414234 0 -0.078670364895624345 -0.0030662468158192272 0 -0.078536378383729219 -0.0047071029932881795 0 -0.07745397364419053 -0.0041945834212305374 0 -0.078670364895624345 -0.0030662468158192272 0 -0.078536378383729219 -0.0047071029932881795 0 -0.079588573174358565 -0.0043933481536414234 0 -0.081285872700714204 -0.0050302108683250267 0 -0.079588573174358565 -0.0043933481536414234 0 -0.080705440525816505 -0.0035799572063182996 0 -0.081805553789718419 -0.0028469627454057751 0 -0.0801636263618246 -0.0021332346992051351 0 -0.080705440525816505 -0.0035799572063182996 0 -0.0801636263618246 -0.0021332346992051351 0 -0.079588573174358565 -0.0043933481536414234 0 -0.080705440525816505 -0.0035799572063182996 0 -0.074999979918157419 -0.0017235947800690581 0 -0.076581738211536438 -0.0015215197821904019 0 -0.077230812153536679 0.0019108780754383175 0 -0.075787651425341565 -0.0024724482802602563 0 -0.076890362299483539 -0.0013149707748204493 0 -0.077295651602745208 -0.0027529998917540984 0 -0.075787651425341565 -0.0024724482802602563 0 -0.077295651602745208 -0.0027529998917540984 0 -0.076570973794210684 -0.0038666885637938641 0 -0.078307818865679155 -0.0015259826146101225 0 -0.076890362299483539 -0.0013149707748204493 0 -0.077295651602745208 -0.0027529998917540984 0 -0.078670364895624345 -0.0030662468158192272 0 -0.077295651602745208 -0.0027529998917540984 0 -0.07745397364419053 -0.0041945834212305374 0 -0.07745397364419053 -0.0041945834212305374 0 -0.076570973794210684 -0.0038666885637938641 0 -0.076706196155453946 -0.0050140314162677359 0 -0.077295651602745208 -0.0027529998917540984 0 -0.07745397364419053 -0.0041945834212305374 0 -0.076570973794210684 -0.0038666885637938641 0 -0.074999979918157419 -0.0017235947800690581 0 -0.076581738211536438 -0.0015215197821904019 0 -0.075769534238117858 -0.0050085687698650082 0 -0.075787651425341565 -0.0024724482802602563 0 -0.076570973794210684 -0.0038666885637938641 0 -0.075769534238117858 -0.0050085687698650082 0 -0.074999979918157419 -0.0017235947800690581 0 -0.074999508130332085 -0.0061504109474994949 0 -0.075769534238117858 -0.0050085687698650082 0 -0.076220629647705901 -0.0013168930914824932 0 -0.075997115762385908 -0.0026939201924045305 0 -0.076570973794210684 -0.0038666885637938641 0 -0.075769534238117858 -0.0050085687698650082 0 -0.076706196155453946 -0.0050140314162677359 0 -0.074999508130332085 -0.0061504109474994949 0 -0.076277462399685164 -0.0060297565418224643 0 -0.076286399522461232 -0.0081247563469271054 0 -0.074999508130332085 -0.0061504109474994949 0 -0.075769534238117858 -0.0050085687698650082 0 -0.076277462399685164 -0.0060297565418224643 0 -0.075769534238117858 -0.0050085687698650082 0 -0.076277462399685164 -0.0060297565418224643 0 -0.076706196155453946 -0.0050140314162677359 0 -0.076277462399685164 -0.0060297565418224643 0 -0.077516472330871777 -0.0059525438713917906 0 -0.076286399522461232 -0.0081247563469271054 0 -0.076277462399685164 -0.0060297565418224643 0 -0.077516472330871777 -0.0059525438713917906 0 -0.076706196155453946 -0.0050140314162677359 0 -0.07745397364419053 -0.0041945834212305374 0 -0.077516472330871777 -0.0059525438713917906 0 -0.076706196155453946 -0.0050140314162677359 0 -0.078536378383729219 -0.0047071029932881795 0 -0.07745397364419053 -0.0041945834212305374 0 -0.077516472330871777 -0.0059525438713917906 0 -0.077516472330871777 -0.0059525438713917906 0 -0.078251915975551492 -0.0078258510655945385 0 -0.078937587516973495 -0.0059930796519170274 0 -0.077516472330871777 -0.0059525438713917906 0 -0.078251915975551492 -0.0078258510655945385 0 -0.076286399522461232 -0.0081247563469271054 0 -0.078251915975551492 -0.0078258510655945385 0 -0.076286399522461232 -0.0081247563469271054 0 -0.077649002716510665 -0.0095689221459417835 0 -0.074999508130332085 -0.0061504109474994949 0 -0.076286399522461232 -0.0081247563469271054 0 -0.074999786541911653 -0.010575900038294738 0 -0.081285872700714204 -0.0050302108683250267 0 -0.079588573174358565 -0.0043933481536414234 0 -0.080046622466047851 -0.0058814979369673512 0 -0.081285872700714204 -0.0050302108683250267 0 -0.080046622466047851 -0.0058814979369673512 0 -0.080605191396189019 -0.0072606224430040141 0 -0.079588573174358565 -0.0043933481536414234 0 -0.080046622466047851 -0.0058814979369673512 0 -0.078937587516973495 -0.0059930796519170274 0 -0.078536378383729219 -0.0047071029932881795 0 -0.079588573174358565 -0.0043933481536414234 0 -0.078937587516973495 -0.0059930796519170274 0 -0.078536378383729219 -0.0047071029932881795 0 -0.077516472330871777 -0.0059525438713917906 0 -0.078937587516973495 -0.0059930796519170274 0 -0.080046622466047851 -0.0058814979369673512 0 -0.078937587516973495 -0.0059930796519170274 0 -0.079484072691620888 -0.0073795211486431473 0 -0.078251915975551492 -0.0078258510655945385 0 -0.079484072691620888 -0.0073795211486431473 0 -0.079664386804432566 -0.0093597583383524443 0 -0.078251915975551492 -0.0078258510655945385 0 -0.078937587516973495 -0.0059930796519170274 0 -0.079484072691620888 -0.0073795211486431473 0 -0.079484072691620888 -0.0073795211486431473 0 -0.080605191396189019 -0.0072606224430040141 0 -0.079664386804432566 -0.0093597583383524443 0 -0.080046622466047851 -0.0058814979369673512 0 -0.079484072691620888 -0.0073795211486431473 0 -0.080605191396189019 -0.0072606224430040141 0 -0.080605191396189019 -0.0072606224430040141 0 -0.079664386804432566 -0.0093597583383524443 0 -0.081266494308928225 -0.0092186410931855839 0 -0.079664386804432566 -0.0093597583383524443 0 -0.07843019378551723 -0.012009843940743125 0 -0.080079030659048908 -0.010991947759144334 0 -0.080062923362152927 -0.012039580150609823 0 -0.081305329923968286 -0.012345311909855055 0 -0.079664386804432566 -0.0093597583383524443 0 -0.080079030659048908 -0.010991947759144334 0 -0.081266494308928225 -0.0092186410931855839 0 -0.080079030659048908 -0.010991947759144334 0 -0.081662987990215208 -0.010795030362700089 0 -0.081266494308928225 -0.0092186410931855839 0 -0.076286399522461232 -0.0081247563469271054 0 -0.074999786541911653 -0.010575900038294738 0 -0.077649002716510665 -0.0095689221459417835 0 -0.078251915975551492 -0.0078258510655945385 0 -0.079664386804432566 -0.0093597583383524443 0 -0.077649002716510665 -0.0095689221459417835 0 -0.079664386804432566 -0.0093597583383524443 0 -0.077649002716510665 -0.0095689221459417835 0 -0.07843019378551723 -0.012009843940743125 0 -0.074999786541911653 -0.010575900038294738 0 -0.077649002716510665 -0.0095689221459417835 0 -0.07843019378551723 -0.012009843940743125 0 -0.074999786541911653 -0.010575900038294738 0 -0.07843019378551723 -0.012009843940743125 0 -0.074999514502065392 -0.015003122138140776 0 -0.07843019378551723 -0.012009843940743125 0 -0.074999514502065392 -0.015003122138140776 0 -0.078181075004278941 -0.015869339875093067 0 -0.07843019378551723 -0.012009843940743125 0 -0.078181075004278941 -0.015869339875093067 0 -0.080499954163270368 -0.0149527404955982 0 -0.076846682713445136 -0.018848371022104453 0 -0.078181075004278941 -0.015869339875093067 0 -0.080893411061132278 -0.01786522722225057 0 -0.079052448183176124 -0.017677352212787302 0 -0.080919100910666647 -0.017046048403644241 0 -0.076846682713445136 -0.018848371022104453 0 -0.074999514502065392 -0.015003122138140776 0 -0.078181075004278941 -0.015869339875093067 0 -0.07499999664223872 -0.019430976948495552 0 -0.076846682713445136 -0.018848371022104453 0 -0.074999514502065392 -0.015003122138140776 0 -0.081305329923968286 -0.012345311909855055 0 -0.083358533782581859 -0.012939904215174162 0 -0.083139968666672268 -0.015488389906750921 0 -0.085313386774999694 -0.016824269484875785 0 -0.086310479234163365 -0.014483723256470283 0 -0.083139968666672268 -0.015488389906750921 0 -0.082584111325330084 -0.013337721648743845 0 -0.086310479234163365 -0.014483723256470283 0 -0.07843019378551723 -0.012009843940743125 0 -0.082584111325330084 -0.013337721648743845 0 -0.080499954163270368 -0.0149527404955982 0 -0.083139968666672268 -0.015488389906750921 0 -0.082584111325330084 -0.013337721648743845 0 -0.080499954163270368 -0.0149527404955982 0 -0.078181075004278941 -0.015869339875093067 0 -0.080499954163270368 -0.0149527404955982 0 -0.080893411061132278 -0.01786522722225057 0 -0.083139968666672268 -0.015488389906750921 0 -0.080499954163270368 -0.0149527404955982 0 -0.080893411061132278 -0.01786522722225057 0 -0.082226129379773139 -0.020429414591991522 0 -0.080669395411590225 -0.018050527479279245 0 -0.084334417210614757 -0.017229169429119468 0 -0.083139968666672268 -0.015488389906750921 0 -0.080893411061132278 -0.01786522722225057 0 -0.085313386774999694 -0.016824269484875785 0 -0.082226129379773139 -0.020429414591991522 0 -0.085091128120355408 -0.018389551582080704 0 -0.084334417210614757 -0.017229169429119468 0 -0.080919100910666647 -0.017046048403644241 0 -0.083847872842775395 -0.015631211064820363 0 -0.085091128120355408 -0.018389551582080704 0 -0.084334417210614757 -0.017229169429119468 0 -0.0879114819548419 -0.016403246700748515 0 -0.083847872842775395 -0.015631211064820363 0 -0.084424642295164401 -0.013752871486679898 0 -0.080801002099909383 -0.014585180630133652 0 -0.079614790022391052 -0.013552581616187517 0 -0.081583381119118767 -0.013774122287225105 0 -0.085313386774999694 -0.016824269484875785 0 -0.086310479234163365 -0.014483723256470283 0 -0.089561761925302769 -0.015824237897255917 0 -0.081662987990215208 -0.010795030362700089 0 -0.082686864971359145 -0.010137292586886592 0 -0.083331869536432693 -0.011036535655281687 0 -0.086310479234163365 -0.014483723256470283 0 -0.089976769623840422 -0.015536000521016842 0 -0.089561761925302769 -0.015824237897255917 0 -0.083358533782581859 -0.012939904215174162 0 -0.084411349950866271 -0.013458673088906177 0 -0.082686864971359145 -0.010137292586886592 0 -0.083331869536432693 -0.011036535655281687 0 -0.083515898240319339 -0.0099586041785261689 0 -0.082817559770753807 -0.011799093880219522 0 -0.083229720795778339 -0.012124241261574282 0 -0.083528259072603264 -0.011677645451949733 0 -0.084424642295164401 -0.013752871486679898 0 -0.084395178451688604 -0.013437384003159048 0 -0.084520799111854311 -0.01378844805202528 0 -0.084659785349189762 -0.013692421180598454 0 -0.084394634688941386 -0.013752205456988463 0 -0.084411349950866271 -0.013458673088906177 0 -0.084424642295164401 -0.013752871486679898 0 -0.079614790022391052 -0.013552581616187517 0 -0.082204003149322885 -0.012856811948992776 0 -0.081583381119118767 -0.013774122287225105 0 -0.082817559770753807 -0.011799093880219522 0 -0.082903779166569477 -0.012375664908467801 0 -0.082204003149322885 -0.012856811948992776 0 -0.082903779166569477 -0.012375664908467801 0 -0.083229720795778339 -0.012124241261574282 0 -0.083362737775837428 -0.012727490176854388 0 -0.079614790022391052 -0.013552581616187517 0 -0.082817559770753807 -0.011799093880219522 0 -0.082204003149322885 -0.012856811948992776 0 -0.082817559770753807 -0.011799093880219522 0 -0.082903779166569477 -0.012375664908467801 0 -0.083229720795778339 -0.012124241261574282 0 -0.082081188817420075 -0.016052478409227633 0 -0.084424642295164401 -0.013752871486679898 0 -0.082903779166569477 -0.012375664908467801 0 -0.082204003149322885 -0.012856811948992776 0 -0.083362737775837428 -0.012727490176854388 0 -0.082740274595336463 -0.013760084754847317 0 -0.083612258627323868 -0.01373406164314122 0 -0.083362737775837428 -0.012727490176854388 0 -0.082204003149322885 -0.012856811948992776 0 -0.082740274595336463 -0.013760084754847317 0 -0.083362737775837428 -0.012727490176854388 0 -0.082204003149322885 -0.012856811948992776 0 -0.081583381119118767 -0.013774122287225105 0 -0.082740274595336463 -0.013760084754847317 0 -0.084782796211854999 -0.014522134504164091 0 -0.083612258627323868 -0.01373406164314122 0 -0.084264244440970762 -0.013402426150406885 0 -0.084323227002264758 -0.012586675690621692 0 -0.086534575249769305 -0.013056770817450507 0 -0.083528259072603264 -0.011677645451949733 0 -0.083547157059346247 -0.014759552435204579 0 -0.082740274595336463 -0.013760084754847317 0 -0.083612258627323868 -0.01373406164314122 0 -0.085212166508922993 -0.013406013856809758 0 -0.084323227002264758 -0.012586675690621692 0 -0.086534575249769305 -0.013056770817450507 0 -0.085367472898875738 -0.013467752246073543 0 -0.084395178451688604 -0.013437384003159048 0 -0.083612258627323868 -0.01373406164314122 0 -0.084264244440970762 -0.013402426150406885 0 -0.083362737775837428 -0.012727490176854388 0 -0.084782796211854999 -0.014522134504164091 0 -0.084264244440970762 -0.013402426150406885 0 -0.085212166508922993 -0.013406013856809758 0 -0.084264244440970762 -0.013402426150406885 0 -0.085212166508922993 -0.013406013856809758 0 -0.084323227002264758 -0.012586675690621692 0 -0.083229720795778339 -0.012124241261574282 0 -0.083611678595590919 -0.012281819211209051 0 -0.083528259072603264 -0.011677645451949733 0 -0.083229720795778339 -0.012124241261574282 0 -0.083611678595590919 -0.012281819211209051 0 -0.083362737775837428 -0.012727490176854388 0 -0.084323227002264758 -0.012586675690621692 0 -0.083611678595590919 -0.012281819211209051 0 -0.083362737775837428 -0.012727490176854388 0 -0.084323227002264758 -0.012586675690621692 0 -0.083611678595590919 -0.012281819211209051 0 -0.083528259072603264 -0.011677645451949733 0 -0.084264244440970762 -0.013402426150406885 0 -0.084323227002264758 -0.012586675690621692 0 -0.083362737775837428 -0.012727490176854388 0 -0.086579101998026153 -0.014527456939706258 0 -0.085212166508922993 -0.013406013856809758 0 -0.086534575249769305 -0.013056770817450507 0 -0.086579101998026153 -0.014527456939706258 0 -0.084782796211854999 -0.014522134504164091 0 -0.085212166508922993 -0.013406013856809758 0 -0.084168652810363676 -0.013003331088441665 0 -0.084386518218555404 -0.011706222266037347 0 -0.08177022976750993 -0.012315639794113858 0 -0.085419526304824897 -0.010170900401684045 0 -0.084515950068266718 -0.0097221572411276443 0 -0.085730962214265391 -0.0088698778940192458 0 -0.086096828001348144 -0.0124295207788509 0 -0.084168652810363676 -0.013003331088441665 0 -0.084386518218555404 -0.011706222266037347 0 -0.085419526304824897 -0.010170900401684045 0 -0.083482962337445843 -0.010625116632850816 0 -0.084515950068266718 -0.0097221572411276443 0 -0.085414245446619547 -0.011970003239196446 0 -0.084395178451688604 -0.013437384003159048 0 -0.083302530341931635 -0.010574562192960581 0 -0.083482962337445843 -0.010625116632850816 0 -0.084515950068266718 -0.0097221572411276443 0 -0.084411349950866271 -0.013458673088906177 0 -0.084395178451688604 -0.013437384003159048 0 -0.084411349950866271 -0.013458673088906177 0 -0.085137035952465551 -0.011896670030311278 0 -0.083331869536432693 -0.011036535655281687 0 -0.084556643465761222 -0.010041675476500573 0 -0.083515898240319339 -0.0099586041785261689 0 -0.083515898240319339 -0.0099586041785261689 0 -0.084209297196491992 -0.0087925903674763925 0 -0.082995439303114552 -0.0091002405634712288 0 -0.084556643465761222 -0.010041675476500573 0 -0.083515898240319339 -0.0099586041785261689 0 -0.084209297196491992 -0.0087925903674763925 0 -0.084556643465761222 -0.010041675476500573 0 -0.084209297196491992 -0.0087925903674763925 0 -0.085730962214265391 -0.0088698778940192458 0 -0.084209297196491992 -0.0087925903674763925 0 -0.085730962214265391 -0.0088698778940192458 0 -0.085116717241301876 -0.0079896396867494765 0 -0.085137035952465551 -0.011896670030311278 0 -0.085522528710207227 -0.011298880045383335 0 -0.084209297196491992 -0.0087925903674763925 0 -0.084607180820974279 -0.0072205265950246031 0 -0.085116717241301876 -0.0079896396867494765 0 -0.085904004965426162 -0.0070817043697546794 0 -0.085730962214265391 -0.0088698778940192458 0 -0.085116717241301876 -0.0079896396867494765 0 -0.085904004965426162 -0.0070817043697546794 0 -0.084607180820974279 -0.0072205265950246031 0 -0.085116717241301876 -0.0079896396867494765 0 -0.084209297196491992 -0.0087925903674763925 0 -0.083472019677653997 -0.0074338901548620774 0 -0.082995439303114552 -0.0091002405634712288 0 -0.084209297196491992 -0.0087925903674763925 0 -0.084607180820974279 -0.0072205265950246031 0 -0.083472019677653997 -0.0074338901548620774 0 -0.082352746141062805 -0.007742991556385706 0 -0.082117178375766528 -0.0095386120224555775 0 -0.082995439303114552 -0.0091002405634712288 0 -0.083472019677653997 -0.0074338901548620774 0 -0.082352746141062805 -0.007742991556385706 0 -0.082995439303114552 -0.0091002405634712288 0 -0.082352746141062805 -0.007742991556385706 0 -0.081266494308928225 -0.0092186410931855839 0 -0.082117178375766528 -0.0095386120224555775 0 -0.081718198794488633 -0.0066153425198368001 0 -0.082352746141062805 -0.007742991556385706 0 -0.081266494308928225 -0.0092186410931855839 0 -0.081662987990215208 -0.010795030362700089 0 -0.081266494308928225 -0.0092186410931855839 0 -0.082117178375766528 -0.0095386120224555775 0 -0.081662987990215208 -0.010795030362700089 0 -0.082686864971359145 -0.010137292586886592 0 -0.082117178375766528 -0.0095386120224555775 0 -0.082686864971359145 -0.010137292586886592 0 -0.082117178375766528 -0.0095386120224555775 0 -0.082995439303114552 -0.0091002405634712288 0 -0.082686864971359145 -0.010137292586886592 0 -0.083515898240319339 -0.0099586041785261689 0 -0.082995439303114552 -0.0091002405634712288 0 -0.0097219936363723055 0.016779661635658468 0 -0.0090679732140588037 0.014899039124406427 0 -0.011517947186940396 0.014351643697617747 0 -0.0097219936363723055 0.016779661635658468 0 -0.0071505106828127505 0.0154426755635792 0 -0.0090679732140588037 0.014899039124406427 0 -0.013419982652114831 0.012337282812013623 0 -0.016072382022040237 0.014342565630360538 0 -0.0097219936363723055 0.016779661635658468 0 -0.01278921587073842 0.016923926495680738 0 -0.011517947186940396 0.014351643697617747 0 -0.01278921587073842 0.016923926495680738 0 -0.011517947186940396 0.014351643697617747 0 -0.015033583543919805 0.016235075480867563 0 -0.0097219936363723055 0.016779661635658468 0 -0.011406440456691903 0.018113291778530081 0 -0.01278921587073842 0.016923926495680738 0 -0.011406440456691903 0.018113291778530081 0 -0.01278921587073842 0.016923926495680738 0 -0.012689254694127005 0.019146429395870249 0 -0.01278921587073842 0.016923926495680738 0 -0.012689254694127005 0.019146429395870249 0 -0.0151421316017033 0.018114038983131672 0 -0.01278921587073842 0.016923926495680738 0 -0.015033583543919805 0.016235075480867563 0 -0.0151421316017033 0.018114038983131672 0 -0.012689254694127005 0.019146429395870249 0 -0.0151421316017033 0.018114038983131672 0 -0.014263095598310476 0.020561286419326773 0 -0.011406440456691903 0.018113291778530081 0 -0.012689254694127005 0.019146429395870249 0 -0.010519510612266509 0.020006509673358801 0 -0.012689254694127005 0.019146429395870249 0 -0.010519510612266509 0.020006509673358801 0 -0.012215463489628191 0.02132126658867636 0 -0.0097219936363723055 0.016779661635658468 0 -0.010519510612266509 0.020006509673358801 0 -0.0068229108924673454 0.019417055211149732 0 -0.0097219936363723055 0.016779661635658468 0 -0.011406440456691903 0.018113291778530081 0 -0.010519510612266509 0.020006509673358801 0 -0.0084301675387678937 0.02061749303518846 0 -0.0059126424595551032 0.020002738901721179 0 -0.0071505106828127505 0.0154426755635792 0 -0.0084301675387678937 0.02061749303518846 0 -0.0059126424595551032 0.020002738901721179 0 -0.0060670099057013619 0.023029687055668019 0 -0.0044617494930088604 0.018620247564095617 0 -0.0059126424595551032 0.020002738901721179 0 -0.0036373419287318216 0.021530696469299702 0 -0.0044617494930088604 0.018620247564095617 0 -0.0047257241556034855 0.016101596121081065 0 -0.0071505106828127505 0.0154426755635792 0 -0.0044617494930088604 0.018620247564095617 0 -0.0059126424595551032 0.020002738901721179 0 -0.0071505106828127505 0.0154426755635792 0 -0.0073632259699575823 0.021139339907484418 0 -0.0070490382842068339 0.018453610356421912 0 -0.0097219936363723055 0.016779661635658468 0 -0.0068229108924673454 0.019417055211149732 0 -0.0071505106828127505 0.0154426755635792 0 -0.0071505106828127505 0.0154426755635792 0 -0.0046147387031149536 0.014242176649593053 0 -0.0080115866148010133 0.013177792204397748 0 -0.0071505106828127505 0.0154426755635792 0 -0.0080115866148010133 0.013177792204397748 0 -0.0090679732140588037 0.014899039124406427 0 -0.0047257241556034855 0.016101596121081065 0 -0.0071505106828127505 0.0154426755635792 0 -0.0046147387031149536 0.014242176649593053 0 -0.0046147387031149536 0.014242176649593053 0 -0.0080115866148010133 0.013177792204397748 0 -0.0050272987745881926 0.01133434121348406 0 -0.0094154106561833446 0.0090987828395752493 0 -0.0060203745796875039 0.0056998662586401714 0 -0.013080972693841123 0.0017287772056091147 0 -0.01086071498201522 -0.0017185961594356686 0 -0.0094034170735829113 0.0056379316613728216 0 -0.013996887757808749 0.0056930401328442858 0 -0.0097580250014264076 0.0012377056957496378 0 -0.0094034170735829113 0.0056379316613728216 0 -0.014135095227620277 0.0099757426286128641 0 -0.013996887757808749 0.0056930401328442858 0 -0.0094154106561833446 0.0090987828395752493 0 -0.013419982652114831 0.012337282812013623 0 -0.0080115866148010133 0.013177792204397748 0 -0.0090679732140588037 0.014899039124406427 0 -0.011517947186940396 0.014351643697617747 0 -0.014135095227620277 0.0099757426286128641 0 -0.016201391816554993 0.0083898491621223429 0 -0.013996887757808749 0.0056930401328442858 0 -0.014135095227620277 0.0099757426286128641 0 -0.016201391816554993 0.0083898491621223429 0 -0.016910375448085629 0.011626241822439248 0 -0.016201391816554993 0.0083898491621223429 0 -0.013996887757808749 0.0056930401328442858 0 -0.017680123819302423 0.0051009379864714426 0 -0.013996887757808749 0.0056930401328442858 0 -0.017680123819302423 0.0051009379864714426 0 -0.014596737807031497 -0.0012847730879610637 0 -0.016246186490326355 0.0013800858746321422 0 -0.018033601841814465 0.0018816342894757965 0 -0.01828329248064408 0.0034233707523639457 0 -0.016246186490326355 0.0013800858746321422 0 -0.018033601841814465 0.0018816342894757965 0 -0.018071023977636481 -0.00023021381303841814 0 -0.018930021443889888 0.0013557344929701887 0 -0.018165587535724548 -0.00014321664579762441 0 -0.015573405376293901 -0.00078411941698812763 0 -0.019785422008190227 0.0027896662793241126 0 -0.018033601841814465 0.0018816342894757965 0 -0.018071023977636481 -0.00023021381303841814 0 -0.019785422008190227 0.0027896662793241126 0 -0.018930021443889888 0.0013557344929701887 0 -0.015573405376293901 -0.00078411941698812763 0 -0.018383863879847355 -0.00048370499999674107 0 -0.017434195044557645 -0.0020291427999298882 0 -0.018930021443889888 0.0013557344929701887 0 -0.019329295999239101 0.00036268444603872782 0 -0.018165587535724548 -0.00014321664579762441 0 -0.019785422008190227 0.0027896662793241126 0 -0.018033601841814465 0.0018816342894757965 0 -0.01828329248064408 0.0034233707523639457 0 -0.019785422008190227 0.0027896662793241126 0 -0.018930021443889888 0.0013557344929701887 0 -0.022563228512486638 0.0059729809545338635 0 -0.019785422008190227 0.0027896662793241126 0 -0.01828329248064408 0.0034233707523639457 0 -0.022563228512486638 0.0059729809545338635 0 -0.01828329248064408 0.0034233707523639457 0 -0.017838500457415873 0.0059062962964689389 0 -0.022563228512486638 0.0059729809545338635 0 -0.016246186490326355 0.0013800858746321422 0 -0.01828329248064408 0.0034233707523639457 0 -0.017838500457415873 0.0059062962964689389 0 -0.016201391816554993 0.0083898491621223429 0 -0.017680123819302423 0.0051009379864714426 0 -0.018156098977089027 0.0094218333635886324 0 -0.017680123819302423 0.0051009379864714426 0 -0.020718226154651839 0.010325370472091854 0 -0.018156098977089027 0.0094218333635886324 0 -0.020718226154651839 0.010325370472091854 0 -0.018156098977089027 0.0094218333635886324 0 -0.019228623086286832 0.011665190583873291 0 -0.017019023674825027 0.0039531863699982699 0 -0.019965518146645978 0.0078916640252928681 0 -0.016201391816554993 0.0083898491621223429 0 -0.018156098977089027 0.0094218333635886324 0 -0.016910375448085629 0.011626241822439248 0 0.0084754915615066831 0.014621230788872282 0 0.0087581809727670674 0.01182363935331091 0 -0.020625353042928871 2.9954581198432048e-05 0 -0.019915102901372012 0.0016310613523773604 0 -0.021220202697865311 0.0025168589908092002 0 -0.020625353042928871 2.9954581198432048e-05 0 -0.021220202697865311 0.0025168589908092002 0 -0.022788770672252222 -0.00048600698776856533 0 -0.020625353042928871 2.9954581198432048e-05 0 -0.019915102901372012 0.0016310613523773604 0 -0.019329295999239101 0.00036268444603872782 0 -0.018930021443889888 0.0013557344929701887 0 -0.019329295999239101 0.00036268444603872782 0 -0.019340642337001574 0.0016455339358179642 0 -0.019915102901372012 0.0016310613523773604 0 -0.019329295999239101 0.00036268444603872782 0 -0.019340642337001574 0.0016455339358179642 0 -0.0035143890968816574 0.010594591271798168 0 -0.0011152456153309511 0.01291565259846267 0 -0.019915102901372012 0.0016310613523773604 0 -0.019156423017606963 0.0030065668524306365 0 -0.021220202697865311 0.0025168589908092002 0 -0.018930021443889888 0.0013557344929701887 0 -0.019340642337001574 0.0016455339358179642 0 -0.019156423017606963 0.0030065668524306365 0 -0.019915102901372012 0.0016310613523773604 0 -0.019340642337001574 0.0016455339358179642 0 -0.019156423017606963 0.0030065668524306365 0 0.040830868256921671 0.02511035600709741 0 0.040754223346205556 0.025121687529069296 0 0.040617910716112683 0.025102941512748857 0 0.0084754915615066831 0.014621230788872282 0 0.0077004305765586492 0.018764118629626226 0 0.040830868256921671 0.02511035600709741 0 0.040754223346205556 0.025121687529069296 0 0.04083505059804611 0.025148753984513078 0 0.040754223346205556 0.025121687529069296 0 0.040688956195255387 0.025085558185070939 0 0.040761264172451891 0.025121545060916482 0 0.040754223346205556 0.025121687529069296 0 0.040617910716112683 0.025102941512748857 0 0.040688956195255387 0.025085558185070939 0 -0.0011152456153309511 0.01291565259846267 0 0.0077004305765586492 0.018764118629626226 0 -0.022563228512486638 0.0059729809545338635 0 -0.025383614641592538 0.014404744936910439 0 -0.024470218485686288 0.014654672782376312 0 -0.019156423017606963 0.0030065668524306365 0 -0.021220202697865311 0.0025168589908092002 0 -0.019808017671814282 0.0050905183491232013 0 0.039664715718420722 0.026827086618972686 0 0.039152824974382508 0.025733965452303938 0 0.040097566309084551 0.025872714197737314 0 0.0077004305765586492 0.018764118629626226 0 0.0021398382564931247 0.027428557402847414 0 -0.024470218485686288 0.014654672782376312 0 -0.022530774346899075 0.015427996540433015 0 -0.022327985814815338 0.020489729443114047 0 -0.025383614641592538 0.014404744936910439 0 -0.024470218485686288 0.014654672782376312 0 -0.022327985814815338 0.020489729443114047 0 0.0077004305765586492 0.018764118629626226 0 0.019972104291312572 0.019569925677273486 0 0.040617910716112683 0.025102941512748857 0 0.040688956195255387 0.025085558185070939 0 0.040590373818514922 0.024997566478745466 0 0.040688956195255387 0.025085558185070939 0 0.040590373818514922 0.024997566478745466 0 0.040728238089324596 0.025068628657922618 0 0.040688956195255387 0.025085558185070939 0 0.040761264172451891 0.025121545060916482 0 0.040728238089324596 0.025068628657922618 0 -0.014135095227620277 0.0099757426286128641 0 -0.016910375448085629 0.011626241822439248 0 -0.017979113279887538 0.015587734448623998 0 -0.011517947186940396 0.014351643697617747 0 -0.015033583543919805 0.016235075480867563 0 -0.017979113279887538 0.015587734448623998 0 -0.017940454396968127 0.013241420968426636 0 -0.016910375448085629 0.011626241822439248 0 -0.017979113279887538 0.015587734448623998 0 -0.017940454396968127 0.013241420968426636 0 -0.018634830626968781 0.014373716018441268 0 -0.019682351145582588 0.013761474726255095 0 -0.018634830626968781 0.014373716018441268 0 -0.018861870060706228 0.014989055569903709 0 -0.019682351145582588 0.013761474726255095 0 -0.018634830626968781 0.014373716018441268 0 -0.018861870060706228 0.014989055569903709 0 -0.017979113279887538 0.015587734448623998 0 -0.017940454396968127 0.013241420968426636 0 -0.018634830626968781 0.014373716018441268 0 -0.017979113279887538 0.015587734448623998 0 -0.017940454396968127 0.013241420968426636 0 -0.019228623086286832 0.011665190583873291 0 -0.019682351145582588 0.013761474726255095 0 -0.017940454396968127 0.013241420968426636 0 -0.016910375448085629 0.011626241822439248 0 -0.019228623086286832 0.011665190583873291 0 -0.018156098977089027 0.0094218333635886324 0 -0.016910375448085629 0.011626241822439248 0 -0.019228623086286832 0.011665190583873291 0 -0.020718226154651839 0.010325370472091854 0 -0.020342829032613179 0.012270161659877359 0 -0.021693753449668056 0.013433526880445766 0 -0.017838500457415873 0.0059062962964689389 0 -0.022563228512486638 0.0059729809545338635 0 -0.024470218485686288 0.014654672782376312 0 -0.020718226154651839 0.010325370472091854 0 -0.024470218485686288 0.014654672782376312 0 -0.021693753449668056 0.013433526880445766 0 -0.019965518146645978 0.0078916640252928681 0 -0.022163287273899674 0.010599671726745225 0 -0.019228623086286832 0.011665190583873291 0 -0.020342829032613179 0.012270161659877359 0 -0.019682351145582588 0.013761474726255095 0 -0.020718226154651839 0.010325370472091854 0 -0.019228623086286832 0.011665190583873291 0 -0.020342829032613179 0.012270161659877359 0 -0.024470218485686288 0.014654672782376312 0 -0.021693753449668056 0.013433526880445766 0 -0.022530774346899075 0.015427996540433015 0 -0.021693753449668056 0.013433526880445766 0 -0.019682351145582588 0.013761474726255095 0 -0.020776405193462789 0.015753520500439787 0 -0.020342829032613179 0.012270161659877359 0 -0.021693753449668056 0.013433526880445766 0 -0.019682351145582588 0.013761474726255095 0 -0.019682351145582588 0.013761474726255095 0 -0.019504972522544663 0.015104737738898465 0 -0.020776405193462789 0.015753520500439787 0 -0.018861870060706228 0.014989055569903709 0 -0.019682351145582588 0.013761474726255095 0 -0.019504972522544663 0.015104737738898465 0 -0.0041011694837783733 0.026919394784303406 0 0.0021398382564931247 0.027428557402847414 0 -0.019504972522544663 0.015104737738898465 0 -0.020776405193462789 0.015753520500439787 0 -0.018672599690436744 0.015942722020945942 0 -0.020776405193462789 0.015753520500439787 0 -0.022530774346899075 0.015427996540433015 0 -0.022327985814815338 0.020489729443114047 0 -0.018672599690436744 0.015942722020945942 0 -0.019048609525425485 0.020237015304634058 0 -0.02261178108289073 0.022035483958184401 0 -0.020776405193462789 0.015753520500439787 0 -0.018672599690436744 0.015942722020945942 0 -0.022327985814815338 0.020489729443114047 0 -0.021693753449668056 0.013433526880445766 0 -0.020776405193462789 0.015753520500439787 0 -0.022530774346899075 0.015427996540433015 0 -0.017490213180473911 0.019098987452454873 0 -0.018672599690436744 0.015942722020945942 0 -0.019048609525425485 0.020237015304634058 0 -0.017490213180473911 0.019098987452454873 0 -0.017530960486310521 0.017032953804721061 0 -0.01666355589013517 0.01801279405074115 0 -0.017490213180473911 0.019098987452454873 0 -0.017530960486310521 0.017032953804721061 0 -0.018672599690436744 0.015942722020945942 0 -0.017530960486310521 0.017032953804721061 0 -0.016471470564491768 0.016991033666267245 0 -0.01666355589013517 0.01801279405074115 0 -0.017530960486310521 0.017032953804721061 0 -0.017979113279887538 0.015587734448623998 0 -0.016471470564491768 0.016991033666267245 0 -0.018861870060706228 0.014989055569903709 0 -0.017979113279887538 0.015587734448623998 0 -0.018672599690436744 0.015942722020945942 0 -0.017530960486310521 0.017032953804721061 0 -0.017979113279887538 0.015587734448623998 0 -0.018672599690436744 0.015942722020945942 0 -0.018861870060706228 0.014989055569903709 0 -0.019504972522544663 0.015104737738898465 0 -0.018672599690436744 0.015942722020945942 0 -0.015033583543919805 0.016235075480867563 0 -0.016471470564491768 0.016991033666267245 0 -0.0151421316017033 0.018114038983131672 0 -0.015033583543919805 0.016235075480867563 0 -0.017979113279887538 0.015587734448623998 0 -0.016471470564491768 0.016991033666267245 0 -0.016471470564491768 0.016991033666267245 0 -0.0151421316017033 0.018114038983131672 0 -0.01666355589013517 0.01801279405074115 0 -0.0151421316017033 0.018114038983131672 0 -0.016027163858823343 0.01954520660541877 0 -0.014263095598310476 0.020561286419326773 0 -0.0151421316017033 0.018114038983131672 0 -0.01666355589013517 0.01801279405074115 0 -0.016027163858823343 0.01954520660541877 0 -0.017490213180473911 0.019098987452454873 0 -0.01666355589013517 0.01801279405074115 0 -0.016027163858823343 0.01954520660541877 0 -0.016027163858823343 0.01954520660541877 0 -0.016368488846659906 0.021750232548142994 0 -0.014263095598310476 0.020561286419326773 0 -0.017490213180473911 0.019098987452454873 0 -0.016027163858823343 0.01954520660541877 0 -0.016368488846659906 0.021750232548142994 0 -0.016368488846659906 0.021750232548142994 0 -0.015916639079962398 0.025534067244152411 0 -0.013495426524636759 0.023420210777457397 0 -0.016368488846659906 0.021750232548142994 0 -0.018419501618202053 0.023373401814480731 0 -0.015916639079962398 0.025534067244152411 0 -0.016368488846659906 0.021750232548142994 0 -0.018419501618202053 0.023373401814480731 0 -0.019048609525425485 0.020237015304634058 0 -0.017490213180473911 0.019098987452454873 0 -0.016368488846659906 0.021750232548142994 0 -0.019048609525425485 0.020237015304634058 0 -0.018419501618202053 0.023373401814480731 0 -0.019048609525425485 0.020237015304634058 0 -0.02261178108289073 0.022035483958184401 0 -0.018419501618202053 0.023373401814480731 0 -0.02261178108289073 0.022035483958184401 0 -0.019328873729940205 0.027866930825928431 0 0.0021398382564931247 0.027428557402847414 0 -0.0016639769017433661 0.034974057281919449 0 0.0074882407634634862 0.054238226401497711 0 0.0053853869145031449 0.050274896284858622 0 0.0078586005966860828 0.050089974923601767 0 -0.018419501618202053 0.023373401814480731 0 -0.019328873729940205 0.027866930825928431 0 -0.015916639079962398 0.025534067244152411 0 -0.019328873729940205 0.027866930825928431 0 -0.015916639079962398 0.025534067244152411 0 -0.015271817224133564 0.029246496525827115 0 0.040590373818514922 0.024997566478745466 0 0.040715459462209169 0.024987697493421224 0 0.04066945672434253 0.024887473537042137 0 0.019972104291312572 0.019569925677273486 0 0.023532397116808639 0.019963372991334164 0 0.040590373818514922 0.024997566478745466 0 0.040728238089324596 0.025068628657922618 0 0.040715459462209169 0.024987697493421224 0 0.039152824974382508 0.025733965452303938 0 0.040097566309084551 0.025872714197737314 0 0.040007608159354169 0.0248734456499289 0 0.0074882407634634862 0.054238226401497711 0 0.01005628673147807 0.050981887678097366 0 0.0078586005966860828 0.050089974923601767 0 0.0021398382564931247 0.027428557402847414 0 0.015020510552007682 0.031282214324567764 0 0.040097566309084551 0.025872714197737314 0 0.040007608159354169 0.0248734456499289 0 0.040520919629916649 0.024935129600928602 0 0.040590373818514922 0.024997566478745466 0 0.040520919629916649 0.024935129600928602 0 0.04066945672434253 0.024887473537042137 0 0.040007608159354169 0.0248734456499289 0 0.040520919629916649 0.024935129600928602 0 0.040479133525396331 0.024821446724649407 0 0.040520919629916649 0.024935129600928602 0 0.040609604014591606 0.024830218471964847 0 0.040479133525396331 0.024821446724649407 0 0.040520919629916649 0.024935129600928602 0 0.040609604014591606 0.024830218471964847 0 0.040632050922047511 0.024875520212887345 0 0.040520919629916649 0.024935129600928602 0 0.040632050922047511 0.024875520212887345 0 0.04066945672434253 0.024887473537042137 0 0.01005628673147807 0.050981887678097366 0 0.012800506560741682 0.047744665931271052 0 0.01250992727469861 0.047887150724194104 0 0.040007608159354169 0.0248734456499289 0 0.040603132392791022 0.024707929456579875 0 0.040479133525396331 0.024821446724649407 0 0.01005628673147807 0.050981887678097366 0 0.01250992727469861 0.047887150724194104 0 0.0096307048932849585 0.048064601103342701 0 0.015020510552007682 0.031282214324567764 0 0.022218402694059253 0.032971845327269031 0 0.012827795022410925 0.047759660512236769 0 0.01250992727469861 0.047887150724194104 0 0.012618215355217755 0.047059110510981828 0 0.022218402694059253 0.032971845327269031 0 0.022155835900903191 0.033017813852822368 0 0.040603132392791022 0.024707929456579875 0 0.040585580185920983 0.024784047226810772 0 0.040658613588809137 0.024786269552216508 0 0.040585580185920983 0.024784047226810772 0 0.040609604014591606 0.024830218471964847 0 0.040658613588809137 0.024786269552216508 0 0.040603132392791022 0.024707929456579875 0 0.040585580185920983 0.024784047226810772 0 0.040479133525396331 0.024821446724649407 0 0.040585580185920983 0.024784047226810772 0 0.040609604014591606 0.024830218471964847 0 0.040479133525396331 0.024821446724649407 0 0.01250992727469861 0.047887150724194104 0 0.0096307048932849585 0.048064601103342701 0 0.011688363627227933 0.04656024728589285 0 0.01005628673147807 0.050981887678097366 0 0.0096307048932849585 0.048064601103342701 0 0.0078586005966860828 0.050089974923601767 0 0.0096307048932849585 0.048064601103342701 0 0.0078586005966860828 0.050089974923601767 0 0.0068900353257392551 0.047374071949588092 0 0.0093586174516301392 0.045880639192458592 0 0.011136181538599419 0.044655229143228288 0 0.0073984343230400589 0.044175034369869144 0 0.0093586174516301392 0.045880639192458592 0 0.0068900353257392551 0.047374071949588092 0 0.0073984343230400589 0.044175034369869144 0 0.0096307048932849585 0.048064601103342701 0 0.0093586174516301392 0.045880639192458592 0 0.0068900353257392551 0.047374071949588092 0 0.0096307048932849585 0.048064601103342701 0 0.0093586174516301392 0.045880639192458592 0 0.011688363627227933 0.04656024728589285 0 0.011688363627227933 0.04656024728589285 0 0.011136181538599419 0.044655229143228288 0 0.013091291707660819 0.04589270972481288 0 0.0093586174516301392 0.045880639192458592 0 0.011688363627227933 0.04656024728589285 0 0.011136181538599419 0.044655229143228288 0 0.011136181538599419 0.044655229143228288 0 0.013091291707660819 0.04589270972481288 0 0.013727452783260879 0.044245029033868281 0 0.013091291707660819 0.04589270972481288 0 0.012618215355217755 0.047059110510981828 0 0.013463771569140089 0.047143645378560174 0 0.011688363627227933 0.04656024728589285 0 0.013091291707660819 0.04589270972481288 0 0.012618215355217755 0.047059110510981828 0 0.01250992727469861 0.047887150724194104 0 0.011688363627227933 0.04656024728589285 0 0.012618215355217755 0.047059110510981828 0 0.012827795022410925 0.047759660512236769 0 0.012618215355217755 0.047059110510981828 0 0.013463771569140089 0.047143645378560174 0 0.022218402694059253 0.032971845327269031 0 0.021879476118510436 0.033441884657007086 0 -0.0016639769017433661 0.034974057281919449 0 -0.0037936249531888185 0.037469999424104616 0 -0.019328873729940205 0.027866930825928431 0 -0.015271817224133564 0.029246496525827115 0 -0.016210176755253398 0.033815927856925582 0 0.0053853869145031449 0.050274896284858622 0 0.0078586005966860828 0.050089974923601767 0 0.0068900353257392551 0.047374071949588092 0 0.0053853869145031449 0.050274896284858622 0 0.0068900353257392551 0.047374071949588092 0 0.0032258169384343244 0.046192027556285389 0 -0.0037936249531888185 0.037469999424104616 0 0.003255144324413547 0.039353123733358232 0 0.0068900353257392551 0.047374071949588092 0 0.0032258169384343244 0.046192027556285389 0 0.0073984343230400589 0.044175034369869144 0 -0.0011430698412434527 0.047466661345187081 0 0.005478305608655849 0.044396507315437858 0 0.00041396648718280206 0.042560544768275553 0 -0.0037936249531888185 0.037469999424104616 0 -0.0044620327233803022 0.037460557789624843 0 -0.010127618363633238 0.032325007403340295 0 -0.0083759124721483579 0.032910619749124695 0 -0.0089184133470063768 0.03419008586283806 0 -0.0083759124721483579 0.032910619749124695 0 -0.0073836856540876235 0.032364382757345315 0 -0.0088365737783145451 0.031481563189048038 0 -0.0037936249531888185 0.037469999424104616 0 -0.0060737150165221373 0.036409510055065875 0 -0.010127618363633238 0.032325007403340295 0 -0.0083759124721483579 0.032910619749124695 0 -0.0088365737783145451 0.031481563189048038 0 -0.0073836856540876235 0.032364382757345315 0 -0.0061688359898677088 0.033038940757479741 0 -0.0069670111621971589 0.034023037792880614 0 -0.0083759124721483579 0.032910619749124695 0 -0.0073836856540876235 0.032364382757345315 0 -0.0069670111621971589 0.034023037792880614 0 -0.0080696134782053796 0.028908173260292973 0 -0.0078455174408682757 0.026108794159781172 0 -0.0073836856540876235 0.032364382757345315 0 -0.0082281487151237512 0.029868630102524944 0 -0.0088365737783145451 0.031481563189048038 0 -0.0073836856540876235 0.032364382757345315 0 -0.0082281487151237512 0.029868630102524944 0 -0.0068916713135730367 0.026606424829842049 0 -0.0062542013862557141 0.035800824983239429 0 -0.0060737150165221373 0.036409510055065875 0 -0.0082281487151237512 0.029868630102524944 0 -0.012384067765488114 0.031990271473321515 0 -0.012463534673333193 0.027089393412126635 0 -0.015271817224133564 0.029246496525827115 0 -0.012384067765488114 0.031990271473321515 0 -0.012463534673333193 0.027089393412126635 0 -0.015271817224133564 0.029246496525827115 0 -0.016210176755253398 0.033815927856925582 0 -0.012384067765488114 0.031990271473321515 0 -0.015916639079962398 0.025534067244152411 0 -0.015271817224133564 0.029246496525827115 0 -0.012463534673333193 0.027089393412126635 0 -0.015916639079962398 0.025534067244152411 0 -0.012463534673333193 0.027089393412126635 0 -0.013495426524636759 0.023420210777457397 0 -0.012463534673333193 0.027089393412126635 0 -0.010162773040343276 0.023614114950311155 0 -0.013495426524636759 0.023420210777457397 0 -0.0082281487151237512 0.029868630102524944 0 -0.012463534673333193 0.027089393412126635 0 -0.0093970765708429431 0.026813095549839593 0 -0.0082281487151237512 0.029868630102524944 0 -0.0093970765708429431 0.026813095549839593 0 -0.0068916713135730367 0.026606424829842049 0 -0.0093970765708429431 0.026813095549839593 0 -0.010162773040343276 0.023614114950311155 0 -0.0068916713135730367 0.026606424829842049 0 -0.012463534673333193 0.027089393412126635 0 -0.0093970765708429431 0.026813095549839593 0 -0.010162773040343276 0.023614114950311155 0 -0.010519510612266509 0.020006509673358801 0 -0.0068229108924673454 0.019417055211149732 0 -0.010162773040343276 0.023614114950311155 0 -0.0068229108924673454 0.019417055211149732 0 -0.010162773040343276 0.023614114950311155 0 -0.0068916713135730367 0.026606424829842049 0 -0.010519510612266509 0.020006509673358801 0 -0.010162773040343276 0.023614114950311155 0 -0.012215463489628191 0.02132126658867636 0 -0.016368488846659906 0.021750232548142994 0 -0.014263095598310476 0.020561286419326773 0 -0.013495426524636759 0.023420210777457397 0 -0.012215463489628191 0.02132126658867636 0 -0.014263095598310476 0.020561286419326773 0 -0.013495426524636759 0.023420210777457397 0 -0.012689254694127005 0.019146429395870249 0 -0.012215463489628191 0.02132126658867636 0 -0.014263095598310476 0.020561286419326773 0 -0.010162773040343276 0.023614114950311155 0 -0.012215463489628191 0.02132126658867636 0 -0.013495426524636759 0.023420210777457397 0 -0.0059126424595551032 0.020002738901721179 0 -0.0060670099057013619 0.023029687055668019 0 -0.0036373419287318216 0.021530696469299702 0 -0.0060670099057013619 0.023029687055668019 0 -0.0036373419287318216 0.021530696469299702 0 -0.0037909244966951769 0.024550968939937974 0 -0.0084301675387678937 0.02061749303518846 0 -0.0060670099057013619 0.023029687055668019 0 -0.0088571925023552857 0.027410020354141303 0 -0.0073632259699575823 0.021139339907484418 0 -0.0078455174408682757 0.026108794159781172 0 -0.0060670099057013619 0.023029687055668019 0 -0.0088571925023552857 0.027410020354141303 0 -0.0059132921060338741 0.02773862662142541 0 -0.0068025377846403501 0.025917725080538613 0 -0.0063312339485393151 0.027724605489877197 0 -0.0060670099057013619 0.023029687055668019 0 -0.0059132921060338741 0.02773862662142541 0 -0.0032091582326848446 0.028843183159740795 0 -0.0056197422425129911 0.030976298801472197 0 -0.0040563399663201116 0.031436918586733933 0 -0.0032091582326848446 0.028843183159740795 0 -0.0059132921060338741 0.02773862662142541 0 -0.0056197422425129911 0.030976298801472197 0 -0.0032091582326848446 0.028843183159740795 0 -0.0073836856540876235 0.032364382757345315 0 -0.0088571925023552857 0.027410020354141303 0 -0.0056197422425129911 0.030976298801472197 0 -0.0088571925023552857 0.027410020354141303 0 -0.0059132921060338741 0.02773862662142541 0 -0.0056197422425129911 0.030976298801472197 0 -0.0056197422425129911 0.030976298801472197 0 -0.0061688359898677088 0.033038940757479741 0 -0.0052000163334696885 0.033225774650043366 0 -0.0073836856540876235 0.032364382757345315 0 -0.0056197422425129911 0.030976298801472197 0 -0.0061688359898677088 0.033038940757479741 0 -0.0056197422425129911 0.030976298801472197 0 -0.0040563399663201116 0.031436918586733933 0 -0.0052000163334696885 0.033225774650043366 0 -0.0040563399663201116 0.031436918586733933 0 -0.0041128436634680719 0.03275382512902824 0 -0.0052000163334696885 0.033225774650043366 0 -0.0016345090395333266 0.026932911701641162 0 0.00026748827074114844 0.024275880534158474 0 -0.0037909244966951769 0.024550968939937974 0 -0.0040563399663201116 0.031436918586733933 0 -0.0030203791488579092 0.031802423681489299 0 -0.0041128436634680719 0.03275382512902824 0 -0.008403327047100213 0.029653627771272874 0 -0.0063312339485393151 0.027724605489877197 0 -0.0040563399663201116 0.031436918586733933 0 -0.0030203791488579092 0.031802423681489299 0 -0.0032091582326848446 0.028843183159740795 0 -0.008403327047100213 0.029653627771272874 0 -0.023336578805375822 0.022223967987221604 0 -0.0016345090395333266 0.026932911701641162 0 0.0018119495554526296 0.027265065635060787 0 0.00052581323280049262 0.029441451856713225 0 -0.064415919732542917 0.012328089842448667 0 -0.067531954959588553 0.01123899949524652 0 -0.066683852047367292 0.016138750807668249 0 -0.064415919732542917 0.012328089842448667 0 -0.067531954959588553 0.01123899949524652 0 -0.064257632282473193 0.0099170162350778832 0 -0.027810497545956096 0.021097487960962891 0 -0.030544273911158323 0.019782753013158155 0 0.0018119495554526296 0.027265065635060787 0 0.00026748827074114844 0.024275880534158474 0 0.0031379725768321464 0.025021267473635905 0 -0.0016345090395333266 0.026932911701641162 0 0.0018119495554526296 0.027265065635060787 0 0.00026748827074114844 0.024275880534158474 0 0.00026748827074114844 0.024275880534158474 0 0.002298152943408125 0.023222592051862126 0 0.0031379725768321464 0.025021267473635905 0 0.00026748827074114844 0.024275880534158474 0 0.002298152943408125 0.023222592051862126 0 0.001313609911022985 0.02083746737211755 0 0.002298152943408125 0.023222592051862126 0 0.001313609911022985 0.02083746737211755 0 0.0044350794572385749 0.022730489509546172 0 -0.0092015850762960198 0.024812620481717174 0 -0.031814318904747729 0.016421140113655325 0 0.00026748827074114844 0.024275880534158474 0 0.001313609911022985 0.02083746737211755 0 -0.0014738767033717658 0.022154954882388701 0 0.001313609911022985 0.02083746737211755 0 -0.0014738767033717658 0.022154954882388701 0 -0.0013667777860188874 0.019337845782734165 0 -0.0014738767033717658 0.022154954882388701 0 -0.0036373419287318216 0.021530696469299702 0 -0.0013667777860188874 0.019337845782734165 0 0.00026748827074114844 0.024275880534158474 0 -0.0014738767033717658 0.022154954882388701 0 -0.0037909244966951769 0.024550968939937974 0 -0.0014738767033717658 0.022154954882388701 0 -0.0036373419287318216 0.021530696469299702 0 -0.0037909244966951769 0.024550968939937974 0 -0.056418404266133558 0.0047637062720280211 0 -0.05715100015235821 0.004866013605134451 0 -0.056920449853345573 0.0042778417178738447 0 -0.070314590439297137 0.005609620903383304 0 -0.064910403682606754 0.0074159818813192497 0 -0.083147873598875918 0.012459408137025585 0 -0.07804691535847734 0.01519216255195842 0 -0.080594916629072463 0.01191478834359385 0 -0.07804691535847734 0.01519216255195842 0 -0.078462345371954553 0.011016276402884873 0 -0.07614948762951286 0.011760148728143786 0 -0.07804691535847734 0.01519216255195842 0 -0.080594916629072463 0.01191478834359385 0 -0.078462345371954553 0.011016276402884873 0 -0.080594916629072463 0.01191478834359385 0 -0.080517872636524893 0.0098125457188109159 0 -0.078462345371954553 0.011016276402884873 0 -0.080517872636524893 0.0098125457188109159 0 -0.078462345371954553 0.011016276402884873 0 -0.079233177967581975 0.008616022245148007 0 -0.078462345371954553 0.011016276402884873 0 -0.079233177967581975 0.008616022245148007 0 -0.077083493225806793 0.0091523248932434496 0 -0.078462345371954553 0.011016276402884873 0 -0.07614948762951286 0.011760148728143786 0 -0.077083493225806793 0.0091523248932434496 0 -0.07614948762951286 0.011760148728143786 0 -0.073914594837646813 0.010115345215417834 0 -0.07372295044743947 0.014060968511162552 0 -0.07614948762951286 0.011760148728143786 0 -0.073914594837646813 0.010115345215417834 0 -0.077083493225806793 0.0091523248932434496 0 -0.07804691535847734 0.01519216255195842 0 -0.07614948762951286 0.011760148728143786 0 -0.07372295044743947 0.014060968511162552 0 -0.07804691535847734 0.01519216255195842 0 -0.07372295044743947 0.014060968511162552 0 -0.073444377474698772 0.017753164093599862 0 -0.064910403682606754 0.0074159818813192497 0 -0.056397379639565072 0.0090952226571095907 0 -0.07372295044743947 0.014060968511162552 0 -0.07041095345989791 0.016093313753265729 0 -0.073444377474698772 0.017753164093599862 0 -0.07372295044743947 0.014060968511162552 0 -0.07041095345989791 0.016093313753265729 0 -0.070669419131724615 0.012559303544657285 0 -0.073914594837646813 0.010115345215417834 0 -0.07372295044743947 0.014060968511162552 0 -0.070669419131724615 0.012559303544657285 0 -0.073914594837646813 0.010115345215417834 0 -0.070669419131724615 0.012559303544657285 0 -0.071609272923670864 0.0080478115152092401 0 -0.070669419131724615 0.012559303544657285 0 -0.067531954959588553 0.01123899949524652 0 -0.071609272923670864 0.0080478115152092401 0 -0.070669419131724615 0.012559303544657285 0 -0.067531954959588553 0.01123899949524652 0 -0.066683852047367292 0.016138750807668249 0 -0.07041095345989791 0.016093313753265729 0 -0.070669419131724615 0.012559303544657285 0 -0.066683852047367292 0.016138750807668249 0 0.002298152943408125 0.023222592051862126 0 0.0031379725768321464 0.025021267473635905 0 0.0044350794572385749 0.022730489509546172 0 -0.030544273911158323 0.019782753013158155 0 -0.031814318904747729 0.016421140113655325 0 -0.07041095345989791 0.016093313753265729 0 -0.066683852047367292 0.016138750807668249 0 -0.06894603104313321 0.020175576500563334 0 0.0044118087973134303 0.022427651429195339 0 0.0060128183123767378 0.019723011835224177 0 0.0039702946887043011 0.020373979381878668 0 0.001313609911022985 0.02083746737211755 0 0.0044118087973134303 0.022427651429195339 0 0.0039702946887043011 0.020373979381878668 0 -0.031814318904747729 0.016421140113655325 0 -0.029246060947363879 0.010531881376620634 0 -0.059082954063623572 0.0038796296054671511 0 -0.058012915951814951 0.0033980160860952813 0 -0.058513940157289224 0.0026699631275966334 0 -0.059082954063623572 0.0038796296054671511 0 -0.058087767220928503 0.0043901309880119543 0 -0.058012915951814951 0.0033980160860952813 0 -0.031814318904747729 0.016421140113655325 0 -0.056397379639565072 0.0090952226571095907 0 -0.07041095345989791 0.016093313753265729 0 -0.06894603104313321 0.020175576500563334 0 -0.073444377474698772 0.017753164093599862 0 -0.058087767220928503 0.0043901309880119543 0 -0.057409813295422246 0.0039079314417146674 0 -0.058012915951814951 0.0033980160860952813 0 -0.05715100015235821 0.004866013605134451 0 -0.058087767220928503 0.0043901309880119543 0 -0.057409813295422246 0.0039079314417146674 0 -0.057409813295422246 0.0039079314417146674 0 -0.058012915951814951 0.0033980160860952813 0 -0.05733307807799054 0.0030438923841336631 0 -0.05733307807799054 0.0030438923841336631 0 -0.056654136334165488 0.0035992658788647955 0 -0.05691132469567968 0.002585569706815899 0 -0.070034544093560289 0.0039332523141329357 0 -0.072245275173518725 0.00026118423535918291 0 -0.072177575701379365 0.0024568777428690923 0 -0.072210636726161473 0.0033994333873412731 0 -0.072978026618196704 0.00040925742607572554 0 -0.057409813295422246 0.0039079314417146674 0 -0.05733307807799054 0.0030438923841336631 0 -0.056654136334165488 0.0035992658788647955 0 -0.071751327532978901 0.0046277181320917076 0 -0.072177575701379365 0.0024568777428690923 0 -0.072210636726161473 0.0033994333873412731 0 -0.057409813295422246 0.0039079314417146674 0 -0.056654136334165488 0.0035992658788647955 0 -0.056920449853345573 0.0042778417178738447 0 -0.05715100015235821 0.004866013605134451 0 -0.057409813295422246 0.0039079314417146674 0 -0.056920449853345573 0.0042778417178738447 0 -0.056418404266133558 0.0047637062720280211 0 -0.056654136334165488 0.0035992658788647955 0 -0.056920449853345573 0.0042778417178738447 0 -0.094839270637023729 -0.012897141270365677 0 -0.095672476136375029 -0.012293392781678595 0 -0.095538652838613028 -0.011741621888294494 0 -0.056505072375086396 0.0012972262299272897 0 -0.056791551073289072 0.0012677947772235108 0 -0.056619428447217374 0.00025571030571981717 0 -0.056791551073289072 0.0012677947772235108 0 -0.056621287472967713 0.0022007984415691514 0 -0.057594745454330222 0.0022652741901953454 0 -0.070694115743835606 0.00043597891660692822 0 -0.072107174443483593 -0.00083567561902874842 0 -0.056791551073289072 0.0012677947772235108 0 -0.056410081625124169 0.001940216378882569 0 -0.056579311192473912 0.0021696334646708827 0 -0.056505072375086396 0.0012972262299272897 0 -0.056791551073289072 0.0012677947772235108 0 -0.056410081625124169 0.001940216378882569 0 -0.069333280944189613 -0.0022955521303613204 0 -0.07411757706082038 -0.0020853895323728073 0 -0.075183329628380771 0.001395645279846555 0 -0.075610119903121456 -0.00077989748336528377 0 -0.075779687556104522 -0.00012125352260054586 0 -0.075951138907197305 0.0017587305744457356 0 -0.07411757706082038 -0.0020853895323728073 0 -0.075610119903121456 -0.00077989748336528377 0 -0.075779687556104522 -0.00012125352260054586 0 -0.075858768762321616 -0.00042607555050543935 0 -0.07411757706082038 -0.0020853895323728073 0 -0.072107174443483593 -0.00083567561902874842 0 -0.072245275173518725 0.00026118423535918291 0 -0.072107174443483593 -0.00083567561902874842 0 -0.075951138907197305 0.0017587305744457356 0 -0.072245275173518725 0.00026118423535918291 0 -0.05733307807799054 0.0030438923841336631 0 -0.05691132469567968 0.002585569706815899 0 -0.056950886366905908 0.002455131761104117 0 -0.069892011713945851 -0.0015467116944011003 0 -0.072107174443483593 -0.00083567561902874842 0 -0.057594745454330222 0.0022652741901953454 0 -0.057872502083638137 0.0011811275101517315 0 -0.058513940157289224 0.0026699631275966334 0 -0.058012915951814951 0.0033980160860952813 0 -0.05733307807799054 0.0030438923841336631 0 -0.057594745454330222 0.0022652741901953454 0 -0.058012915951814951 0.0033980160860952813 0 -0.057594745454330222 0.0022652741901953454 0 -0.058513940157289224 0.0026699631275966334 0 -0.05733307807799054 0.0030438923841336631 0 -0.056621287472967713 0.0022007984415691514 0 -0.057594745454330222 0.0022652741901953454 0 -0.056791551073289072 0.0012677947772235108 0 -0.057594745454330222 0.0022652741901953454 0 -0.057872502083638137 0.0011811275101517315 0 -0.056791551073289072 0.0012677947772235108 0 -0.057872502083638137 0.0011811275101517315 0 -0.056619428447217374 0.00025571030571981717 0 -0.029639946021821243 0.0065228783680914091 0 -0.029246060947363879 0.010531881376620634 0 0.0076961321853028343 0.016804656674444578 0 0.0055530296784411315 0.017584819617635444 0 0.0046762005239508594 0.015581268494398474 0 0.0076961321853028343 0.016804656674444578 0 0.0055530296784411315 0.017584819617635444 0 0.0060128183123767378 0.019723011835224177 0 0.0055530296784411315 0.017584819617635444 0 0.0060128183123767378 0.019723011835224177 0 0.0038817233430637446 0.018184418752295626 0 0.0060128183123767378 0.019723011835224177 0 0.0039702946887043011 0.020373979381878668 0 0.0038817233430637446 0.018184418752295626 0 0.0038817233430637446 0.018184418752295626 0 0.0046762005239508594 0.015581268494398474 0 0.0015093762991699228 0.01692913114669815 0 0.0055530296784411315 0.017584819617635444 0 0.0038817233430637446 0.018184418752295626 0 0.0046762005239508594 0.015581268494398474 0 0.003569539626072113 0.013188662158101732 0 0.0024112961140538283 0.011792906964609603 0 0.0051364836328528455 0.012264895036757319 0 0.0016285494974679644 0.013084374863067157 0 0.0026308133803185814 0.010138239574632012 0 0.0046762005239508594 0.015581268494398474 0 0.0051364836328528455 0.012264895036757319 0 0.0016285494974679644 0.013084374863067157 0 0.0051364836328528455 0.012264895036757319 0 0.0069287032775402326 0.014272866000199558 0 0.0074065501980467652 0.012430288208203633 0 0.0051364836328528455 0.012264895036757319 0 0.0074065501980467652 0.012430288208203633 0 0.0068253328936346462 0.010805309225623429 0 0.0076961321853028343 0.016804656674444578 0 0.0046762005239508594 0.015581268494398474 0 0.0069287032775402326 0.014272866000199558 0 0.0046762005239508594 0.015581268494398474 0 0.0051364836328528455 0.012264895036757319 0 0.0069287032775402326 0.014272866000199558 0 -0.057872502083638137 0.0011811275101517315 0 -0.056947565543485006 -0.00072994525008504693 0 -0.056619428447217374 0.00025571030571981717 0 -0.029639946021821243 0.0065228783680914091 0 -0.032887113482542446 0.0016446529620872253 0 0.0076961321853028343 0.016804656674444578 0 0.0069287032775402326 0.014272866000199558 0 0.009469199144365557 0.013606993870810513 0 0.0074065501980467652 0.012430288208203633 0 0.009469199144365557 0.013606993870810513 0 0.0085752733258710051 0.01125339013534379 0 0.0069287032775402326 0.014272866000199558 0 0.0074065501980467652 0.012430288208203633 0 0.009469199144365557 0.013606993870810513 0 -0.055299339144933547 -0.002807278321912886 0 -0.055950898599911508 -0.0017691639914284895 0 -0.055838043633664368 -0.00058074778908037195 0 -0.032887113482542446 0.0016446529620872253 0 -0.041800424289729306 -0.0050119469789868245 0 -0.056947565543485006 -0.00072994525008504693 0 -0.055950898599911508 -0.0017691639914284895 0 -0.0557121057056068 -0.0029697751717162636 0 0.009469199144365557 0.013606993870810513 0 0.011179782865581467 0.010366399350911279 0 0.0085752733258710051 0.01125339013534379 0 -0.056947565543485006 -0.00072994525008504693 0 -0.055950898599911508 -0.0017691639914284895 0 -0.055838043633664368 -0.00058074778908037195 0 -0.094839270637023729 -0.012897141270365677 0 -0.095672476136375029 -0.012293392781678595 0 -0.095439208629756966 -0.013602123494684953 0 -0.056432087481680569 0.0014307899010895658 0 -0.055838043633664368 -0.00058074778908037195 0 -0.056619428447217374 0.00025571030571981717 0 -0.069333280944189613 -0.0022955521303613204 0 -0.062388100936743358 -0.0048885917109780467 0 -0.056947565543485006 -0.00072994525008504693 0 -0.055838043633664368 -0.00058074778908037195 0 -0.056619428447217374 0.00025571030571981717 0 -0.069333280944189613 -0.0022955521303613204 0 -0.068281781654840917 -0.0011946805891436109 0 -0.0013667777860188874 0.019337845782734165 0 0.0015093762991699228 0.01692913114669815 0 -0.0022234593442959781 0.015942673943769119 0 -0.0044617494930088604 0.018620247564095617 0 -0.0047257241556034855 0.016101596121081065 0 -0.0022234593442959781 0.015942673943769119 0 -0.0044617494930088604 0.018620247564095617 0 -0.0013667777860188874 0.019337845782734165 0 -0.0022234593442959781 0.015942673943769119 0 -0.0044617494930088604 0.018620247564095617 0 -0.0036373419287318216 0.021530696469299702 0 -0.0013667777860188874 0.019337845782734165 0 0.001313609911022985 0.02083746737211755 0 -0.0013667777860188874 0.019337845782734165 0 0.0015093762991699228 0.01692913114669815 0 0.001313609911022985 0.02083746737211755 0 0.0038817233430637446 0.018184418752295626 0 0.0015093762991699228 0.01692913114669815 0 0.001313609911022985 0.02083746737211755 0 0.0039702946887043011 0.020373979381878668 0 0.0038817233430637446 0.018184418752295626 0 0.0015093762991699228 0.01692913114669815 0 -1.4829439400216734e-06 0.014094920884342171 0 -0.0022234593442959781 0.015942673943769119 0 0.0046762005239508594 0.015581268494398474 0 0.0015093762991699228 0.01692913114669815 0 0.0026107444981164729 0.01355852091905994 0 0.0015093762991699228 0.01692913114669815 0 0.0026107444981164729 0.01355852091905994 0 -1.4829439400216734e-06 0.014094920884342171 0 0.0024112961140538283 0.011792906964609603 0 0.0001347413913117596 0.0084588409561434548 0 0.0026107444981164729 0.01355852091905994 0 -1.4829439400216734e-06 0.014094920884342171 0 0.00030649995984637378 0.011314942114565808 0 -1.4829439400216734e-06 0.014094920884342171 0 -0.0022510078032897418 0.012682251632063336 0 0.00030649995984637378 0.011314942114565808 0 -1.4829439400216734e-06 0.014094920884342171 0 -0.0022510078032897418 0.012682251632063336 0 -0.0022234593442959781 0.015942673943769119 0 -0.0046147387031149536 0.014242176649593053 0 -0.0022510078032897418 0.012682251632063336 0 -0.0022234593442959781 0.015942673943769119 0 -0.0047257241556034855 0.016101596121081065 0 -0.0046147387031149536 0.014242176649593053 0 -0.0022234593442959781 0.015942673943769119 0 -0.0046147387031149536 0.014242176649593053 0 -0.0022510078032897418 0.012682251632063336 0 -0.0050272987745881926 0.01133434121348406 0 -0.0022510078032897418 0.012682251632063336 0 -0.0020728894548696138 0.0091678379601192305 0 -0.0050272987745881926 0.01133434121348406 0 -0.0039079977885541567 0.0019339290244864333 0 -0.0060203745796875039 0.0056998662586401714 0 -0.0010990413176678578 -0.0018034397903564979 0 -0.00069517866094432918 -0.0014502341499130691 0 -0.0049445026769849732 0.0019563134143144915 0 -0.0034851215608064307 -0.0024712363314822105 0 -0.0010990413176678578 -0.0018034397903564979 0 -0.0049445026769849732 0.0019563134143144915 0 -0.0034851215608064307 -0.0024712363314822105 0 -0.0010990413176678578 -0.0018034397903564979 0 -0.0016068835852642281 -0.002913459383431891 0 -0.00058257522517571531 -0.0025307231057702458 0 -0.00071591089208823872 -0.001472696712081328 0 0.0005632085389662315 -0.0033723887003204406 0 -0.00099376554133897448 -0.0026859299263213062 0 -0.0010990413176678578 -0.0018034397903564979 0 -0.0016068835852642281 -0.002913459383431891 0 -0.00058257522517571531 -0.0025307231057702458 0 -0.00099376554133897448 -0.0026859299263213062 0 -0.0010990413176678578 -0.0018034397903564979 0 -0.00058257522517571531 -0.0025307231057702458 0 -0.0010990413176678578 -0.0018034397903564979 0 -0.00071591089208823872 -0.001472696712081328 0 -0.0038994139249022997 0.0019205702334662896 0 -0.0039079977885541567 0.0019339290244864333 0 -0.0022510078032897418 0.012682251632063336 0 -0.0020728894548696138 0.0091678379601192305 0 0.00030649995984637378 0.011314942114565808 0 -0.0039079977885541567 0.0019339290244864333 0 0.0001347413913117596 0.0084588409561434548 0 -0.0012609782860171482 0.0105781005157511 0 0.00069944522371758464 0.0082211921512140972 0 0.0026308133803185814 0.010138239574632012 0 0.0016285494974679644 0.013084374863067157 0 -0.0012609782860171482 0.0105781005157511 0 0.0026308133803185814 0.010138239574632012 0 0.00069944522371758464 0.0082211921512140972 0 -0.0007208278819511143 0.0054629795694698426 0 0.0034008913713264037 0.0071232326815435006 0 0.00069944522371758464 0.0082211921512140972 0 0.0026308133803185814 0.010138239574632012 0 0.0034008913713264037 0.0071232326815435006 0 0.00069944522371758464 0.0082211921512140972 0 -0.0012649922899166475 0.0080520622873038704 0 -0.0007208278819511143 0.0054629795694698426 0 -0.004129206462887061 0.0080662724182685459 0 -0.0012609782860171482 0.0105781005157511 0 -0.0012649922899166475 0.0080520622873038704 0 -0.004129206462887061 0.0080662724182685459 0 -0.0012649922899166475 0.0080520622873038704 0 -0.0007208278819511143 0.0054629795694698426 0 -0.0012609782860171482 0.0105781005157511 0 0.00069944522371758464 0.0082211921512140972 0 -0.0012649922899166475 0.0080520622873038704 0 -0.0061152061291846489 -0.010480619281486346 0 -0.0073590456047476389 -0.014058871077081656 0 0.0032730111600920474 -0.0045827750308016744 0 0.0005632085389662315 -0.0033723887003204406 0 0.00049298421576856504 -0.0056701084949487566 0 -0.014890544076939101 -0.027453083991138605 0 -0.015138665700621015 -0.027306343122433841 0 -0.015348948294592848 -0.027437327271925733 0 -0.014890544076939101 -0.027453083991138605 0 -0.015381225209941569 -0.027674463525871162 0 -0.015348948294592848 -0.027437327271925733 0 -0.0061152061291846489 -0.010480619281486346 0 -0.0075591453471111382 -0.0085551934051516631 0 -0.0061152061291846489 -0.010480619281486346 0 -0.0064496734945907724 -0.012633435043661288 0 -0.015138665700621015 -0.027306343122433841 0 -0.015064988291669475 -0.027234574981618114 0 -0.015176110512086104 -0.027199123181648847 0 -0.015066253019727223 -0.027306374339417839 0 -0.015138665700621015 -0.027306343122433841 0 -0.015064988291669475 -0.027234574981618114 0 -0.015066253019727223 -0.027306374339417839 0 -0.015064988291669475 -0.027234574981618114 0 -0.014995889804271861 -0.027265589342704066 0 -0.015064988291669475 -0.027234574981618114 0 -0.014995889804271861 -0.027265589342704066 0 -0.01498698051369877 -0.027154590063018152 0 -0.014895138158087609 -0.027216285014429385 0 -0.014995889804271861 -0.027265589342704066 0 -0.01498698051369877 -0.027154590063018152 0 -0.0080220577593609777 -0.016837516045335645 0 -0.0073590456047476389 -0.014058871077081656 0 -0.0080220577593609777 -0.016837516045335645 0 -0.0082370140598285718 -0.018283927908982263 0 -0.014799968827871679 -0.027176340245391301 0 -0.014812340501177537 -0.027000124937441757 0 -0.014313202259459453 -0.026741525055221236 0 -0.0080220577593609777 -0.016837516045335645 0 -0.0097137990894140686 -0.019883266856565284 0 -0.0034851215608064307 -0.0024712363314822105 0 -0.0018014199143622531 -0.0042795394050827613 0 -0.0059549513096000201 -0.0028560278814895351 0 -0.0023210105511427153 -0.0067975075725423906 0 -0.0018014199143622531 -0.0042795394050827613 0 -0.0059549513096000201 -0.0028560278814895351 0 -0.0080220577593609777 -0.016837516045335645 0 -0.0076859327505930958 -0.0086549030434581557 0 -0.0034851215608064307 -0.0024712363314822105 0 -0.0018014199143622531 -0.0042795394050827613 0 -0.0016068835852642281 -0.002913459383431891 0 -0.0018014199143622531 -0.0042795394050827613 0 -0.0016068835852642281 -0.002913459383431891 0 -0.00068546846380095788 -0.0034937907424555928 0 -0.0039079977885541567 0.0019339290244864333 0 -0.0061152061291846489 -0.010480619281486346 0 -0.00071591089208823872 -0.001472696712081328 0 0.0032730111600920474 -0.0045827750308016744 0 0.0005632085389662315 -0.0033723887003204406 0 -0.00099376554133897448 -0.0026859299263213062 0 -0.0016068835852642281 -0.002913459383431891 0 -0.00068546846380095788 -0.0034937907424555928 0 -0.00058257522517571531 -0.0025307231057702458 0 -0.00099376554133897448 -0.0026859299263213062 0 -0.00068546846380095788 -0.0034937907424555928 0 -0.00058257522517571531 -0.0025307231057702458 0 -0.00068546846380095788 -0.0034937907424555928 0 0.0005632085389662315 -0.0033723887003204406 0 -0.00068546846380095788 -0.0034937907424555928 0 0.0005632085389662315 -0.0033723887003204406 0 0.00049298421576856504 -0.0056701084949487566 0 -0.0023210105511427153 -0.0067975075725423906 0 -0.0018014199143622531 -0.0042795394050827613 0 0.00049298421576856504 -0.0056701084949487566 0 -0.0018014199143622531 -0.0042795394050827613 0 -0.00068546846380095788 -0.0034937907424555928 0 0.00049298421576856504 -0.0056701084949487566 0 -0.01660984386862057 -0.027657276475182166 0 -0.016414826243490725 -0.027675085088241819 0 -0.016262056975495664 -0.027923586071128954 0 -0.040873911428155975 -0.014699085886175356 0 -0.027455833946039947 -0.0073420624485465774 0 -0.016271911601477555 -0.027674325845348756 0 -0.016262056975495664 -0.027923586071128954 0 -0.016057758551547639 -0.027674248639891801 0 -0.016414826243490725 -0.027675085088241819 0 -0.016271911601477555 -0.027674325845348756 0 -0.01638718368456878 -0.027559612899779002 0 -0.016414826243490725 -0.027675085088241819 0 -0.016271911601477555 -0.027674325845348756 0 -0.016262056975495664 -0.027923586071128954 0 -0.039658349222995978 -0.0093275884667905692 0 -0.041113181968227996 -0.0067423989444158668 0 -0.043347481856162037 -0.0076150244956193084 0 0.011179782865581467 0.010366399350911279 0 0.0097063942641941424 0.009785204889450989 0 0.0085752733258710051 0.01125339013534379 0 -0.041800424289729306 -0.0050119469789868245 0 -0.027455833946039947 -0.0073420624485465774 0 -0.055299339144933547 -0.002807278321912886 0 -0.055950898599911508 -0.0017691639914284895 0 -0.0557121057056068 -0.0029697751717162636 0 0.0085752733258710051 0.01125339013534379 0 0.0073952075567556034 0.0088120251007856604 0 0.0068253328936346462 0.010805309225623429 0 0.0097063942641941424 0.009785204889450989 0 0.0085752733258710051 0.01125339013534379 0 0.0073952075567556034 0.0088120251007856604 0 0.0074065501980467652 0.012430288208203633 0 0.0085752733258710051 0.01125339013534379 0 0.0068253328936346462 0.010805309225623429 0 -0.027455833946039947 -0.0073420624485465774 0 -0.013378187865634512 -0.006549965562625366 0 -0.015933833066775968 -0.027839993070986266 0 -0.016057758551547639 -0.027674248639891801 0 -0.015793993663830021 -0.027530977396108151 0 -0.016262056975495664 -0.027923586071128954 0 -0.015933833066775968 -0.027839993070986266 0 -0.016057758551547639 -0.027674248639891801 0 -0.013378187865634512 -0.006549965562625366 0 -0.0075591453471111382 -0.0085551934051516631 0 0.0073952075567556034 0.0088120251007856604 0 0.0050989364201821288 0.0098167158441933872 0 0.0034008913713264037 0.0071232326815435006 0 -0.015933833066775968 -0.027839993070986266 0 -0.015381225209941569 -0.027674463525871162 0 -0.015793993663830021 -0.027530977396108151 0 0.0073952075567556034 0.0088120251007856604 0 0.0050989364201821288 0.0098167158441933872 0 0.0068253328936346462 0.010805309225623429 0 0.0051364836328528455 0.012264895036757319 0 0.0050989364201821288 0.0098167158441933872 0 0.0068253328936346462 0.010805309225623429 0 0.0051364836328528455 0.012264895036757319 0 0.0050989364201821288 0.0098167158441933872 0 0.0026308133803185814 0.010138239574632012 0 0.0050989364201821288 0.0098167158441933872 0 0.0026308133803185814 0.010138239574632012 0 0.0034008913713264037 0.0071232326815435006 0 -0.015348948294592848 -0.027437327271925733 0 -0.015480280030762936 -0.027303930991858547 0 -0.015793993663830021 -0.027530977396108151 0 -0.015381225209941569 -0.027674463525871162 0 -0.015348948294592848 -0.027437327271925733 0 -0.015793993663830021 -0.027530977396108151 0 -0.015138665700621015 -0.027306343122433841 0 -0.015348948294592848 -0.027437327271925733 0 -0.015480280030762936 -0.027303930991858547 0 -0.015138665700621015 -0.027306343122433841 0 -0.015480280030762936 -0.027303930991858547 0 -0.015176110512086104 -0.027199123181648847 0 -0.015480280030762936 -0.027303930991858547 0 -0.015837662272787077 -0.027323886628512581 0 -0.015793993663830021 -0.027530977396108151 0 -0.015480280030762936 -0.027303930991858547 0 -0.015620100572631955 -0.027181783481206818 0 -0.015391354712929402 -0.027165295665652466 0 -0.015480280030762936 -0.027303930991858547 0 -0.015837662272787077 -0.027323886628512581 0 -0.015620100572631955 -0.027181783481206818 0 -0.015837662272787077 -0.027323886628512581 0 -0.015966951511670668 -0.027091450074891787 0 -0.015620100572631955 -0.027181783481206818 0 -0.016057758551547639 -0.027674248639891801 0 -0.015793993663830021 -0.027530977396108151 0 -0.016011016426476354 -0.027453514325872862 0 -0.016057758551547639 -0.027674248639891801 0 -0.016011016426476354 -0.027453514325872862 0 -0.016207300134203784 -0.027525667314427061 0 -0.016271911601477555 -0.027674325845348756 0 -0.016057758551547639 -0.027674248639891801 0 -0.016207300134203784 -0.027525667314427061 0 -0.016011016426476354 -0.027453514325872862 0 -0.016130290291832106 -0.027309621415206847 0 -0.016207300134203784 -0.027525667314427061 0 -0.015837662272787077 -0.027323886628512581 0 -0.015793993663830021 -0.027530977396108151 0 -0.016011016426476354 -0.027453514325872862 0 -0.015837662272787077 -0.027323886628512581 0 -0.016011016426476354 -0.027453514325872862 0 -0.016130290291832106 -0.027309621415206847 0 -0.015837662272787077 -0.027323886628512581 0 -0.016130290291832106 -0.027309621415206847 0 -0.015966951511670668 -0.027091450074891787 0 -0.016130290291832106 -0.027309621415206847 0 -0.016308406828835251 -0.027267620198588128 0 -0.016197011290690316 -0.027069225443347139 0 -0.016130290291832106 -0.027309621415206847 0 -0.016308406828835251 -0.027267620198588128 0 -0.016341182366406821 -0.02742158843008426 0 -0.016458887047019671 -0.027320448014879709 0 -0.016308406828835251 -0.027267620198588128 0 -0.016396755907480236 -0.027164056593848612 0 -0.016458887047019671 -0.027320448014879709 0 -0.016308406828835251 -0.027267620198588128 0 -0.016341182366406821 -0.02742158843008426 0 -0.016497440841931263 -0.02744486922992298 0 -0.016458887047019671 -0.027320448014879709 0 -0.016341182366406821 -0.02742158843008426 0 -0.016497440841931263 -0.02744486922992298 0 -0.016341182366406821 -0.02742158843008426 0 -0.01638718368456878 -0.027559612899779002 0 -0.016130290291832106 -0.027309621415206847 0 -0.016341182366406821 -0.02742158843008426 0 -0.016207300134203784 -0.027525667314427061 0 -0.016341182366406821 -0.02742158843008426 0 -0.016207300134203784 -0.027525667314427061 0 -0.01638718368456878 -0.027559612899779002 0 -0.016271911601477555 -0.027674325845348756 0 -0.016207300134203784 -0.027525667314427061 0 -0.01638718368456878 -0.027559612899779002 0 -0.016519148525994991 -0.027560103117115202 0 -0.016414826243490725 -0.027675085088241819 0 -0.01638718368456878 -0.027559612899779002 0 -0.016321842065912914 -0.026960987562623384 0 -0.016197011290690316 -0.027069225443347139 0 -0.016199745020768066 -0.026878742655658351 0 -0.016437450397958041 -0.026910992337687897 0 -0.016321842065912914 -0.026960987562623384 0 -0.016244566241254872 -0.02677034223331046 0 -0.016321842065912914 -0.026960987562623384 0 -0.016199745020768066 -0.026878742655658351 0 -0.016244566241254872 -0.02677034223331046 0 -0.016321842065912914 -0.026960987562623384 0 -0.016396755907480236 -0.027164056593848612 0 -0.016197011290690316 -0.027069225443347139 0 -0.016308406828835251 -0.027267620198588128 0 -0.016396755907480236 -0.027164056593848612 0 -0.016197011290690316 -0.027069225443347139 0 -0.016130290291832106 -0.027309621415206847 0 -0.016197011290690316 -0.027069225443347139 0 -0.015966951511670668 -0.027091450074891787 0 -0.016197011290690316 -0.027069225443347139 0 -0.015966951511670668 -0.027091450074891787 0 -0.016094465741197102 -0.026941702650171345 0 -0.016199745020768066 -0.026878742655658351 0 -0.016094465741197102 -0.026941702650171345 0 -0.016275118070694428 -0.026803095982349749 0 -0.016197011290690316 -0.027069225443347139 0 -0.016199745020768066 -0.026878742655658351 0 -0.016094465741197102 -0.026941702650171345 0 -0.01737719232021926 -0.02968540015238863 0 -0.01712728049487118 -0.029493649794009653 0 -0.017445990437214724 -0.029301076804177404 0 -0.016319500704493735 -0.027744717447593308 0 -0.016642187365533814 -0.028076852076380797 0 -0.016094465741197102 -0.026941702650171345 0 -0.016012848688587843 -0.026964279145830296 0 -0.016275118070694428 -0.026803095982349749 0 -0.015966951511670668 -0.027091450074891787 0 -0.016094465741197102 -0.026941702650171345 0 -0.016012848688587843 -0.026964279145830296 0 -0.016187426390512551 -0.027605646400732178 0 -0.016319500704493735 -0.027744717447593308 0 -0.015966951511670668 -0.027091450074891787 0 -0.015620100572631955 -0.027181783481206818 0 -0.015512233510045301 -0.027007423435102124 0 -0.015620100572631955 -0.027181783481206818 0 -0.015512233510045301 -0.027007423435102124 0 -0.015391354712929402 -0.027165295665652466 0 -0.015480280030762936 -0.027303930991858547 0 -0.015391354712929402 -0.027165295665652466 0 -0.015176110512086104 -0.027199123181648847 0 -0.015512233510045301 -0.027007423435102124 0 -0.015391354712929402 -0.027165295665652466 0 -0.015269373134883382 -0.027118181667683865 0 -0.015391354712929402 -0.027165295665652466 0 -0.015269373134883382 -0.027118181667683865 0 -0.015176110512086104 -0.027199123181648847 0 -0.016319500704493735 -0.027744717447593308 0 -0.016291072560613323 -0.028127930851917886 0 -0.015269373134883382 -0.027118181667683865 0 -0.015089035086755591 -0.027171912943366811 0 -0.015118013685254119 -0.02717329776134117 0 -0.015512233510045301 -0.027007423435102124 0 -0.015269373134883382 -0.027118181667683865 0 -0.015089035086755591 -0.027171912943366811 0 -0.01712728049487118 -0.029493649794009653 0 -0.017252414786377547 -0.029174885174472798 0 -0.017445990437214724 -0.029301076804177404 0 -0.017252414786377547 -0.029174885174472798 0 -0.017430445638480917 -0.029007812244117383 0 -0.017243504278350974 -0.028928238236049428 0 -0.016642187365533814 -0.028076852076380797 0 -0.016870990625456331 -0.028262139785485363 0 -0.017252414786377547 -0.029174885174472798 0 -0.017445990437214724 -0.029301076804177404 0 -0.017430445638480917 -0.029007812244117383 0 -0.016199745020768066 -0.026878742655658351 0 -0.016275118070694428 -0.026803095982349749 0 -0.016244566241254872 -0.02677034223331046 0 -0.016275118070694428 -0.026803095982349749 0 -0.016244566241254872 -0.02677034223331046 0 -0.01665639146505022 -0.026832180175959265 0 -0.016244566241254872 -0.02677034223331046 0 -0.015932028623591124 -0.026787653266882264 0 -0.01665639146505022 -0.026832180175959265 0 -0.016337241257464129 -0.026875058605341888 0 -0.016244566241254872 -0.02677034223331046 0 -0.015932028623591124 -0.026787653266882264 0 -0.015121157155765966 -0.027224143168375084 0 -0.015380642607745111 -0.027663733638257179 0 -0.015092771829098385 -0.027348467679993133 0 -0.015121157155765966 -0.027224143168375084 0 -0.014812340501177537 -0.027000124937441757 0 -0.015092771829098385 -0.027348467679993133 0 -0.014812340501177537 -0.027000124937441757 0 -0.015092771829098385 -0.027348467679993133 0 -0.014402441246357459 -0.026754714505761831 0 -0.014799968827871679 -0.027176340245391301 0 -0.014812340501177537 -0.027000124937441757 0 -0.01498698051369877 -0.027154590063018152 0 -0.015121157155765966 -0.027224143168375084 0 -0.01498698051369877 -0.027154590063018152 0 -0.015058175682146856 -0.027184602753974389 0 -0.015121157155765966 -0.027224143168375084 0 -0.014812340501177537 -0.027000124937441757 0 -0.01498698051369877 -0.027154590063018152 0 -0.015121157155765966 -0.027224143168375084 0 -0.015058175682146856 -0.027184602753974389 0 -0.015082247639380052 -0.027188527796332781 0 -0.015064988291669475 -0.027234574981618114 0 -0.01498698051369877 -0.027154590063018152 0 -0.015058175682146856 -0.027184602753974389 0 -0.015064988291669475 -0.027234574981618114 0 -0.015058175682146856 -0.027184602753974389 0 -0.015082247639380052 -0.027188527796332781 0 -0.015064988291669475 -0.027234574981618114 0 -0.015082247639380052 -0.027188527796332781 0 -0.015176110512086104 -0.027199123181648847 0 -0.015082247639380052 -0.027188527796332781 0 -0.015176110512086104 -0.027199123181648847 0 -0.015118013685254119 -0.02717329776134117 0 -0.015269373134883382 -0.027118181667683865 0 -0.015176110512086104 -0.027199123181648847 0 -0.015118013685254119 -0.02717329776134117 0 -0.015089035086755591 -0.027171912943366811 0 -0.015118013685254119 -0.02717329776134117 0 -0.015067819986569369 -0.027292186668564141 0 -0.015082247639380052 -0.027188527796332781 0 -0.015118013685254119 -0.02717329776134117 0 -0.015067819986569369 -0.027292186668564141 0 -0.015121157155765966 -0.027224143168375084 0 -0.015067819986569369 -0.027292186668564141 0 -0.015380642607745111 -0.027663733638257179 0 -0.015121157155765966 -0.027224143168375084 0 -0.015082247639380052 -0.027188527796332781 0 -0.015067819986569369 -0.027292186668564141 0 -0.014982112450302022 -0.027625189045220544 0 -0.015762785270915416 -0.028537987936010093 0 -0.015380642607745111 -0.027663733638257179 0 -0.015067819986569369 -0.027292186668564141 0 -0.014982112450302022 -0.027625189045220544 0 -0.015380642607745111 -0.027663733638257179 0 -0.015089035086755591 -0.027171912943366811 0 -0.015067819986569369 -0.027292186668564141 0 -0.014982112450302022 -0.027625189045220544 0 -0.016291072560613323 -0.028127930851917886 0 -0.016140624498587313 -0.02825955834627096 0 -0.01712728049487118 -0.029493649794009653 0 -0.017252414786377547 -0.029174885174472798 0 -0.016764463158613852 -0.029280234390086049 0 -0.017252414786377547 -0.029174885174472798 0 -0.016764463158613852 -0.029280234390086049 0 -0.017243504278350974 -0.028928238236049428 0 -0.016764463158613852 -0.029280234390086049 0 -0.017243504278350974 -0.028928238236049428 0 -0.016685965363989877 -0.028708319893070888 0 -0.016140624498587313 -0.02825955834627096 0 -0.016070939052405694 -0.028294211231938624 0 -0.016764463158613852 -0.029280234390086049 0 -0.015762785270915416 -0.028537987936010093 0 -0.016685965363989877 -0.028708319893070888 0 -0.015762785270915416 -0.028537987936010093 0 -0.015380642607745111 -0.027663733638257179 0 -0.015458715354334254 -0.028099466439828413 0 -0.015380642607745111 -0.027663733638257179 0 -0.015092771829098385 -0.027348467679993133 0 -0.015458715354334254 -0.028099466439828413 0 -0.015092771829098385 -0.027348467679993133 0 -0.015458715354334254 -0.028099466439828413 0 -0.015117764157738439 -0.027587694929961385 0 -0.015458715354334254 -0.028099466439828413 0 -0.015445077682881376 -0.028006837101453467 0 -0.015117764157738439 -0.027587694929961385 0 -0.015445077682881376 -0.028006837101453467 0 -0.015170963132571111 -0.027579260424072601 0 -0.015117764157738439 -0.027587694929961385 0 -0.015498196123694347 -0.02781750025421223 0 -0.015664646163367855 -0.027999433442188082 0 -0.015445077682881376 -0.028006837101453467 0 -0.015170963132571111 -0.027579260424072601 0 -0.015951333439842657 -0.028046504034628744 0 -0.015170963132571111 -0.027579260424072601 0 -0.014402441246357459 -0.026754714505761831 0 -0.014743911325454878 -0.027115767512346244 0 -0.015170963132571111 -0.027579260424072601 0 -0.015267326018507119 -0.027421967726187556 0 -0.014743911325454878 -0.027115767512346244 0 -0.015170963132571111 -0.027579260424072601 0 -0.015117764157738439 -0.027587694929961385 0 -0.014402441246357459 -0.026754714505761831 0 -0.015092771829098385 -0.027348467679993133 0 -0.015117764157738439 -0.027587694929961385 0 -0.014402441246357459 -0.026754714505761831 0 -0.015444757391863285 -0.027592714836423709 0 -0.015781789606823807 -0.02773089205423028 0 -0.015649747667476288 -0.027940197517966309 0 -0.015444757391863285 -0.027592714836423709 0 -0.015649747667476288 -0.027940197517966309 0 -0.01537348873829685 -0.027858303477701702 0 -0.015170963132571111 -0.027579260424072601 0 -0.015444757391863285 -0.027592714836423709 0 -0.01537348873829685 -0.027858303477701702 0 -0.015170963132571111 -0.027579260424072601 0 -0.015267326018507119 -0.027421967726187556 0 -0.015444757391863285 -0.027592714836423709 0 -0.015267326018507119 -0.027421967726187556 0 -0.015444757391863285 -0.027592714836423709 0 -0.015467297072699993 -0.027414863532683749 0 -0.015444757391863285 -0.027592714836423709 0 -0.015605479679209862 -0.027349674699780939 0 -0.015781789606823807 -0.02773089205423028 0 -0.012221833284287768 -0.020144431867666835 0 -0.012761188642312361 -0.023523048039350944 0 -0.015444757391863285 -0.027592714836423709 0 -0.015467297072699993 -0.027414863532683749 0 -0.015605479679209862 -0.027349674699780939 0 -0.012170271631371962 -0.018455579059523143 0 -0.013103531498440386 -0.019502802205471351 0 -0.012221833284287768 -0.020144431867666835 0 -0.013103531498440386 -0.019502802205471351 0 -0.011657934819278489 -0.019980106117573157 0 -0.011498996916398148 -0.019247999451873492 0 -0.012846449678855284 -0.019560730644721039 0 -0.015467297072699993 -0.027414863532683749 0 -0.015605479679209862 -0.027349674699780939 0 -0.015395054821328892 -0.027385356974498069 0 -0.012170271631371962 -0.018455579059523143 0 -0.012221833284287768 -0.020144431867666835 0 -0.00062337033172425911 -0.017246794580555367 0 -0.0011587877098277399 -0.02003859476142986 0 -0.0031757517575065571 -0.017837806451046712 0 -0.020223654654383538 -0.02680717536240031 0 -0.015395054821328892 -0.027385356974498069 0 -0.015815242959865541 -0.025510394584604062 0 -0.015267326018507119 -0.027421967726187556 0 -0.015467297072699993 -0.027414863532683749 0 -0.015395054821328892 -0.027385356974498069 0 -0.015267326018507119 -0.027421967726187556 0 -0.015395054821328892 -0.027385356974498069 0 -0.014743911325454878 -0.027115767512346244 0 -0.015395054821328892 -0.027385356974498069 0 -0.015815242959865541 -0.025510394584604062 0 -0.014269292054919957 -0.026535073514150052 0 -0.015395054821328892 -0.027385356974498069 0 -0.014743911325454878 -0.027115767512346244 0 -0.014269292054919957 -0.026535073514150052 0 -0.015815242959865541 -0.025510394584604062 0 -0.014727982961241701 -0.019908889760385223 0 -0.019833167219452 -0.020917176293302746 0 -0.015815242959865541 -0.025510394584604062 0 -0.012877831916094259 -0.025118769140766852 0 -0.014727982961241701 -0.019908889760385223 0 -0.015815242959865541 -0.025510394584604062 0 -0.014269292054919957 -0.026535073514150052 0 -0.012877831916094259 -0.025118769140766852 0 -0.020223654654383538 -0.02680717536240031 0 -0.015815242959865541 -0.025510394584604062 0 -0.019833167219452 -0.020917176293302746 0 -0.0127734568835444 -0.011327634951380365 0 -0.012177664052605402 -0.0086372711534305063 0 -0.014154819961491037 -0.0091056233308846098 0 -0.012170271631371962 -0.018455579059523143 0 -0.013862001520074345 -0.014248800476279938 0 -0.014402441246357459 -0.026754714505761831 0 -0.014743911325454878 -0.027115767512346244 0 -0.014269292054919957 -0.026535073514150052 0 -0.014402441246357459 -0.026754714505761831 0 -0.014269292054919957 -0.026535073514150052 0 -0.012877831916094259 -0.025118769140766852 0 -0.01106503165526905 -0.021075464253920904 0 -0.0097137990894140686 -0.019883266856565284 0 -0.014402441246357459 -0.026754714505761831 0 -0.012877831916094259 -0.025118769140766852 0 -0.014313202259459453 -0.026741525055221236 0 -0.014812340501177537 -0.027000124937441757 0 -0.014402441246357459 -0.026754714505761831 0 -0.014313202259459453 -0.026741525055221236 0 -0.002616248043316222 -0.021515597464320718 0 -0.0089660690059718724 -0.016516147181988829 0 -0.0027927557547567697 -0.0086255595901436489 0 0.0059015562594122916 -0.018168187825824637 0 -0.002616248043316222 -0.021515597464320718 0 -0.0027927557547567697 -0.0086255595901436489 0 -0.0087603865717104084 -0.010612766877742881 0 -0.0089660690059718724 -0.016516147181988829 0 -0.0027927557547567697 -0.0086255595901436489 0 -0.0087603865717104084 -0.010612766877742881 0 -0.012607999237799018 -0.013678115409364883 0 -0.012435277058296189 -0.0090173602692472186 0 -0.0087603865717104084 -0.010612766877742881 0 -0.0089660690059718724 -0.016516147181988829 0 -0.012607999237799018 -0.013678115409364883 0 -0.0089660690059718724 -0.016516147181988829 0 -0.014727982961241701 -0.019908889760385223 0 -0.012607999237799018 -0.013678115409364883 0 -0.012877831916094259 -0.025118769140766852 0 -0.002616248043316222 -0.021515597464320718 0 -0.0089660690059718724 -0.016516147181988829 0 -0.012877831916094259 -0.025118769140766852 0 -0.0089660690059718724 -0.016516147181988829 0 -0.014727982961241701 -0.019908889760385223 0 -0.014727982961241701 -0.019908889760385223 0 -0.019833167219452 -0.020917176293302746 0 -0.016740269273257918 -0.014716782666376866 0 -0.014727982961241701 -0.019908889760385223 0 -0.012607999237799018 -0.013678115409364883 0 -0.016740269273257918 -0.014716782666376866 0 -0.012177664052605402 -0.0086372711534305063 0 -0.012810963796042994 -0.006773910778450006 0 -0.011550735955991518 -0.0059135317679429224 0 -0.019833167219452 -0.020917176293302746 0 -0.018532170730416801 -0.012547160761020302 0 -0.016740269273257918 -0.014716782666376866 0 -0.012177664052605402 -0.0086372711534305063 0 -0.014138104257337006 -0.0070043310943146827 0 -0.014154819961491037 -0.0091056233308846098 0 -0.013862001520074345 -0.014248800476279938 0 -0.01465308258422357 -0.0092549685066492873 0 -0.012177664052605402 -0.0086372711534305063 0 -0.012810963796042994 -0.006773910778450006 0 -0.014138104257337006 -0.0070043310943146827 0 -0.011550735955991518 -0.0059135317679429224 0 -0.013383586615955793 -0.005525367333051325 0 -0.013494133344266183 -0.0034146337876227919 0 -0.012810963796042994 -0.006773910778450006 0 -0.013383586615955793 -0.005525367333051325 0 -0.014138104257337006 -0.0070043310943146827 0 -0.012810963796042994 -0.006773910778450006 0 -0.011550735955991518 -0.0059135317679429224 0 -0.013383586615955793 -0.005525367333051325 0 -0.018426045302372206 -0.012049148730404798 0 -0.01501697910275937 -0.010774267215895814 0 -0.014798165249927704 -0.0047550093980923578 0 -0.012607999237799018 -0.013678115409364883 0 -0.016740269273257918 -0.014716782666376866 0 -0.01501697910275937 -0.010774267215895814 0 -0.018426045302372206 -0.012049148730404798 0 -0.016740269273257918 -0.014716782666376866 0 -0.01501697910275937 -0.010774267215895814 0 -0.01465308258422357 -0.0092549685066492873 0 -0.014621521348232925 -0.0094427411815671859 0 -0.012607999237799018 -0.013678115409364883 0 -0.01501697910275937 -0.010774267215895814 0 -0.012435277058296189 -0.0090173602692472186 0 -0.01465308258422357 -0.0092549685066492873 0 -0.014654586148286977 -0.0085992885026078443 0 -0.014798165249927704 -0.0047550093980923578 0 -0.014596737807031497 -0.0012847730879610637 0 -0.010865874779174323 -0.0056667858072829364 0 -0.012435277058296189 -0.0090173602692472186 0 -0.014798165249927704 -0.0047550093980923578 0 -0.010865874779174323 -0.0056667858072829364 0 -0.01501697910275937 -0.010774267215895814 0 -0.012435277058296189 -0.0090173602692472186 0 -0.014798165249927704 -0.0047550093980923578 0 -0.015220123928079615 -0.0066884353232135188 0 -0.014798165249927704 -0.0047550093980923578 0 -0.016978683969786024 -0.0036377202070894065 0 -0.01465308258422357 -0.0092549685066492873 0 -0.016059149591964791 -0.005027524223299812 0 -0.014798165249927704 -0.0047550093980923578 0 -0.014596737807031497 -0.0012847730879610637 0 -0.016978683969786024 -0.0036377202070894065 0 -0.017019023674825027 0.0039531863699982699 0 -0.015417622297572592 0.0017932178067521457 0 -0.016246186490326355 0.0013800858746321422 0 -0.014596737807031497 -0.0012847730879610637 0 -0.016469340325837214 -0.00087424405863610166 0 -0.014596737807031497 -0.0012847730879610637 0 -0.016469340325837214 -0.00087424405863610166 0 -0.016978683969786024 -0.0036377202070894065 0 -0.013996887757808749 0.0056930401328442858 0 -0.014596737807031497 -0.0012847730879610637 0 -0.0098950694908117622 -0.001065464857606826 0 -0.014596737807031497 -0.0012847730879610637 0 -0.0098950694908117622 -0.001065464857606826 0 -0.010865874779174323 -0.0056667858072829364 0 -0.0094034170735829113 0.0056379316613728216 0 -0.0097580250014264076 0.0012377056957496378 0 -0.0049445026769849732 0.0019563134143144915 0 -0.0097580250014264076 0.0012377056957496378 0 -0.0049445026769849732 0.0019563134143144915 0 -0.0059549513096000201 -0.0028560278814895351 0 -0.0034851215608064307 -0.0024712363314822105 0 -0.0049445026769849732 0.0019563134143144915 0 -0.0059549513096000201 -0.0028560278814895351 0 -0.0098950694908117622 -0.001065464857606826 0 -0.0027927557547567697 -0.0086255595901436489 0 -0.010865874779174323 -0.0056667858072829364 0 -0.0087603865717104084 -0.010612766877742881 0 -0.0027927557547567697 -0.0086255595901436489 0 -0.010865874779174323 -0.0056667858072829364 0 -0.01086071498201522 -0.0017185961594356686 0 -0.0076859327505930958 -0.0086549030434581557 0 -0.0087603865717104084 -0.010612766877742881 0 -0.012435277058296189 -0.0090173602692472186 0 -0.010865874779174323 -0.0056667858072829364 0 -0.019381128804099448 -0.0031186264227217038 0 -0.017866150513347927 -0.0041413811195147067 0 -0.018640808420885217 -0.0055568269398910113 0 -0.019381128804099448 -0.0031186264227217038 0 -0.018310143425399841 -0.0016177518865484752 0 -0.017866150513347927 -0.0041413811195147067 0 -0.019381128804099448 -0.0031186264227217038 0 -0.020184228448691745 -0.0042938475977805715 0 -0.018640808420885217 -0.0055568269398910113 0 -0.021157230930933447 -0.0024890816861460234 0 -0.021575916834872394 -0.0049146327972715538 0 -0.022618811699762254 -0.0034684305343472359 0 -0.020184228448691745 -0.0042938475977805715 0 -0.021157230930933447 -0.0024890816861460234 0 -0.021575916834872394 -0.0049146327972715538 0 -0.019381128804099448 -0.0031186264227217038 0 -0.020184228448691745 -0.0042938475977805715 0 -0.021157230930933447 -0.0024890816861460234 0 -0.020625353042928871 2.9954581198432048e-05 0 -0.021157230930933447 -0.0024890816861460234 0 -0.022788770672252222 -0.00048600698776856533 0 -0.021157230930933447 -0.0024890816861460234 0 -0.022788770672252222 -0.00048600698776856533 0 -0.022618811699762254 -0.0034684305343472359 0 -0.020625353042928871 2.9954581198432048e-05 0 -0.021157230930933447 -0.0024890816861460234 0 -0.019699989917999493 -0.0014901559228633584 0 -0.020625353042928871 2.9954581198432048e-05 0 -0.019329295999239101 0.00036268444603872782 0 -0.019699989917999493 -0.0014901559228633584 0 -0.019381128804099448 -0.0031186264227217038 0 -0.021157230930933447 -0.0024890816861460234 0 -0.019699989917999493 -0.0014901559228633584 0 -0.019381128804099448 -0.0031186264227217038 0 -0.019699989917999493 -0.0014901559228633584 0 -0.018310143425399841 -0.0016177518865484752 0 -0.019329295999239101 0.00036268444603872782 0 -0.018165587535724548 -0.00014321664579762441 0 -0.018310143425399841 -0.0016177518865484752 0 -0.019329295999239101 0.00036268444603872782 0 -0.019699989917999493 -0.0014901559228633584 0 -0.018310143425399841 -0.0016177518865484752 0 -0.018165587535724548 -0.00014321664579762441 0 -0.018310143425399841 -0.0016177518865484752 0 -0.015573405376293901 -0.00078411941698812763 0 -0.018310143425399841 -0.0016177518865484752 0 -0.015573405376293901 -0.00078411941698812763 0 -0.016314117891945815 -0.0034410603541149202 0 -0.017434195044557645 -0.0020291427999298882 0 -0.016059149591964791 -0.005027524223299812 0 -0.015573405376293901 -0.00078411941698812763 0 -0.013494133344266183 -0.0034146337876227919 0 -0.016314117891945815 -0.0034410603541149202 0 -0.016469340325837214 -0.00087424405863610166 0 -0.018071023977636481 -0.00023021381303841814 0 -0.016978683969786024 -0.0036377202070894065 0 -0.016246186490326355 0.0013800858746321422 0 -0.016469340325837214 -0.00087424405863610166 0 -0.018071023977636481 -0.00023021381303841814 0 -0.013494133344266183 -0.0034146337876227919 0 -0.016314117891945815 -0.0034410603541149202 0 -0.014879721963348261 -0.0049678488996839814 0 -0.013383586615955793 -0.005525367333051325 0 -0.013494133344266183 -0.0034146337876227919 0 -0.014879721963348261 -0.0049678488996839814 0 -0.017866150513347927 -0.0041413811195147067 0 -0.016314117891945815 -0.0034410603541149202 0 -0.016422477163797567 -0.005955491820453236 0 -0.018310143425399841 -0.0016177518865484752 0 -0.017866150513347927 -0.0041413811195147067 0 -0.016314117891945815 -0.0034410603541149202 0 -0.016314117891945815 -0.0034410603541149202 0 -0.016422477163797567 -0.005955491820453236 0 -0.014879721963348261 -0.0049678488996839814 0 -0.017866150513347927 -0.0041413811195147067 0 -0.016422477163797567 -0.005955491820453236 0 -0.018640808420885217 -0.0055568269398910113 0 -0.016422477163797567 -0.005955491820453236 0 -0.017728437347946702 -0.007370834619073517 0 -0.018640808420885217 -0.0055568269398910113 0 -0.016422477163797567 -0.005955491820453236 0 -0.014879721963348261 -0.0049678488996839814 0 -0.014138104257337006 -0.0070043310943146827 0 -0.013383586615955793 -0.005525367333051325 0 -0.014879721963348261 -0.0049678488996839814 0 -0.014138104257337006 -0.0070043310943146827 0 -0.016422477163797567 -0.005955491820453236 0 -0.014138104257337006 -0.0070043310943146827 0 -0.016033877226613934 -0.0082779677658552688 0 -0.014138104257337006 -0.0070043310943146827 0 -0.016033877226613934 -0.0082779677658552688 0 -0.014154819961491037 -0.0091056233308846098 0 -0.016033877226613934 -0.0082779677658552688 0 -0.017728437347946702 -0.007370834619073517 0 -0.018303594057985012 -0.0092395704171452167 0 -0.016422477163797567 -0.005955491820453236 0 -0.016033877226613934 -0.0082779677658552688 0 -0.017728437347946702 -0.007370834619073517 0 -0.017728437347946702 -0.007370834619073517 0 -0.019399389515836786 -0.0077277973125418585 0 -0.018303594057985012 -0.0092395704171452167 0 -0.018640808420885217 -0.0055568269398910113 0 -0.020117932397932574 -0.0058244776258700457 0 -0.019399389515836786 -0.0077277973125418585 0 -0.017728437347946702 -0.007370834619073517 0 -0.018640808420885217 -0.0055568269398910113 0 -0.019399389515836786 -0.0077277973125418585 0 -0.020184228448691745 -0.0042938475977805715 0 -0.018640808420885217 -0.0055568269398910113 0 -0.020117932397932574 -0.0058244776258700457 0 -0.021575916834872394 -0.0049146327972715538 0 -0.021515332273783133 -0.0063323354843985175 0 -0.023063715126570208 -0.0055279818194384428 0 -0.021575916834872394 -0.0049146327972715538 0 -0.020117932397932574 -0.0058244776258700457 0 -0.021515332273783133 -0.0063323354843985175 0 -0.020184228448691745 -0.0042938475977805715 0 -0.021575916834872394 -0.0049146327972715538 0 -0.020117932397932574 -0.0058244776258700457 0 -0.020117932397932574 -0.0058244776258700457 0 -0.021515332273783133 -0.0063323354843985175 0 -0.019399389515836786 -0.0077277973125418585 0 -0.019399389515836786 -0.0077277973125418585 0 -0.020618719339153071 -0.0088088997825018448 0 -0.018303594057985012 -0.0092395704171452167 0 -0.017544581706578931 -0.011723232556670703 0 -0.015512455332824294 -0.012863658839315135 0 -0.017773688831186039 -0.0036120757637060812 0 -0.014696716001998183 -0.0027246412630855567 0 -0.019399389515836786 -0.0077277973125418585 0 -0.020618719339153071 -0.0088088997825018448 0 -0.023011196504256898 -0.0075711134742589949 0 -0.021515332273783133 -0.0063323354843985175 0 -0.019399389515836786 -0.0077277973125418585 0 -0.023153718672193808 -0.0076640769676199101 0 -0.020618719339153071 -0.0088088997825018448 0 -0.019857795519246435 -0.012269329749439367 0 -0.011489003087845123 -0.01210915345641103 0 -0.020618719339153071 -0.0088088997825018448 0 -0.019857795519246435 -0.012269329749439367 0 -0.02315904934018272 -0.01103122275807936 0 -0.019857795519246435 -0.012269329749439367 0 -0.018140049478469304 -0.015296813268435669 0 -0.011489003087845123 -0.01210915345641103 0 -0.019857795519246435 -0.012269329749439367 0 -0.018140049478469304 -0.015296813268435669 0 -0.02432309928878831 -0.014336652294354275 0 -0.018140049478469304 -0.015296813268435669 0 -0.013673163074443315 -0.016065893815287238 0 -0.016442142770320349 -0.018132598017288636 0 -0.011489003087845123 -0.01210915345641103 0 -0.013673163074443315 -0.016065893815287238 0 -0.0099151376199129518 -0.019342467299302106 0 -0.018140049478469304 -0.015296813268435669 0 -0.011489003087845123 -0.01210915345641103 0 -0.013673163074443315 -0.016065893815287238 0 -0.013673163074443315 -0.016065893815287238 0 -0.0099151376199129518 -0.019342467299302106 0 -0.016442142770320349 -0.018132598017288636 0 -0.0099151376199129518 -0.019342467299302106 0 -0.0094494748635032995 -0.021202872563703644 0 -0.0096412602336260894 -0.02051798917103875 0 -0.011691095989018062 -0.019494193503855371 0 -0.012674762440185408 -0.019601267185346424 0 -0.0099151376199129518 -0.019342467299302106 0 -0.0083091305341298684 -0.021229215957037337 0 -0.0096412602336260894 -0.02051798917103875 0 -0.0099151376199129518 -0.019342467299302106 0 -0.019330818542189803 -0.0218048554112182 0 -0.016442142770320349 -0.018132598017288636 0 -0.018140049478469304 -0.015296813268435669 0 -0.016442142770320349 -0.018132598017288636 0 -0.020900609922813923 -0.018178727990884179 0 -0.019330818542189803 -0.0218048554112182 0 -0.016442142770320349 -0.018132598017288636 0 -0.020900609922813923 -0.018178727990884179 0 -0.012170271631371962 -0.018455579059523143 0 -0.0126471367903078 -0.015325991667472855 0 -0.0127734568835444 -0.011327634951380365 0 -0.014154819961491037 -0.0091056233308846098 0 -0.015621655317558207 -0.010276465016268617 0 -0.00062337033172425911 -0.017246794580555367 0 -0.0054458668409161992 -0.01526927272760405 0 -0.0031757517575065571 -0.017837806451046712 0 -0.016033877226613934 -0.0082779677658552688 0 -0.014154819961491037 -0.0091056233308846098 0 -0.015621655317558207 -0.010276465016268617 0 -0.016033877226613934 -0.0082779677658552688 0 -0.018303594057985012 -0.0092395704171452167 0 -0.015621655317558207 -0.010276465016268617 0 -0.015512455332824294 -0.012863658839315135 0 -0.0126471367903078 -0.015325991667472855 0 -0.011489003087845123 -0.01210915345641103 0 -0.0099151376199129518 -0.019342467299302106 0 -0.0054458668409161992 -0.01526927272760405 0 -0.0099151376199129518 -0.019342467299302106 0 -0.0054623668070630732 -0.018884583676620222 0 -0.0083091305341298684 -0.021229215957037337 0 -0.0099151376199129518 -0.019342467299302106 0 -0.0054458668409161992 -0.01526927272760405 0 -0.0054623668070630732 -0.018884583676620222 0 -0.0011587877098277399 -0.02003859476142986 0 -0.0054623668070630732 -0.018884583676620222 0 -0.0083091305341298684 -0.021229215957037337 0 -0.0011587877098277399 -0.02003859476142986 0 -0.0054623668070630732 -0.018884583676620222 0 -0.0031757517575065571 -0.017837806451046712 0 -0.0054458668409161992 -0.01526927272760405 0 -0.0054623668070630732 -0.018884583676620222 0 -0.0031757517575065571 -0.017837806451046712 0 -0.012553246930319419 -0.021514991665529289 0 -0.011904313288370902 -0.020845768570722494 0 -0.012229884230952953 -0.019967108200428699 0 -0.012553246930319419 -0.021514991665529289 0 -0.011904313288370902 -0.020845768570722494 0 -0.011022623537423054 -0.021140050936114711 0 -0.012221833284287768 -0.020144431867666835 0 -0.0097148216622816551 -0.020361461706028074 0 -0.011904313288370902 -0.020845768570722494 0 -0.011022623537423054 -0.021140050936114711 0 -0.011339528977084481 -0.020285974408426503 0 -0.011022623537423054 -0.021140050936114711 0 -0.011339528977084481 -0.020285974408426503 0 -0.010478523225425477 -0.020178734912203532 0 -0.011339528977084481 -0.020285974408426503 0 -0.010478523225425477 -0.020178734912203532 0 -0.011087185791971894 -0.019238064222537463 0 -0.011339528977084481 -0.020285974408426503 0 -0.012229884230952953 -0.019967108200428699 0 -0.011087185791971894 -0.019238064222537463 0 -0.011904313288370902 -0.020845768570722494 0 -0.011339528977084481 -0.020285974408426503 0 -0.012229884230952953 -0.019967108200428699 0 -0.0096776007441183292 -0.020871566172571104 0 -0.0087976254322564909 -0.021014346716091644 0 -0.0089168441016895233 -0.020368029315369143 0 -0.0094494748635032995 -0.021202872563703644 0 -0.0096776007441183292 -0.020871566172571104 0 -0.0087976254322564909 -0.021014346716091644 0 -0.0094494748635032995 -0.021202872563703644 0 -0.0096776007441183292 -0.020871566172571104 0 -0.0096412602336260894 -0.02051798917103875 0 -0.0083091305341298684 -0.021229215957037337 0 -0.0096776007441183292 -0.020871566172571104 0 -0.0096412602336260894 -0.02051798917103875 0 -0.0097148216622816551 -0.020361461706028074 0 -0.0096405313255208038 -0.020517866431467646 0 -0.011022623537423054 -0.021140050936114711 0 -0.0096776007441183292 -0.020871566172571104 0 -0.010478523225425477 -0.020178734912203532 0 -0.0096776007441183292 -0.020871566172571104 0 -0.010478523225425477 -0.020178734912203532 0 -0.009688850774034188 -0.020080818829948659 0 -0.010478523225425477 -0.020178734912203532 0 -0.009688850774034188 -0.020080818829948659 0 -0.0099902745068517866 -0.019097437303937138 0 -0.0096776007441183292 -0.020871566172571104 0 -0.009688850774034188 -0.020080818829948659 0 -0.0089168441016895233 -0.020368029315369143 0 -0.009688850774034188 -0.020080818829948659 0 -0.0090761474925805056 -0.019511216416984806 0 -0.0089168441016895233 -0.020368029315369143 0 -0.0090761474925805056 -0.019511216416984806 0 -0.0099902745068517866 -0.019097437303937138 0 -0.0088846430989833105 -0.018445746382507629 0 -0.009688850774034188 -0.020080818829948659 0 -0.0090761474925805056 -0.019511216416984806 0 -0.0099902745068517866 -0.019097437303937138 0 -0.0099902745068517866 -0.019097437303937138 0 -0.010394761834059225 -0.018356376217317519 0 -0.011087185791971894 -0.019238064222537463 0 -0.010478523225425477 -0.020178734912203532 0 -0.0099902745068517866 -0.019097437303937138 0 -0.011087185791971894 -0.019238064222537463 0 -0.0099902745068517866 -0.019097437303937138 0 -0.010394761834059225 -0.018356376217317519 0 -0.009760241618453798 -0.018004377309192243 0 -0.010394761834059225 -0.018356376217317519 0 -0.009760241618453798 -0.018004377309192243 0 -0.010606592195554964 -0.017744920911414178 0 -0.009760241618453798 -0.018004377309192243 0 -0.0088846430989833105 -0.018445746382507629 0 -0.0089164485863080147 -0.017195910848439702 0 -0.0099902745068517866 -0.019097437303937138 0 -0.009760241618453798 -0.018004377309192243 0 -0.0088846430989833105 -0.018445746382507629 0 -0.009760241618453798 -0.018004377309192243 0 -0.0089164485863080147 -0.017195910848439702 0 -0.010002750327626805 -0.017234163529811494 0 -0.009760241618453798 -0.018004377309192243 0 -0.010002750327626805 -0.017234163529811494 0 -0.010606592195554964 -0.017744920911414178 0 -0.010002750327626805 -0.017234163529811494 0 -0.010626061355020033 -0.016941723737511183 0 -0.010606592195554964 -0.017744920911414178 0 -0.010002750327626805 -0.017234163529811494 0 -0.010077748634028329 -0.016369716676972772 0 -0.010626061355020033 -0.016941723737511183 0 -0.010077748634028329 -0.016369716676972772 0 -0.010772795068529416 -0.01640902088348067 0 -0.010626061355020033 -0.016941723737511183 0 0.021447556957313405 -0.056575430638896154 0 0.018766793882178751 -0.0541455037059742 0 0.0221794251439511 -0.054125032545548034 0 -0.0089164485863080147 -0.017195910848439702 0 -0.010002750327626805 -0.017234163529811494 0 -0.010077748634028329 -0.016369716676972772 0 0.0050397391179935139 -0.037971406909936237 0 0.0011717330118691776 -0.038239805095354781 0 -0.016202890774839069 -0.028644039932793883 0 -0.016256001167625694 -0.028662870078365873 0 -0.016172775225392622 -0.028596880119025069 0 -0.016197184786416872 -0.028606505218324228 0 -0.016205745937773554 -0.028653337082365265 0 -0.016204109596450168 -0.02865351380432658 0 -0.016202890774839069 -0.028644039932793883 0 -0.016197184786416872 -0.028606505218324228 0 -0.016205745937773554 -0.028653337082365265 0 -0.016202890774839069 -0.028644039932793883 0 -0.016172775225392622 -0.028596880119025069 0 -0.016197184786416872 -0.028606505218324228 0 -0.016205745937773554 -0.028653337082365265 0 -0.016204109596450168 -0.02865351380432658 0 -0.016209909168080436 -0.028682086023380973 0 -0.016202890774839069 -0.028644039932793883 0 -0.016256001167625694 -0.028662870078365873 0 -0.016228393715283482 -0.028680323099356746 0 -0.016205745937773554 -0.028653337082365265 0 -0.016228393715283482 -0.028680323099356746 0 -0.016209909168080436 -0.028682086023380973 0 -0.016202890774839069 -0.028644039932793883 0 -0.016205745937773554 -0.028653337082365265 0 -0.016228393715283482 -0.028680323099356746 0 -0.01136929383941122 -0.016803590252690515 0 -0.010772795068529416 -0.01640902088348067 0 -0.010626061355020033 -0.016941723737511183 0 -0.01136929383941122 -0.016803590252690515 0 -0.010626061355020033 -0.016941723737511183 0 -0.010989740934092131 -0.017349718367849386 0 -0.010626061355020033 -0.016941723737511183 0 -0.010989740934092131 -0.017349718367849386 0 -0.010606592195554964 -0.017744920911414178 0 -0.01136929383941122 -0.016803590252690515 0 -0.010989740934092131 -0.017349718367849386 0 -0.011229354035021217 -0.017767045625681113 0 -0.010989740934092131 -0.017349718367849386 0 -0.010606592195554964 -0.017744920911414178 0 -0.011229354035021217 -0.017767045625681113 0 -0.01136929383941122 -0.016803590252690515 0 -0.011229354035021217 -0.017767045625681113 0 -0.011851772202509558 -0.018335069779754517 0 -0.0092390332798008012 -0.026032255771012841 0 -0.011753464311402296 -0.024020800873308153 0 -0.016172775225392622 -0.028596880119025069 0 -0.016017294059148063 -0.028193900782773396 0 -0.015696312698603991 -0.028231920741843324 0 -0.015999754335107936 -0.028394878879494333 0 -0.015888538555613108 -0.028258966642333808 0 -0.016256001167625694 -0.028662870078365873 0 -0.016172775225392622 -0.028596880119025069 0 -0.016017294059148063 -0.028193900782773396 0 -0.016172775225392622 -0.028596880119025069 0 -0.016197184786416872 -0.028606505218324228 0 -0.016239446662056969 -0.028416310505478912 0 -0.010394761834059225 -0.018356376217317519 0 -0.011058323796047353 -0.018315546960000949 0 -0.011087185791971894 -0.019238064222537463 0 -0.011851772202509558 -0.018335069779754517 0 -0.011058323796047353 -0.018315546960000949 0 -0.011087185791971894 -0.019238064222537463 0 -0.010606592195554964 -0.017744920911414178 0 -0.011229354035021217 -0.017767045625681113 0 -0.011058323796047353 -0.018315546960000949 0 -0.010394761834059225 -0.018356376217317519 0 -0.010606592195554964 -0.017744920911414178 0 -0.011058323796047353 -0.018315546960000949 0 -0.011229354035021217 -0.017767045625681113 0 -0.011851772202509558 -0.018335069779754517 0 -0.011058323796047353 -0.018315546960000949 0 -0.015781789606823807 -0.02773089205423028 0 -0.016017294059148063 -0.028193900782773396 0 -0.015649747667476288 -0.027940197517966309 0 -0.012761188642312361 -0.023523048039350944 0 -0.011753464311402296 -0.024020800873308153 0 -0.012229884230952953 -0.019967108200428699 0 -0.011851772202509558 -0.018335069779754517 0 -0.011087185791971894 -0.019238064222537463 0 -0.015649747667476288 -0.027940197517966309 0 -0.01537348873829685 -0.027858303477701702 0 -0.015696312698603991 -0.028231920741843324 0 -0.015664646163367855 -0.027999433442188082 0 -0.015888538555613108 -0.028258966642333808 0 -0.015951333439842657 -0.028046504034628744 0 -0.016026296711078043 -0.028354100300294671 0 -0.015769310435386093 -0.02828851924074818 0 -0.016026296711078043 -0.028354100300294671 0 -0.015769310435386093 -0.02828851924074818 0 -0.016015908673296171 -0.028452122994380179 0 -0.015951333439842657 -0.028046504034628744 0 -0.016026296711078043 -0.028354100300294671 0 -0.016239446662056969 -0.028416310505478912 0 -0.016017294059148063 -0.028193900782773396 0 -0.015649747667476288 -0.027940197517966309 0 -0.015696312698603991 -0.028231920741843324 0 -0.016026296711078043 -0.028354100300294671 0 -0.016239446662056969 -0.028416310505478912 0 -0.016146683026679532 -0.028495673107007388 0 -0.015458715354334254 -0.028099466439828413 0 -0.015445077682881376 -0.028006837101453467 0 -0.015591018611321499 -0.028280674153663692 0 -0.015445077682881376 -0.028006837101453467 0 -0.015591018611321499 -0.028280674153663692 0 -0.015769310435386093 -0.02828851924074818 0 -0.015445077682881376 -0.028006837101453467 0 -0.015951333439842657 -0.028046504034628744 0 -0.015769310435386093 -0.02828851924074818 0 -0.015769310435386093 -0.02828851924074818 0 -0.015790146236091998 -0.02839650778124498 0 -0.016015908673296171 -0.028452122994380179 0 -0.015591018611321499 -0.028280674153663692 0 -0.015790146236091998 -0.02839650778124498 0 -0.015717213323310723 -0.028319244359770495 0 -0.015591018611321499 -0.028280674153663692 0 -0.015769310435386093 -0.02828851924074818 0 -0.015790146236091998 -0.02839650778124498 0 -0.015790146236091998 -0.02839650778124498 0 -0.015717213323310723 -0.028319244359770495 0 -0.015644437028873127 -0.028486522315881484 0 -0.015790146236091998 -0.02839650778124498 0 -0.016066898776003462 -0.028549703389177613 0 -0.016015908673296171 -0.028452122994380179 0 -0.015962167707345255 -0.028645535849823042 0 -0.016066898776003462 -0.028549703389177613 0 -0.016321866195089581 -0.028707302282120758 0 -0.015962167707345255 -0.028645535849823042 0 -0.016321866195089581 -0.028707302282120758 0 -0.016521957484482611 -0.028998217062507499 0 -0.015790146236091998 -0.02839650778124498 0 -0.015962167707345255 -0.028645535849823042 0 -0.016066898776003462 -0.028549703389177613 0 -0.015790146236091998 -0.02839650778124498 0 -0.015962167707345255 -0.028645535849823042 0 -0.015644437028873127 -0.028486522315881484 0 -0.016197184786416872 -0.028606505218324228 0 -0.016239446662056969 -0.028416310505478912 0 -0.016199936440082639 -0.028586589757641317 0 -0.016239446662056969 -0.028416310505478912 0 -0.016199936440082639 -0.028586589757641317 0 -0.016146683026679532 -0.028495673107007388 0 -0.016199936440082639 -0.028586589757641317 0 -0.016146683026679532 -0.028495673107007388 0 -0.016206277409603252 -0.028609771500758014 0 -0.016026296711078043 -0.028354100300294671 0 -0.016146683026679532 -0.028495673107007388 0 -0.016015908673296171 -0.028452122994380179 0 -0.016066898776003462 -0.028549703389177613 0 -0.016015908673296171 -0.028452122994380179 0 -0.016206277409603252 -0.028609771500758014 0 -0.016146683026679532 -0.028495673107007388 0 -0.016015908673296171 -0.028452122994380179 0 -0.016206277409603252 -0.028609771500758014 0 -0.016206277409603252 -0.028609771500758014 0 -0.016321866195089581 -0.028707302282120758 0 -0.016214903278939652 -0.028661636648911831 0 -0.016066898776003462 -0.028549703389177613 0 -0.016206277409603252 -0.028609771500758014 0 -0.016321866195089581 -0.028707302282120758 0 -0.016321866195089581 -0.028707302282120758 0 -0.016214903278939652 -0.028661636648911831 0 -0.016223153682476895 -0.028675331844306935 0 -0.016214903278939652 -0.028661636648911831 0 -0.016209427675373343 -0.028673802115172696 0 -0.016223153682476895 -0.028675331844306935 0 -0.016199936440082639 -0.028586589757641317 0 -0.016206277409603252 -0.028609771500758014 0 -0.016214903278939652 -0.028661636648911831 0 -0.016199936440082639 -0.028586589757641317 0 -0.016214903278939652 -0.028661636648911831 0 -0.016204109596450168 -0.02865351380432658 0 -0.016197184786416872 -0.028606505218324228 0 -0.016199936440082639 -0.028586589757641317 0 -0.016204109596450168 -0.02865351380432658 0 -0.016214903278939652 -0.028661636648911831 0 -0.016204109596450168 -0.02865351380432658 0 -0.016209427675373343 -0.028673802115172696 0 -0.016204109596450168 -0.02865351380432658 0 -0.01620675772719565 -0.0286823703259831 0 -0.016209427675373343 -0.028673802115172696 0 -0.01620675772719565 -0.0286823703259831 0 -0.016209427675373343 -0.028673802115172696 0 -0.016206099936106305 -0.028691090638679119 0 -0.01620675772719565 -0.0286823703259831 0 -0.016206099936106305 -0.028691090638679119 0 -0.016205774353585525 -0.028704392876229164 0 -0.016206099936106305 -0.028691090638679119 0 -0.016212516603911944 -0.028686796634935868 0 -0.016223153682476895 -0.028675331844306935 0 -0.016209427675373343 -0.028673802115172696 0 -0.016206099936106305 -0.028691090638679119 0 -0.016223153682476895 -0.028675331844306935 0 -0.011947980894079923 -0.033194624551578671 0 -0.011604904959414268 -0.035504712102915885 0 -0.016321866195089581 -0.028707302282120758 0 -0.016521957484482611 -0.028998217062507499 0 -0.016700342582020952 -0.029135327589942188 0 -0.016321866195089581 -0.028707302282120758 0 -0.016223153682476895 -0.028675331844306935 0 -0.016225765055046176 -0.028672622648980569 0 -0.011763382427150542 -0.035246563896981851 0 -0.011604904959414268 -0.035504712102915885 0 -0.016212516603911944 -0.028686796634935868 0 -0.016223153682476895 -0.028675331844306935 0 -0.016225765055046176 -0.028672622648980569 0 -0.016521957484482611 -0.028998217062507499 0 -0.017210478761510412 -0.029457625863880017 0 -0.017246169146341559 -0.030277175408597427 0 -0.017210478761510412 -0.029457625863880017 0 -0.017246169146341559 -0.030277175408597427 0 -0.017480316598607378 -0.030504286231524756 0 -0.01119837193296647 -0.038899131348456448 0 -0.012667510455017204 -0.040205199513131069 0 -0.011558564496771478 -0.041330145313413447 0 -0.011604904959414268 -0.035504712102915885 0 -0.012251874398423838 -0.038776580855906094 0 -0.016196824622802208 -0.028715981530470266 0 -0.016195027487412104 -0.028752846735094009 0 -0.016200391416079079 -0.028726679650066096 0 -0.010912712337486741 -0.039009815551900466 0 -0.0095798521554898933 -0.043857387345278449 0 -0.016206099936106305 -0.028691090638679119 0 -0.016196824622802208 -0.028715981530470266 0 -0.016200391416079079 -0.028726679650066096 0 -0.016212516603911944 -0.028686796634935868 0 -0.016225765055046176 -0.028672622648980569 0 -0.016196824622802208 -0.028715981530470266 0 -0.011604904959414268 -0.035504712102915885 0 -0.010912712337486741 -0.039009815551900466 0 -0.016206099936106305 -0.028691090638679119 0 -0.016212516603911944 -0.028686796634935868 0 -0.016196824622802208 -0.028715981530470266 0 -0.01709911459511931 -0.029751244527928974 0 -0.017089843922626659 -0.029498401955842819 0 -0.015962167707345255 -0.028645535849823042 0 -0.01581829290375978 -0.029143209861877191 0 -0.015644437028873127 -0.028486522315881484 0 -0.017968524653790452 -0.030703486372237437 0 -0.018118514662777484 -0.030561268741835922 0 -0.018460955244003797 -0.030552089561903958 0 -0.015962167707345255 -0.028645535849823042 0 -0.016521957484482611 -0.028998217062507499 0 -0.01581829290375978 -0.029143209861877191 0 -0.017246169146341559 -0.030277175408597427 0 -0.017968524653790452 -0.030703486372237437 0 -0.017788122250155261 -0.030403578769115615 0 -0.016521957484482611 -0.028998217062507499 0 -0.017246169146341559 -0.030277175408597427 0 -0.01581829290375978 -0.029143209861877191 0 -0.017188415418052602 -0.029908410608292083 0 -0.01709911459511931 -0.029751244527928974 0 -0.017968524653790452 -0.030703486372237437 0 -0.017788122250155261 -0.030403578769115615 0 -0.018118514662777484 -0.030561268741835922 0 -0.018118514662777484 -0.030561268741835922 0 -0.018060437088276631 -0.030356399027035651 0 -0.018345916425753353 -0.030584727204045089 0 -0.017788122250155261 -0.030403578769115615 0 -0.018060437088276631 -0.030356399027035651 0 -0.017778378879877849 -0.030300458879458311 0 -0.017788122250155261 -0.030403578769115615 0 -0.018118514662777484 -0.030561268741835922 0 -0.018060437088276631 -0.030356399027035651 0 -0.017788122250155261 -0.030403578769115615 0 -0.017778378879877849 -0.030300458879458311 0 -0.01753450000150605 -0.03035518924263279 0 -0.017246169146341559 -0.030277175408597427 0 -0.017788122250155261 -0.030403578769115615 0 -0.01753450000150605 -0.03035518924263279 0 -0.017778378879877849 -0.030300458879458311 0 -0.01753450000150605 -0.03035518924263279 0 -0.017595875597368162 -0.030315126260753757 0 -0.017778378879877849 -0.030300458879458311 0 -0.017757381470548096 -0.030212144244501252 0 -0.017964774383416905 -0.030225186914698589 0 -0.017778378879877849 -0.030300458879458311 0 -0.017757381470548096 -0.030212144244501252 0 -0.017595875597368162 -0.030315126260753757 0 -0.018060437088276631 -0.030356399027035651 0 -0.017964774383416905 -0.030225186914698589 0 -0.018113499405335361 -0.030251976104917186 0 -0.018060437088276631 -0.030356399027035651 0 -0.017778378879877849 -0.030300458879458311 0 -0.017964774383416905 -0.030225186914698589 0 -0.012568027673691017 -0.041698392816871044 0 -0.011558564496771478 -0.041330145313413447 0 -0.011919305140823299 -0.043751922981756203 0 -0.012604684836951336 -0.047297806880948194 0 -0.0095798521554898933 -0.043857387345278449 0 -0.012568027673691017 -0.041698392816871044 0 -0.011919305140823299 -0.043751922981756203 0 -0.014126848327852071 -0.041504700803562999 0 -0.012667510455017204 -0.040205199513131069 0 -0.012568027673691017 -0.041698392816871044 0 -0.014126848327852071 -0.041504700803562999 0 -0.012667510455017204 -0.040205199513131069 0 -0.012568027673691017 -0.041698392816871044 0 -0.011558564496771478 -0.041330145313413447 0 -0.012251874398423838 -0.038776580855906094 0 -0.012604684836951336 -0.047297806880948194 0 -0.017480316598607378 -0.030504286231524756 0 -0.017595875597368162 -0.030315126260753757 0 -0.017459504433404095 -0.030261930382269757 0 -0.017246169146341559 -0.030277175408597427 0 -0.017480316598607378 -0.030504286231524756 0 -0.01753450000150605 -0.03035518924263279 0 -0.017480316598607378 -0.030504286231524756 0 -0.01753450000150605 -0.03035518924263279 0 -0.017595875597368162 -0.030315126260753757 0 -0.017757381470548096 -0.030212144244501252 0 -0.017595875597368162 -0.030315126260753757 0 -0.017459504433404095 -0.030261930382269757 0 -0.0048229591412064024 -0.060019827903172535 0 -0.0053251967815263488 -0.060022004990615357 0 -0.0053076047657040111 -0.059486231968726384 0 -0.0048229591412064024 -0.060019827903172535 0 -0.0053251967815263488 -0.060022004990615357 0 -0.0050859494744071075 -0.060299770653834489 0 -0.0053251967815263488 -0.060022004990615357 0 -0.0053076047657040111 -0.059486231968726384 0 -0.0056465350643594156 -0.059805682100265135 0 -0.0053251967815263488 -0.060022004990615357 0 -0.0056357395902566585 -0.060165070988522154 0 -0.0054388213782620006 -0.060389187157534045 0 -0.0053251967815263488 -0.060022004990615357 0 -0.0056465350643594156 -0.059805682100265135 0 -0.0056357395902566585 -0.060165070988522154 0 -0.0095798521554898933 -0.043857387345278449 0 -0.0086398641589944015 -0.049136272705950466 0 -0.0044729366396494491 -0.046164174570236118 0 -0.0060235953345398902 -0.045675546026011239 0 -0.0061534146399405444 -0.047660403241246763 0 -0.0041130215198796147 -0.053798993388205894 0 -0.0053898681328552484 -0.054046623713927974 0 -0.0036798391029327178 -0.051775035471715504 0 -0.0060235953345398902 -0.045675546026011239 0 -0.0073072152869510148 -0.046688341794867069 0 -0.0067701705101536084 -0.044224329634960223 0 -0.0060235953345398902 -0.045675546026011239 0 -0.0073072152869510148 -0.046688341794867069 0 -0.0061534146399405444 -0.047660403241246763 0 -0.0086398641589944015 -0.049136272705950466 0 -0.0077190868933612461 -0.052600209741264711 0 -0.0064555963404199276 -0.048368335168913874 0 -0.0077190868933612461 -0.052600209741264711 0 -0.0073072152869510148 -0.046688341794867069 0 -0.0061534146399405444 -0.047660403241246763 0 -0.0078436410650407108 -0.049164770138529955 0 -0.0056465350643594156 -0.059805682100265135 0 -0.0056357395902566585 -0.060165070988522154 0 -0.005998437275650065 -0.060132156898744862 0 -0.0045711296884799607 -0.055773287368247028 0 -0.0053503696423336435 -0.055922122991685592 0 -0.0057274448111221954 -0.055309034067202278 0 -0.0045711296884799607 -0.055773287368247028 0 -0.0057274448111221954 -0.055309034067202278 0 -0.0053898681328552484 -0.054046623713927974 0 -0.0057274448111221954 -0.055309034067202278 0 -0.0067073818981613978 -0.054408363648727136 0 -0.0060032698467442861 -0.056807589612073606 0 -0.0041130215198796147 -0.053798993388205894 0 -0.0045711296884799607 -0.055773287368247028 0 -0.0053898681328552484 -0.054046623713927974 0 -0.0053503696423336435 -0.055922122991685592 0 -0.0057274448111221954 -0.055309034067202278 0 -0.0060032698467442861 -0.056807589612073606 0 -0.0057274448111221954 -0.055309034067202278 0 -0.0067073818981613978 -0.054408363648727136 0 -0.0053898681328552484 -0.054046623713927974 0 -0.0067131935953768634 -0.056028426338294399 0 -0.0065218059905037548 -0.057169547469122568 0 -0.0070266674238819065 -0.055949062316525543 0 -0.0067073818981613978 -0.054408363648727136 0 -0.0060925798308985035 -0.057044852065443484 0 -0.0076074283441421127 -0.056157039685493494 0 -0.0070266674238819065 -0.055949062316525543 0 -0.0077560894819318415 -0.054914053513215863 0 -0.0070266674238819065 -0.055949062316525543 0 -0.0077560894819318415 -0.054914053513215863 0 -0.0067073818981613978 -0.054408363648727136 0 -0.0077560894819318415 -0.054914053513215863 0 -0.0063778688442247397 -0.053208363764331364 0 -0.0091279693107211343 -0.054669750869488248 0 -0.0077560894819318415 -0.054914053513215863 0 -0.0067073818981613978 -0.054408363648727136 0 -0.0063778688442247397 -0.053208363764331364 0 0.0049862917912310654 -0.04975964283135792 0 0.010775525619607828 -0.058191620038568419 0 -0.0063778688442247397 -0.053208363764331364 0 -0.0053898681328552484 -0.054046623713927974 0 -0.0036798391029327178 -0.051775035471715504 0 -0.0067073818981613978 -0.054408363648727136 0 -0.0063778688442247397 -0.053208363764331364 0 -0.0053898681328552484 -0.054046623713927974 0 0.019688062664525826 -0.049615869068124346 0 0.018352448964109685 -0.051737285466334548 0 0.016251419690826798 -0.051285874523013898 0 0.0049862917912310654 -0.04975964283135792 0 -0.0049955975217873209 -0.041478784410766308 0 0.019688062664525826 -0.049615869068124346 0 0.02085221583652638 -0.052021662724524645 0 0.022214980941483969 -0.050483916115016916 0 0.019688062664525826 -0.049615869068124346 0 0.018352448964109685 -0.051737285466334548 0 0.02085221583652638 -0.052021662724524645 0 0.018766793882178751 -0.0541455037059742 0 0.02085221583652638 -0.052021662724524645 0 0.0221794251439511 -0.054125032545548034 0 0.0011717330118691776 -0.038239805095354781 0 -0.0052181536770252801 -0.040229727702278111 0 0.018766793882178751 -0.0541455037059742 0 0.018352448964109685 -0.051737285466334548 0 0.02085221583652638 -0.052021662724524645 0 0.018766793882178751 -0.0541455037059742 0 0.018352448964109685 -0.051737285466334548 0 0.016178021758111297 -0.05161676870404161 0 -0.01136929383941122 -0.016803590252690515 0 -0.010772795068529416 -0.01640902088348067 0 -0.011012595264085108 -0.015540990332859658 0 -0.016256001167625694 -0.028662870078365873 0 -0.016228393715283482 -0.028680323099356746 0 -0.016197979865053114 -0.028735411290143689 0 -0.0092390332798008012 -0.026032255771012841 0 -0.0052181536770252801 -0.040229727702278111 0 -0.010077748634028329 -0.016369716676972772 0 -0.010772795068529416 -0.01640902088348067 0 -0.011012595264085108 -0.015540990332859658 0 -0.016228393715283482 -0.028680323099356746 0 -0.016216675150506343 -0.028697316578608557 0 -0.016197979865053114 -0.028735411290143689 0 -0.016228393715283482 -0.028680323099356746 0 -0.016216675150506343 -0.028697316578608557 0 -0.016209909168080436 -0.028682086023380973 0 -0.016216675150506343 -0.028697316578608557 0 -0.016209909168080436 -0.028682086023380973 0 -0.01620994342857664 -0.028696856990913129 0 -0.01620675772719565 -0.0286823703259831 0 -0.01620994342857664 -0.028696856990913129 0 -0.016205774353585525 -0.028704392876229164 0 -0.016204109596450168 -0.02865351380432658 0 -0.01620675772719565 -0.0286823703259831 0 -0.016209909168080436 -0.028682086023380973 0 -0.01620675772719565 -0.0286823703259831 0 -0.016209909168080436 -0.028682086023380973 0 -0.01620994342857664 -0.028696856990913129 0 -0.016216675150506343 -0.028697316578608557 0 -0.016208315384720128 -0.028711696602125265 0 -0.016197979865053114 -0.028735411290143689 0 -0.01620994342857664 -0.028696856990913129 0 -0.016205774353585525 -0.028704392876229164 0 -0.016208315384720128 -0.028711696602125265 0 -0.016216675150506343 -0.028697316578608557 0 -0.01620994342857664 -0.028696856990913129 0 -0.016208315384720128 -0.028711696602125265 0 -0.016205774353585525 -0.028704392876229164 0 -0.016205133842340468 -0.028715535764952765 0 -0.016208315384720128 -0.028711696602125265 0 -0.016205133842340468 -0.028715535764952765 0 -0.016208315384720128 -0.028711696602125265 0 -0.016202793055342592 -0.028724548014308036 0 -0.0044729366396494491 -0.046164174570236118 0 -0.0060235953345398902 -0.045675546026011239 0 -0.0065118640501803417 -0.04409212938875675 0 -0.016202793055342592 -0.028724548014308036 0 -0.016200391416079079 -0.028726679650066096 0 -0.016201880517389283 -0.028734024778271604 0 -0.0095798521554898933 -0.043857387345278449 0 -0.0054618982306927251 -0.040861476563761386 0 -0.016205133842340468 -0.028715535764952765 0 -0.016202793055342592 -0.028724548014308036 0 -0.016200391416079079 -0.028726679650066096 0 -0.016195027487412104 -0.028752846735094009 0 -0.016200391416079079 -0.028726679650066096 0 -0.016201880517389283 -0.028734024778271604 0 -0.016206099936106305 -0.028691090638679119 0 -0.016205774353585525 -0.028704392876229164 0 -0.016200391416079079 -0.028726679650066096 0 -0.016205774353585525 -0.028704392876229164 0 -0.016205133842340468 -0.028715535764952765 0 -0.016200391416079079 -0.028726679650066096 0 -0.0060235953345398902 -0.045675546026011239 0 -0.0067701705101536084 -0.044224329634960223 0 -0.0065118640501803417 -0.04409212938875675 0 0.018352448964109685 -0.051737285466334548 0 0.016178021758111297 -0.05161676870404161 0 0.016251419690826798 -0.051285874523013898 0 -0.0064555963404199276 -0.048368335168913874 0 -0.0049955975217873209 -0.041478784410766308 0 -0.016208315384720128 -0.028711696602125265 0 -0.016202793055342592 -0.028724548014308036 0 -0.016197979865053114 -0.028735411290143689 0 -0.0052181536770252801 -0.040229727702278111 0 -0.0054618982306927251 -0.040861476563761386 0 -0.0058128624137486302 -0.040747719253010059 0 -0.0054618982306927251 -0.040861476563761386 0 -0.016202793055342592 -0.028724548014308036 0 -0.016197979865053114 -0.028735411290143689 0 -0.016197196069036978 -0.028735548588351641 0 -0.0052181536770252801 -0.040229727702278111 0 -0.0049955975217873209 -0.041478784410766308 0 -0.0023203593210049771 -0.044474670537173279 0 -0.0014001338557422429 -0.040228559854176921 0 -0.0048036795333926043 -0.041965161884156513 0 -0.0049955975217873209 -0.041478784410766308 0 -0.0054618982306927251 -0.040861476563761386 0 -0.015026535181361593 -0.029007837899895951 0 -0.014532765201859922 -0.030445816425535756 0 -0.015772101298133535 -0.030364042900807315 0 -0.015772101298133535 -0.030364042900807315 0 -0.017231598795801644 -0.029834180189366361 0 -0.016993393887054186 -0.031575531211322831 0 -0.015026535181361593 -0.029007837899895951 0 -0.015772101298133535 -0.030364042900807315 0 -0.017231598795801644 -0.029834180189366361 0 -0.014532765201859922 -0.030445816425535756 0 -0.015772101298133535 -0.030364042900807315 0 -0.014978247542863071 -0.031755709064571327 0 -0.016960211924016748 -0.02922386285276617 0 -0.01696523831314832 -0.028772310885761765 0 -0.017231598795801644 -0.029834180189366361 0 -0.015971763872526079 -0.027698953790328867 0 -0.017017196221924574 -0.027959015865921286 0 -0.017231598795801644 -0.029834180189366361 0 -0.017394630663367529 -0.029200591916293518 0 -0.017822335016146086 -0.029741172642791542 0 -0.015026535181361593 -0.029007837899895951 0 -0.017231598795801644 -0.029834180189366361 0 -0.015971763872526079 -0.027698953790328867 0 -0.015971763872526079 -0.027698953790328867 0 -0.015932028623591124 -0.026787653266882264 0 -0.01665639146505022 -0.026832180175959265 0 -0.01696523831314832 -0.028772310885761765 0 -0.016870990625456331 -0.028262139785485363 0 -0.015971763872526079 -0.027698953790328867 0 -0.017017196221924574 -0.027959015865921286 0 -0.01665639146505022 -0.026832180175959265 0 -0.017394630663367529 -0.029200591916293518 0 -0.017430445638480917 -0.029007812244117383 0 -0.017569960223483408 -0.029174843193097662 0 -0.017430445638480917 -0.029007812244117383 0 -0.017243504278350974 -0.028928238236049428 0 -0.017569960223483408 -0.029174843193097662 0 -0.017569960223483408 -0.029174843193097662 0 -0.017822335016146086 -0.029741172642791542 0 -0.018029738742257311 -0.030095373400147635 0 -0.017822335016146086 -0.029741172642791542 0 -0.018029738742257311 -0.030095373400147635 0 -0.019267002783995027 -0.031503358325326275 0 -0.017231598795801644 -0.029834180189366361 0 -0.017822335016146086 -0.029741172642791542 0 -0.019267002783995027 -0.031503358325326275 0 -0.017394630663367529 -0.029200591916293518 0 -0.017569960223483408 -0.029174843193097662 0 -0.017822335016146086 -0.029741172642791542 0 -0.018029738742257311 -0.030095373400147635 0 -0.018186812343913158 -0.030315266085348826 0 -0.018342169483978887 -0.030728453090316521 0 -0.018186812343913158 -0.030315266085348826 0 -0.018519900443376543 -0.029958449697012741 0 -0.018421216687990315 -0.030565624033893582 0 -0.01716686882781392 -0.029177802271848234 0 -0.017140575621441129 -0.029270914015657363 0 -0.018186812343913158 -0.030315266085348826 0 -0.017344136091334294 -0.028857189381019215 0 -0.018519900443376543 -0.029958449697012741 0 -0.017569960223483408 -0.029174843193097662 0 -0.018029738742257311 -0.030095373400147635 0 -0.017344136091334294 -0.028857189381019215 0 -0.018029738742257311 -0.030095373400147635 0 -0.018186812343913158 -0.030315266085348826 0 -0.017344136091334294 -0.028857189381019215 0 -0.017243504278350974 -0.028928238236049428 0 -0.017569960223483408 -0.029174843193097662 0 -0.017344136091334294 -0.028857189381019215 0 -0.017243504278350974 -0.028928238236049428 0 -0.016685965363989877 -0.028708319893070888 0 -0.017344136091334294 -0.028857189381019215 0 -0.015762785270915416 -0.028537987936010093 0 -0.016685965363989877 -0.028708319893070888 0 -0.015964989427775779 -0.028556565828067034 0 -0.017344136091334294 -0.028857189381019215 0 -0.015964989427775779 -0.028556565828067034 0 -0.016011937012761188 -0.028149211280469173 0 -0.016685965363989877 -0.028708319893070888 0 -0.017344136091334294 -0.028857189381019215 0 -0.015964989427775779 -0.028556565828067034 0 -0.015762785270915416 -0.028537987936010093 0 -0.015458715354334254 -0.028099466439828413 0 -0.015964989427775779 -0.028556565828067034 0 -0.015458715354334254 -0.028099466439828413 0 -0.015591018611321499 -0.028280674153663692 0 -0.015964989427775779 -0.028556565828067034 0 -0.015591018611321499 -0.028280674153663692 0 -0.015964989427775779 -0.028556565828067034 0 -0.015717213323310723 -0.028319244359770495 0 -0.015717213323310723 -0.028319244359770495 0 -0.016011937012761188 -0.028149211280469173 0 -0.015644437028873127 -0.028486522315881484 0 -0.015964989427775779 -0.028556565828067034 0 -0.015717213323310723 -0.028319244359770495 0 -0.016011937012761188 -0.028149211280469173 0 -0.018519900443376543 -0.029958449697012741 0 -0.018460955244003797 -0.030552089561903958 0 -0.018421216687990315 -0.030565624033893582 0 -0.017140575621441129 -0.029270914015657363 0 -0.017089843922626659 -0.029498401955842819 0 -0.018118514662777484 -0.030561268741835922 0 -0.018460955244003797 -0.030552089561903958 0 -0.018345916425753353 -0.030584727204045089 0 -0.018460955244003797 -0.030552089561903958 0 -0.018421216687990315 -0.030565624033893582 0 -0.018345916425753353 -0.030584727204045089 0 -0.018421216687990315 -0.030565624033893582 0 -0.018345916425753353 -0.030584727204045089 0 -0.018412304635081284 -0.030693894107100786 0 -0.021193433705890122 -0.033623766812308477 0 -0.021369801942996945 -0.036384477911217454 0 -0.018060437088276631 -0.030356399027035651 0 -0.018345916425753353 -0.030584727204045089 0 -0.018222715421528632 -0.030333075730261335 0 -0.018060437088276631 -0.030356399027035651 0 -0.018222715421528632 -0.030333075730261335 0 -0.018113499405335361 -0.030251976104917186 0 -0.018222715421528632 -0.030333075730261335 0 -0.018113499405335361 -0.030251976104917186 0 -0.018213883998837412 -0.030203025608856363 0 -0.021369801942996945 -0.036384477911217454 0 -0.020559612154161563 -0.049201269393529319 0 -0.018463644045662087 -0.030758693981125313 0 -0.018472044578882758 -0.030801223484008076 0 -0.018480595004781799 -0.030856136776269426 0 -0.017454489600538404 -0.043232848883074083 0 -0.020559612154161563 -0.049201269393529319 0 -0.018472044578882758 -0.030801223484008076 0 -0.018511281013067236 -0.030873611723929717 0 -0.018579827482847075 -0.030906754604173987 0 -0.018345916425753353 -0.030584727204045089 0 -0.018463644045662087 -0.030758693981125313 0 -0.018412304635081284 -0.030693894107100786 0 -0.018463644045662087 -0.030758693981125313 0 -0.018412304635081284 -0.030693894107100786 0 -0.018472044578882758 -0.030801223484008076 0 -0.018412304635081284 -0.030693894107100786 0 -0.018426506444714236 -0.030752462301657981 0 -0.018472044578882758 -0.030801223484008076 0 -0.018472044578882758 -0.030801223484008076 0 -0.01848114159008556 -0.030831218368134409 0 -0.018511281013067236 -0.030873611723929717 0 -0.018426506444714236 -0.030752462301657981 0 -0.018472044578882758 -0.030801223484008076 0 -0.01848114159008556 -0.030831218368134409 0 -0.01848114159008556 -0.030831218368134409 0 -0.018453939214929504 -0.03075865784433034 0 -0.018492867752600346 -0.030779824654943118 0 -0.018426506444714236 -0.030752462301657981 0 -0.01848114159008556 -0.030831218368134409 0 -0.018453939214929504 -0.03075865784433034 0 -0.018426506444714236 -0.030752462301657981 0 -0.018453939214929504 -0.03075865784433034 0 -0.018359195494458764 -0.03073094931720461 0 -0.018453939214929504 -0.03075865784433034 0 -0.018359195494458764 -0.03073094931720461 0 -0.01850208935706063 -0.030849507860904731 0 -0.018359195494458764 -0.03073094931720461 0 -0.018342169483978887 -0.030728453090316521 0 -0.01850208935706063 -0.030849507860904731 0 -0.018421216687990315 -0.030565624033893582 0 -0.018412304635081284 -0.030693894107100786 0 -0.018359195494458764 -0.03073094931720461 0 -0.018412304635081284 -0.030693894107100786 0 -0.018426506444714236 -0.030752462301657981 0 -0.018359195494458764 -0.03073094931720461 0 -0.018186812343913158 -0.030315266085348826 0 -0.018421216687990315 -0.030565624033893582 0 -0.018359195494458764 -0.03073094931720461 0 -0.018186812343913158 -0.030315266085348826 0 -0.018359195494458764 -0.03073094931720461 0 -0.018342169483978887 -0.030728453090316521 0 -0.018029738742257311 -0.030095373400147635 0 -0.018342169483978887 -0.030728453090316521 0 -0.019267002783995027 -0.031503358325326275 0 -0.020447642956834874 -0.034381201627307671 0 -0.020686971741043614 -0.035904831806541575 0 -0.019267002783995027 -0.031503358325326275 0 -0.01850208935706063 -0.030849507860904731 0 -0.018744012607196252 -0.030713952431970584 0 -0.019267002783995027 -0.031503358325326275 0 -0.023108233974657545 -0.036438649243646801 0 -0.018071154761382872 -0.033895877131296451 0 -0.018342169483978887 -0.030728453090316521 0 -0.019267002783995027 -0.031503358325326275 0 -0.01850208935706063 -0.030849507860904731 0 -0.018453939214929504 -0.03075865784433034 0 -0.018492867752600346 -0.030779824654943118 0 -0.018744012607196252 -0.030713952431970584 0 -0.018453939214929504 -0.03075865784433034 0 -0.01850208935706063 -0.030849507860904731 0 -0.018744012607196252 -0.030713952431970584 0 -0.018492867752600346 -0.030779824654943118 0 -0.018473855263031171 -0.030808459175973715 0 -0.018744012607196252 -0.030713952431970584 0 -0.0209368969687709 -0.040052739508381771 0 -0.020686971741043614 -0.035904831806541575 0 -0.02717456633438935 -0.043670669811249438 0 -0.023108233974657545 -0.036438649243646801 0 -0.021939131080070142 -0.041078996880483429 0 -0.02717456633438935 -0.043670669811249438 0 -0.021939131080070142 -0.041078996880483429 0 -0.022200873117502375 -0.045653434285409605 0 -0.023108233974657545 -0.036438649243646801 0 -0.018169919197251128 -0.038802480981544984 0 -0.018071154761382872 -0.033895877131296451 0 -0.023108233974657545 -0.036438649243646801 0 -0.018169919197251128 -0.038802480981544984 0 -0.021939131080070142 -0.041078996880483429 0 -0.018169919197251128 -0.038802480981544984 0 -0.021939131080070142 -0.041078996880483429 0 -0.019227866591997746 -0.042265155363920594 0 -0.021939131080070142 -0.041078996880483429 0 -0.019227866591997746 -0.042265155363920594 0 -0.022200873117502375 -0.045653434285409605 0 -0.018169919197251128 -0.038802480981544984 0 -0.019227866591997746 -0.042265155363920594 0 -0.015010474797997721 -0.043636409817869079 0 -0.014019153113258843 -0.039014139613546536 0 -0.018169919197251128 -0.038802480981544984 0 -0.015010474797997721 -0.043636409817869079 0 -0.018169919197251128 -0.038802480981544984 0 -0.015483332077885483 -0.035591362365773115 0 -0.018071154761382872 -0.033895877131296451 0 -0.014019153113258843 -0.039014139613546536 0 -0.018169919197251128 -0.038802480981544984 0 -0.015483332077885483 -0.035591362365773115 0 -0.013975591671537783 -0.033778637953318758 0 -0.015483332077885483 -0.035591362365773115 0 -0.015988352540828241 -0.033224790886840203 0 -0.013975591671537783 -0.033778637953318758 0 -0.015988352540828241 -0.033224790886840203 0 -0.014978247542863071 -0.031755709064571327 0 -0.015483332077885483 -0.035591362365773115 0 -0.015988352540828241 -0.033224790886840203 0 -0.018071154761382872 -0.033895877131296451 0 -0.019267002783995027 -0.031503358325326275 0 -0.018071154761382872 -0.033895877131296451 0 -0.016993393887054186 -0.031575531211322831 0 -0.015988352540828241 -0.033224790886840203 0 -0.018071154761382872 -0.033895877131296451 0 -0.016993393887054186 -0.031575531211322831 0 -0.017231598795801644 -0.029834180189366361 0 -0.019267002783995027 -0.031503358325326275 0 -0.016993393887054186 -0.031575531211322831 0 -0.015772101298133535 -0.030364042900807315 0 -0.016993393887054186 -0.031575531211322831 0 -0.014978247542863071 -0.031755709064571327 0 -0.015988352540828241 -0.033224790886840203 0 -0.016993393887054186 -0.031575531211322831 0 -0.014978247542863071 -0.031755709064571327 0 -0.028597313282188407 -0.074513483163528807 0 -0.025962017432743539 -0.077243971591207869 0 -0.0021137961957935878 -0.081020660300054281 0 -0.0095860382941088864 -0.075643272498966671 0 -0.014479608720256354 -0.08329229403541237 0 -0.0095860382941088864 -0.075643272498966671 0 -0.015398344033219278 -0.075418094373055466 0 -0.011929725904278463 -0.070096634890332132 0 -0.0021137961957935878 -0.081020660300054281 0 -0.0095860382941088864 -0.075643272498966671 0 -0.005780906543930717 -0.074058593812380183 0 -0.0095860382941088864 -0.075643272498966671 0 -0.015398344033219278 -0.075418094373055466 0 -0.014479608720256354 -0.08329229403541237 0 -0.019640058320420963 -0.07905605868096742 0 -0.015398344033219278 -0.075418094373055466 0 -0.014479608720256354 -0.08329229403541237 0 -0.019640058320420963 -0.07905605868096742 0 -0.026629118705072202 -0.083395178632522521 0 -0.014479608720256354 -0.08329229403541237 0 -0.019640058320420963 -0.07905605868096742 0 -0.02419540949890291 -0.079784816559995614 0 -0.026629118705072202 -0.083395178632522521 0 -0.02419540949890291 -0.079784816559995614 0 -0.020552104590232777 -0.074194537042129208 0 -0.024243974393228191 -0.074239593921560446 0 -0.019640058320420963 -0.07905605868096742 0 -0.02419540949890291 -0.079784816559995614 0 -0.020552104590232777 -0.074194537042129208 0 -0.019640058320420963 -0.07905605868096742 0 -0.020552104590232777 -0.074194537042129208 0 -0.015398344033219278 -0.075418094373055466 0 -0.020552104590232777 -0.074194537042129208 0 -0.015398344033219278 -0.075418094373055466 0 -0.016529786535596353 -0.070335594086838857 0 -0.020552104590232777 -0.074194537042129208 0 -0.016529786535596353 -0.070335594086838857 0 -0.020165751245868935 -0.067089842980043127 0 -0.016529786535596353 -0.070335594086838857 0 -0.015315206096934646 -0.064532238121418145 0 -0.011929725904278463 -0.070096634890332132 0 -0.020552104590232777 -0.074194537042129208 0 -0.020165751245868935 -0.067089842980043127 0 -0.024753851094496737 -0.07008299323452187 0 -0.020552104590232777 -0.074194537042129208 0 -0.024753851094496737 -0.07008299323452187 0 -0.024243974393228191 -0.074239593921560446 0 -0.020165751245868935 -0.067089842980043127 0 -0.015315206096934646 -0.064532238121418145 0 -0.021181643406762839 -0.059150021906938556 0 -0.020165751245868935 -0.067089842980043127 0 -0.025334818580707623 -0.064429671033928271 0 -0.024753851094496737 -0.07008299323452187 0 -0.020165751245868935 -0.067089842980043127 0 -0.021181643406762839 -0.059150021906938556 0 -0.025334818580707623 -0.064429671033928271 0 -0.016529786535596353 -0.070335594086838857 0 -0.020165751245868935 -0.067089842980043127 0 -0.015315206096934646 -0.064532238121418145 0 -0.015315206096934646 -0.064532238121418145 0 -0.010406810722603996 -0.065696334029196585 0 -0.011929725904278463 -0.070096634890332132 0 -0.015398344033219278 -0.075418094373055466 0 -0.016529786535596353 -0.070335594086838857 0 -0.011929725904278463 -0.070096634890332132 0 -0.010406810722603996 -0.065696334029196585 0 -0.011929725904278463 -0.070096634890332132 0 -0.0073049762207123481 -0.069645301559942988 0 -0.0095860382941088864 -0.075643272498966671 0 -0.005780906543930717 -0.074058593812380183 0 -0.0073049762207123481 -0.069645301559942988 0 -0.0095860382941088864 -0.075643272498966671 0 -0.011929725904278463 -0.070096634890332132 0 -0.0073049762207123481 -0.069645301559942988 0 -0.0040874097656445514 -0.069958146791236381 0 -0.005780906543930717 -0.074058593812380183 0 -0.0073049762207123481 -0.069645301559942988 0 -0.0032431469391125357 -0.068158120558481694 0 -0.0073049762207123481 -0.069645301559942988 0 -0.0064897874075516932 -0.065017293483925306 0 -0.010406810722603996 -0.065696334029196585 0 -0.0073049762207123481 -0.069645301559942988 0 -0.0064897874075516932 -0.065017293483925306 0 -0.0038899211513690542 -0.061551093906048154 0 -0.0064897874075516932 -0.065017293483925306 0 -0.010595216933116621 -0.060013122363006245 0 -0.010406810722603996 -0.065696334029196585 0 -0.0064897874075516932 -0.065017293483925306 0 -0.010595216933116621 -0.060013122363006245 0 -0.015315206096934646 -0.064532238121418145 0 -0.010406810722603996 -0.065696334029196585 0 -0.010595216933116621 -0.060013122363006245 0 -0.0097815106395112515 -0.059062243603327354 0 -0.0096482353714670462 -0.053275457078201763 0 -0.015218169702156639 -0.051643371356445991 0 -0.0043939074321005271 -0.055279564004135764 0 -0.0097815106395112515 -0.059062243603327354 0 -0.0096482353714670462 -0.053275457078201763 0 -0.0043939074321005271 -0.055279564004135764 0 -0.0096482353714670462 -0.053275457078201763 0 -0.0074277563851618744 -0.045905152121793483 0 -0.0096482353714670462 -0.053275457078201763 0 -0.0074277563851618744 -0.045905152121793483 0 -0.015218169702156639 -0.051643371356445991 0 -0.014045914022358396 -0.047507826087457246 0 -0.01721969888971667 -0.04704588706863784 0 -0.0074277563851618744 -0.045905152121793483 0 -0.022200873117502375 -0.045653434285409605 0 -0.015218169702156639 -0.051643371356445991 0 -0.019227866591997746 -0.042265155363920594 0 -0.015010474797997721 -0.043636409817869079 0 -0.022200873117502375 -0.045653434285409605 0 -0.022200873117502375 -0.045653434285409605 0 -0.015218169702156639 -0.051643371356445991 0 -0.02393268089666396 -0.051685766810675993 0 -0.015315206096934646 -0.064532238121418145 0 -0.010595216933116621 -0.060013122363006245 0 -0.021181643406762839 -0.059150021906938556 0 -0.014843321506755019 -0.060345351399204876 0 -0.016074200797606002 -0.060184648952945043 0 -0.015218169702156639 -0.051643371356445991 0 -0.021181643406762839 -0.059150021906938556 0 -0.02393268089666396 -0.051685766810675993 0 -0.0097815106395112515 -0.059062243603327354 0 -0.015218169702156639 -0.051643371356445991 0 -0.021181643406762839 -0.059150021906938556 0 -0.021181643406762839 -0.059150021906938556 0 -0.03109565587227758 -0.057395095687317939 0 -0.025334818580707623 -0.064429671033928271 0 -0.021181643406762839 -0.059150021906938556 0 -0.03109565587227758 -0.057395095687317939 0 -0.02393268089666396 -0.051685766810675993 0 -0.03109565587227758 -0.057395095687317939 0 -0.028622195762099525 -0.067585278680458355 0 -0.025334818580707623 -0.064429671033928271 0 -0.018473855263031171 -0.030808459175973715 0 -0.018341083043294095 -0.031025619110448828 0 -0.018453387355465249 -0.030888094687761016 0 -0.02717456633438935 -0.043670669811249438 0 -0.03109565587227758 -0.057395095687317939 0 -0.02393268089666396 -0.051685766810675993 0 -0.0209368969687709 -0.040052739508381771 0 -0.020464154259497075 -0.047366960567578095 0 -0.02717456633438935 -0.043670669811249438 0 -0.022200873117502375 -0.045653434285409605 0 -0.02393268089666396 -0.051685766810675993 0 -0.018492867752600346 -0.030779824654943118 0 -0.018453387355465249 -0.030888094687761016 0 -0.018481897164556879 -0.030886656795133968 0 -0.018492867752600346 -0.030779824654943118 0 -0.018473855263031171 -0.030808459175973715 0 -0.018453387355465249 -0.030888094687761016 0 -0.018453387355465249 -0.030888094687761016 0 -0.01845844174871613 -0.03099759121300982 0 -0.018481897164556879 -0.030886656795133968 0 -0.018341083043294095 -0.031025619110448828 0 -0.018453387355465249 -0.030888094687761016 0 -0.01845844174871613 -0.03099759121300982 0 -0.018341083043294095 -0.031025619110448828 0 -0.01845844174871613 -0.03099759121300982 0 -0.018415517814176902 -0.031120351526110888 0 -0.01845844174871613 -0.03099759121300982 0 -0.018415517814176902 -0.031120351526110888 0 -0.01851689746390003 -0.031113975595977207 0 -0.018341083043294095 -0.031025619110448828 0 -0.018415517814176902 -0.031120351526110888 0 -0.018335351619329653 -0.031348884658248644 0 -0.025460837219765768 -0.081130635871785817 0 -0.025907722012231973 -0.081218281361336173 0 -0.024827639776978761 -0.081778647557649492 0 -0.018371226946319878 -0.060274368841204518 0 -0.020437656857260008 -0.056481707066503462 0 -0.018415517814176902 -0.031120351526110888 0 -0.018335351619329653 -0.031348884658248644 0 -0.01851689746390003 -0.031113975595977207 0 -0.03109565587227758 -0.057395095687317939 0 -0.028622195762099525 -0.067585278680458355 0 -0.033431583481145728 -0.072478700090649953 0 -0.020464154259497075 -0.047366960567578095 0 -0.018371226946319878 -0.060274368841204518 0 -0.028622195762099525 -0.067585278680458355 0 -0.025334818580707623 -0.064429671033928271 0 -0.024753851094496737 -0.07008299323452187 0 -0.028622195762099525 -0.067585278680458355 0 -0.024753851094496737 -0.07008299323452187 0 -0.027493669760470327 -0.073025585857444994 0 -0.024753851094496737 -0.07008299323452187 0 -0.027493669760470327 -0.073025585857444994 0 -0.024243974393228191 -0.074239593921560446 0 -0.028622195762099525 -0.067585278680458355 0 -0.027493669760470327 -0.073025585857444994 0 -0.033431583481145728 -0.072478700090649953 0 -0.025817819293238693 -0.081256983929361704 0 -0.025830212682848956 -0.081721030302766312 0 -0.025625456312498313 -0.082477349525047719 0 -0.018371226946319878 -0.060274368841204518 0 -0.018472630518037676 -0.060927797258251377 0 -0.02419540949890291 -0.079784816559995614 0 -0.025844503063913386 -0.081127600649155029 0 -0.025817819293238693 -0.081256983929361704 0 -0.02419540949890291 -0.079784816559995614 0 -0.025817819293238693 -0.081256983929361704 0 -0.025830212682848956 -0.081721030302766312 0 -0.02419540949890291 -0.079784816559995614 0 -0.027493669760470327 -0.073025585857444994 0 -0.024243974393228191 -0.074239593921560446 0 -0.01807218409241582 -0.06354396648329988 0 -0.018371226946319878 -0.060274368841204518 0 -0.02419540949890291 -0.079784816559995614 0 -0.027493669760470327 -0.073025585857444994 0 -0.033431583481145728 -0.072478700090649953 0 -0.02419540949890291 -0.079784816559995614 0 -0.025830212682848956 -0.081721030302766312 0 -0.026629118705072202 -0.083395178632522521 0 -0.026691432689812767 -0.081269608020539022 0 -0.027233789205647341 -0.080708374394979965 0 -0.025460837219765768 -0.081130635871785817 0 -0.02467720744594985 -0.080479940779287024 0 -0.025180790508400934 -0.080039559567296623 0 -0.025460837219765768 -0.081130635871785817 0 -0.025817819293238693 -0.081256983929361704 0 -0.025625456312498313 -0.082477349525047719 0 -0.025460837219765768 -0.081130635871785817 0 -0.025180790508400934 -0.080039559567296623 0 -0.025870976324154651 -0.079823437096938968 0 -0.025460837219765768 -0.081130635871785817 0 -0.025907722012231973 -0.081218281361336173 0 -0.025817819293238693 -0.081256983929361704 0 -0.024047900649499392 -0.080789449156401252 0 -0.02467720744594985 -0.080479940779287024 0 -0.024636535172102916 -0.081197746132068718 0 -0.025460837219765768 -0.081130635871785817 0 -0.02467720744594985 -0.080479940779287024 0 -0.024636535172102916 -0.081197746132068718 0 -0.02467720744594985 -0.080479940779287024 0 -0.024077913794721215 -0.0802684008615768 0 -0.02459072110518962 -0.07967818858641143 0 -0.024047900649499392 -0.080789449156401252 0 -0.02467720744594985 -0.080479940779287024 0 -0.024077913794721215 -0.0802684008615768 0 -0.024047900649499392 -0.080789449156401252 0 -0.024077913794721215 -0.0802684008615768 0 -0.02360270492366956 -0.080459249857077406 0 -0.024077913794721215 -0.0802684008615768 0 -0.02360270492366956 -0.080459249857077406 0 -0.023519626101437582 -0.07988056645433983 0 -0.02360270492366956 -0.080459249857077406 0 -0.022975145420066241 -0.080465879123166231 0 -0.023519626101437582 -0.07988056645433983 0 -0.02360270492366956 -0.080459249857077406 0 -0.023406533725234414 -0.080996221466021465 0 -0.022975145420066241 -0.080465879123166231 0 -0.024047900649499392 -0.080789449156401252 0 -0.02360270492366956 -0.080459249857077406 0 -0.023406533725234414 -0.080996221466021465 0 -0.024047900649499392 -0.080789449156401252 0 -0.023406533725234414 -0.080996221466021465 0 -0.023723409550035199 -0.081535399513632104 0 -0.023406533725234414 -0.080996221466021465 0 -0.023723409550035199 -0.081535399513632104 0 -0.022820379468888412 -0.081738398286576003 0 -0.023723409550035199 -0.081535399513632104 0 -0.024636535172102916 -0.081197746132068718 0 -0.024827639776978761 -0.081778647557649492 0 -0.024047900649499392 -0.080789449156401252 0 -0.023723409550035199 -0.081535399513632104 0 -0.024636535172102916 -0.081197746132068718 0 -0.025460837219765768 -0.081130635871785817 0 -0.024636535172102916 -0.081197746132068718 0 -0.024827639776978761 -0.081778647557649492 0 -0.01845844174871613 -0.03099759121300982 0 -0.01851689746390003 -0.031113975595977207 0 -0.018504799088390485 -0.030966049665530543 0 -0.01851689746390003 -0.031113975595977207 0 -0.018504799088390485 -0.030966049665530543 0 -0.018531909992644563 -0.030965552078354868 0 -0.020437656857260008 -0.056481707066503462 0 -0.020114952727177556 -0.053932855481000415 0 -0.01848114159008556 -0.030831218368134409 0 -0.018492867752600346 -0.030779824654943118 0 -0.018481897164556879 -0.030886656795133968 0 -0.01848114159008556 -0.030831218368134409 0 -0.018504799088390485 -0.030966049665530543 0 -0.018481897164556879 -0.030886656795133968 0 -0.01848114159008556 -0.030831218368134409 0 -0.018504799088390485 -0.030966049665530543 0 -0.018531909992644563 -0.030965552078354868 0 -0.01845844174871613 -0.03099759121300982 0 -0.018504799088390485 -0.030966049665530543 0 -0.018481897164556879 -0.030886656795133968 0 -0.01848114159008556 -0.030831218368134409 0 -0.018511281013067236 -0.030873611723929717 0 -0.018531909992644563 -0.030965552078354868 0 -0.018511281013067236 -0.030873611723929717 0 -0.018531909992644563 -0.030965552078354868 0 -0.018579827482847075 -0.030906754604173987 0 -0.023723409550035199 -0.081535399513632104 0 -0.023558662203079971 -0.082363211887754417 0 -0.022820379468888412 -0.081738398286576003 0 -0.023723409550035199 -0.081535399513632104 0 -0.024827639776978761 -0.081778647557649492 0 -0.023558662203079971 -0.082363211887754417 0 -0.023558662203079971 -0.082363211887754417 0 -0.022632452325426881 -0.082857325098341747 0 -0.022820379468888412 -0.081738398286576003 0 -0.022800741905170115 -0.071074493925775833 0 -0.024578623453456908 -0.073348850098597831 0 -0.022201296182087972 -0.074805167004825063 0 -0.020559612154161563 -0.049201269393529319 0 -0.020103425774587205 -0.072605541405867821 0 -0.020114952727177556 -0.053932855481000415 0 -0.020559612154161563 -0.049201269393529319 0 -0.018213883998837412 -0.030203025608856363 0 -0.018075204610783095 -0.030170532483899653 0 -0.018082061776949071 -0.030090536922522275 0 -0.020559612154161563 -0.049201269393529319 0 -0.018834535648568042 -0.055391127634033789 0 -0.017964774383416905 -0.030225186914698589 0 -0.018113499405335361 -0.030251976104917186 0 -0.018075204610783095 -0.030170532483899653 0 -0.018113499405335361 -0.030251976104917186 0 -0.018213883998837412 -0.030203025608856363 0 -0.018075204610783095 -0.030170532483899653 0 -0.018075204610783095 -0.030170532483899653 0 -0.018082061776949071 -0.030090536922522275 0 -0.017950709892821725 -0.030112242618023605 0 -0.024578623453456908 -0.073348850098597831 0 -0.024672635993655146 -0.074958109955314878 0 -0.022201296182087972 -0.074805167004825063 0 -0.024578623453456908 -0.073348850098597831 0 -0.024672635993655146 -0.074958109955314878 0 -0.026134665613087728 -0.075345745748859244 0 -0.018834535648568042 -0.055391127634033789 0 -0.017392716741752669 -0.063340018348096674 0 -0.024672635993655146 -0.074958109955314878 0 -0.025067253691345114 -0.076427878244720027 0 -0.026134665613087728 -0.075345745748859244 0 -0.025067253691345114 -0.076427878244720027 0 -0.023552615841969372 -0.075915302898435261 0 -0.022927192005593653 -0.077493249062643474 0 -0.024672635993655146 -0.074958109955314878 0 -0.023552615841969372 -0.075915302898435261 0 -0.022201296182087972 -0.074805167004825063 0 -0.024672635993655146 -0.074958109955314878 0 -0.025067253691345114 -0.076427878244720027 0 -0.023552615841969372 -0.075915302898435261 0 -0.020103425774587205 -0.072605541405867821 0 -0.02077862105749036 -0.077229624281696579 0 -0.023406533725234414 -0.080996221466021465 0 -0.022820379468888412 -0.081738398286576003 0 -0.022975145420066241 -0.080465879123166231 0 -0.023552615841969372 -0.075915302898435261 0 -0.022201296182087972 -0.074805167004825063 0 -0.022927192005593653 -0.077493249062643474 0 -0.022201296182087972 -0.074805167004825063 0 -0.022927192005593653 -0.077493249062643474 0 -0.021856645526274452 -0.078072831928767711 0 -0.021856645526274452 -0.078072831928767711 0 -0.022878601589728376 -0.078199064561357209 0 -0.022298281887218288 -0.078676068060395982 0 -0.022927192005593653 -0.077493249062643474 0 -0.021856645526274452 -0.078072831928767711 0 -0.022878601589728376 -0.078199064561357209 0 -0.017886446049496071 -0.066891021566166387 0 -0.01789692049834073 -0.069782879999136516 0 -0.024405339282788457 -0.076731532325884047 0 -0.022927192005593653 -0.077493249062643474 0 -0.022878601589728376 -0.078199064561357209 0 -0.017886446049496071 -0.066891021566166387 0 -0.018674414394215581 -0.068074344737948433 0 -0.023797766361897964 -0.077163123834610228 0 -0.022878601589728376 -0.078199064561357209 0 -0.023443785529921227 -0.078107783021895472 0 -0.023797766361897964 -0.077163123834610228 0 -0.023443785529921227 -0.078107783021895472 0 -0.024454800243862179 -0.076861340806177902 0 -0.017660889519579795 -0.073640461606957891 0 -0.017122837889247487 -0.065681468772336341 0 -0.020560996716781032 -0.081163526574670644 0 -0.018998380983373146 -0.081381384453327835 0 -0.019508154299692531 -0.080464557640183149 0 -0.020560996716781032 -0.081163526574670644 0 -0.020473150846047155 -0.079682549070440548 0 -0.022292906960374805 -0.079133371307096634 0 -0.020473150846047155 -0.079682549070440548 0 -0.019713160248075647 -0.078667043926925237 0 -0.019066322428315033 -0.079547616208491906 0 -0.020473150846047155 -0.079682549070440548 0 -0.019066322428315033 -0.079547616208491906 0 -0.019508154299692531 -0.080464557640183149 0 -0.020560996716781032 -0.081163526574670644 0 -0.020473150846047155 -0.079682549070440548 0 -0.019508154299692531 -0.080464557640183149 0 -0.022878601589728376 -0.078199064561357209 0 -0.023443785529921227 -0.078107783021895472 0 -0.022292906960374805 -0.079133371307096634 0 -0.022878601589728376 -0.078199064561357209 0 -0.022298281887218288 -0.078676068060395982 0 -0.022292906960374805 -0.079133371307096634 0 -0.020473150846047155 -0.079682549070440548 0 -0.022292906960374805 -0.079133371307096634 0 -0.021260145108712072 -0.079005639404578554 0 -0.017660889519579795 -0.073640461606957891 0 -0.018380579659560119 -0.075228358876815962 0 -0.022298281887218288 -0.078676068060395982 0 -0.022292906960374805 -0.079133371307096634 0 -0.022724506035727791 -0.079049741073144275 0 -0.022292906960374805 -0.079133371307096634 0 -0.021260145108712072 -0.079005639404578554 0 -0.021905219323998314 -0.078274780532424398 0 -0.022292906960374805 -0.079133371307096634 0 -0.021905219323998314 -0.078274780532424398 0 -0.022724506035727791 -0.079049741073144275 0 -0.021260145108712072 -0.079005639404578554 0 -0.021905219323998314 -0.078274780532424398 0 -0.020757299196931679 -0.077997427650509932 0 -0.021260145108712072 -0.079005639404578554 0 -0.020757299196931679 -0.077997427650509932 0 -0.018671375576599199 -0.077803005404165654 0 -0.021260145108712072 -0.079005639404578554 0 -0.019713160248075647 -0.078667043926925237 0 -0.01927873567119958 -0.076726448510592002 0 -0.019385668677858927 -0.078150909055708956 0 -0.018098715453676376 -0.077099182846544836 0 -0.020473150846047155 -0.079682549070440548 0 -0.021260145108712072 -0.079005639404578554 0 -0.019713160248075647 -0.078667043926925237 0 -0.020757299196931679 -0.077997427650509932 0 -0.021088473506533586 -0.07675017847680296 0 -0.018671375576599199 -0.077803005404165654 0 -0.018973647813475651 -0.074999357554417959 0 -0.021088473506533586 -0.07675017847680296 0 -0.022565179443756939 -0.074999897045020955 0 -0.018973647813475651 -0.074999357554417959 0 -0.021088473506533586 -0.07675017847680296 0 -0.018671375576599199 -0.077803005404165654 0 -0.021088473506533586 -0.07675017847680296 0 -0.022565179443756939 -0.074999897045020955 0 -0.023936973709978167 -0.077812985217475109 0 -0.021905219323998314 -0.078274780532424398 0 -0.020757299196931679 -0.077997427650509932 0 -0.021088473506533586 -0.07675017847680296 0 -0.023091549185778885 -0.077097155031737613 0 -0.023970841036857177 -0.077333990541437692 0 -0.021905219323998314 -0.078274780532424398 0 -0.021088473506533586 -0.07675017847680296 0 -0.022670782603490411 -0.077199595561236276 0 -0.022670782603490411 -0.077199595561236276 0 -0.023476477035359444 -0.078340245907296269 0 -0.022691655814532086 -0.078218710335906647 0 -0.021905219323998314 -0.078274780532424398 0 -0.022670782603490411 -0.077199595561236276 0 -0.022691655814532086 -0.078218710335906647 0 -0.022670782603490411 -0.077199595561236276 0 -0.024133773269292558 -0.077653298852791264 0 -0.023476477035359444 -0.078340245907296269 0 -0.023970841036857177 -0.077333990541437692 0 -0.02572199798788366 -0.077732251386098614 0 -0.022565179443756939 -0.074999897045020955 0 -0.023936973709978167 -0.077812985217475109 0 -0.026157647549054246 -0.074999971627183637 0 -0.023936973709978167 -0.077812985217475109 0 -0.026157647549054246 -0.074999971627183637 0 -0.026694232791667685 -0.078722274054401117 0 -0.026156633564104009 -0.075003114756917399 0 -0.02572199798788366 -0.077732251386098614 0 -0.026157822148185773 -0.07500013836072679 0 -0.026784645613323371 -0.078751856876775328 0 -0.028705265949589238 -0.077128137898369045 0 -0.02572199798788366 -0.077732251386098614 0 -0.027392292648055913 -0.078405951704429516 0 -0.024315029517701682 -0.077728924516278303 0 -0.024461045216993483 -0.078695406879051341 0 -0.025414312991632042 -0.078090919162585495 0 -0.02431745363573147 -0.078758490439771595 0 -0.023476477035359444 -0.078340245907296269 0 -0.023702547017560874 -0.079218974573373638 0 -0.02572199798788366 -0.077732251386098614 0 -0.025491346635613376 -0.078294189025543512 0 -0.024133773269292558 -0.077653298852791264 0 -0.02431745363573147 -0.078758490439771595 0 -0.023476477035359444 -0.078340245907296269 0 -0.023476477035359444 -0.078340245907296269 0 -0.022691655814532086 -0.078218710335906647 0 -0.022724506035727791 -0.079049741073144275 0 -0.021905219323998314 -0.078274780532424398 0 -0.022691655814532086 -0.078218710335906647 0 -0.022724506035727791 -0.079049741073144275 0 -0.023476477035359444 -0.078340245907296269 0 -0.022724506035727791 -0.079049741073144275 0 -0.023702547017560874 -0.079218974573373638 0 -0.022724506035727791 -0.079049741073144275 0 -0.023702547017560874 -0.079218974573373638 0 -0.023519626101437582 -0.07988056645433983 0 -0.022975145420066241 -0.080465879123166231 0 -0.022724506035727791 -0.079049741073144275 0 -0.023519626101437582 -0.07988056645433983 0 -0.02077862105749036 -0.077229624281696579 0 -0.021118847439224951 -0.077966162249650431 0 -0.021856645526274452 -0.078072831928767711 0 -0.022298281887218288 -0.078676068060395982 0 -0.022724506035727791 -0.079049741073144275 0 -0.024077913794721215 -0.0802684008615768 0 -0.023519626101437582 -0.07988056645433983 0 -0.02459072110518962 -0.07967818858641143 0 -0.02467720744594985 -0.080479940779287024 0 -0.02459072110518962 -0.07967818858641143 0 -0.025180790508400934 -0.080039559567296623 0 -0.024461045216993483 -0.078695406879051341 0 -0.02459072110518962 -0.07967818858641143 0 -0.025348631546455436 -0.079055642409945448 0 -0.025491346635613376 -0.078294189025543512 0 -0.025439461342389467 -0.078591300356808891 0 -0.02431745363573147 -0.078758490439771595 0 -0.023702547017560874 -0.079218974573373638 0 -0.02459072110518962 -0.07967818858641143 0 -0.023702547017560874 -0.079218974573373638 0 -0.023519626101437582 -0.07988056645433983 0 -0.02459072110518962 -0.07967818858641143 0 -0.02459072110518962 -0.07967818858641143 0 -0.025180790508400934 -0.080039559567296623 0 -0.025348631546455436 -0.079055642409945448 0 -0.025180790508400934 -0.080039559567296623 0 -0.025870976324154651 -0.079823437096938968 0 -0.025348631546455436 -0.079055642409945448 0 -0.025870976324154651 -0.079823437096938968 0 -0.02650127554413453 -0.07845368653581275 0 -0.025348631546455436 -0.079055642409945448 0 -0.025625456312498313 -0.082477349525047719 0 -0.026572769831787454 -0.078852741796106823 0 -0.028180604894476661 -0.081083530888314381 0 -0.025830212682848956 -0.081721030302766312 0 -0.025625456312498313 -0.082477349525047719 0 -0.026629118705072202 -0.083395178632522521 0 -0.025625456312498313 -0.082477349525047719 0 -0.026629118705072202 -0.083395178632522521 0 -0.028180604894476661 -0.081083530888314381 0 -0.027233789205647341 -0.080708374394979965 0 -0.02899349420958974 -0.078941682616553918 0 -0.02899349420958974 -0.078941682616553918 0 -0.027392292648055913 -0.078405951704429516 0 -0.02650127554413453 -0.07845368653581275 0 -0.025348631546455436 -0.079055642409945448 0 -0.025414312991632042 -0.078090919162585495 0 -0.024461045216993483 -0.078695406879051341 0 -0.025348631546455436 -0.079055642409945448 0 -0.025414312991632042 -0.078090919162585495 0 -0.026784645613323371 -0.078751856876775328 0 -0.029290388738431074 -0.079560823795065488 0 -0.028705265949589238 -0.077128137898369045 0 -0.029290388738431074 -0.079560823795065488 0 -0.028705265949589238 -0.077128137898369045 0 -0.030615306882696248 -0.07794590257352331 0 -0.030273185685323709 -0.074999615423676322 0 -0.028705265949589238 -0.077128137898369045 0 -0.030615306882696248 -0.07794590257352331 0 -0.026157822148185773 -0.07500013836072679 0 -0.030273185685323709 -0.074999615423676322 0 -0.028705265949589238 -0.077128137898369045 0 -0.030273185685323709 -0.074999615423676322 0 -0.033013777569527558 -0.077706271408726491 0 -0.034250682802065842 -0.074841240625873412 0 -0.030273185685323709 -0.074999615423676322 0 -0.030615306882696248 -0.07794590257352331 0 -0.033013777569527558 -0.077706271408726491 0 -0.02899349420958974 -0.078941682616553918 0 -0.030649263819444279 -0.07743855136513926 0 -0.031806428696609206 -0.080381178356806721 0 -0.030615306882696248 -0.07794590257352331 0 -0.033013777569527558 -0.077706271408726491 0 -0.031806428696609206 -0.080381178356806721 0 -0.029290388738431074 -0.079560823795065488 0 -0.030615306882696248 -0.07794590257352331 0 -0.031095461209475556 -0.079513192508373007 0 -0.032168539568965697 -0.077372851753899616 0 -0.032397581999778088 -0.078972450954812576 0 -0.032168539568965697 -0.077372851753899616 0 -0.034270847793027491 -0.076385217180437393 0 -0.034599902025301631 -0.078534715525537035 0 -0.032168539568965697 -0.077372851753899616 0 -0.034599902025301631 -0.078534715525537035 0 -0.032397581999778088 -0.078972450954812576 0 -0.032168539568965697 -0.077372851753899616 0 -0.034270847793027491 -0.076385217180437393 0 -0.034248898096379821 -0.074840628783784197 0 -0.030649263819444279 -0.07743855136513926 0 -0.031360708422428663 -0.076564247081979994 0 -0.034270847793027491 -0.076385217180437393 0 -0.034248898096379821 -0.074840628783784197 0 -0.03598314340042779 -0.076448012650852729 0 -0.038504285230392649 -0.074999329479650975 0 -0.034248898096379821 -0.074840628783784197 0 -0.03598314340042779 -0.076448012650852729 0 -0.034270847793027491 -0.076385217180437393 0 -0.03598314340042779 -0.076448012650852729 0 -0.034599902025301631 -0.078534715525537035 0 -0.038447929430261332 -0.077742149482320014 0 -0.03598314340042779 -0.076448012650852729 0 -0.034599902025301631 -0.078534715525537035 0 -0.037736424494324017 -0.080979743465153783 0 -0.034599902025301631 -0.078534715525537035 0 -0.035105336489201139 -0.082060981825070045 0 -0.034599902025301631 -0.078534715525537035 0 -0.032305109596327625 -0.080280496955228542 0 -0.035105336489201139 -0.082060981825070045 0 -0.031095461209475556 -0.079513192508373007 0 -0.032397581999778088 -0.078972450954812576 0 -0.032305109596327625 -0.080280496955228542 0 -0.02899349420958974 -0.078941682616553918 0 -0.030034983939217514 -0.079319680530197556 0 -0.034599902025301631 -0.078534715525537035 0 -0.032397581999778088 -0.078972450954812576 0 -0.032305109596327625 -0.080280496955228542 0 -0.026572769831787454 -0.078852741796106823 0 -0.028180604894476661 -0.081083530888314381 0 -0.032305109596327625 -0.080280496955228542 0 -0.028180604894476661 -0.081083530888314381 0 -0.032305109596327625 -0.080280496955228542 0 -0.033094670198892014 -0.084974927573469958 0 -0.025945365371529781 -0.078148216470136436 0 -0.025962017432743539 -0.077243971591207869 0 -0.026629118705072202 -0.083395178632522521 0 -0.028180604894476661 -0.081083530888314381 0 -0.033094670198892014 -0.084974927573469958 0 -0.032305109596327625 -0.080280496955228542 0 -0.035105336489201139 -0.082060981825070045 0 -0.033094670198892014 -0.084974927573469958 0 -0.03753294466135005 -0.085555525958901049 0 -0.035105336489201139 -0.082060981825070045 0 -0.033094670198892014 -0.084974927573469958 0 -0.005749462852545525 -0.06130958871486103 0 -0.0053300796832420555 -0.061235421087891033 0 -0.0055610302711474827 -0.06160496606575052 0 -0.005749462852545525 -0.06130958871486103 0 -0.0053300796832420555 -0.061235421087891033 0 -0.0055752976431418634 -0.060918637648916932 0 -0.005749462852545525 -0.06130958871486103 0 -0.0061525403734572952 -0.061147825472246967 0 -0.005893593903534675 -0.060949811264369748 0 -0.0053300796832420555 -0.061235421087891033 0 -0.005227693520776627 -0.061615676308576929 0 -0.0050285070819564249 -0.061352071959737818 0 -0.0053300796832420555 -0.061235421087891033 0 -0.005227693520776627 -0.061615676308576929 0 -0.0055610302711474827 -0.06160496606575052 0 -0.005227693520776627 -0.061615676308576929 0 -0.0055610302711474827 -0.06160496606575052 0 -0.0054962848631357145 -0.061978891272286916 0 -0.005227693520776627 -0.061615676308576929 0 -0.0054962848631357145 -0.061978891272286916 0 -0.0052753864679488923 -0.062106304659178845 0 -0.005749462852545525 -0.06130958871486103 0 -0.0055610302711474827 -0.06160496606575052 0 -0.0058960196049767828 -0.061751434025720961 0 -0.0055610302711474827 -0.06160496606575052 0 -0.0058960196049767828 -0.061751434025720961 0 -0.0054962848631357145 -0.061978891272286916 0 0.003074047195101902 -0.061092352003416381 0 0.0018169524859325504 -0.06214933280136932 0 0.010507213035635676 -0.062802001612005262 0 0.010405370529909795 -0.063624022868259411 0 0.0095569425584248711 -0.062026398612412631 0 -0.0055241802375223551 -0.061047311556590933 0 -0.0059649666644313263 -0.060172297372928979 0 -0.005888459227502774 -0.061599995347065034 0 -0.0066534456517056001 -0.059920535700137417 0 -0.0059649666644313263 -0.060172297372928979 0 -0.005888459227502774 -0.061599995347065034 0 0.0103196959732266 -0.062134092393853105 0 0.010507213035635676 -0.062802001612005262 0 0.0095569425584248711 -0.062026398612412631 0 0.0010517063684640999 -0.072709308990120486 0 0.0055529285312842193 -0.070538167374330496 0 -0.0021696901674187804 -0.066544633895021105 0 -0.0017407638379088111 -0.065520419844239702 0 0.00034805830827855231 -0.068342543128999428 0 0.0103196959732266 -0.062134092393853105 0 0.010507213035635676 -0.062802001612005262 0 0.011317505366736581 -0.062868680163598395 0 0.0033864289094694667 -0.066150883394933885 0 0.0055529285312842193 -0.070538167374330496 0 0.010507213035635676 -0.062802001612005262 0 0.010901490839762735 -0.063348611977365979 0 0.011317505366736581 -0.062868680163598395 0 0.010507213035635676 -0.062802001612005262 0 0.010901490839762735 -0.063348611977365979 0 0.010405370529909795 -0.063624022868259411 0 0.010901490839762735 -0.063348611977365979 0 0.010405370529909795 -0.063624022868259411 0 0.010939414652328353 -0.063902797892177426 0 0.010901490839762735 -0.063348611977365979 0 0.010939414652328353 -0.063902797892177426 0 0.011328755127445092 -0.063717295164272811 0 -0.0059325358724932548 -0.06076259993351333 0 -0.0064506718827314789 -0.058958871927593207 0 -0.005749462852545525 -0.06130958871486103 0 -0.0058960196049767828 -0.061751434025720961 0 -0.0061525403734572952 -0.061147825472246967 0 -0.0055241802375223551 -0.061047311556590933 0 -0.0059649666644313263 -0.060172297372928979 0 -0.0058060718710875427 -0.059566348600030662 0 -0.0066534456517056001 -0.059920535700137417 0 -0.0059649666644313263 -0.060172297372928979 0 -0.0056518758285616158 -0.059419104118996008 0 -0.0064458757611537574 -0.059062571528770702 0 -0.0064506718827314789 -0.058958871927593207 0 -0.0064506718827314789 -0.058958871927593207 0 -0.0070617829261943356 -0.056906571177527364 0 -0.005363231882563122 -0.059098201381215069 0 -0.0050050098578522488 -0.057454518396577239 0 -0.0060032698467442861 -0.056807589612073606 0 -0.0061525403734572952 -0.061147825472246967 0 -0.0060855458419948501 -0.060640923495670608 0 -0.005893593903534675 -0.060949811264369748 0 -0.0056518758285616158 -0.059419104118996008 0 -0.0066232102305537948 -0.058281042752390835 0 -0.0060925798308985035 -0.057044852065443484 0 -0.0064506718827314789 -0.058958871927593207 0 -0.0065218059905037548 -0.057169547469122568 0 -0.0066534456517056001 -0.059920535700137417 0 -0.0056518758285616158 -0.059419104118996008 0 -0.0066232102305537948 -0.058281042752390835 0 0.010405370529909795 -0.063624022868259411 0 0.010939414652328353 -0.063902797892177426 0 0.011261438553652471 -0.064988867946858445 0 -0.0066534456517056001 -0.059920535700137417 0 -0.0066232102305537948 -0.058281042752390835 0 -0.0078446765578021969 -0.057426203135813716 0 0.003074047195101902 -0.061092352003416381 0 0.005307099632554148 -0.059678555307559965 0 0.010939414652328353 -0.063902797892177426 0 0.011261438553652471 -0.064988867946858445 0 0.011241241785962823 -0.064192731143628209 0 -0.0066232102305537948 -0.058281042752390835 0 -0.0069984254176728615 -0.057236354572267181 0 -0.0078446765578021969 -0.057426203135813716 0 -0.0066232102305537948 -0.058281042752390835 0 -0.0069984254176728615 -0.057236354572267181 0 -0.0060925798308985035 -0.057044852065443484 0 -0.0069984254176728615 -0.057236354572267181 0 -0.006931147804933876 -0.056724473050435695 0 -0.0060925798308985035 -0.057044852065443484 0 -0.0070266674238819065 -0.055949062316525543 0 -0.006931147804933876 -0.056724473050435695 0 -0.0060925798308985035 -0.057044852065443484 0 -0.0076074283441421127 -0.056157039685493494 0 -0.0069984254176728615 -0.057236354572267181 0 -0.0078446765578021969 -0.057426203135813716 0 -0.0076074283441421127 -0.056157039685493494 0 -0.0069984254176728615 -0.057236354572267181 0 -0.006931147804933876 -0.056724473050435695 0 -0.0076074283441421127 -0.056157039685493494 0 -0.0070266674238819065 -0.055949062316525543 0 -0.006931147804933876 -0.056724473050435695 0 -0.0046475265393872145 -0.055797343169621136 0 -0.0050050098578522488 -0.057454518396577239 0 -0.0054425234543244785 -0.056510169547485438 0 -0.0077190868933612461 -0.052600209741264711 0 -0.0070617829261943356 -0.056906571177527364 0 -0.0050050098578522488 -0.057454518396577239 0 -0.0060032698467442861 -0.056807589612073606 0 -0.0054425234543244785 -0.056510169547485438 0 -0.0053503696423336435 -0.055922122991685592 0 -0.0060032698467442861 -0.056807589612073606 0 -0.0054425234543244785 -0.056510169547485438 0 -0.0045711296884799607 -0.055773287368247028 0 -0.0053503696423336435 -0.055922122991685592 0 -0.0054425234543244785 -0.056510169547485438 0 -0.0077190868933612461 -0.052600209741264711 0 -0.0076390299115535968 -0.052827134846679884 0 -0.005782965645093137 -0.060485585367086592 0 -0.0055752976431418634 -0.060918637648916932 0 -0.0054388213782620006 -0.060389187157534045 0 -0.0056357395902566585 -0.060165070988522154 0 -0.005998437275650065 -0.060132156898744862 0 -0.005782965645093137 -0.060485585367086592 0 -0.005998437275650065 -0.060132156898744862 0 -0.0060855458419948501 -0.060640923495670608 0 -0.005782965645093137 -0.060485585367086592 0 -0.0056357395902566585 -0.060165070988522154 0 -0.005782965645093137 -0.060485585367086592 0 -0.0054388213782620006 -0.060389187157534045 0 -0.005782965645093137 -0.060485585367086592 0 -0.0055752976431418634 -0.060918637648916932 0 -0.005893593903534675 -0.060949811264369748 0 -0.0060855458419948501 -0.060640923495670608 0 -0.005782965645093137 -0.060485585367086592 0 -0.005893593903534675 -0.060949811264369748 0 -0.005749462852545525 -0.06130958871486103 0 -0.0055752976431418634 -0.060918637648916932 0 -0.005893593903534675 -0.060949811264369748 0 -0.0055752976431418634 -0.060918637648916932 0 -0.0052054888139601574 -0.060858119716121525 0 -0.0054388213782620006 -0.060389187157534045 0 -0.0053300796832420555 -0.061235421087891033 0 -0.0052054888139601574 -0.060858119716121525 0 -0.0050634841520046823 -0.061114488661397917 0 -0.0053300796832420555 -0.061235421087891033 0 -0.0055752976431418634 -0.060918637648916932 0 -0.0052054888139601574 -0.060858119716121525 0 -0.0053251967815263488 -0.060022004990615357 0 -0.0054388213782620006 -0.060389187157534045 0 -0.0050859494744071075 -0.060299770653834489 0 -0.0054388213782620006 -0.060389187157534045 0 -0.0050859494744071075 -0.060299770653834489 0 -0.0049243392641726939 -0.06060637051973234 0 -0.012604684836951336 -0.047297806880948194 0 -0.010129429747242602 -0.058021420214408433 0 -0.0052054888139601574 -0.060858119716121525 0 -0.0054388213782620006 -0.060389187157534045 0 -0.0048489532037267928 -0.060777715128492005 0 -0.0072538107432161582 -0.059465302211773999 0 -0.010129429747242602 -0.058021420214408433 0 -0.0048229591412064024 -0.060019827903172535 0 -0.0050859494744071075 -0.060299770653834489 0 -0.0049243392641726939 -0.06060637051973234 0 -0.016056589321585473 -0.056299334670952106 0 -0.016308004232247913 -0.057982422072605247 0 -0.014623363354276896 -0.05781660619648564 0 -0.012604684836951336 -0.047297806880948194 0 -0.018113877228432274 -0.04925062517089146 0 -0.017757381470548096 -0.030212144244501252 0 -0.017459504433404095 -0.030261930382269757 0 -0.017756774500554937 -0.03009945920032734 0 -0.016308004232247913 -0.057982422072605247 0 -0.014623363354276896 -0.05781660619648564 0 -0.014631160401476431 -0.05816770731302149 0 -0.010129429747242602 -0.058021420214408433 0 -0.011799262276968547 -0.061561229143331654 0 -0.016308004232247913 -0.057982422072605247 0 -0.014631160401476431 -0.05816770731302149 0 -0.014918229059566277 -0.05870870867833676 0 -0.0047053738913497636 -0.06108515619082857 0 -0.0048779539768785685 -0.060843800712062107 0 -0.0044786644763690269 -0.061057495598904228 0 -0.0047053738913497636 -0.06108515619082857 0 -0.0048878135431521643 -0.06095873019182603 0 -0.0048838169175314909 -0.06116694611519323 0 -0.0048878135431521643 -0.06095873019182603 0 -0.0050634841520046823 -0.061114488661397917 0 -0.0048838169175314909 -0.06116694611519323 0 -0.0052054888139601574 -0.060858119716121525 0 -0.0048878135431521643 -0.06095873019182603 0 -0.0050634841520046823 -0.061114488661397917 0 -0.0052054888139601574 -0.060858119716121525 0 -0.0048878135431521643 -0.06095873019182603 0 -0.0048489532037267928 -0.060777715128492005 0 -0.0047053738913497636 -0.06108515619082857 0 -0.0048878135431521643 -0.06095873019182603 0 -0.0048779539768785685 -0.060843800712062107 0 -0.01006403437076874 -0.058152529106020465 0 -0.010129429747242602 -0.058021420214408433 0 -0.017964774383416905 -0.030225186914698589 0 -0.018075204610783095 -0.030170532483899653 0 -0.017950709892821725 -0.030112242618023605 0 -0.017757381470548096 -0.030212144244501252 0 -0.017964774383416905 -0.030225186914698589 0 -0.017950709892821725 -0.030112242618023605 0 -0.017757381470548096 -0.030212144244501252 0 -0.017950709892821725 -0.030112242618023605 0 -0.017756774500554937 -0.03009945920032734 0 -0.014631160401476431 -0.05816770731302149 0 -0.014918229059566277 -0.05870870867833676 0 -0.013487761476325921 -0.059466526833086321 0 -0.014623363354276896 -0.05781660619648564 0 -0.014631160401476431 -0.05816770731302149 0 -0.013285019620284243 -0.05929673751604541 0 -0.01675542609046822 -0.062722294688829436 0 -0.016376161430957759 -0.064859109901536011 0 -0.018082061776949071 -0.030090536922522275 0 -0.017950709892821725 -0.030112242618023605 0 -0.017977069774107374 -0.030012319658081411 0 -0.018113877228432274 -0.04925062517089146 0 -0.017392716741752669 -0.063340018348096674 0 -0.017950709892821725 -0.030112242618023605 0 -0.017756774500554937 -0.03009945920032734 0 -0.017977069774107374 -0.030012319658081411 0 -0.014631160401476431 -0.05816770731302149 0 -0.013285019620284243 -0.05929673751604541 0 -0.013602499904345504 -0.059402592006940091 0 -0.01954009405937987 -0.066281753038074667 0 -0.017140616403963447 -0.068703346637204232 0 -0.016242476549955042 -0.067591261318915463 0 -0.017886446049496071 -0.066891021566166387 0 -0.017392716741752669 -0.063340018348096674 0 -0.017886446049496071 -0.066891021566166387 0 -0.017122837889247487 -0.065681468772336341 0 -0.013285019620284243 -0.05929673751604541 0 -0.013602499904345504 -0.059402592006940091 0 -0.013482248455093953 -0.059537827649601291 0 -0.017392716741752669 -0.063340018348096674 0 -0.017122837889247487 -0.065681468772336341 0 -0.016376161430957759 -0.064859109901536011 0 -0.017122837889247487 -0.065681468772336341 0 -0.0036219950825316588 -0.061374868161964746 0 -0.0034938429171368327 -0.061488928988284446 0 -0.0041630863532747808 -0.061468593047745719 0 -0.011799262276968547 -0.061561229143331654 0 -0.016376161430957759 -0.064859109901536011 0 -0.0034938429171368327 -0.061488928988284446 0 -0.0041630863532747808 -0.061468593047745719 0 -0.0041828339674265186 -0.062672176095629722 0 -0.0044786644763690269 -0.061057495598904228 0 -0.0036219950825316588 -0.061374868161964746 0 -0.0041630863532747808 -0.061468593047745719 0 -0.0041630863532747808 -0.061468593047745719 0 -0.0045350897984288603 -0.061365107281362241 0 -0.0046102373774096596 -0.061747507360834203 0 -0.0044786644763690269 -0.061057495598904228 0 -0.0041630863532747808 -0.061468593047745719 0 -0.0045350897984288603 -0.061365107281362241 0 -0.0041828339674265186 -0.062672176095629722 0 -0.0055927775086936551 -0.062665799363020941 0 -0.005227099485721606 -0.064082495494386368 0 -0.0041630863532747808 -0.061468593047745719 0 -0.0041828339674265186 -0.062672176095629722 0 -0.0055927775086936551 -0.062665799363020941 0 -0.0044432499488152128 -0.062989177902363913 0 -0.0050285269960302203 -0.06383029084414836 0 -0.018812543414069127 -0.083024678992338855 0 -0.017534063726487747 -0.081479078201446536 0 -0.018998380983373146 -0.081381384453327835 0 -0.017122837889247487 -0.065681468772336341 0 -0.014048612490909232 -0.069014089710571672 0 -0.020560996716781032 -0.081163526574670644 0 -0.018812543414069127 -0.083024678992338855 0 -0.018998380983373146 -0.081381384453327835 0 -0.017534063726487747 -0.081479078201446536 0 -0.018998380983373146 -0.081381384453327835 0 -0.018442741338006319 -0.080539990725822658 0 -0.018998380983373146 -0.081381384453327835 0 -0.019508154299692531 -0.080464557640183149 0 -0.018442741338006319 -0.080539990725822658 0 -0.0050285070819564249 -0.061352071959737818 0 -0.0047675874113474355 -0.061390758215873913 0 -0.0049130664276253707 -0.061640947461004798 0 -0.005227693520776627 -0.061615676308576929 0 -0.0050285070819564249 -0.061352071959737818 0 -0.0049130664276253707 -0.061640947461004798 0 -0.0053300796832420555 -0.061235421087891033 0 -0.0050634841520046823 -0.061114488661397917 0 -0.0050285070819564249 -0.061352071959737818 0 -0.0050634841520046823 -0.061114488661397917 0 -0.0050285070819564249 -0.061352071959737818 0 -0.0048838169175314909 -0.06116694611519323 0 -0.0050285070819564249 -0.061352071959737818 0 -0.0048838169175314909 -0.06116694611519323 0 -0.0047675874113474355 -0.061390758215873913 0 -0.0045350897984288603 -0.061365107281362241 0 -0.0047675874113474355 -0.061390758215873913 0 -0.0046102373774096596 -0.061747507360834203 0 -0.0047053738913497636 -0.06108515619082857 0 -0.0045350897984288603 -0.061365107281362241 0 -0.0047675874113474355 -0.061390758215873913 0 -0.0047053738913497636 -0.06108515619082857 0 -0.0048838169175314909 -0.06116694611519323 0 -0.0047675874113474355 -0.061390758215873913 0 -0.0047053738913497636 -0.06108515619082857 0 -0.0044786644763690269 -0.061057495598904228 0 -0.0045350897984288603 -0.061365107281362241 0 -0.0047675874113474355 -0.061390758215873913 0 -0.0046102373774096596 -0.061747507360834203 0 -0.0049130664276253707 -0.061640947461004798 0 -0.0072650745923834434 -0.064599699941777541 0 -0.00703024533517271 -0.066748948645269549 0 -0.0046102373774096596 -0.061747507360834203 0 -0.0049130664276253707 -0.061640947461004798 0 -0.0049848338373171628 -0.062092705369885752 0 -0.005227693520776627 -0.061615676308576929 0 -0.0049130664276253707 -0.061640947461004798 0 -0.0049848338373171628 -0.062092705369885752 0 -0.00703024533517271 -0.066748948645269549 0 -0.006007335132928688 -0.069245017292998021 0 -0.0071167805717143274 -0.064064836660946506 0 -0.005227099485721606 -0.064082495494386368 0 -0.0063559624574379275 -0.065506191654274501 0 -0.0050285269960302203 -0.06383029084414836 0 -0.00703024533517271 -0.066748948645269549 0 -0.0055927775086936551 -0.062665799363020941 0 -0.0071167805717143274 -0.064064836660946506 0 -0.005227099485721606 -0.064082495494386368 0 -0.016223293239092842 -0.079905201390490746 0 -0.016185620237481504 -0.077863551575950068 0 -0.014914222587688699 -0.078304307815272006 0 -0.011685816686663202 -0.070830281904597572 0 -0.0093907535718620941 -0.071927261697476888 0 -0.016185620237481504 -0.077863551575950068 0 -0.014914222587688699 -0.078304307815272006 0 -0.015741852135512609 -0.076765448396928587 0 -0.0076157941354561207 -0.07209496259613829 0 -0.0077021488515508609 -0.071943497540288795 0 -0.0074747762832192439 -0.071974184948466358 0 -0.0077021488515508609 -0.071943497540288795 0 -0.0075973790352982786 -0.071818716963883991 0 -0.0074747762832192439 -0.071974184948466358 0 -0.0093907535718620941 -0.071927261697476888 0 -0.0092557888904983114 -0.073087420130784994 0 -0.00703024533517271 -0.066748948645269549 0 -0.0093907535718620941 -0.071927261697476888 0 -0.019066322428315033 -0.079547616208491906 0 -0.019508154299692531 -0.080464557640183149 0 -0.018442741338006319 -0.080539990725822658 0 -0.019066322428315033 -0.079547616208491906 0 -0.018442741338006319 -0.080539990725822658 0 -0.017563872724555077 -0.079608080581153859 0 -0.014048612490909232 -0.069014089710571672 0 -0.011685816686663202 -0.070830281904597572 0 -0.017534063726487747 -0.081479078201446536 0 -0.016223293239092842 -0.079905201390490746 0 -0.017563872724555077 -0.079608080581153859 0 -0.017534063726487747 -0.081479078201446536 0 -0.018442741338006319 -0.080539990725822658 0 -0.017563872724555077 -0.079608080581153859 0 -0.016223293239092842 -0.079905201390490746 0 -0.017563872724555077 -0.079608080581153859 0 -0.017267405643257731 -0.078360404030591371 0 -0.016223293239092842 -0.079905201390490746 0 -0.016185620237481504 -0.077863551575950068 0 -0.017267405643257731 -0.078360404030591371 0 -0.016185620237481504 -0.077863551575950068 0 -0.017267405643257731 -0.078360404030591371 0 -0.016903347033499785 -0.077381396878216546 0 -0.017267405643257731 -0.078360404030591371 0 -0.018469317914974599 -0.07830655430735986 0 -0.017705792950889809 -0.077052298272191302 0 -0.017563872724555077 -0.079608080581153859 0 -0.017267405643257731 -0.078360404030591371 0 -0.018469317914974599 -0.07830655430735986 0 -0.019713160248075647 -0.078667043926925237 0 -0.018469317914974599 -0.07830655430735986 0 -0.01927873567119958 -0.076726448510592002 0 -0.019066322428315033 -0.079547616208491906 0 -0.017563872724555077 -0.079608080581153859 0 -0.018469317914974599 -0.07830655430735986 0 -0.019713160248075647 -0.078667043926925237 0 -0.019066322428315033 -0.079547616208491906 0 -0.018469317914974599 -0.07830655430735986 0 -0.01927873567119958 -0.076726448510592002 0 -0.017705792950889809 -0.077052298272191302 0 -0.017162664452345121 -0.075771406962649376 0 -0.018469317914974599 -0.07830655430735986 0 -0.01927873567119958 -0.076726448510592002 0 -0.017705792950889809 -0.077052298272191302 0 -0.017705792950889809 -0.077052298272191302 0 -0.017033181981391855 -0.076726130434180945 0 -0.017162664452345121 -0.075771406962649376 0 -0.017267405643257731 -0.078360404030591371 0 -0.017705792950889809 -0.077052298272191302 0 -0.016903347033499785 -0.077381396878216546 0 -0.016185620237481504 -0.077863551575950068 0 -0.016903347033499785 -0.077381396878216546 0 -0.016361014170990843 -0.076697604066605016 0 -0.017705792950889809 -0.077052298272191302 0 -0.016903347033499785 -0.077381396878216546 0 -0.017033181981391855 -0.076726130434180945 0 -0.016903347033499785 -0.077381396878216546 0 -0.017033181981391855 -0.076726130434180945 0 -0.016361014170990843 -0.076697604066605016 0 -0.017033181981391855 -0.076726130434180945 0 -0.017162664452345121 -0.075771406962649376 0 -0.016361014170990843 -0.076697604066605016 0 -0.017162664452345121 -0.075771406962649376 0 -0.016361014170990843 -0.076697604066605016 0 -0.015735962754445908 -0.076767285107266603 0 -0.01927873567119958 -0.076726448510592002 0 -0.017162664452345121 -0.075771406962649376 0 -0.017268053880477221 -0.074548518379981596 0 -0.017162664452345121 -0.075771406962649376 0 -0.016914373114622652 -0.074568894373793257 0 -0.015735962754445908 -0.076767285107266603 0 -0.017162664452345121 -0.075771406962649376 0 -0.016914373114622652 -0.074568894373793257 0 -0.017268053880477221 -0.074548518379981596 0 -0.014922631780890965 -0.074999412121864881 0 -0.014851617374725153 -0.07513134012284288 0 -0.015311210539988511 -0.074793280402266973 0 -0.014685128717957536 -0.074856748416030267 0 -0.015250143514286883 -0.074985426518578757 0 -0.014915781656865976 -0.074996278874898931 0 -0.014685128717957536 -0.074856748416030267 0 -0.018973647813475651 -0.074999357554417959 0 -0.018671375576599199 -0.077803005404165654 0 -0.015311870058255723 -0.074793454378258878 0 -0.018098715453676376 -0.077099182846544836 0 -0.015250143514286883 -0.074985426518578757 0 -0.0097441492798902313 -0.074962214913255873 0 -0.01102022964916213 -0.074819430355642494 0 -0.010250953710662524 -0.074287792933969879 0 -0.0092557888904983114 -0.073087420130784994 0 -0.011382857471771932 -0.073523495539931927 0 -0.0094793498091662581 -0.07463562103985022 0 -0.010250953710662524 -0.074287792933969879 0 -0.0094389888567470905 -0.074072382572191592 0 -0.0094793498091662581 -0.07463562103985022 0 -0.0097441492798902313 -0.074962214913255873 0 -0.010250953710662524 -0.074287792933969879 0 -0.0093003557559388061 -0.073161498956777399 0 -0.0092557888904983114 -0.073087420130784994 0 -0.0093907535718620941 -0.071927261697476888 0 -0.011382857471771932 -0.073523495539931927 0 -0.010034356413880527 -0.073671283008013205 0 -0.0099447388265838516 -0.073562536411061002 0 -0.010105212339567035 -0.073544680416880046 0 -0.016185620237481504 -0.077863551575950068 0 -0.016361014170990843 -0.076697604066605016 0 -0.015741852135512609 -0.076765448396928587 0 -0.011638174868944771 -0.073549605121399408 0 -0.011382857471771932 -0.073523495539931927 0 -0.011811779680317236 -0.073360011609351725 0 -0.010238234550744067 -0.073445910657586141 0 -0.010250953710662524 -0.074287792933969879 0 -0.014922317467881146 -0.074999996151541237 0 -0.014795380073456972 -0.07523599168575304 0 -0.011704556751925728 -0.074999997309936256 0 -0.014685128717957536 -0.074856748416030267 0 -0.01115260883238892 -0.074775277904560372 0 -0.014795380073456972 -0.07523599168575304 0 -0.011704556751925728 -0.074999997309936256 0 -0.011361353222169959 -0.075430012711994732 0 -0.011811779680317236 -0.073360011609351725 0 -0.01102022964916213 -0.074819430355642494 0 -0.010250953710662524 -0.074287792933969879 0 -0.014685128717957536 -0.074856748416030267 0 -0.011382857471771932 -0.073523495539931927 0 -0.011704556751925728 -0.074999997309936256 0 -0.011361353222169959 -0.075430012711994732 0 -0.0084868024842343417 -0.074999993933710013 0 -0.01115260883238892 -0.074775277904560372 0 -0.008407625977632267 -0.074810776060798903 0 -0.010238234550744067 -0.073445910657586141 0 -0.0094389888567470905 -0.074072382572191592 0 -0.0086664205166323699 -0.073533717350143926 0 -0.010238234550744067 -0.073445910657586141 0 -0.010250953710662524 -0.074287792933969879 0 -0.0094389888567470905 -0.074072382572191592 0 -0.011361353222169959 -0.075430012711994732 0 -0.0084868024842343417 -0.074999993933710013 0 -0.0079277154317413095 -0.07562363736808439 0 -0.0086664205166323699 -0.073533717350143926 0 -0.0075409587633291008 -0.074784849042631094 0 -0.0085615847064348088 -0.074458587317290922 0 -0.0084858084638658234 -0.074998655261280522 0 -0.008407625977632267 -0.074810776060798903 0 -0.0084866214306415551 -0.075000035819286034 0 -0.008034157598969487 -0.074999956150249444 0 -0.007946844783762225 -0.075514279018192187 0 -0.0094389888567470905 -0.074072382572191592 0 -0.0086664205166323699 -0.073533717350143926 0 -0.0085615847064348088 -0.074458587317290922 0 -0.008034157598969487 -0.074999956150249444 0 -0.007946844783762225 -0.075514279018192187 0 -0.0048311692470804244 -0.076709539370631782 0 -0.007946844783762225 -0.075514279018192187 0 -0.0059457161425244239 -0.077739791056000485 0 -0.0048311692470804244 -0.076709539370631782 0 -0.0080307719974019604 -0.075000121215320306 0 -0.0050220245064618516 -0.075532159151224382 0 -0.0080339740149310435 -0.075000003456187361 0 -0.0040881716354222641 -0.077090495561747421 0 -0.0037741908195495838 -0.0749999798486954 0 -0.008407625977632267 -0.074810776060798903 0 -0.0056323860780121467 -0.074431711656419486 0 -0.0056323860780121467 -0.074431711656419486 0 -0.0050220245064618516 -0.075532159151224382 0 -0.0075409587633291008 -0.074784849042631094 0 -0.0079497780054667046 -0.075162760634852277 0 -0.0085615847064348088 -0.074458587317290922 0 -0.0056323860780121467 -0.074431711656419486 0 -0.0058790238424913203 -0.073320598990815791 0 -0.0056243243201722004 -0.073251270663284074 0 -0.0056642822980884815 -0.07328697279929007 0 -0.0055820811134024472 -0.073297672460197069 0 -0.0055436618242104751 -0.062370377763601118 0 -0.0054187963288270429 -0.062505507371336574 0 -0.0048009380920806645 -0.062085125880991535 0 -0.0058790238424913203 -0.073320598990815791 0 -0.0045621980230033075 -0.074418615597374171 0 -0.0056323860780121467 -0.074431711656419486 0 -0.0045621980230033075 -0.074418615597374171 0 -0.0050464946738396597 -0.075662481482921193 0 -0.0044174792894624603 -0.07636598393348365 0 -0.0042631596593468331 -0.075666515185087935 0 -0.0094793498091662581 -0.07463562103985022 0 -0.0097418699797830587 -0.074959428151339907 0 -0.0079497780054667046 -0.075162760634852277 0 -0.0094793498091662581 -0.07463562103985022 0 -0.0079497780054667046 -0.075162760634852277 0 -0.0085615847064348088 -0.074458587317290922 0 -0.0092557888904983114 -0.073087420130784994 0 -0.0058790238424913203 -0.073320598990815791 0 -0.0094793498091662581 -0.07463562103985022 0 -0.0094389888567470905 -0.074072382572191592 0 -0.0085615847064348088 -0.074458587317290922 0 -0.0075973790352982786 -0.071818716963883991 0 -0.0073330584173473545 -0.071852384546384679 0 -0.0074747762832192439 -0.071974184948466358 0 -0.005290715177700623 -0.062369292630349314 0 -0.0054264640741023013 -0.062349981708156837 0 -0.0052753864679488923 -0.062106304659178845 0 -0.0055436618242104751 -0.062370377763601118 0 -0.005290715177700623 -0.062369292630349314 0 -0.0054264640741023013 -0.062349981708156837 0 -0.0058790238424913203 -0.073320598990815791 0 -0.006007335132928688 -0.069245017292998021 0 0.00029814591910691692 -0.062019352822897902 0 0.0014446905831985658 -0.062670722055125819 0 -0.0054187963288270429 -0.062505507371336574 0 -0.0055474308415974661 -0.062227426839439486 0 -0.0057811233438580228 -0.062083352638608952 0 -0.0054187963288270429 -0.062505507371336574 0 -0.0045712200646080663 -0.064802085796256043 0 -0.0046105009255621868 -0.063011222498936995 0 -0.0055436618242104751 -0.062370377763601118 0 -0.0054187963288270429 -0.062505507371336574 0 -0.0054264640741023013 -0.062349981708156837 0 -0.0054187963288270429 -0.062505507371336574 0 -0.0046105009255621868 -0.063011222498936995 0 -0.0048009380920806645 -0.062085125880991535 0 -0.0054187963288270429 -0.062505507371336574 0 -0.0054264640741023013 -0.062349981708156837 0 -0.0055474308415974661 -0.062227426839439486 0 -0.0059325358724932548 -0.06076259993351333 0 -0.0057735670880716579 -0.061334918566062567 0 -0.0054264640741023013 -0.062349981708156837 0 -0.0055474308415974661 -0.062227426839439486 0 -0.0054962848631357145 -0.061978891272286916 0 -0.0058960196049767828 -0.061751434025720961 0 -0.0055474308415974661 -0.062227426839439486 0 -0.0054962848631357145 -0.061978891272286916 0 -0.0054264640741023013 -0.062349981708156837 0 -0.0054962848631357145 -0.061978891272286916 0 -0.0052753864679488923 -0.062106304659178845 0 -0.005227693520776627 -0.061615676308576929 0 -0.0049694213989677875 -0.062120971632996361 0 -0.0052753864679488923 -0.062106304659178845 0 -0.0049694213989677875 -0.062120971632996361 0 -0.005290715177700623 -0.062369292630349314 0 -0.0052753864679488923 -0.062106304659178845 0 -4.8949304025049637e-05 -0.082788419278716802 0 0.0012944729632553809 -0.081274319988592039 0 0.0022502245000283949 -0.082384102335846032 0 -4.8949304025049637e-05 -0.082788419278716802 0 -0.0011400051693024973 -0.081103890586027627 0 9.6024897505152758e-06 -0.08120288305213097 0 -4.8949304025049637e-05 -0.082788419278716802 0 9.6024897505152758e-06 -0.08120288305213097 0 0.0012944729632553809 -0.081274319988592039 0 -0.0021696901674187804 -0.066544633895021105 0 -0.0017407638379088111 -0.065520419844239702 0 -0.0045712200646080663 -0.064802085796256043 0 -0.0055241802375223551 -0.061047311556590933 0 -0.0055474308415974661 -0.062227426839439486 0 -0.005888459227502774 -0.061599995347065034 0 -0.0017407638379088111 -0.065520419844239702 0 -0.0045712200646080663 -0.064802085796256043 0 -0.0037295912145236141 -0.062909414596864541 0 0.0033864289094694667 -0.066150883394933885 0 0.0014446905831985658 -0.062670722055125819 0 0.0103196959732266 -0.062134092393853105 0 0.0095569425584248711 -0.062026398612412631 0 0.009247633505352057 -0.061408637032468877 0 0.0018169524859325504 -0.06214933280136932 0 0.0014446905831985658 -0.062670722055125819 0 -0.0055474308415974661 -0.062227426839439486 0 -0.005888459227502774 -0.061599995347065034 0 -0.0057811233438580228 -0.062083352638608952 0 0.0010517063684640999 -0.072709308990120486 0 -0.0026699408423195995 -0.074136522523068335 0 -0.0018034864373809977 -0.080373399903087978 0 -6.8896038742400874e-05 -0.079639987263932385 0 -0.0027418161886995154 -0.079313755687492354 0 -4.8949304025049637e-05 -0.082788419278716802 0 -0.0011400051693024973 -0.081103890586027627 0 -0.001809130577664617 -0.080374266753630019 0 -0.002394944413352737 -0.074557588606274677 0 -0.0026699408423195995 -0.074136522523068335 0 -0.0045712200646080663 -0.064802085796256043 0 -0.0046105009255621868 -0.063011222498936995 0 -0.0037295912145236141 -0.062909414596864541 0 -0.0026699408423195995 -0.074136522523068335 0 -0.0045621980230033075 -0.074418615597374171 0 -0.0046105009255621868 -0.063011222498936995 0 -0.0037295912145236141 -0.062909414596864541 0 -0.0048009380920806645 -0.062085125880991535 0 -0.0011400051693024973 -0.081103890586027627 0 -0.0018034864373809977 -0.080373399903087978 0 -6.8896038742400874e-05 -0.079639987263932385 0 -0.0011400051693024973 -0.081103890586027627 0 -6.8896038742400874e-05 -0.079639987263932385 0 9.6024897505152758e-06 -0.08120288305213097 0 -6.8896038742400874e-05 -0.079639987263932385 0 9.6024897505152758e-06 -0.08120288305213097 0 0.0012944729632553809 -0.081274319988592039 0 -0.0023551787593707276 -0.076606602010973524 0 -0.0022045126735990538 -0.075820202820993804 0 -0.00028060534930458934 -0.076847561285418947 0 -0.0023551787593707276 -0.076606602010973524 0 -0.0022045126735990538 -0.075820202820993804 0 -0.003469890307164224 -0.07583599681116128 0 -0.0012528705609168788 -0.078568381605598744 0 -0.0015531150575163253 -0.076594289531636342 0 0.00032001394545926406 -0.077828101768961808 0 -0.0022045126735990538 -0.075820202820993804 0 -0.003469890307164224 -0.07583599681116128 0 -0.0041176523649053163 -0.074801570799260572 0 -0.0019464416657447498 -0.07689696938631263 0 -0.0050220245064618516 -0.075532159151224382 0 -0.0023551787593707276 -0.076606602010973524 0 -0.0044174792894624603 -0.07636598393348365 0 -0.003469890307164224 -0.07583599681116128 0 -0.0012528705609168788 -0.078568381605598744 0 -0.0040860110091055155 -0.077089162078515489 0 -0.0035430942538601227 -0.076587112316214082 0 -0.0015620956141979541 -0.076494908518296628 0 -0.0045621980230033075 -0.074418615597374171 0 -0.0044174792894624603 -0.07636598393348365 0 -0.003469890307164224 -0.07583599681116128 0 -0.0042631596593468331 -0.075666515185087935 0 -0.003469890307164224 -0.07583599681116128 0 -0.0042631596593468331 -0.075666515185087935 0 -0.0041176523649053163 -0.074801570799260572 0 -0.0050464946738396597 -0.075662481482921193 0 -0.0042631596593468331 -0.075666515185087935 0 -0.0041176523649053163 -0.074801570799260572 0 -0.0040881716354222641 -0.077090495561747421 0 -0.0035430942538601227 -0.076587112316214082 0 -0.0037741908195495838 -0.0749999798486954 0 -0.0050220245064618516 -0.075532159151224382 0 -0.0050069356347659426 -0.075541673184883834 0 -0.0035430942538601227 -0.076587112316214082 0 -0.0037741908195495838 -0.0749999798486954 0 -0.0015531150575163253 -0.076594289531636342 0 -0.0015531150575163253 -0.076594289531636342 0 0.00048563977089636514 -0.074999949312497649 0 0.00032001394545926406 -0.077828101768961808 0 -0.0037741908195495838 -0.0749999798486954 0 -0.0015531150575163253 -0.076594289531636342 0 0.00048563977089636514 -0.074999949312497649 0 -0.0012528705609168788 -0.078568381605598744 0 -0.0035430942538601227 -0.076587112316214082 0 -0.0015531150575163253 -0.076594289531636342 0 0.00048563977089636514 -0.074999949312497649 0 0.0022400713403546561 -0.07705609771384607 0 0.00032001394545926406 -0.077828101768961808 0 0.0022400713403546561 -0.07705609771384607 0 0.0039293894863320156 -0.078595004483352285 0 0.004745503625110524 -0.07499993982341692 0 0.00048563977089636514 -0.074999949312497649 0 0.0022400713403546561 -0.07705609771384607 0 0.004745503625110524 -0.07499993982341692 0 0.0022400713403546561 -0.07705609771384607 0 0.0039293894863320156 -0.078595004483352285 0 0.0021112391971947427 -0.078820080794465119 0 0.0039293894863320156 -0.078595004483352285 0 0.0028092936343305798 -0.079457699382431871 0 0.0021112391971947427 -0.078820080794465119 0 -0.0012528705609168788 -0.078568381605598744 0 0.00032001394545926406 -0.077828101768961808 0 0.0016235165005074959 -0.080031173732279554 0 0.0021112391971947427 -0.078820080794465119 0 0.00032001394545926406 -0.077828101768961808 0 0.0016235165005074959 -0.080031173732279554 0 0.0028092936343305798 -0.079457699382431871 0 0.0021112391971947427 -0.078820080794465119 0 0.0016235165005074959 -0.080031173732279554 0 -0.0019464416657447498 -0.07689696938631263 0 0.00061531023499150671 -0.077919079603813265 0 0.0022400713403546561 -0.07705609771384607 0 0.0021112391971947427 -0.078820080794465119 0 0.00032001394545926406 -0.077828101768961808 0 0.0090051222156878694 -0.074999994364357836 0 0.0066683285907668879 -0.078198973989871384 0 0.0095438330171555494 -0.07784417637797808 0 0.0039293894863320156 -0.078595004483352285 0 0.004745503625110524 -0.07499993982341692 0 0.0066683285907668879 -0.078198973989871384 0 0.0090051222156878694 -0.074999994364357836 0 0.004745503625110524 -0.07499993982341692 0 0.0066683285907668879 -0.078198973989871384 0 0.0039293894863320156 -0.078595004483352285 0 0.0066683285907668879 -0.078198973989871384 0 0.0056732018248766159 -0.08016705541156717 0 0.0066683285907668879 -0.078198973989871384 0 0.0075490696362945408 -0.080615586315838914 0 0.0095438330171555494 -0.07784417637797808 0 0.0075490696362945408 -0.080615586315838914 0 0.0096029060977062247 -0.080650182526078612 0 0.0095438330171555494 -0.07784417637797808 0 0.0075490696362945408 -0.080615586315838914 0 0.0071079308187303658 -0.082995755250940953 0 0.0096029060977062247 -0.080650182526078612 0 0.0066683285907668879 -0.078198973989871384 0 0.0075490696362945408 -0.080615586315838914 0 0.0056732018248766159 -0.08016705541156717 0 0.0075490696362945408 -0.080615586315838914 0 0.0056732018248766159 -0.08016705541156717 0 0.0061398753849577284 -0.082005754501906711 0 0.0056732018248766159 -0.08016705541156717 0 0.0061398753849577284 -0.082005754501906711 0 0.0038552541292286011 -0.081085278529180946 0 0.0037735159105000103 -0.079979235628024864 0 0.0028910128475419499 -0.079422579013963573 0 0.0075490696362945408 -0.080615586315838914 0 0.0061398753849577284 -0.082005754501906711 0 0.0071079308187303658 -0.082995755250940953 0 0.0061398753849577284 -0.082005754501906711 0 0.0058120919781623559 -0.083288090160506825 0 0.004265785911672355 -0.082590365453992287 0 0.0061398753849577284 -0.082005754501906711 0 0.0058120919781623559 -0.083288090160506825 0 0.0071079308187303658 -0.082995755250940953 0 0.0058120919781623559 -0.083288090160506825 0 0.0071079308187303658 -0.082995755250940953 0 0.0070885030726376393 -0.08438846629597152 0 0.0071079308187303658 -0.082995755250940953 0 0.0095752162781755426 -0.082971668062132978 0 0.0099192159071075769 -0.080413285606062951 0 0.0071079308187303658 -0.082995755250940953 0 0.0095752162781755426 -0.082971668062132978 0 0.0088529982987316964 -0.084459079863646286 0 0.0087567612463212811 -0.081513155675050256 0 0.010057138018145671 -0.080289924046667627 0 -6.8896038742400874e-05 -0.079639987263932385 0 0.0012944729632553809 -0.081274319988592039 0 0.0025681264471995742 -0.079976179381006027 0 -0.0015620956141979541 -0.076494908518296628 0 0.00061531023499150671 -0.077919079603813265 0 0.0030649693881695211 -0.081267551482209904 0 0.0012944729632553809 -0.081274319988592039 0 0.0025681264471995742 -0.079976179381006027 0 0.0028092936343305798 -0.079457699382431871 0 0.0016235165005074959 -0.080031173732279554 0 0.0038552541292286011 -0.081085278529180946 0 0.00061531023499150671 -0.077919079603813265 0 0.0028910128475419499 -0.079422579013963573 0 0.0039293894863320156 -0.078595004483352285 0 0.0028092936343305798 -0.079457699382431871 0 0.0038552541292286011 -0.081085278529180946 0 0.0039293894863320156 -0.078595004483352285 0 0.0056732018248766159 -0.08016705541156717 0 0.0038552541292286011 -0.081085278529180946 0 0.0030649693881695211 -0.081267551482209904 0 0.0025681264471995742 -0.079976179381006027 0 0.0043894169181229155 -0.080996451633345262 0 0.0030649693881695211 -0.081267551482209904 0 0.0043894169181229155 -0.080996451633345262 0 0.004265785911672355 -0.082590365453992287 0 0.0061398753849577284 -0.082005754501906711 0 0.0043894169181229155 -0.080996451633345262 0 0.004265785911672355 -0.082590365453992287 0 0.0058120919781623559 -0.083288090160506825 0 0.004265785911672355 -0.082590365453992287 0 0.0045740534275940589 -0.083907293809175235 0 0.004265785911672355 -0.082590365453992287 0 0.0025667246791702511 -0.083856839580090867 0 0.0045740534275940589 -0.083907293809175235 0 -4.8949304025049637e-05 -0.082788419278716802 0 0.0022502245000283949 -0.082384102335846032 0 0.0025667246791702511 -0.083856839580090867 0 0.004265785911672355 -0.082590365453992287 0 0.0022502245000283949 -0.082384102335846032 0 0.0025667246791702511 -0.083856839580090867 0 0.0030649693881695211 -0.081267551482209904 0 0.004265785911672355 -0.082590365453992287 0 0.0022502245000283949 -0.082384102335846032 0 0.0030649693881695211 -0.081267551482209904 0 0.0012944729632553809 -0.081274319988592039 0 0.0022502245000283949 -0.082384102335846032 0 -4.8949304025049637e-05 -0.082788419278716802 0 0.0025667246791702511 -0.083856839580090867 0 0.0016889165453186949 -0.085140389520445711 0 0.0016889165453186949 -0.085140389520445711 0 0.0033695406850450011 -0.086288448568501777 0 0.0037078715833336598 -0.084797302732657356 0 0.0025667246791702511 -0.083856839580090867 0 0.0016889165453186949 -0.085140389520445711 0 0.0037078715833336598 -0.084797302732657356 0 0.010901490839762735 -0.063348611977365979 0 0.011317505366736581 -0.062868680163598395 0 0.011328755127445092 -0.063717295164272811 0 0.011962322050630079 -0.064113059923171983 0 0.0122565022216951 -0.064427426575626043 0 0.012265759235394205 -0.064276615159265568 0 0.011317505366736581 -0.062868680163598395 0 0.011996582684721681 -0.063867855166741219 0 0.011328755127445092 -0.063717295164272811 0 0.0055529285312842193 -0.070538167374330496 0 0.0076184251892419726 -0.067940574250538455 0 0.0055529285312842193 -0.070538167374330496 0 0.0075253555547465352 -0.074397770517899406 0 0.011996582684721681 -0.063867855166741219 0 0.011328755127445092 -0.063717295164272811 0 0.011639518328088514 -0.064180651294703656 0 0.010939414652328353 -0.063902797892177426 0 0.011328755127445092 -0.063717295164272811 0 0.011241241785962823 -0.064192731143628209 0 0.0049573282843860499 -0.087403706119806246 0 0.0033695406850450011 -0.086288448568501777 0 0.0037078715833336598 -0.084797302732657356 0 0.0089630792629659551 -0.077721802821259511 0 0.0088124251986517257 -0.081130466673553239 0 0.0051485632479758743 -0.08780527777291261 0 0.0052634807235290605 -0.086011852545115869 0 0.0037078715833336598 -0.084797302732657356 0 0.0122565022216951 -0.064427426575626043 0 0.012601897811864394 -0.064445105848512804 0 0.012265759235394205 -0.064276615159265568 0 0.0089630792629659551 -0.077721802821259511 0 0.0075253555547465352 -0.074397770517899406 0 0.0052634807235290605 -0.086011852545115869 0 0.0050691670154881085 -0.084863503641218044 0 0.0037078715833336598 -0.084797302732657356 0 0.0025667246791702511 -0.083856839580090867 0 0.0037078715833336598 -0.084797302732657356 0 0.0045740534275940589 -0.083907293809175235 0 0.0050691670154881085 -0.084863503641218044 0 0.0037078715833336598 -0.084797302732657356 0 0.0045740534275940589 -0.083907293809175235 0 0.0050691670154881085 -0.084863503641218044 0 0.0045740534275940589 -0.083907293809175235 0 0.0056566312144797201 -0.084320768727732726 0 0.0058120919781623559 -0.083288090160506825 0 0.0056566312144797201 -0.084320768727732726 0 0.0070885030726376393 -0.08438846629597152 0 0.0056566312144797201 -0.084320768727732726 0 0.0070885030726376393 -0.08438846629597152 0 0.0061523284625705846 -0.085299603153063716 0 0.0058120919781623559 -0.083288090160506825 0 0.0045740534275940589 -0.083907293809175235 0 0.0056566312144797201 -0.084320768727732726 0 0.0070885030726376393 -0.08438846629597152 0 0.0061523284625705846 -0.085299603153063716 0 0.0073702682876079185 -0.085974024897959356 0 0.0050691670154881085 -0.084863503641218044 0 0.0056566312144797201 -0.084320768727732726 0 0.0061523284625705846 -0.085299603153063716 0 0.0052634807235290605 -0.086011852545115869 0 0.0050691670154881085 -0.084863503641218044 0 0.0061523284625705846 -0.085299603153063716 0 0.0070885030726376393 -0.08438846629597152 0 0.0088529982987316964 -0.084459079863646286 0 0.008102882890404537 -0.08525932258145956 0 0.0071079308187303658 -0.082995755250940953 0 0.0070885030726376393 -0.08438846629597152 0 0.0088529982987316964 -0.084459079863646286 0 0.0070885030726376393 -0.08438846629597152 0 0.008102882890404537 -0.08525932258145956 0 0.0073702682876079185 -0.085974024897959356 0 0.0088529982987316964 -0.084459079863646286 0 0.0090923999778488689 -0.08620337405366825 0 0.010789906346927546 -0.084533513831216558 0 0.0088529982987316964 -0.084459079863646286 0 0.008102882890404537 -0.08525932258145956 0 0.0090923999778488689 -0.08620337405366825 0 0.0090923999778488689 -0.08620337405366825 0 0.0077122515933518623 -0.087584588946608463 0 0.0094495323576789959 -0.088730359998669989 0 0.008102882890404537 -0.08525932258145956 0 0.0090923999778488689 -0.08620337405366825 0 0.0073702682876079185 -0.085974024897959356 0 0.0090923999778488689 -0.08620337405366825 0 0.0077122515933518623 -0.087584588946608463 0 0.0073702682876079185 -0.085974024897959356 0 0.0052634807235290605 -0.086011852545115869 0 0.0061523284625705846 -0.085299603153063716 0 0.0062666278922877258 -0.087049746814813589 0 0.0061523284625705846 -0.085299603153063716 0 0.0073702682876079185 -0.085974024897959356 0 0.0062666278922877258 -0.087049746814813589 0 0.0077122515933518623 -0.087584588946608463 0 0.0062666278922877258 -0.087049746814813589 0 0.0067874351391219454 -0.087926068869784449 0 0.0077122515933518623 -0.087584588946608463 0 0.0073702682876079185 -0.085974024897959356 0 0.0062666278922877258 -0.087049746814813589 0 0.0062666278922877258 -0.087049746814813589 0 0.0059060776556393788 -0.08832532277236739 0 0.0067874351391219454 -0.087926068869784449 0 0.0051485632479758743 -0.08780527777291261 0 0.0062666278922877258 -0.087049746814813589 0 0.0059060776556393788 -0.08832532277236739 0 0.0051485632479758743 -0.08780527777291261 0 0.0052634807235290605 -0.086011852545115869 0 0.0062666278922877258 -0.087049746814813589 0 0.0089630792629659551 -0.077721802821259511 0 0.0090433774304339003 -0.078002554094322218 0 0.0089630792629659551 -0.077721802821259511 0 0.012661591444185456 -0.074686361008692859 0 0.012601897811864394 -0.064445105848512804 0 0.012953248127193409 -0.064914657111931243 0 0.012580598236360279 -0.064812322170364131 0 0.0051739032110553205 -0.087802678599300341 0 0.0059060776556393788 -0.08832532277236739 0 0.0063780957024120013 -0.09021926216801085 0 0.0059060776556393788 -0.08832532277236739 0 0.0067874351391219454 -0.087926068869784449 0 0.0072861872461543655 -0.08900541384714826 0 0.0077122515933518623 -0.087584588946608463 0 0.0067874351391219454 -0.087926068869784449 0 0.0072861872461543655 -0.08900541384714826 0 0.0059060776556393788 -0.08832532277236739 0 0.0072861872461543655 -0.08900541384714826 0 0.0063780957024120013 -0.09021926216801085 0 0.0077122515933518623 -0.087584588946608463 0 0.0072861872461543655 -0.08900541384714826 0 0.0094495323576789959 -0.088730359998669989 0 0.0072861872461543655 -0.08900541384714826 0 0.0094495323576789959 -0.088730359998669989 0 0.0083847362664279373 -0.090735622903452953 0 0.0094495323576789959 -0.088730359998669989 0 0.0083847362664279373 -0.090735622903452953 0 0.010223301432613543 -0.09068712039107088 0 0.0083847362664279373 -0.090735622903452953 0 0.0075695228621193737 -0.092624771552372323 0 0.009131307300582309 -0.092691126349798328 0 0.0083847362664279373 -0.090735622903452953 0 0.010223301432613543 -0.09068712039107088 0 0.009131307300582309 -0.092691126349798328 0 0.012953248127193409 -0.064914657111931243 0 0.012965592884472184 -0.065335010685545647 0 0.013376666673061378 -0.065691057835447708 0 0.012661591444185456 -0.074686361008692859 0 0.016621870424147211 -0.069076153055988965 0 0.0083847362664279373 -0.090735622903452953 0 0.0063780957024120013 -0.09021926216801085 0 0.0075695228621193737 -0.092624771552372323 0 0.012953248127193409 -0.064914657111931243 0 0.012802746472913906 -0.065138758864904736 0 0.012580598236360279 -0.064812322170364131 0 0.012953248127193409 -0.064914657111931243 0 0.012802746472913906 -0.065138758864904736 0 0.012965592884472184 -0.065335010685545647 0 0.0072861872461543655 -0.08900541384714826 0 0.0083847362664279373 -0.090735622903452953 0 0.0063780957024120013 -0.09021926216801085 0 0.012965592884472184 -0.065335010685545647 0 0.01274192286420041 -0.065435290645822888 0 0.013376666673061378 -0.065691057835447708 0 0.012802746472913906 -0.065138758864904736 0 0.01274192286420041 -0.065435290645822888 0 0.012571812218491648 -0.065204045115155138 0 0.012802746472913906 -0.065138758864904736 0 0.012965592884472184 -0.065335010685545647 0 0.01274192286420041 -0.065435290645822888 0 0.01274192286420041 -0.065435290645822888 0 0.012571812218491648 -0.065204045115155138 0 0.012298752450935965 -0.065282533516778388 0 0.012298752450935965 -0.065282533516778388 0 0.011505905417575629 -0.065203574082877427 0 0.012539792298913562 -0.065678140544275926 0 0.01274192286420041 -0.065435290645822888 0 0.012298752450935965 -0.065282533516778388 0 0.012539792298913562 -0.065678140544275926 0 0.012571812218491648 -0.065204045115155138 0 0.012321745061049907 -0.06503922127942792 0 0.012298752450935965 -0.065282533516778388 0 0.012571812218491648 -0.065204045115155138 0 0.012321745061049907 -0.06503922127942792 0 0.012580598236360279 -0.064812322170364131 0 0.012802746472913906 -0.065138758864904736 0 0.012571812218491648 -0.065204045115155138 0 0.012580598236360279 -0.064812322170364131 0 0.012100264259760888 -0.064798074507011083 0 0.012321745061049907 -0.06503922127942792 0 0.012580598236360279 -0.064812322170364131 0 0.012321745061049907 -0.06503922127942792 0 0.012035797039449212 -0.065092120355256203 0 0.012298752450935965 -0.065282533516778388 0 0.012100264259760888 -0.064798074507011083 0 0.012321745061049907 -0.06503922127942792 0 0.012035797039449212 -0.065092120355256203 0 0.012035797039449212 -0.065092120355256203 0 0.012298752450935965 -0.065282533516778388 0 0.011505905417575629 -0.065203574082877427 0 0.011505905417575629 -0.065203574082877427 0 0.011261438553652471 -0.064988867946858445 0 0.011821587789929464 -0.065796030304559452 0 0.011505905417575629 -0.065203574082877427 0 0.011261438553652471 -0.064988867946858445 0 0.011532788094940365 -0.064865356800494114 0 0.011261438553652471 -0.064988867946858445 0 0.011532788094940365 -0.064865356800494114 0 0.011484005960455561 -0.064571257568101517 0 0.011505905417575629 -0.065203574082877427 0 0.011532788094940365 -0.064865356800494114 0 0.011794956407241352 -0.064926271071697059 0 0.012035797039449212 -0.065092120355256203 0 0.011505905417575629 -0.065203574082877427 0 0.011794956407241352 -0.064926271071697059 0 0.011532788094940365 -0.064865356800494114 0 0.011794956407241352 -0.064926271071697059 0 0.01176686711287204 -0.064613009783543465 0 0.012100264259760888 -0.064798074507011083 0 0.012035797039449212 -0.065092120355256203 0 0.011794956407241352 -0.064926271071697059 0 0.012100264259760888 -0.064798074507011083 0 0.01176686711287204 -0.064613009783543465 0 0.012018735744628336 -0.064457592332356012 0 0.012100264259760888 -0.064798074507011083 0 0.011794956407241352 -0.064926271071697059 0 0.01176686711287204 -0.064613009783543465 0 0.01176686711287204 -0.064613009783543465 0 0.011484005960455561 -0.064571257568101517 0 0.011639518328088514 -0.064180651294703656 0 0.01176686711287204 -0.064613009783543465 0 0.011639518328088514 -0.064180651294703656 0 0.012018735744628336 -0.064457592332356012 0 0.011261438553652471 -0.064988867946858445 0 0.011484005960455561 -0.064571257568101517 0 0.011241241785962823 -0.064192731143628209 0 0.011532788094940365 -0.064865356800494114 0 0.01176686711287204 -0.064613009783543465 0 0.011484005960455561 -0.064571257568101517 0 0.011328755127445092 -0.063717295164272811 0 0.011241241785962823 -0.064192731143628209 0 0.011639518328088514 -0.064180651294703656 0 0.011484005960455561 -0.064571257568101517 0 0.011241241785962823 -0.064192731143628209 0 0.011639518328088514 -0.064180651294703656 0 0.011996582684721681 -0.063867855166741219 0 0.011639518328088514 -0.064180651294703656 0 0.012018735744628336 -0.064457592332356012 0 0.0076184251892419726 -0.067940574250538455 0 0.0083971737639574277 -0.067409044375571534 0 0.0122565022216951 -0.064427426575626043 0 0.012601897811864394 -0.064445105848512804 0 0.012580598236360279 -0.064812322170364131 0 0.011996582684721681 -0.063867855166741219 0 0.012580598236360279 -0.064812322170364131 0 0.012018735744628336 -0.064457592332356012 0 0.012100264259760888 -0.064798074507011083 0 0.012580598236360279 -0.064812322170364131 0 0.012018735744628336 -0.064457592332356012 0 0.03875302273281734 -0.066188785918795678 0 0.039030562680116489 -0.066232609745846105 0 0.038788460691838798 -0.066425706394938902 0 0.03875302273281734 -0.066188785918795678 0 0.038901321958207564 -0.06600039079254319 0 0.039030562680116489 -0.066232609745846105 0 0.033128476298074895 -0.065464467300477211 0 0.037199175511623522 -0.064760221881712404 0 0.03933700328356092 -0.064493892014669402 0 0.038532215224228693 -0.064701720448096134 0 0.038751760547604361 -0.064170656874013715 0 0.039176485066815439 -0.065332783948121809 0 0.039792622824626346 -0.064465396945682304 0 0.038532215224228693 -0.064701720448096134 0 0.036181029092204005 -0.064756250346962058 0 0.033128476298074895 -0.065464467300477211 0 0.038901321958207564 -0.06600039079254319 0 0.039030562680116489 -0.066232609745846105 0 0.039038415854310331 -0.065980377542284044 0 0.011525791896601609 -0.08934782809932755 0 0.013827188150791194 -0.088571426016245194 0 0.012468363099469033 -0.092058608957151219 0 0.033128476298074895 -0.065464467300477211 0 0.023481786072607012 -0.069976294939921371 0 0.024660038753831114 -0.075440657868400721 0 0.023481786072607012 -0.069976294939921371 0 0.010223301432613543 -0.09068712039107088 0 0.009131307300582309 -0.092691126349798328 0 0.012468363099469033 -0.092058608957151219 0 0.010223301432613543 -0.09068712039107088 0 0.011525791896601609 -0.08934782809932755 0 0.012468363099469033 -0.092058608957151219 0 0.0094495323576789959 -0.088730359998669989 0 0.011525791896601609 -0.08934782809932755 0 0.011351963987380866 -0.086956391523049612 0 0.0094495323576789959 -0.088730359998669989 0 0.010223301432613543 -0.09068712039107088 0 0.011525791896601609 -0.08934782809932755 0 0.011525791896601609 -0.08934782809932755 0 0.013827188150791194 -0.088571426016245194 0 0.011351963987380866 -0.086956391523049612 0 0.013827188150791194 -0.088571426016245194 0 0.011351963987380866 -0.086956391523049612 0 0.01290265174644754 -0.084770849421633099 0 0.0090923999778488689 -0.08620337405366825 0 0.011351963987380866 -0.086956391523049612 0 0.010789906346927546 -0.084533513831216558 0 0.0090923999778488689 -0.08620337405366825 0 0.0094495323576789959 -0.088730359998669989 0 0.011351963987380866 -0.086956391523049612 0 0.010789906346927546 -0.084533513831216558 0 0.01290265174644754 -0.084770849421633099 0 0.011166746982052221 -0.082387105047803957 0 0.011351963987380866 -0.086956391523049612 0 0.010789906346927546 -0.084533513831216558 0 0.01290265174644754 -0.084770849421633099 0 0.0095752162781755426 -0.082971668062132978 0 0.0088529982987316964 -0.084459079863646286 0 0.010789906346927546 -0.084533513831216558 0 0.01290265174644754 -0.084770849421633099 0 0.015259766517721023 -0.085061735527406243 0 0.014601947922004182 -0.082903415359537311 0 0.039030562680116489 -0.066232609745846105 0 0.039059411128996656 -0.066727055438541696 0 0.038788460691838798 -0.066425706394938902 0 0.024660038753831114 -0.075440657868400721 0 0.026190111012266332 -0.075219852139827292 0 0.013827188150791194 -0.088571426016245194 0 0.01290265174644754 -0.084770849421633099 0 0.015259766517721023 -0.085061735527406243 0 0.03875302273281734 -0.066188785918795678 0 0.038788460691838798 -0.066425706394938902 0 0.038445681389090859 -0.066356845169827622 0 0.036181029092204005 -0.064756250346962058 0 0.036738490162902766 -0.064968498761039273 0 0.038788460691838798 -0.066425706394938902 0 0.038653574276734867 -0.066700752190715487 0 0.038445681389090859 -0.066356845169827622 0 0.039059411128996656 -0.066727055438541696 0 0.038788460691838798 -0.066425706394938902 0 0.038653574276734867 -0.066700752190715487 0 0.039059411128996656 -0.066727055438541696 0 0.038653574276734867 -0.066700752190715487 0 0.038656394042028308 -0.067115929419696199 0 0.038653574276734867 -0.066700752190715487 0 0.038656394042028308 -0.067115929419696199 0 0.038304618397403067 -0.066968810634553261 0 0.038656394042028308 -0.067115929419696199 0 0.038895401508918459 -0.067658108168336895 0 0.038323366195726891 -0.067516372432665978 0 0.039059411128996656 -0.066727055438541696 0 0.038656394042028308 -0.067115929419696199 0 0.038895401508918459 -0.067658108168336895 0 0.027294841569006929 -0.07342855929372552 0 0.027479279042525024 -0.073329948003856962 0 0.015259766517721023 -0.085061735527406243 0 0.016369893603491229 -0.0817118326090637 0 0.014601947922004182 -0.082903415359537311 0 0.015259766517721023 -0.085061735527406243 0 0.016369893603491229 -0.0817118326090637 0 0.016770307216533411 -0.081533303453601533 0 0.026190111012266332 -0.075219852139827292 0 0.027479279042525024 -0.073329948003856962 0 0.014601947922004182 -0.082903415359537311 0 0.014405720491541497 -0.081892515115744899 0 0.015380451727513221 -0.081607073558052329 0 0.014601947922004182 -0.082903415359537311 0 0.014405720491541497 -0.081892515115744899 0 0.013304626511239851 -0.08236003334636384 0 0.016369893603491229 -0.0817118326090637 0 0.014601947922004182 -0.082903415359537311 0 0.015380451727513221 -0.081607073558052329 0 0.016369893603491229 -0.0817118326090637 0 0.015380451727513221 -0.081607073558052329 0 0.016357218847828755 -0.081149169829707851 0 0.015380451727513221 -0.081607073558052329 0 0.015700799998161364 -0.080542494577646839 0 0.016357218847828755 -0.081149169829707851 0 0.015380451727513221 -0.081607073558052329 0 0.015700799998161364 -0.080542494577646839 0 0.014878675717234505 -0.080918563857813819 0 0.015700799998161364 -0.080542494577646839 0 0.016808297698587119 -0.080189669142504735 0 0.016357218847828755 -0.081149169829707851 0 0.014878675717234505 -0.080918563857813819 0 0.014715203254492774 -0.079630488046944781 0 0.013801733344913358 -0.081181990551407276 0 0.014405720491541497 -0.081892515115744899 0 0.014878675717234505 -0.080918563857813819 0 0.013801733344913358 -0.081181990551407276 0 0.014405720491541497 -0.081892515115744899 0 0.015380451727513221 -0.081607073558052329 0 0.014878675717234505 -0.080918563857813819 0 0.015700799998161364 -0.080542494577646839 0 0.014878675717234505 -0.080918563857813819 0 0.014715203254492774 -0.079630488046944781 0 0.015700799998161364 -0.080542494577646839 0 0.014715203254492774 -0.079630488046944781 0 0.01608158680963568 -0.079704992361069274 0 0.015700799998161364 -0.080542494577646839 0 0.01608158680963568 -0.079704992361069274 0 0.016808297698587119 -0.080189669142504735 0 0.027479279042525024 -0.073329948003856962 0 0.028933189217225947 -0.073507327317220456 0 0.016808297698587119 -0.080189669142504735 0 0.017000370279316463 -0.081160152415909417 0 0.018004374120294587 -0.07935902430584639 0 0.01608158680963568 -0.079704992361069274 0 0.016808297698587119 -0.080189669142504735 0 0.017029935855753128 -0.07921841395797731 0 0.016808297698587119 -0.080189669142504735 0 0.018004374120294587 -0.07935902430584639 0 0.017029935855753128 -0.07921841395797731 0 0.017000370279316463 -0.081160152415909417 0 0.016828406333708915 -0.081596046535100483 0 0.020245264757970928 -0.080180449811611057 0 0.017000370279316463 -0.081160152415909417 0 0.018004374120294587 -0.07935902430584639 0 0.020245264757970928 -0.080180449811611057 0 0.016369893603491229 -0.0817118326090637 0 0.016357218847828755 -0.081149169829707851 0 0.016805026876024681 -0.081555494165286443 0 0.017000370279316463 -0.081160152415909417 0 0.016357218847828755 -0.081149169829707851 0 0.016805026876024681 -0.081555494165286443 0 0.027386838063331125 -0.073491881002383963 0 0.027479279042525024 -0.073329948003856962 0 0.016808297698587119 -0.080189669142504735 0 0.017000370279316463 -0.081160152415909417 0 0.016357218847828755 -0.081149169829707851 0 0.0095752162781755426 -0.082971668062132978 0 0.011166746982052221 -0.082387105047803957 0 0.0099192159071075769 -0.080413285606062951 0 0.0095752162781755426 -0.082971668062132978 0 0.010789906346927546 -0.084533513831216558 0 0.011166746982052221 -0.082387105047803957 0 0.01290265174644754 -0.084770849421633099 0 0.014601947922004182 -0.082903415359537311 0 0.013304626511239851 -0.08236003334636384 0 0.01290265174644754 -0.084770849421633099 0 0.011166746982052221 -0.082387105047803957 0 0.013304626511239851 -0.08236003334636384 0 0.011166746982052221 -0.082387105047803957 0 0.013304626511239851 -0.08236003334636384 0 0.012523408238602225 -0.08053429116748724 0 0.014405720491541497 -0.081892515115744899 0 0.013304626511239851 -0.08236003334636384 0 0.013801733344913358 -0.081181990551407276 0 0.013304626511239851 -0.08236003334636384 0 0.013801733344913358 -0.081181990551407276 0 0.012523408238602225 -0.08053429116748724 0 0.014715203254492774 -0.079630488046944781 0 0.013801733344913358 -0.081181990551407276 0 0.012523408238602225 -0.08053429116748724 0 0.012523408238602225 -0.08053429116748724 0 0.0099192159071075769 -0.080413285606062951 0 0.012628712782593431 -0.077932041585734829 0 0.011166746982052221 -0.082387105047803957 0 0.012523408238602225 -0.08053429116748724 0 0.0099192159071075769 -0.080413285606062951 0 0.0096029060977062247 -0.080650182526078612 0 0.0095438330171555494 -0.07784417637797808 0 0.012452027064197565 -0.078070431392591275 0 0.010057138018145671 -0.080289924046667627 0 0.012279263325323206 -0.078204230469723898 0 0.014715203254492774 -0.079630488046944781 0 0.012523408238602225 -0.08053429116748724 0 0.012628712782593431 -0.077932041585734829 0 0.0095438330171555494 -0.07784417637797808 0 0.012452027064197565 -0.078070431392591275 0 0.013264858063000437 -0.074999971227152989 0 0.012279263325323206 -0.078204230469723898 0 0.013615669151092188 -0.076945037495812649 0 0.012452027064197565 -0.078070431392591275 0 0.013264858063000437 -0.074999971227152989 0 0.015334440414015976 -0.075384805842237224 0 0.0090051222156878694 -0.074999994364357836 0 0.0095438330171555494 -0.07784417637797808 0 0.013264858063000437 -0.074999971227152989 0 0.017469390873726023 -0.078109499885685385 0 0.016752645855898134 -0.076666860628394409 0 0.019492771872740011 -0.077269284805391983 0 0.017469390873726023 -0.078109499885685385 0 0.016177735443048926 -0.078542056101326502 0 0.016752645855898134 -0.076666860628394409 0 0.017469390873726023 -0.078109499885685385 0 0.018004374120294587 -0.07935902430584639 0 0.019492771872740011 -0.077269284805391983 0 0.017469390873726023 -0.078109499885685385 0 0.017029935855753128 -0.07921841395797731 0 0.016177735443048926 -0.078542056101326502 0 0.01608158680963568 -0.079704992361069274 0 0.017029935855753128 -0.07921841395797731 0 0.016177735443048926 -0.078542056101326502 0 0.017469390873726023 -0.078109499885685385 0 0.018004374120294587 -0.07935902430584639 0 0.017029935855753128 -0.07921841395797731 0 0.014715203254492774 -0.079630488046944781 0 0.016177735443048926 -0.078542056101326502 0 0.015108089610503028 -0.077611569307039191 0 0.014715203254492774 -0.079630488046944781 0 0.012628712782593431 -0.077932041585734829 0 0.015108089610503028 -0.077611569307039191 0 0.014715203254492774 -0.079630488046944781 0 0.01608158680963568 -0.079704992361069274 0 0.016177735443048926 -0.078542056101326502 0 0.016177735443048926 -0.078542056101326502 0 0.015108089610503028 -0.077611569307039191 0 0.016752645855898134 -0.076666860628394409 0 0.015108089610503028 -0.077611569307039191 0 0.015334440414015976 -0.075384805842237224 0 0.016752645855898134 -0.076666860628394409 0 0.012628712782593431 -0.077932041585734829 0 0.015108089610503028 -0.077611569307039191 0 0.015334440414015976 -0.075384805842237224 0 0.013264858063000437 -0.074999971227152989 0 0.015334440414015976 -0.075384805842237224 0 0.017524650675613387 -0.074999921392340602 0 0.015334440414015976 -0.075384805842237224 0 0.017524650675613387 -0.074999921392340602 0 0.016752645855898134 -0.076666860628394409 0 0.017524650675613387 -0.074999921392340602 0 0.016752645855898134 -0.076666860628394409 0 0.019492771872740011 -0.077269284805391983 0 0.017524650675613387 -0.074999921392340602 0 0.019492771872740011 -0.077269284805391983 0 0.021784364446636634 -0.074999910119761357 0 0.018004374120294587 -0.07935902430584639 0 0.019492771872740011 -0.077269284805391983 0 0.020245264757970928 -0.080180449811611057 0 0.019492771872740011 -0.077269284805391983 0 0.023647742334522274 -0.078688534444114597 0 0.020245264757970928 -0.080180449811611057 0 0.030407159572174471 -0.073269573940887081 0 0.028933189217225947 -0.073507327317220456 0 0.019492771872740011 -0.077269284805391983 0 0.021784364446636634 -0.074999910119761357 0 0.023647742334522274 -0.078688534444114597 0 0.021784364446636634 -0.074999910119761357 0 0.026044155671645152 -0.075000005880403828 0 0.023647742334522274 -0.078688534444114597 0 0.026047725407644707 -0.075002151310680346 0 0.030407159572174471 -0.073269573940887081 0 0.026044347423693777 -0.075000048448397 0 0.026175454493522442 -0.076128232499743154 0 0.023938179883300305 -0.078500631624604744 0 0.031393090684562926 -0.074231350815698385 0 0.03129329694824938 -0.074889028577281205 0 0.027429507010332747 -0.075915219802285369 0 0.026044347423693777 -0.075000048448397 0 0.028918057788579407 -0.074999940737296128 0 0.027429507010332747 -0.075915219802285369 0 0.026469734699343491 -0.077417570215718601 0 0.029119628121852592 -0.076227841659752313 0 0.027429507010332747 -0.075915219802285369 0 0.026044347423693777 -0.075000048448397 0 0.026175454493522442 -0.076128232499743154 0 0.03125792207005279 -0.074393245143862238 0 0.031393090684562926 -0.074231350815698385 0 0.027429507010332747 -0.075915219802285369 0 0.026175454493522442 -0.076128232499743154 0 0.026469734699343491 -0.077417570215718601 0 0.033514735268710287 -0.075552856446537947 0 0.033661937830963086 -0.074950990418285068 0 0.033247547488063252 -0.075356841735935015 0 0.031393090684562926 -0.074231350815698385 0 0.033656873729519761 -0.071723163929806905 0 0.026175454493522442 -0.076128232499743154 0 0.026453378898272564 -0.07730602510412489 0 0.023938179883300305 -0.078500631624604744 0 0.031393090684562926 -0.074231350815698385 0 0.030407159572174471 -0.073269573940887081 0 0.036039919124190786 -0.069729211941851998 0 0.03702886802130971 -0.069261646101544533 0 0.03671928521552633 -0.068316333098414242 0 0.036039919124190786 -0.069729211941851998 0 0.03671928521552633 -0.068316333098414242 0 0.035725782574558107 -0.068252809273061696 0 0.035725782574558107 -0.068252809273061696 0 0.03618991212351505 -0.067408346899552149 0 0.035411079318492265 -0.066808586095303713 0 0.033656873729519761 -0.071723163929806905 0 0.035153971622064691 -0.069159244656618005 0 0.03671928521552633 -0.068316333098414242 0 0.035725782574558107 -0.068252809273061696 0 0.03618991212351505 -0.067408346899552149 0 0.03671928521552633 -0.068316333098414242 0 0.03618991212351505 -0.067408346899552149 0 0.036972037056780857 -0.06734859341017034 0 0.036972037056780857 -0.06734859341017034 0 0.037692979158607767 -0.067276725470213808 0 0.037724826579581788 -0.06811661524460802 0 0.03671928521552633 -0.068316333098414242 0 0.036972037056780857 -0.06734859341017034 0 0.037724826579581788 -0.06811661524460802 0 0.035106092011811779 -0.068437405313648836 0 0.036233085214458088 -0.067396863050129083 0 0.038656394042028308 -0.067115929419696199 0 0.038323366195726891 -0.067516372432665978 0 0.038304618397403067 -0.066968810634553261 0 0.037692979158607767 -0.067276725470213808 0 0.037724826579581788 -0.06811661524460802 0 0.038304618397403067 -0.066968810634553261 0 0.038323366195726891 -0.067516372432665978 0 0.037688638124725553 -0.06770059947530449 0 0.038304618397403067 -0.066968810634553261 0 0.038895401508918459 -0.067658108168336895 0 0.038323366195726891 -0.067516372432665978 0 0.038082914738285956 -0.068138408140539536 0 0.038323366195726891 -0.067516372432665978 0 0.038082914738285956 -0.068138408140539536 0 0.037688638124725553 -0.06770059947530449 0 0.03702886802130971 -0.069261646101544533 0 0.03671928521552633 -0.068316333098414242 0 0.037724826579581788 -0.06811661524460802 0 0.037077439170611411 -0.068643873102176733 0 0.038082914738285956 -0.068138408140539536 0 0.037688638124725553 -0.06770059947530449 0 0.030407159572174471 -0.073269573940887081 0 0.035106092011811779 -0.068437405313648836 0 0.033597127315869481 -0.075647857524695036 0 0.033690969679984493 -0.075715665337914032 0 0.033593461543782656 -0.075316362854277202 0 0.033450313229827992 -0.075715166547185062 0 0.033690969679984493 -0.075715665337914032 0 0.03392058392656102 -0.075980922142412602 0 0.033450313229827992 -0.075715166547185062 0 0.033597127315869481 -0.075647857524695036 0 0.033690969679984493 -0.075715665337914032 0 0.035465469449019786 -0.07589986484061248 0 0.036880623852528327 -0.07597332300009571 0 0.035712820908436763 -0.074998922202841503 0 0.033789251561959138 -0.075854761146746205 0 0.038188197892619083 -0.076620377284849411 0 0.033597127315869481 -0.075647857524695036 0 0.033789251561959138 -0.075854761146746205 0 0.033593461543782656 -0.075316362854277202 0 0.035712820908436763 -0.074998922202841503 0 0.033789251561959138 -0.075854761146746205 0 0.031796385904303517 -0.075000927935163081 0 0.033789251561959138 -0.075854761146746205 0 0.033215346806235321 -0.075722665502682182 0 0.032586104200779148 -0.075599882496054052 0 0.033597127315869481 -0.075647857524695036 0 0.033789251561959138 -0.075854761146746205 0 0.033215346806235321 -0.075722665502682182 0 0.033450313229827992 -0.075715166547185062 0 0.033597127315869481 -0.075647857524695036 0 0.033215346806235321 -0.075722665502682182 0 0.033450313229827992 -0.075715166547185062 0 0.033215346806235321 -0.075722665502682182 0 0.033070055253070059 -0.075603347125027989 0 0.033215346806235321 -0.075722665502682182 0 0.032941678109158906 -0.075506040461442131 0 0.033070055253070059 -0.075603347125027989 0 0.032941678109158906 -0.075506040461442131 0 0.032586104200779148 -0.075599882496054052 0 0.032905475697817335 -0.075623484429568025 0 0.033215346806235321 -0.075722665502682182 0 0.032941678109158906 -0.075506040461442131 0 0.032586104200779148 -0.075599882496054052 0 0.033789251561959138 -0.075854761146746205 0 0.031796385904303517 -0.075000927935163081 0 0.032586104200779148 -0.075599882496054052 0 0.031796385904303517 -0.075000927935163081 0 0.032586104200779148 -0.075599882496054052 0 0.032905475697817335 -0.075623484429568025 0 0.031791339534719278 -0.074999563074393663 0 0.03129329694824938 -0.074889028577281205 0 0.031792035636534238 -0.075000026072470763 0 0.028918057788579407 -0.074999940737296128 0 0.029119628121852592 -0.076227841659752313 0 0.027429507010332747 -0.075915219802285369 0 0.028918057788579407 -0.074999940737296128 0 0.029119628121852592 -0.076227841659752313 0 0.033514735268710287 -0.075552856446537947 0 0.032905475697817335 -0.075623484429568025 0 0.033247547488063252 -0.075356841735935015 0 0.032941678109158906 -0.075506040461442131 0 0.032905475697817335 -0.075623484429568025 0 0.033247547488063252 -0.075356841735935015 0 0.032941678109158906 -0.075506040461442131 0 0.033247547488063252 -0.075356841735935015 0 0.033273879758183092 -0.075057852197140687 0 0.033661937830963086 -0.074950990418285068 0 0.033247547488063252 -0.075356841735935015 0 0.033273879758183092 -0.075057852197140687 0 0.033661937830963086 -0.074950990418285068 0 0.033380397274471944 -0.074258921362915009 0 0.033692061204618616 -0.07417110775727416 0 0.033661937830963086 -0.074950990418285068 0 0.033273879758183092 -0.075057852197140687 0 0.033380397274471944 -0.074258921362915009 0 0.033325436229075023 -0.071265888075465994 0 0.033932856365348013 -0.070707697131416364 0 0.033234395121238915 -0.074713425046275414 0 0.032887003679935981 -0.07362463048971514 0 0.033380397274471944 -0.074258921362915009 0 0.033234395121238915 -0.074713425046275414 0 0.033273879758183092 -0.075057852197140687 0 0.033380397274471944 -0.074258921362915009 0 0.033234395121238915 -0.074713425046275414 0 0.033066621182385438 -0.075369493314967187 0 0.032835880602349508 -0.075562967037312176 0 0.033234395121238915 -0.074713425046275414 0 0.033273879758183092 -0.075057852197140687 0 0.033066621182385438 -0.075369493314967187 0 0.032941678109158906 -0.075506040461442131 0 0.033273879758183092 -0.075057852197140687 0 0.033066621182385438 -0.075369493314967187 0 0.032941678109158906 -0.075506040461442131 0 0.033066621182385438 -0.075369493314967187 0 0.033070055253070059 -0.075603347125027989 0 0.033450313229827992 -0.075715166547185062 0 0.033070055253070059 -0.075603347125027989 0 0.033528356415425051 -0.075904071469590481 0 0.033070055253070059 -0.075603347125027989 0 0.032835880602349508 -0.075562967037312176 0 0.033528356415425051 -0.075904071469590481 0 0.033066621182385438 -0.075369493314967187 0 0.033070055253070059 -0.075603347125027989 0 0.032835880602349508 -0.075562967037312176 0 0.033234395121238915 -0.074713425046275414 0 0.032835880602349508 -0.075562967037312176 0 0.032887003679935981 -0.07362463048971514 0 0.032887003679935981 -0.07362463048971514 0 0.030220399014684238 -0.072972666069901437 0 0.031755426389646034 -0.071570502060439162 0 0.032688305443470546 -0.07454104624085664 0 0.032354685570805362 -0.074025761830631101 0 0.032835880602349508 -0.075562967037312176 0 0.032887003679935981 -0.07362463048971514 0 0.030220399014684238 -0.072972666069901437 0 0.033633130017226058 -0.076631968355765037 0 0.033865166459581382 -0.076326203015536234 0 0.034114526041211762 -0.076511193837781613 0 0.033633130017226058 -0.076631968355765037 0 0.033865166459581382 -0.076326203015536234 0 0.033528356415425051 -0.075904071469590481 0 0.032835880602349508 -0.075562967037312176 0 0.033633130017226058 -0.076631968355765037 0 0.033528356415425051 -0.075904071469590481 0 0.033865166459581382 -0.076326203015536234 0 0.033528356415425051 -0.075904071469590481 0 0.034084206658037186 -0.076207501522226564 0 0.033528356415425051 -0.075904071469590481 0 0.03392058392656102 -0.075980922142412602 0 0.034084206658037186 -0.076207501522226564 0 0.033450313229827992 -0.075715166547185062 0 0.033528356415425051 -0.075904071469590481 0 0.03392058392656102 -0.075980922142412602 0 0.030658593920241888 -0.069535285934745533 0 0.030639939541629593 -0.066746510438897372 0 0.028693665491957152 -0.06729033726615935 0 0.030658593920241888 -0.069535285934745533 0 0.032537773356127918 -0.067453907779567279 0 0.030639939541629593 -0.066746510438897372 0 0.030220399014684238 -0.072972666069901437 0 0.030658593920241888 -0.069535285934745533 0 0.028179335821151306 -0.070091489252577258 0 0.030220399014684238 -0.072972666069901437 0 0.030658593920241888 -0.069535285934745533 0 0.031755426389646034 -0.071570502060439162 0 0.030658593920241888 -0.069535285934745533 0 0.031755426389646034 -0.071570502060439162 0 0.03330740984435504 -0.070250909356576421 0 0.032887003679935981 -0.07362463048971514 0 0.031755426389646034 -0.071570502060439162 0 0.03330740984435504 -0.070250909356576421 0 0.030658593920241888 -0.069535285934745533 0 0.03330740984435504 -0.070250909356576421 0 0.032537773356127918 -0.067453907779567279 0 0.03330740984435504 -0.070250909356576421 0 0.034820019464119174 -0.067696494290320472 0 0.032537773356127918 -0.067453907779567279 0 0.03330740984435504 -0.070250909356576421 0 0.034820019464119174 -0.067696494290320472 0 0.035921889453215068 -0.069863048517889784 0 0.032887003679935981 -0.07362463048971514 0 0.03330740984435504 -0.070250909356576421 0 0.035473914806634393 -0.072104561738887366 0 0.03330740984435504 -0.070250909356576421 0 0.035473914806634393 -0.072104561738887366 0 0.035921889453215068 -0.069863048517889784 0 0.035473914806634393 -0.072104561738887366 0 0.037917843664112806 -0.070973965978889608 0 0.035921889453215068 -0.069863048517889784 0 0.033932856365348013 -0.070707697131416364 0 0.035153971622064691 -0.069159244656618005 0 0.035153971622064691 -0.069159244656618005 0 0.03542154239159355 -0.067719590100900257 0 0.037917843664112806 -0.070973965978889608 0 0.035921889453215068 -0.069863048517889784 0 0.037084988108193231 -0.068035827979656904 0 0.034820019464119174 -0.067696494290320472 0 0.035921889453215068 -0.069863048517889784 0 0.037084988108193231 -0.068035827979656904 0 0.034820019464119174 -0.067696494290320472 0 0.037084988108193231 -0.068035827979656904 0 0.035882351456850203 -0.06516952004156823 0 0.03542154239159355 -0.067719590100900257 0 0.035417025502345795 -0.066991285743640924 0 0.036122463250239857 -0.065838442678680206 0 0.035882351456850203 -0.06516952004156823 0 0.036738614168476014 -0.065298790621428918 0 0.034065348347331138 -0.065541555014096448 0 0.032160678133099176 -0.064676194399898426 0 0.034789943417425591 -0.062639216050841259 0 0.035882351456850203 -0.06516952004156823 0 0.034065348347331138 -0.065541555014096448 0 0.034789943417425591 -0.062639216050841259 0 0.034820019464119174 -0.067696494290320472 0 0.034065348347331138 -0.065541555014096448 0 0.032537773356127918 -0.067453907779567279 0 0.034820019464119174 -0.067696494290320472 0 0.035882351456850203 -0.06516952004156823 0 0.034065348347331138 -0.065541555014096448 0 0.032537773356127918 -0.067453907779567279 0 0.032160678133099176 -0.064676194399898426 0 0.030639939541629593 -0.066746510438897372 0 0.034065348347331138 -0.065541555014096448 0 0.032537773356127918 -0.067453907779567279 0 0.032160678133099176 -0.064676194399898426 0 0.030570765279652534 -0.063554477138817178 0 0.029573755476150418 -0.064957922270196186 0 0.029384500961138111 -0.062126303845846879 0 0.032160678133099176 -0.064676194399898426 0 0.030570765279652534 -0.063554477138817178 0 0.029573755476150418 -0.064957922270196186 0 0.032160678133099176 -0.064676194399898426 0 0.029573755476150418 -0.064957922270196186 0 0.030639939541629593 -0.066746510438897372 0 0.029573755476150418 -0.064957922270196186 0 0.030639939541629593 -0.066746510438897372 0 0.028693665491957152 -0.06729033726615935 0 0.03804269268354759 -0.065851527503021076 0 0.037730290431357706 -0.066705533357099597 0 0.036695621785718856 -0.066311892707556053 0 0.037565450257169869 -0.066940553867433972 0 0.036946257139377485 -0.067458209559286414 0 0.03804269268354759 -0.065851527503021076 0 0.037241262593592728 -0.066165385405045921 0 0.037499217928030799 -0.065444152764864261 0 0.03804269268354759 -0.065851527503021076 0 0.038445681389090859 -0.066356845169827622 0 0.038420853577715575 -0.065442486180243134 0 0.03804269268354759 -0.065851527503021076 0 0.038445681389090859 -0.066356845169827622 0 0.037730290431357706 -0.066705533357099597 0 0.038445681389090859 -0.066356845169827622 0 0.038304618397403067 -0.066968810634553261 0 0.037730290431357706 -0.066705533357099597 0 0.038653574276734867 -0.066700752190715487 0 0.038445681389090859 -0.066356845169827622 0 0.038304618397403067 -0.066968810634553261 0 0.037692979158607767 -0.067276725470213808 0 0.038304618397403067 -0.066968810634553261 0 0.037730290431357706 -0.066705533357099597 0 0.036972037056780857 -0.06734859341017034 0 0.037692979158607767 -0.067276725470213808 0 0.037730290431357706 -0.066705533357099597 0 0.036972037056780857 -0.06734859341017034 0 0.037730290431357706 -0.066705533357099597 0 0.036695621785718856 -0.066311892707556053 0 0.03618991212351505 -0.067408346899552149 0 0.036972037056780857 -0.06734859341017034 0 0.036695621785718856 -0.066311892707556053 0 0.035153971622064691 -0.069159244656618005 0 0.036946257139377485 -0.067458209559286414 0 0.03618991212351505 -0.067408346899552149 0 0.035411079318492265 -0.066808586095303713 0 0.036695621785718856 -0.066311892707556053 0 0.036122463250239857 -0.065838442678680206 0 0.037241262593592728 -0.066165385405045921 0 0.036738614168476014 -0.065298790621428918 0 0.036295543227161914 -0.066567745360054859 0 0.036122463250239857 -0.065838442678680206 0 0.037241262593592728 -0.066165385405045921 0 0.037499217928030799 -0.065444152764864261 0 0.036738614168476014 -0.065298790621428918 0 0.03743527482039509 -0.064726371542444747 0 0.037241262593592728 -0.066165385405045921 0 0.037499217928030799 -0.065444152764864261 0 0.036738614168476014 -0.065298790621428918 0 0.036738614168476014 -0.065298790621428918 0 0.03743527482039509 -0.064726371542444747 0 0.036827751110192271 -0.063557721267147191 0 0.035882351456850203 -0.06516952004156823 0 0.036738614168476014 -0.065298790621428918 0 0.036827751110192271 -0.063557721267147191 0 0.037988155227531004 -0.065101008151188036 0 0.038532215224228693 -0.064701720448096134 0 0.03783114651821879 -0.063994156264323365 0 0.03743527482039509 -0.064726371542444747 0 0.037988155227531004 -0.065101008151188036 0 0.03783114651821879 -0.063994156264323365 0 0.037499217928030799 -0.065444152764864261 0 0.03743527482039509 -0.064726371542444747 0 0.037988155227531004 -0.065101008151188036 0 0.03804269268354759 -0.065851527503021076 0 0.037499217928030799 -0.065444152764864261 0 0.037988155227531004 -0.065101008151188036 0 0.037988155227531004 -0.065101008151188036 0 0.038420853577715575 -0.065442486180243134 0 0.038532215224228693 -0.064701720448096134 0 0.039176485066815439 -0.065332783948121809 0 0.038445681389090859 -0.066356845169827622 0 0.038420853577715575 -0.065442486180243134 0 0.039176485066815439 -0.065332783948121809 0 0.038420853577715575 -0.065442486180243134 0 0.038532215224228693 -0.064701720448096134 0 0.03804269268354759 -0.065851527503021076 0 0.037988155227531004 -0.065101008151188036 0 0.038420853577715575 -0.065442486180243134 0 0.038532215224228693 -0.064701720448096134 0 0.03783114651821879 -0.063994156264323365 0 0.038751760547604361 -0.064170656874013715 0 0.033391796776029298 -0.062067031376533563 0 0.032994300842473713 -0.062921743764273744 0 0.028405303971691349 -0.058479825171308654 0 0.029657774939592738 -0.05857643941038667 0 0.028323072879211261 -0.05808675724568086 0 0.029014019356549625 -0.058654221273661634 0 0.029271625362762562 -0.058782436574892558 0 0.028405303971691349 -0.058479825171308654 0 0.02928676181674016 -0.05910124606282572 0 0.029393109077379149 -0.060161970707079369 0 0.028405303971691349 -0.058479825171308654 0 0.02828301463153067 -0.057723793109055142 0 0.028396699553235039 -0.05799073229140541 0 0.028405303971691349 -0.058479825171308654 0 0.02928676181674016 -0.05910124606282572 0 0.029657774939592738 -0.05857643941038667 0 0.02928676181674016 -0.05910124606282572 0 0.029657774939592738 -0.05857643941038667 0 0.030415550371786719 -0.059892552998346067 0 0.03743527482039509 -0.064726371542444747 0 0.03783114651821879 -0.063994156264323365 0 0.036827751110192271 -0.063557721267147191 0 0.033391796776029298 -0.062067031376533563 0 0.033236480409300384 -0.061756927730142686 0 0.030917295540756406 -0.059366412357695901 0 0.030415550371786719 -0.059892552998346067 0 0.031320079720231958 -0.060157298658871539 0 0.029657774939592738 -0.05857643941038667 0 0.030917295540756406 -0.059366412357695901 0 0.030415550371786719 -0.059892552998346067 0 0.030415550371786719 -0.059892552998346067 0 0.030230935418708419 -0.060976627195116782 0 0.029393109077379149 -0.060161970707079369 0 0.030415550371786719 -0.059892552998346067 0 0.031320079720231958 -0.060157298658871539 0 0.031140265501816058 -0.060568976861700936 0 0.029804843685459326 -0.058841604661745504 0 0.030284227312094701 -0.059345824581238701 0 0.030415550371786719 -0.059892552998346067 0 0.030230935418708419 -0.060976627195116782 0 0.031140265501816058 -0.060568976861700936 0 0.030208386519770581 -0.05882524525421897 0 0.030352580122237096 -0.058843131501864071 0 0.030139950303974178 -0.058938581610618199 0 0.030208386519770581 -0.05882524525421897 0 0.030139950303974178 -0.058938581610618199 0 0.03008868889042024 -0.058799948638075819 0 0.029804843685459326 -0.058841604661745504 0 0.02978617927557501 -0.058836550925773307 0 0.028392575728543069 -0.057624057590024244 0 0.02828301463153067 -0.057723793109055142 0 0.028503035955424413 -0.057620311325099711 0 0.028665794730632937 -0.057561056232869848 0 0.02828301463153067 -0.057723793109055142 0 0.028503035955424413 -0.057620311325099711 0 0.028689569728050712 -0.057549476161612143 0 0.028665794730632937 -0.057561056232869848 0 0.02828301463153067 -0.057723793109055142 0 0.029804843685459326 -0.058841604661745504 0 0.029271625362762562 -0.058782436574892558 0 0.028392575728543069 -0.057624057590024244 0 0.028370831932948013 -0.057778375603461524 0 0.02828301463153067 -0.057723793109055142 0 0.028392575728543069 -0.057624057590024244 0 0.028370831932948013 -0.057778375603461524 0 0.028345292992235802 -0.057736424955420203 0 0.028370831932948013 -0.057778375603461524 0 0.02828301463153067 -0.057723793109055142 0 0.028396699553235039 -0.05799073229140541 0 0.02928676181674016 -0.05910124606282572 0 0.030415550371786719 -0.059892552998346067 0 0.029393109077379149 -0.060161970707079369 0 0.030896297554965441 -0.061839399308085172 0 0.030301173394067221 -0.060235275108509054 0 0.029384500961138111 -0.062126303845846879 0 0.030301173394067221 -0.060235275108509054 0 0.029384500961138111 -0.062126303845846879 0 0.028942469232754404 -0.060332713396390632 0 0.030570765279652534 -0.063554477138817178 0 0.030896297554965441 -0.061839399308085172 0 0.029384500961138111 -0.062126303845846879 0 0.032160678133099176 -0.064676194399898426 0 0.030570765279652534 -0.063554477138817178 0 0.030896297554965441 -0.061839399308085172 0 0.032160678133099176 -0.064676194399898426 0 0.030896297554965441 -0.061839399308085172 0 0.034789943417425591 -0.062639216050841259 0 0.031552465808403998 -0.061652970324737558 0 0.032416112612925596 -0.061661166733506641 0 0.030896297554965441 -0.061839399308085172 0 0.031258762791623963 -0.060662954505753368 0 0.030301173394067221 -0.060235275108509054 0 0.030896297554965441 -0.061839399308085172 0 0.031258762791623963 -0.060662954505753368 0 0.031426526180431957 -0.0603723692620248 0 0.031258762791623963 -0.060662954505753368 0 0.031426526180431957 -0.0603723692620248 0 0.031320079720231958 -0.060157298658871539 0 0.033236480409300384 -0.061756927730142686 0 0.032416112612925596 -0.061661166733506641 0 0.035882351456850203 -0.06516952004156823 0 0.036827751110192271 -0.063557721267147191 0 0.034789943417425591 -0.062639216050841259 0 0.030917295540756406 -0.059366412357695901 0 0.031426526180431957 -0.0603723692620248 0 0.031320079720231958 -0.060157298658871539 0 0.030284227312094701 -0.059345824581238701 0 0.030361172765794347 -0.059643283168857975 0 0.031320079720231958 -0.060157298658871539 0 0.031140265501816058 -0.060568976861700936 0 0.031418339022062376 -0.060239372214165365 0 0.030139950303974178 -0.058938581610618199 0 0.030272615523866328 -0.059296241214822111 0 0.030123248989774452 -0.05885623785011182 0 0.030139950303974178 -0.058938581610618199 0 0.030123248989774452 -0.05885623785011182 0 0.03008868889042024 -0.058799948638075819 0 0.030272615523866328 -0.059296241214822111 0 0.030150787087446406 -0.059128232244261586 0 0.030123248989774452 -0.05885623785011182 0 0.031258762791623963 -0.060662954505753368 0 0.031320079720231958 -0.060157298658871539 0 0.031418339022062376 -0.060239372214165365 0 0.031258762791623963 -0.060662954505753368 0 0.031418339022062376 -0.060239372214165365 0 0.030301173394067221 -0.060235275108509054 0 0.030361172765794347 -0.059643283168857975 0 0.030194659650692138 -0.059819553800668938 0 0.030272615523866328 -0.059296241214822111 0 0.030150787087446406 -0.059128232244261586 0 0.030301173394067221 -0.060235275108509054 0 0.030150787087446406 -0.059128232244261586 0 0.029577962075887046 -0.059262012948853172 0 0.030301173394067221 -0.060235275108509054 0 0.030150787087446406 -0.059128232244261586 0 0.029577962075887046 -0.059262012948853172 0 0.029839123497659173 -0.058841910111159364 0 0.029577962075887046 -0.059262012948853172 0 0.030301173394067221 -0.060235275108509054 0 0.028942469232754404 -0.060332713396390632 0 0.029718057288364415 -0.058497737952634292 0 0.029839123497659173 -0.058841910111159364 0 0.029243258338021959 -0.05872046479410678 0 0.029577962075887046 -0.059262012948853172 0 0.029839123497659173 -0.058841910111159364 0 0.029243258338021959 -0.05872046479410678 0 0.029718057288364415 -0.058497737952634292 0 0.029839123497659173 -0.058841910111159364 0 0.030170768059701876 -0.0587700552940916 0 0.030150787087446406 -0.059128232244261586 0 0.029839123497659173 -0.058841910111159364 0 0.030170768059701876 -0.0587700552940916 0 0.029551600640709951 -0.058433555049417031 0 0.029791471294541624 -0.058491859749894425 0 0.029477357321671796 -0.058298601726608931 0 0.029489414009874388 -0.058277892736257948 0 0.029536570138382463 -0.058208588818673461 0 0.029489414009874388 -0.058277892736257948 0 0.029629604228808087 -0.058239045937454041 0 0.029587938671030004 -0.058182240452868829 0 0.030150787087446406 -0.059128232244261586 0 0.030170768059701876 -0.0587700552940916 0 0.030123248989774452 -0.05885623785011182 0 0.029791471294541624 -0.058491859749894425 0 0.02990729253828046 -0.058520918952227094 0 0.030170768059701876 -0.0587700552940916 0 0.030123248989774452 -0.05885623785011182 0 0.029894452315601911 -0.058566495042792661 0 0.030123248989774452 -0.05885623785011182 0 0.03008868889042024 -0.058799948638075819 0 0.029894452315601911 -0.058566495042792661 0 0.029629604228808087 -0.058239045937454041 0 0.029894452315601911 -0.058566495042792661 0 0.029733610339764967 -0.058167447605296269 0 0.029489414009874388 -0.058277892736257948 0 0.029629604228808087 -0.058239045937454041 0 0.029894452315601911 -0.058566495042792661 0 0.029629604228808087 -0.058239045937454041 0 0.029578635327324746 -0.058171873736586638 0 0.029733610339764967 -0.058167447605296269 0 0.029578635327324746 -0.058171873736586638 0 0.029587938671030004 -0.058182240452868829 0 0.029400846524295084 -0.058227717710658128 0 0.029629604228808087 -0.058239045937454041 0 0.029578635327324746 -0.058171873736586638 0 0.029587938671030004 -0.058182240452868829 0 0.029587938671030004 -0.058182240452868829 0 0.029606553030263712 -0.058226832158143525 0 0.029400846524295084 -0.058227717710658128 0 0.029606553030263712 -0.058226832158143525 0 0.029400846524295084 -0.058227717710658128 0 0.02934028037730434 -0.05850410899826209 0 0.029587938671030004 -0.058182240452868829 0 0.029606553030263712 -0.058226832158143525 0 0.029536570138382463 -0.058208588818673461 0 0.029489414009874388 -0.058277892736257948 0 0.029587938671030004 -0.058182240452868829 0 0.029536570138382463 -0.058208588818673461 0 0.029477357321671796 -0.058298601726608931 0 0.029536570138382463 -0.058208588818673461 0 0.029482873775958159 -0.058184982819398448 0 0.029536570138382463 -0.058208588818673461 0 0.02952247662977071 -0.058125400496659554 0 0.029482873775958159 -0.058184982819398448 0 0.029606553030263712 -0.058226832158143525 0 0.029536570138382463 -0.058208588818673461 0 0.02952247662977071 -0.058125400496659554 0 0.02952247662977071 -0.058125400496659554 0 0.029456861911752806 -0.058115416104952515 0 0.029482873775958159 -0.058184982819398448 0 0.029456861911752806 -0.058115416104952515 0 0.029482873775958159 -0.058184982819398448 0 0.029398137793973884 -0.058183827671627941 0 0.029477357321671796 -0.058298601726608931 0 0.029482873775958159 -0.058184982819398448 0 0.029398137793973884 -0.058183827671627941 0 0.028813370561314312 -0.057829360493740947 0 0.029034169937587614 -0.058020104814645916 0 0.028638219658198048 -0.057965080230673205 0 0.028572065920766821 -0.057694801174550871 0 0.028813370561314312 -0.057829360493740947 0 0.028638219658198048 -0.057965080230673205 0 0.028362624085388206 -0.05769626095980275 0 0.028572065920766821 -0.057694801174550871 0 0.028638219658198048 -0.057965080230673205 0 0.028362624085388206 -0.05769626095980275 0 0.028638219658198048 -0.057965080230673205 0 0.028163507676463435 -0.057845700973420504 0 0.028392575728543069 -0.057624057590024244 0 0.028362624085388206 -0.05769626095980275 0 0.028572065920766821 -0.057694801174550871 0 0.028392575728543069 -0.057624057590024244 0 0.028503035955424413 -0.057620311325099711 0 0.028572065920766821 -0.057694801174550871 0 0.028665794730632937 -0.057561056232869848 0 0.028503035955424413 -0.057620311325099711 0 0.028572065920766821 -0.057694801174550871 0 0.028781802468873591 -0.057493875236813326 0 0.028665794730632937 -0.057561056232869848 0 0.028878413840134745 -0.057652570596044665 0 0.028572065920766821 -0.057694801174550871 0 0.028878413840134745 -0.057652570596044665 0 0.028813370561314312 -0.057829360493740947 0 0.028665794730632937 -0.057561056232869848 0 0.028572065920766821 -0.057694801174550871 0 0.028878413840134745 -0.057652570596044665 0 0.029804843685459326 -0.058841604661745504 0 0.029673940537124559 -0.058544772701023907 0 0.030208386519770581 -0.05882524525421897 0 0.030352580122237096 -0.058843131501864071 0 0.030266648722050992 -0.058661221469948024 0 0.028781802468873591 -0.057493875236813326 0 0.028878413840134745 -0.057652570596044665 0 0.029196452712478175 -0.05764349573553703 0 0.028878413840134745 -0.057652570596044665 0 0.029196452712478175 -0.05764349573553703 0 0.029015400086839876 -0.057819570907212244 0 0.028878413840134745 -0.057652570596044665 0 0.028813370561314312 -0.057829360493740947 0 0.029015400086839876 -0.057819570907212244 0 0.030208386519770581 -0.05882524525421897 0 0.03008868889042024 -0.058799948638075819 0 0.030266648722050992 -0.058661221469948024 0 0.030266648722050992 -0.058661221469948024 0 0.029894452315601911 -0.058566495042792661 0 0.029733610339764967 -0.058167447605296269 0 0.03008868889042024 -0.058799948638075819 0 0.030266648722050992 -0.058661221469948024 0 0.029894452315601911 -0.058566495042792661 0 0.029673940537124559 -0.058544772701023907 0 0.029650732761462878 -0.058470516554611808 0 0.029196452712478175 -0.05764349573553703 0 0.029733610339764967 -0.058167447605296269 0 0.029261888751713695 -0.058002183037139068 0 0.029733610339764967 -0.058167447605296269 0 0.029261888751713695 -0.058002183037139068 0 0.029373001525872421 -0.058157842806005056 0 0.029261888751713695 -0.058002183037139068 0 0.029034169937587614 -0.058020104814645916 0 0.029373001525872421 -0.058157842806005056 0 0.029578635327324746 -0.058171873736586638 0 0.029733610339764967 -0.058167447605296269 0 0.029373001525872421 -0.058157842806005056 0 0.028813370561314312 -0.057829360493740947 0 0.029015400086839876 -0.057819570907212244 0 0.029034169937587614 -0.058020104814645916 0 0.029196452712478175 -0.05764349573553703 0 0.029261888751713695 -0.058002183037139068 0 0.029015400086839876 -0.057819570907212244 0 0.029261888751713695 -0.058002183037139068 0 0.029015400086839876 -0.057819570907212244 0 0.029034169937587614 -0.058020104814645916 0 0.029034169937587614 -0.058020104814645916 0 0.029015456293777563 -0.058184843985667124 0 0.029373001525872421 -0.058157842806005056 0 0.029034169937587614 -0.058020104814645916 0 0.029015456293777563 -0.058184843985667124 0 0.028638219658198048 -0.057965080230673205 0 0.029015456293777563 -0.058184843985667124 0 0.029373001525872421 -0.058157842806005056 0 0.029400846524295084 -0.058227717710658128 0 0.029578635327324746 -0.058171873736586638 0 0.029373001525872421 -0.058157842806005056 0 0.029400846524295084 -0.058227717710658128 0 0.029015456293777563 -0.058184843985667124 0 0.029400846524295084 -0.058227717710658128 0 0.028942514621627235 -0.058408644038041101 0 0.029015456293777563 -0.058184843985667124 0 0.028697808919568954 -0.058270200980289101 0 0.028942514621627235 -0.058408644038041101 0 0.029015456293777563 -0.058184843985667124 0 0.028697808919568954 -0.058270200980289101 0 0.028638219658198048 -0.057965080230673205 0 0.028697808919568954 -0.058270200980289101 0 0.028638219658198048 -0.057965080230673205 0 0.028312023621148492 -0.05823262922170485 0 0.028638219658198048 -0.057965080230673205 0 0.028312023621148492 -0.05823262922170485 0 0.028163507676463435 -0.057845700973420504 0 0.028697808919568954 -0.058270200980289101 0 0.028312023621148492 -0.05823262922170485 0 0.028573945612563066 -0.058533296552149269 0 0.028312023621148492 -0.05823262922170485 0 0.027996488612725166 -0.058347755853764227 0 0.027815637755844246 -0.05809937999928564 0 0.027996488612725166 -0.058347755853764227 0 0.027815637755844246 -0.05809937999928564 0 0.027713266944386201 -0.058478849489505394 0 0.027815637755844246 -0.05809937999928564 0 0.027773397353318088 -0.057689492535438834 0 0.027304939105021672 -0.057925764472996709 0 0.027815637755844246 -0.05809937999928564 0 0.028163507676463435 -0.057845700973420504 0 0.027773397353318088 -0.057689492535438834 0 0.028312023621148492 -0.05823262922170485 0 0.027815637755844246 -0.05809937999928564 0 0.028163507676463435 -0.057845700973420504 0 0.028362624085388206 -0.05769626095980275 0 0.028163507676463435 -0.057845700973420504 0 0.027997451061467976 -0.05742554437653407 0 0.028163507676463435 -0.057845700973420504 0 0.027773397353318088 -0.057689492535438834 0 0.027997451061467976 -0.05742554437653407 0 0.027773397353318088 -0.057689492535438834 0 0.027997451061467976 -0.05742554437653407 0 0.027304125266892198 -0.057310045013280075 0 0.027964624411535348 -0.057508080391434929 0 0.027572916672471977 -0.057500418142590957 0 0.028392575728543069 -0.057624057590024244 0 0.028362624085388206 -0.05769626095980275 0 0.027997451061467976 -0.05742554437653407 0 0.028113023218599462 -0.057515071002112519 0 0.027964624411535348 -0.057508080391434929 0 0.028025504660555985 -0.057537422951199374 0 0.028066608644213023 -0.05760263742962491 0 0.027953730910217012 -0.05753962228481245 0 0.028025504660555985 -0.057537422951199374 0 0.028066608644213023 -0.05760263742962491 0 0.028098073830613399 -0.057648773243455374 0 0.028292544693626267 -0.057749350497133312 0 0.028098073830613399 -0.057648773243455374 0 0.028146723750308807 -0.057657529434497208 0 0.028066608644213023 -0.05760263742962491 0 0.028098073830613399 -0.057648773243455374 0 0.028146723750308807 -0.057657529434497208 0 0.027773397353318088 -0.057689492535438834 0 0.027304125266892198 -0.057310045013280075 0 0.027304939105021672 -0.057925764472996709 0 0.027304125266892198 -0.057310045013280075 0 0.026373596490022837 -0.057530955544841313 0 0.026127326720291586 -0.057416854731918314 0 0.027572916672471977 -0.057500418142590957 0 0.026915037360688798 -0.057558538332649248 0 0.028025504660555985 -0.057537422951199374 0 0.028098073830613399 -0.057648773243455374 0 0.028030737789364643 -0.05750213564468059 0 0.027304125266892198 -0.057310045013280075 0 0.027304939105021672 -0.057925764472996709 0 0.026373596490022837 -0.057530955544841313 0 0.027304939105021672 -0.057925764472996709 0 0.026917045879070074 -0.058232981587651243 0 0.026373596490022837 -0.057530955544841313 0 0.024968703795002489 -0.05752703836392991 0 0.025309779445874269 -0.057676549413845729 0 0.027815637755844246 -0.05809937999928564 0 0.027346665989686689 -0.058371445324333401 0 0.027713266944386201 -0.058478849489505394 0 0.027815637755844246 -0.05809937999928564 0 0.027304939105021672 -0.057925764472996709 0 0.027346665989686689 -0.058371445324333401 0 0.024968703795002489 -0.05752703836392991 0 0.023322665425953765 -0.054969357991369198 0 0.027346665989686689 -0.058371445324333401 0 0.026917045879070074 -0.058232981587651243 0 0.027242288549787514 -0.058583390053659853 0 0.027304939105021672 -0.057925764472996709 0 0.027346665989686689 -0.058371445324333401 0 0.026917045879070074 -0.058232981587651243 0 0.025325415065832534 -0.058586454019325364 0 0.025868547101840965 -0.058025597258181287 0 0.025911454178197631 -0.058559359959985298 0 0.026136368884846734 -0.05829970417522768 0 0.025868547101840965 -0.058025597258181287 0 0.025911454178197631 -0.058559359959985298 0 0.025325415065832534 -0.058586454019325364 0 0.025235864253041203 -0.058155672221391994 0 0.025868547101840965 -0.058025597258181287 0 0.025235864253041203 -0.058155672221391994 0 0.025868547101840965 -0.058025597258181287 0 0.025014163218438211 -0.057652840701278532 0 0.025868547101840965 -0.058025597258181287 0 0.025014163218438211 -0.057652840701278532 0 0.026127326720291586 -0.057416854731918314 0 0.026136368884846734 -0.05829970417522768 0 0.025868547101840965 -0.058025597258181287 0 0.026373596490022837 -0.057530955544841313 0 -0.0090761474925805056 -0.019511216416984806 0 -0.0088846430989833105 -0.018445746382507629 0 -0.0078423215290245301 -0.019538366565054859 0 -0.0088846430989833105 -0.018445746382507629 0 -0.0078423215290245301 -0.019538366565054859 0 -0.0073718106971882242 -0.018095616877158844 0 -0.0050711566029237156 -0.01923915159544377 0 -0.0078423215290245301 -0.019538366565054859 0 -0.0073718106971882242 -0.018095616877158844 0 0.025325415065832534 -0.058586454019325364 0 0.025235864253041203 -0.058155672221391994 0 0.024054368663655561 -0.058253775001318835 0 0.010481756345520706 -0.038865453173572304 0 0.0079344147771305482 -0.038370853425984473 0 0.024054368663655561 -0.058253775001318835 0 0.023753955527311649 -0.056870212896171841 0 0.025014163218438211 -0.057652840701278532 0 0.025235864253041203 -0.058155672221391994 0 0.024054368663655561 -0.058253775001318835 0 0.025014163218438211 -0.057652840701278532 0 -0.0088846430989833105 -0.018445746382507629 0 -0.0089164485863080147 -0.017195910848439702 0 -0.0073718106971882242 -0.018095616877158844 0 0.021447556957313405 -0.056575430638896154 0 0.024054368663655561 -0.058253775001318835 0 0.023753955527311649 -0.056870212896171841 0 0.021447556957313405 -0.056575430638896154 0 0.023753955527311649 -0.056870212896171841 0 0.023372726571472713 -0.055586673160379858 0 0.0050397391179935139 -0.037971406909936237 0 0.0079344147771305482 -0.038370853425984473 0 0.023753955527311649 -0.056870212896171841 0 0.024720354139343297 -0.056063141035915295 0 0.023372726571472713 -0.055586673160379858 0 0.023753955527311649 -0.056870212896171841 0 0.025014163218438211 -0.057652840701278532 0 0.024720354139343297 -0.056063141035915295 0 0.025014163218438211 -0.057652840701278532 0 0.024720354139343297 -0.056063141035915295 0 0.025744691025213571 -0.056536778437781779 0 0.024720354139343297 -0.056063141035915295 0 0.024297484049600079 -0.054346588023484084 0 0.026241058165281644 -0.054981147606867412 0 0.024297484049600079 -0.054346588023484084 0 0.026241058165281644 -0.054981147606867412 0 0.025393613237115947 -0.053180355329617603 0 0.024720354139343297 -0.056063141035915295 0 0.024297484049600079 -0.054346588023484084 0 0.023372726571472713 -0.055586673160379858 0 0.024297484049600079 -0.054346588023484084 0 0.0221794251439511 -0.054125032545548034 0 0.023372726571472713 -0.055586673160379858 0 0.021447556957313405 -0.056575430638896154 0 0.0221794251439511 -0.054125032545548034 0 0.023372726571472713 -0.055586673160379858 0 0.025868547101840965 -0.058025597258181287 0 0.026373596490022837 -0.057530955544841313 0 0.026127326720291586 -0.057416854731918314 0 0.028030737789364643 -0.05750213564468059 0 0.027115779292972257 -0.057204537630414228 0 0.027615722077794957 -0.057276127915466213 0 0.028030737789364643 -0.05750213564468059 0 0.027615722077794957 -0.057276127915466213 0 0.027890991309173076 -0.057406775427535001 0 0.028025504660555985 -0.057537422951199374 0 0.028030737789364643 -0.05750213564468059 0 0.027890991309173076 -0.057406775427535001 0 0.025014163218438211 -0.057652840701278532 0 0.028030737789364643 -0.05750213564468059 0 0.027115779292972257 -0.057204537630414228 0 0.026238818201245604 -0.057680457062841715 0 0.026915037360688798 -0.057558538332649248 0 0.025014163218438211 -0.057652840701278532 0 0.025744691025213571 -0.056536778437781779 0 0.027115779292972257 -0.057204537630414228 0 0.025744691025213571 -0.056536778437781779 0 0.027115779292972257 -0.057204537630414228 0 0.026241058165281644 -0.054981147606867412 0 0.027115779292972257 -0.057204537630414228 0 0.027812427827572754 -0.057391129132072637 0 0.027615722077794957 -0.057276127915466213 0 0.022680140394801578 -0.058210527279965167 0 0.022031265713668487 -0.058053193347399258 0 0.024720354139343297 -0.056063141035915295 0 0.025744691025213571 -0.056536778437781779 0 0.026241058165281644 -0.054981147606867412 0 0.027812427827572754 -0.057391129132072637 0 0.027808536897442074 -0.057419027196106302 0 0.027868233331674819 -0.057503755026222354 0 0.028025504660555985 -0.057537422951199374 0 0.027808536897442074 -0.057419027196106302 0 0.027953730910217012 -0.05753962228481245 0 0.027812427827572754 -0.057391129132072637 0 0.027808536897442074 -0.057419027196106302 0 0.027615722077794957 -0.057276127915466213 0 0.027808536897442074 -0.057419027196106302 0 0.027615722077794957 -0.057276127915466213 0 0.027890991309173076 -0.057406775427535001 0 0.028025504660555985 -0.057537422951199374 0 0.027808536897442074 -0.057419027196106302 0 0.027890991309173076 -0.057406775427535001 0 0.027924960252646749 -0.057550148151013017 0 0.027868233331674819 -0.057503755026222354 0 0.027904733945532438 -0.057561932140261757 0 0.027953730910217012 -0.05753962228481245 0 0.027924960252646749 -0.057550148151013017 0 0.027868233331674819 -0.057503755026222354 0 0.027808536897442074 -0.057419027196106302 0 0.027953730910217012 -0.05753962228481245 0 0.027868233331674819 -0.057503755026222354 0 0.027953730910217012 -0.05753962228481245 0 0.027985709961067248 -0.05758279720372602 0 0.027924960252646749 -0.057550148151013017 0 0.027868233331674819 -0.057503755026222354 0 0.027906836064283149 -0.057508335152189699 0 0.027904733945532438 -0.057561932140261757 0 0.027812427827572754 -0.057391129132072637 0 0.027868233331674819 -0.057503755026222354 0 0.027906836064283149 -0.057508335152189699 0 0.022031265713668487 -0.058053193347399258 0 0.020063992839437227 -0.057910062433614955 0 0.020063992839437227 -0.057910062433614955 0 0.020104929654792388 -0.061379054153785036 0 0.012769262378681964 -0.066347546374245281 0 0.012211556542212301 -0.066200736684246114 0 0.012579118721868173 -0.065995079030733372 0 0.012467319552037648 -0.06666032396507364 0 0.012769262378681964 -0.066347546374245281 0 0.012211556542212301 -0.066200736684246114 0 0.012769262378681964 -0.066347546374245281 0 0.012824113324265474 -0.066042080144736323 0 0.012579118721868173 -0.065995079030733372 0 0.012769262378681964 -0.066347546374245281 0 0.013091035125535064 -0.066020522182977742 0 0.012824113324265474 -0.066042080144736323 0 0.020104929654792388 -0.061379054153785036 0 0.020271848430918615 -0.06446511610538351 0 0.027904733945532438 -0.057561932140261757 0 0.027954962374039279 -0.057570593484827147 0 0.027967468305655586 -0.057532321083951503 0 0.027996420956098174 -0.057561257037495442 0 0.027954962374039279 -0.057570593484827147 0 0.028030817402773172 -0.057603656416282081 0 0.027996420956098174 -0.057561257037495442 0 0.027954962374039279 -0.057570593484827147 0 0.027967468305655586 -0.057532321083951503 0 0.027985709961067248 -0.05758279720372602 0 0.027954962374039279 -0.057570593484827147 0 0.028030817402773172 -0.057603656416282081 0 0.027985709961067248 -0.05758279720372602 0 0.027924960252646749 -0.057550148151013017 0 0.027954962374039279 -0.057570593484827147 0 0.027924960252646749 -0.057550148151013017 0 0.027904733945532438 -0.057561932140261757 0 0.027954962374039279 -0.057570593484827147 0 0.024297484049600079 -0.054346588023484084 0 0.0221794251439511 -0.054125032545548034 0 0.023243665536598845 -0.052325656883419711 0 0.02085221583652638 -0.052021662724524645 0 0.0221794251439511 -0.054125032545548034 0 0.023243665536598845 -0.052325656883419711 0 0.024297484049600079 -0.054346588023484084 0 0.025478573065277375 -0.053069870456380855 0 0.023243665536598845 -0.052325656883419711 0 0.021122022365562244 -0.056842554193851764 0 0.020063992839437227 -0.057910062433614955 0 0.020063992839437227 -0.057910062433614955 0 0.016128052249527201 -0.058558347886700363 0 0.025478573065277375 -0.053069870456380855 0 0.023243665536598845 -0.052325656883419711 0 0.024259872609651522 -0.050504031287668387 0 0.023243665536598845 -0.052325656883419711 0 0.024259872609651522 -0.050504031287668387 0 0.022214980941483969 -0.050483916115016916 0 0.02085221583652638 -0.052021662724524645 0 0.023243665536598845 -0.052325656883419711 0 0.022214980941483969 -0.050483916115016916 0 0.024259872609651522 -0.050504031287668387 0 0.022214980941483969 -0.050483916115016916 0 0.023027044610135678 -0.047961600475642352 0 0.019688062664525826 -0.049615869068124346 0 0.022214980941483969 -0.050483916115016916 0 0.023027044610135678 -0.047961600475642352 0 0.016128052249527201 -0.058558347886700363 0 0.010775525619607828 -0.058191620038568419 0 0.012211556542212301 -0.066200736684246114 0 0.012309322640542479 -0.065812729041524506 0 0.012579118721868173 -0.065995079030733372 0 0.012211556542212301 -0.066200736684246114 0 0.012309322640542479 -0.065812729041524506 0 0.011918356714436244 -0.065722949083991553 0 0.012309322640542479 -0.065812729041524506 0 0.01238476663548671 -0.065695149620131219 0 0.012535341564875473 -0.065744147673058043 0 0.011505905417575629 -0.065203574082877427 0 0.012688975784422374 -0.065883705400142281 0 0.012539792298913562 -0.065678140544275926 0 0.011505905417575629 -0.065203574082877427 0 0.012405561357991359 -0.065538752626096458 0 0.012083800511589192 -0.065645620183588729 0 0.013007594705663069 -0.064429826062464682 0 0.014176687386579085 -0.064528396900011525 0 0.012290846102503649 -0.065673612621897123 0 0.012405561357991359 -0.065538752626096458 0 0.012083800511589192 -0.065645620183588729 0 0.012309322640542479 -0.065812729041524506 0 0.01238476663548671 -0.065695149620131219 0 0.012290846102503649 -0.065673612621897123 0 0.012309322640542479 -0.065812729041524506 0 0.012290846102503649 -0.065673612621897123 0 0.012083800511589192 -0.065645620183588729 0 0.01238476663548671 -0.065695149620131219 0 0.012290846102503649 -0.065673612621897123 0 0.012405561357991359 -0.065538752626096458 0 0.012309322640542479 -0.065812729041524506 0 0.012083800511589192 -0.065645620183588729 0 0.011918356714436244 -0.065722949083991553 0 0.010644993993276074 -0.05849262891874709 0 0.010775525619607828 -0.058191620038568419 0 0.011505905417575629 -0.065203574082877427 0 0.012083800511589192 -0.065645620183588729 0 0.011821587789929464 -0.065796030304559452 0 0.005307099632554148 -0.059678555307559965 0 0.010775525619607828 -0.058191620038568419 0 -0.0076074283441421127 -0.056157039685493494 0 -0.0078446765578021969 -0.057426203135813716 0 -0.0091279693107211343 -0.054669750869488248 0 -0.0076074283441421127 -0.056157039685493494 0 -0.0077560894819318415 -0.054914053513215863 0 -0.0091279693107211343 -0.054669750869488248 0 0.013011312048784683 -0.065856992950488649 0 0.012824113324265474 -0.066042080144736323 0 0.012724306951764689 -0.065828624673816241 0 0.019473091378545655 -0.068085230896413981 0 0.019689454837814598 -0.06819609037666842 0 0.019675370615920493 -0.067836104953301363 0 0.018949157803444049 -0.065157778466054195 0 0.020906753671856879 -0.064877342663352142 0 0.019674383535476757 -0.066645684433761995 0 0.019009910501179245 -0.065239072111485011 0 0.018346324862486635 -0.065953138518811114 0 0.018949157803444049 -0.065157778466054195 0 0.020271848430918615 -0.06446511610538351 0 0.027944739216279095 -0.057475272581271934 0 0.02798633667022719 -0.057427036303305118 0 0.028039580114892985 -0.057516800822909671 0 0.020271848430918615 -0.06446511610538351 0 0.020906753671856879 -0.064877342663352142 0 0.020379497343911732 -0.064093244396774537 0 0.020271848430918615 -0.06446511610538351 0 0.027996420956098174 -0.057561257037495442 0 0.027944739216279095 -0.057475272581271934 0 0.028039580114892985 -0.057516800822909671 0 0.013011312048784683 -0.065856992950488649 0 0.013091035125535064 -0.066020522182977742 0 0.012824113324265474 -0.066042080144736323 0 0.012824113324265474 -0.066042080144736323 0 0.012579118721868173 -0.065995079030733372 0 0.012724306951764689 -0.065828624673816241 0 0.012405561357991359 -0.065538752626096458 0 0.013011312048784683 -0.065856992950488649 0 0.012724306951764689 -0.065828624673816241 0 0.012309322640542479 -0.065812729041524506 0 0.012579118721868173 -0.065995079030733372 0 0.012535341564875473 -0.065744147673058043 0 0.012579118721868173 -0.065995079030733372 0 0.012724306951764689 -0.065828624673816241 0 0.012535341564875473 -0.065744147673058043 0 0.012688975784422374 -0.065883705400142281 0 0.014234862336701294 -0.06667564718640076 0 0.01341049849479402 -0.065920638892322705 0 0.014953726098048776 -0.068557874231498686 0 0.016621870424147211 -0.069076153055988965 0 0.014176687386579085 -0.064528396900011525 0 0.018949157803444049 -0.065157778466054195 0 0.012539792298913562 -0.065678140544275926 0 0.01341049849479402 -0.065920638892322705 0 0.013742094102494355 -0.065692388993565415 0 0.01274192286420041 -0.065435290645822888 0 0.012539792298913562 -0.065678140544275926 0 0.013376666673061378 -0.065691057835447708 0 0.01238476663548671 -0.065695149620131219 0 0.012405561357991359 -0.065538752626096458 0 0.012535341564875473 -0.065744147673058043 0 0.012405561357991359 -0.065538752626096458 0 0.012724306951764689 -0.065828624673816241 0 0.012535341564875473 -0.065744147673058043 0 0.012688975784422374 -0.065883705400142281 0 0.012539792298913562 -0.065678140544275926 0 0.01341049849479402 -0.065920638892322705 0 0.01341049849479402 -0.065920638892322705 0 0.013742094102494355 -0.065692388993565415 0 0.013814855346545286 -0.065843991744449576 0 0.016818448228878707 -0.068494786332969793 0 0.017023317421730296 -0.06851320997251592 0 0.016621870424147211 -0.069076153055988965 0 0.017862416886478261 -0.06911840375366872 0 0.017023317421730296 -0.06851320997251592 0 0.017862416886478261 -0.06911840375366872 0 0.016444801805183477 -0.069452701950665066 0 0.016569018539329374 -0.06971442370773949 0 0.017688129889904591 -0.069501234989801819 0 0.016621870424147211 -0.069076153055988965 0 0.017023317421730296 -0.06851320997251592 0 0.018949157803444049 -0.065157778466054195 0 0.017023317421730296 -0.06851320997251592 0 0.019473091378545655 -0.068085230896413981 0 0.019257339850907159 -0.067641246011675801 0 0.019675370615920493 -0.067836104953301363 0 0.014234862336701294 -0.06667564718640076 0 0.01341049849479402 -0.065920638892322705 0 0.013831640830194046 -0.065839189247577604 0 0.019257339850907159 -0.067641246011675801 0 0.019675370615920493 -0.067836104953301363 0 0.019612864723281775 -0.067574083727093712 0 0.020906753671856879 -0.064877342663352142 0 0.022813724882630455 -0.066992596086846878 0 0.019675370615920493 -0.067836104953301363 0 0.019612864723281775 -0.067574083727093712 0 0.020254154170445873 -0.067600670125502818 0 0.018370754832672368 -0.068976876240602489 0 0.023710742308345394 -0.069190482068800768 0 0.02411466541549237 -0.068757488045979767 0 0.022797934019994238 -0.066661284745477514 0 0.023200119229815519 -0.064767842471513654 0 0.022497897788582907 -0.066649844351697851 0 0.018370754832672368 -0.068976876240602489 0 0.02411466541549237 -0.068757488045979767 0 0.025384878416859883 -0.067648520628948342 0 0.019689454837814598 -0.06819609037666842 0 0.019675370615920493 -0.067836104953301363 0 0.020254154170445873 -0.067600670125502818 0 0.017862416886478261 -0.06911840375366872 0 0.023481786072607012 -0.069976294939921371 0 0.017862416886478261 -0.06911840375366872 0 0.022813724882630455 -0.066992596086846878 0 0.022813724882630455 -0.066992596086846878 0 0.02281361382598248 -0.066998204543733272 0 0.028399699897818979 -0.057781587839400288 0 0.028189854259975007 -0.057862830230713751 0 0.02812878052750642 -0.058732137731775783 0 0.022981647349232436 -0.063749361259405724 0 0.024392652038756232 -0.066833992925455152 0 0.024108104873221958 -0.065241811610194059 0 0.022797934019994238 -0.066661284745477514 0 0.023200119229815519 -0.064767842471513654 0 0.028264171602145571 -0.057736113316676524 0 0.028189854259975007 -0.057862830230713751 0 0.028204964891563811 -0.057766209805332355 0 0.028264171602145571 -0.057736113316676524 0 0.028399699897818979 -0.057781587839400288 0 0.028189854259975007 -0.057862830230713751 0 0.023022136377769318 -0.063736719166981023 0 0.022981647349232436 -0.063749361259405724 0 0.02798633667022719 -0.057427036303305118 0 0.028160258630578056 -0.057509601895482258 0 0.028039580114892985 -0.057516800822909671 0 0.020906753671856879 -0.064877342663352142 0 0.022981647349232436 -0.063749361259405724 0 0.030825221081879885 -0.062027520159187249 0 0.030342653077437432 -0.064970236989592312 0 0.028189854259975007 -0.057862830230713751 0 0.028286380757982166 -0.058021417789431165 0 0.028265560667766445 -0.057939051905130726 0 0.028220523182479078 -0.057845776669718747 0 0.028189854259975007 -0.057862830230713751 0 0.028265560667766445 -0.057939051905130726 0 0.028220523182479078 -0.057845776669718747 0 0.028265560667766445 -0.057939051905130726 0 0.028257727755261784 -0.057879193932085661 0 0.028220523182479078 -0.057845776669718747 0 0.028189854259975007 -0.057862830230713751 0 0.028204964891563811 -0.057766209805332355 0 0.029508370093911107 -0.066614021027175216 0 0.026559080532226581 -0.067170154895793144 0 0.028380404338013102 -0.068132042926083838 0 0.028189854259975007 -0.057862830230713751 0 0.02812878052750642 -0.058732137731775783 0 0.027583881622822094 -0.058723032159947862 0 0.023711586645002881 -0.069189042823062097 0 0.02411466541549237 -0.068757488045979767 0 0.024787077476752555 -0.069233136789372388 0 0.022813724882630455 -0.066992596086846878 0 0.024392652038756232 -0.066833992925455152 0 0.024392652038756232 -0.066833992925455152 0 0.023481786072607012 -0.069976294939921371 0 0.02411466541549237 -0.068757488045979767 0 0.024787077476752555 -0.069233136789372388 0 0.025384878416859883 -0.067648520628948342 0 0.026226957301625095 -0.068045744463333654 0 0.026559080532226581 -0.067170154895793144 0 0.028380404338013102 -0.068132042926083838 0 0.024392652038756232 -0.066833992925455152 0 0.030342653077437432 -0.064970236989592312 0 0.030342653077437432 -0.064970236989592312 0 0.032994300842473713 -0.062921743764273744 0 0.033128476298074895 -0.065464467300477211 0 0.030342653077437432 -0.064970236989592312 0 0.028286380757982166 -0.058021417789431165 0 0.028298524425507995 -0.05807749035281938 0 0.028265560667766445 -0.057939051905130726 0 0.028286380757982166 -0.058021417789431165 0 0.028298524425507995 -0.05807749035281938 0 0.028323072879211261 -0.05808675724568086 0 0.03933700328356092 -0.064493892014669402 0 0.039523300668849917 -0.064227702041008625 0 0.038751760547604361 -0.064170656874013715 0 0.028298524425507995 -0.05807749035281938 0 0.028323072879211261 -0.05808675724568086 0 0.028330463304266123 -0.058210640647553782 0 0.028405303971691349 -0.058479825171308654 0 0.028323072879211261 -0.05808675724568086 0 0.028330463304266123 -0.058210640647553782 0 0.028405303971691349 -0.058479825171308654 0 0.028330463304266123 -0.058210640647553782 0 0.028368920726655842 -0.058114996443259251 0 0.028298524425507995 -0.05807749035281938 0 0.028330463304266123 -0.058210640647553782 0 0.028368920726655842 -0.058114996443259251 0 0.028368920726655842 -0.058114996443259251 0 0.028308903619320612 -0.057953988787643684 0 0.028349525012863919 -0.057869079635318565 0 0.028405303971691349 -0.058479825171308654 0 0.028368920726655842 -0.058114996443259251 0 0.028396699553235039 -0.05799073229140541 0 0.028298524425507995 -0.05807749035281938 0 0.028265560667766445 -0.057939051905130726 0 0.028308903619320612 -0.057953988787643684 0 0.028298524425507995 -0.05807749035281938 0 0.028368920726655842 -0.058114996443259251 0 0.028308903619320612 -0.057953988787643684 0 0.028265560667766445 -0.057939051905130726 0 0.028308903619320612 -0.057953988787643684 0 0.028257727755261784 -0.057879193932085661 0 0.028308903619320612 -0.057953988787643684 0 0.028257727755261784 -0.057879193932085661 0 0.028269941722523253 -0.057810850943987906 0 0.028308903619320612 -0.057953988787643684 0 0.028269941722523253 -0.057810850943987906 0 0.028349525012863919 -0.057869079635318565 0 0.028269941722523253 -0.057810850943987906 0 0.028349525012863919 -0.057869079635318565 0 0.028298214865040087 -0.057752519501147764 0 0.028368920726655842 -0.058114996443259251 0 0.028396699553235039 -0.05799073229140541 0 0.028349525012863919 -0.057869079635318565 0 0.028370831932948013 -0.057778375603461524 0 0.028349525012863919 -0.057869079635318565 0 0.028345292992235802 -0.057736424955420203 0 0.028370831932948013 -0.057778375603461524 0 0.028396699553235039 -0.05799073229140541 0 0.028349525012863919 -0.057869079635318565 0 0.028392575728543069 -0.057624057590024244 0 0.028292544693626267 -0.057749350497133312 0 0.028345292992235802 -0.057736424955420203 0 0.028292544693626267 -0.057749350497133312 0 0.028345292992235802 -0.057736424955420203 0 0.028298214865040087 -0.057752519501147764 0 0.028349525012863919 -0.057869079635318565 0 0.028345292992235802 -0.057736424955420203 0 0.028298214865040087 -0.057752519501147764 0 0.028292544693626267 -0.057749350497133312 0 0.028298214865040087 -0.057752519501147764 0 0.028212380691666275 -0.057707897282557784 0 0.028292544693626267 -0.057749350497133312 0 0.028212380691666275 -0.057707897282557784 0 0.028146723750308807 -0.057657529434497208 0 0.028269941722523253 -0.057810850943987906 0 0.028298214865040087 -0.057752519501147764 0 0.028212380691666275 -0.057707897282557784 0 0.028212380691666275 -0.057707897282557784 0 0.02816667005642496 -0.057673092351549153 0 0.028146723750308807 -0.057657529434497208 0 0.02816667005642496 -0.057673092351549153 0 0.028146723750308807 -0.057657529434497208 0 0.028086209516896266 -0.057616834397825827 0 0.028066608644213023 -0.05760263742962491 0 0.028146723750308807 -0.057657529434497208 0 0.028086209516896266 -0.057616834397825827 0 0.028066608644213023 -0.05760263742962491 0 0.027953730910217012 -0.05753962228481245 0 0.028086209516896266 -0.057616834397825827 0 0.027953730910217012 -0.05753962228481245 0 0.028086209516896266 -0.057616834397825827 0 0.028083065058890713 -0.057625925813049178 0 0.027953730910217012 -0.05753962228481245 0 0.027985709961067248 -0.05758279720372602 0 0.028083065058890713 -0.057625925813049178 0 0.02816667005642496 -0.057673092351549153 0 0.028086209516896266 -0.057616834397825827 0 0.028083065058890713 -0.057625925813049178 0 0.028083065058890713 -0.057625925813049178 0 0.028128166828568071 -0.057635235038108405 0 0.028187131884152738 -0.057689490809158861 0 0.02816667005642496 -0.057673092351549153 0 0.028083065058890713 -0.057625925813049178 0 0.028187131884152738 -0.057689490809158861 0 0.028030817402773172 -0.057603656416282081 0 0.028083065058890713 -0.057625925813049178 0 0.028128166828568071 -0.057635235038108405 0 0.027985709961067248 -0.05758279720372602 0 0.028030817402773172 -0.057603656416282081 0 0.028083065058890713 -0.057625925813049178 0 0.027996420956098174 -0.057561257037495442 0 0.028030817402773172 -0.057603656416282081 0 0.028128166828568071 -0.057635235038108405 0 0.027996420956098174 -0.057561257037495442 0 0.028039580114892985 -0.057516800822909671 0 0.028128166828568071 -0.057635235038108405 0 0.028160258630578056 -0.057509601895482258 0 0.028039580114892985 -0.057516800822909671 0 0.028128166828568071 -0.057635235038108405 0 0.028264171602145571 -0.057736113316676524 0 0.028128166828568071 -0.057635235038108405 0 0.028187131884152738 -0.057689490809158861 0 0.028264171602145571 -0.057736113316676524 0 0.028246519281954343 -0.057725117510761946 0 0.028128166828568071 -0.057635235038108405 0 0.022981647349232436 -0.063749361259405724 0 0.023321609265464706 -0.063054003554740001 0 0.028264171602145571 -0.057736113316676524 0 0.028187131884152738 -0.057689490809158861 0 0.028204964891563811 -0.057766209805332355 0 0.028187131884152738 -0.057689490809158861 0 0.028204964891563811 -0.057766209805332355 0 0.028213960073434088 -0.057762458651471081 0 0.028220523182479078 -0.057845776669718747 0 0.028204964891563811 -0.057766209805332355 0 0.028213960073434088 -0.057762458651471081 0 0.028220523182479078 -0.057845776669718747 0 0.028257727755261784 -0.057879193932085661 0 0.028213960073434088 -0.057762458651471081 0 0.028257727755261784 -0.057879193932085661 0 0.028269941722523253 -0.057810850943987906 0 0.028213960073434088 -0.057762458651471081 0 0.028269941722523253 -0.057810850943987906 0 0.028212380691666275 -0.057707897282557784 0 0.028213960073434088 -0.057762458651471081 0 0.028212380691666275 -0.057707897282557784 0 0.02816667005642496 -0.057673092351549153 0 0.028213960073434088 -0.057762458651471081 0 0.02816667005642496 -0.057673092351549153 0 0.028187131884152738 -0.057689490809158861 0 0.028213960073434088 -0.057762458651471081 0 0.077483626317984985 -0.058555594116209489 0 0.074997003830676201 -0.063264576933313707 0 0.074999182252105417 -0.054604035667826366 0 0.077483626317984985 -0.058555594116209489 0 0.080533508045969301 -0.055552044116832087 0 0.078109286551192453 -0.055436190669979415 0 0.077978854516032564 -0.059447144332175086 0 0.078450525925244208 -0.057705770271826169 0 0.077483626317984985 -0.058555594116209489 0 0.080577780406138097 -0.059818954602300974 0 0.080533508045969301 -0.055552044116832087 0 0.081742189825598527 -0.05652840633290785 0 0.080968090046256866 -0.057645981019167937 0 0.080533508045969301 -0.055552044116832087 0 0.081742189825598527 -0.05652840633290785 0 0.080968090046256866 -0.057645981019167937 0 0.082346401333739508 -0.058169561417021363 0 0.077483626317984985 -0.058555594116209489 0 0.080577780406138097 -0.059818954602300974 0 0.077453601923027221 -0.062925275788167465 0 0.080577780406138097 -0.059818954602300974 0 0.080257493300240151 -0.064019849886484112 0 0.077453601923027221 -0.062925275788167465 0 0.081296351773531256 -0.059345637018717513 0 0.082175192253870974 -0.059451775819760057 0 0.082346401333739508 -0.058169561417021363 0 0.077978854516032564 -0.059447144332175086 0 0.076078595084316053 -0.063432007819855099 0 0.080968090046256866 -0.057645981019167937 0 0.081296351773531256 -0.059345637018717513 0 0.082346401333739508 -0.058169561417021363 0 0.080257493300240151 -0.064019849886484112 0 0.077719592370350754 -0.066512603684736202 0 0.080321319586399695 -0.069599805226396486 0 0.076078595084316053 -0.063432007819855099 0 0.071808187482524669 -0.072174155722198888 0 0.081296351773531256 -0.059345637018717513 0 0.081905483884596175 -0.059966486837866588 0 0.081660035668490422 -0.060530906590249851 0 0.081296351773531256 -0.059345637018717513 0 0.081905483884596175 -0.059966486837866588 0 0.082175192253870974 -0.059451775819760057 0 0.080257493300240151 -0.064019849886484112 0 0.077719592370350754 -0.066512603684736202 0 0.077453601923027221 -0.062925275788167465 0 0.077453601923027221 -0.062925275788167465 0 0.074997003830676201 -0.063264576933313707 0 0.075856800025822652 -0.067206794565480982 0 0.077719592370350754 -0.066512603684736202 0 0.077453601923027221 -0.062925275788167465 0 0.075856800025822652 -0.067206794565480982 0 0.077483626317984985 -0.058555594116209489 0 0.077453601923027221 -0.062925275788167465 0 0.074997003830676201 -0.063264576933313707 0 0.074997003830676201 -0.063264576933313707 0 0.075856800025822652 -0.067206794565480982 0 0.073902422368379919 -0.073216412285790705 0 0.074997003830676201 -0.063264576933313707 0 0.074991991533821412 -0.074998324685211004 0 0.073902422368379919 -0.073216412285790705 0 0.075856800025822652 -0.067206794565480982 0 0.073902422368379919 -0.073216412285790705 0 0.076107399372164403 -0.069767620454470977 0 0.074991991533821412 -0.074998324685211004 0 0.073902422368379919 -0.073216412285790705 0 0.066138389758022997 -0.074992817440459728 0 0.073902422368379919 -0.073216412285790705 0 0.071975076266457327 -0.072956683295926181 0 0.074182487175406334 -0.071765022504808068 0 0.073902422368379919 -0.073216412285790705 0 0.066138389758022997 -0.074992817440459728 0 0.071975076266457327 -0.072956683295926181 0 0.066115541200286079 -0.07499999149944378 0 0.066532274055190632 -0.078739279754336824 0 0.064183826869708679 -0.07767083226317463 0 0.066121184398721708 -0.074997953490607963 0 0.069003167068819732 -0.07426208186458344 0 0.071975076266457327 -0.072956683295926181 0 0.074182487175406334 -0.071765022504808068 0 0.075243556243401288 -0.070905580559476877 0 0.069003167068819732 -0.07426208186458344 0 0.071808187482524669 -0.072174155722198888 0 0.066532274055190632 -0.078739279754336824 0 0.066985861283342885 -0.082398637512278203 0 0.065344359797890036 -0.080390560760082913 0 0.066985861283342885 -0.082398637512278203 0 0.065307080839982046 -0.082401473597168942 0 0.065344359797890036 -0.080390560760082913 0 0.073902422368379919 -0.073216412285790705 0 0.074182487175406334 -0.071765022504808068 0 0.076107399372164403 -0.069767620454470977 0 0.074182487175406334 -0.071765022504808068 0 0.076107399372164403 -0.069767620454470977 0 0.075243556243401288 -0.070905580559476877 0 0.073007297088475573 -0.071993016118527903 0 0.071808187482524669 -0.072174155722198888 0 0.077719592370350754 -0.066512603684736202 0 0.076107399372164403 -0.069767620454470977 0 0.080321319586399695 -0.069599805226396486 0 0.077719592370350754 -0.066512603684736202 0 0.075856800025822652 -0.067206794565480982 0 0.076107399372164403 -0.069767620454470977 0 0.081660035668490422 -0.060530906590249851 0 0.082113247609201911 -0.060301989986120096 0 0.082261195493948891 -0.06050078879211878 0 0.071808187482524669 -0.072174155722198888 0 0.070119146555799858 -0.073256362265171043 0 0.081905483884596175 -0.059966486837866588 0 0.081660035668490422 -0.060530906590249851 0 0.082113247609201911 -0.060301989986120096 0 0.082022836989434286 -0.060324566249529241 0 0.082402584819501315 -0.060322559030290365 0 0.081171236041624462 -0.059957834107950053 0 0.070119146555799858 -0.073256362265171043 0 0.070351644454887605 -0.072156721129635629 0 0.082177732606185175 -0.060112164782803804 0 0.082022836989434286 -0.060324566249529241 0 0.082402584819501315 -0.060322559030290365 0 0.081905483884596175 -0.059966486837866588 0 0.082113247609201911 -0.060301989986120096 0 0.082177732606185175 -0.060112164782803804 0 0.082113247609201911 -0.060301989986120096 0 0.082177732606185175 -0.060112164782803804 0 0.082402584819501315 -0.060322559030290365 0 0.070176777470167692 -0.073080186168797898 0 0.070119146555799858 -0.073256362265171043 0 0.082022836989434286 -0.060324566249529241 0 0.081171236041624462 -0.059957834107950053 0 0.081302280983124642 -0.062609997945063528 0 0.062037538640278944 -0.082415220862916527 0 0.063180540522978917 -0.07993733173657136 0 0.060100175533144021 -0.080201597473023759 0 0.070119146555799858 -0.073256362265171043 0 0.066316742684194047 -0.076117606279777886 0 0.065157716806722402 -0.082403026747985442 0 0.062037538640278944 -0.082415220862916527 0 0.063180540522978917 -0.07993733173657136 0 0.065307080839982046 -0.082401473597168942 0 0.063338560051285839 -0.079977505039046382 0 0.065344359797890036 -0.080390560760082913 0 0.066532274055190632 -0.078739279754336824 0 0.065344359797890036 -0.080390560760082913 0 0.064183826869708679 -0.07767083226317463 0 0.063338560051285839 -0.079977505039046382 0 0.065344359797890036 -0.080390560760082913 0 0.064183826869708679 -0.07767083226317463 0 0.063180540522978917 -0.07993733173657136 0 0.061205429245223882 -0.077471185265488407 0 0.060100175533144021 -0.080201597473023759 0 0.066316742684194047 -0.076117606279777886 0 0.062644240539479965 -0.076026480617479145 0 0.063338560051285839 -0.079977505039046382 0 0.064183826869708679 -0.07767083226317463 0 0.061311178183849201 -0.077516937494980509 0 0.061311178183849201 -0.077516937494980509 0 0.062685082626304539 -0.074999966779457902 0 0.059254393801362347 -0.074999995043341566 0 0.064183826869708679 -0.07767083226317463 0 0.061311178183849201 -0.077516937494980509 0 0.062685082626304539 -0.074999966779457902 0 0.066115541200286079 -0.07499999149944378 0 0.064183826869708679 -0.07767083226317463 0 0.062685082626304539 -0.074999966779457902 0 0.056507707292998109 -0.07667217947905916 0 0.059254258971675272 -0.074999991460112728 0 0.05791966113944489 -0.078152140324746308 0 0.056507707292998109 -0.07667217947905916 0 0.059254258971675272 -0.074999991460112728 0 0.05533117791334017 -0.074999866527346012 0 0.061205429245223882 -0.077471185265488407 0 0.059254258971675272 -0.074999991460112728 0 0.05791966113944489 -0.078152140324746308 0 0.062644240539479965 -0.076026480617479145 0 0.05925988780968753 -0.074999975710164465 0 0.061205429245223882 -0.077471185265488407 0 0.05791966113944489 -0.078152140324746308 0 0.060100175533144021 -0.080201597473023759 0 0.056507707292998109 -0.07667217947905916 0 0.05791966113944489 -0.078152140324746308 0 0.054643066682292005 -0.077526556891067813 0 0.05791966113944489 -0.078152140324746308 0 0.057468549701050226 -0.080721436750419123 0 0.060100175533144021 -0.080201597473023759 0 0.05791966113944489 -0.078152140324746308 0 0.057468549701050226 -0.080721436750419123 0 0.055231598540176383 -0.079981580179163514 0 0.062037538640278944 -0.082415220862916527 0 0.060100175533144021 -0.080201597473023759 0 0.058912177815870541 -0.082422253936066989 0 0.057468549701050226 -0.080721436750419123 0 0.060100175533144021 -0.080201597473023759 0 0.058912177815870541 -0.082422253936066989 0 0.081171236041624462 -0.059957834107950053 0 0.078467652577078828 -0.059885381954443317 0 0.079757936512782762 -0.061249352226039389 0 0.070351644454887605 -0.072156721129635629 0 0.068531952519629846 -0.071423529151350057 0 0.078467652577078828 -0.059885381954443317 0 0.078356370925953281 -0.060923324512692341 0 0.079757936512782762 -0.061249352226039389 0 0.078467652577078828 -0.059885381954443317 0 0.078356370925953281 -0.060923324512692341 0 0.076688651817535411 -0.060046366461883043 0 0.068531952519629846 -0.071423529151350057 0 0.066330600758974761 -0.070789368734073849 0 0.078467652577078828 -0.059885381954443317 0 0.076688651817535411 -0.060046366461883043 0 0.076179268969953293 -0.059995978010824694 0 0.078356370925953281 -0.060923324512692341 0 0.076688651817535411 -0.060046366461883043 0 0.07858923122567571 -0.062512769972850546 0 0.057468549701050226 -0.080721436750419123 0 0.058912177815870541 -0.082422253936066989 0 0.05578977113136728 -0.082418638655745349 0 0.076688651817535411 -0.060046366461883043 0 0.076513940685120616 -0.060877724648646478 0 0.076758614758118529 -0.060880877603935422 0 0.07770030306564818 -0.060029643306021722 0 0.078024322700820284 -0.059949296867990443 0 0.076513940685120616 -0.060877724648646478 0 0.076621047985934207 -0.060944937279879194 0 0.076601939103605854 -0.061003115427496972 0 0.070097318759416979 -0.064412371515905092 0 0.071287796331349448 -0.063093638481825753 0 0.076513940685120616 -0.060877724648646478 0 0.076621047985934207 -0.060944937279879194 0 0.076758614758118529 -0.060880877603935422 0 0.076611412572987508 -0.062016601227428809 0 0.076601939103605854 -0.061003115427496972 0 0.076779714170427477 -0.060996283500059416 0 0.076621047985934207 -0.060944937279879194 0 0.076621301635318398 -0.060950986169530486 0 0.076614487161186809 -0.060964152269518901 0 0.076621047985934207 -0.060944937279879194 0 0.076601939103605854 -0.061003115427496972 0 0.076614487161186809 -0.060964152269518901 0 0.076621301635318398 -0.060950986169530486 0 0.076758614758118529 -0.060880877603935422 0 0.076528069001321183 -0.060953062889857024 0 0.078024322700820284 -0.059949296867990443 0 0.076434610065812786 -0.055648531149602998 0 0.076621047985934207 -0.060944937279879194 0 0.076621301635318398 -0.060950986169530486 0 0.076758614758118529 -0.060880877603935422 0 0.07858923122567571 -0.062512769972850546 0 0.079757936512782762 -0.061249352226039389 0 0.081302280983124642 -0.062609997945063528 0 0.078356370925953281 -0.060923324512692341 0 0.07858923122567571 -0.062512769972850546 0 0.079757936512782762 -0.061249352226039389 0 0.081171236041624462 -0.059957834107950053 0 0.079757936512782762 -0.061249352226039389 0 0.081302280983124642 -0.062609997945063528 0 0.078982723932565085 -0.059009073195396541 0 0.078326731243795522 -0.0585462601836097 0 0.082177732606185175 -0.060112164782803804 0 0.082022836989434286 -0.060324566249529241 0 0.083196352571883042 -0.059433554286406107 0 0.082177732606185175 -0.060112164782803804 0 0.083196352571883042 -0.059433554286406107 0 0.082175192253870974 -0.059451775819760057 0 0.081905483884596175 -0.059966486837866588 0 0.082177732606185175 -0.060112164782803804 0 0.082175192253870974 -0.059451775819760057 0 0.083196352571883042 -0.059433554286406107 0 0.082175192253870974 -0.059451775819760057 0 0.082346401333739508 -0.058169561417021363 0 0.07858923122567571 -0.062512769972850546 0 0.081302280983124642 -0.062609997945063528 0 0.080399491521022284 -0.064965912552605684 0 0.083196352571883042 -0.059433554286406107 0 0.083974468040090927 -0.057996442387226697 0 0.082346401333739508 -0.058169561417021363 0 0.078326731243795522 -0.0585462601836097 0 0.076434610065812786 -0.055648531149602998 0 0.076434610065812786 -0.055648531149602998 0 0.076049618980661718 -0.048848634393535657 0 0.083974468040090927 -0.057996442387226697 0 0.082346401333739508 -0.058169561417021363 0 0.083116395530228648 -0.056208304438655605 0 0.081742189825598527 -0.05652840633290785 0 0.082346401333739508 -0.058169561417021363 0 0.083116395530228648 -0.056208304438655605 0 0.070015998466449486 -0.03451445704480284 0 0.071988976656522485 -0.037151305119033001 0 0.068905044311929356 -0.037303881353601638 0 0.076465977453825995 -0.06071413902155192 0 0.076560052704879644 -0.06084794054668214 0 0.076644299489583817 -0.060694617548699564 0 0.076528069001321183 -0.060953062889857024 0 0.076465977453825995 -0.06071413902155192 0 0.076560052704879644 -0.06084794054668214 0 0.076434610065812786 -0.055648531149602998 0 0.072473899013542245 -0.050696377550188104 0 0.076644299489583817 -0.060694617548699564 0 0.076620021234506563 -0.060898239538571347 0 0.076779714170427477 -0.060996283500059416 0 0.076560052704879644 -0.06084794054668214 0 0.076644299489583817 -0.060694617548699564 0 0.076620021234506563 -0.060898239538571347 0 0.066010819468563589 -0.062044336854752413 0 0.065153617327973576 -0.066186706418432412 0 0.050619782157369814 -0.0694421617144617 0 0.051600557335895782 -0.072869501019472233 0 0.052229518278688263 -0.071414654545586445 0 0.076620021234506563 -0.060898239538571347 0 0.076601939103605854 -0.061003115427496972 0 0.076598860014800027 -0.060938117399647537 0 0.076560052704879644 -0.06084794054668214 0 0.076620021234506563 -0.060898239538571347 0 0.076598860014800027 -0.060938117399647537 0 0.076620021234506563 -0.060898239538571347 0 0.076601939103605854 -0.061003115427496972 0 0.076779714170427477 -0.060996283500059416 0 0.076601939103605854 -0.061003115427496972 0 0.076614487161186809 -0.060964152269518901 0 0.076598860014800027 -0.060938117399647537 0 0.076621301635318398 -0.060950986169530486 0 0.076614487161186809 -0.060964152269518901 0 0.076598860014800027 -0.060938117399647537 0 0.076528069001321183 -0.060953062889857024 0 0.076560052704879644 -0.06084794054668214 0 0.076598860014800027 -0.060938117399647537 0 0.076621301635318398 -0.060950986169530486 0 0.076528069001321183 -0.060953062889857024 0 0.076598860014800027 -0.060938117399647537 0 0.053901724797762292 -0.071883055227902504 0 0.054784211509318906 -0.07288907869190929 0 0.055527025416278838 -0.073480331379906963 0 0.055337174584942493 -0.072054404701085942 0 0.057341891270291448 -0.072261260639333372 0 0.058107738497331855 -0.074332426321903122 0 0.050039406345947578 -0.074657849844080346 0 0.046206648541249666 -0.074934478143696082 0 0.053901724797762292 -0.071883055227902504 0 0.05360526839492033 -0.072708037998288885 0 0.052930355562801734 -0.071882300830083873 0 0.053901724797762292 -0.071883055227902504 0 0.054784211509318906 -0.07288907869190929 0 0.05360526839492033 -0.072708037998288885 0 0.055337174584942493 -0.072054404701085942 0 0.057341891270291448 -0.072261260639333372 0 0.056569145445039805 -0.07075536419349468 0 0.054784211509318906 -0.07288907869190929 0 0.053912067374546006 -0.073391484099861043 0 0.054432368785829077 -0.073836965786104103 0 0.054784211509318906 -0.07288907869190929 0 0.055113533050112393 -0.073731944063773674 0 0.054432368785829077 -0.073836965786104103 0 0.054784211509318906 -0.07288907869190929 0 0.053912067374546006 -0.073391484099861043 0 0.05360526839492033 -0.072708037998288885 0 0.053912067374546006 -0.073391484099861043 0 0.05360526839492033 -0.072708037998288885 0 0.053221257342578175 -0.073431287529681449 0 0.053221257342578175 -0.073431287529681449 0 0.052555590323742997 -0.07342681613661188 0 0.052831694895050178 -0.072763877616566566 0 0.052555590323742997 -0.07342681613661188 0 0.052831694895050178 -0.072763877616566566 0 0.052393464382035328 -0.07243908631428167 0 0.05360526839492033 -0.072708037998288885 0 0.053221257342578175 -0.073431287529681449 0 0.052831694895050178 -0.072763877616566566 0 0.052555590323742997 -0.07342681613661188 0 0.051600557335895782 -0.072869501019472233 0 0.052393464382035328 -0.07243908631428167 0 0.051600557335895782 -0.072869501019472233 0 0.052393464382035328 -0.07243908631428167 0 0.052229518278688263 -0.071414654545586445 0 0.052393464382035328 -0.07243908631428167 0 0.052930355562801734 -0.071882300830083873 0 0.052229518278688263 -0.071414654545586445 0 0.05360526839492033 -0.072708037998288885 0 0.052831694895050178 -0.072763877616566566 0 0.052930355562801734 -0.071882300830083873 0 0.052831694895050178 -0.072763877616566566 0 0.052393464382035328 -0.07243908631428167 0 0.052930355562801734 -0.071882300830083873 0 0.053901724797762292 -0.071883055227902504 0 0.052930355562801734 -0.071882300830083873 0 0.052372794374447147 -0.069820315976750327 0 0.052372794374447147 -0.069820315976750327 0 0.055352827317279932 -0.06950149650860786 0 0.053665779201876714 -0.068087818614561452 0 0.055337174584942493 -0.072054404701085942 0 0.052372794374447147 -0.069820315976750327 0 0.055352827317279932 -0.06950149650860786 0 0.050039406345947578 -0.074657849844080346 0 0.050377586088813715 -0.073901815989356731 0 0.052930355562801734 -0.071882300830083873 0 0.052229518278688263 -0.071414654545586445 0 0.052372794374447147 -0.069820315976750327 0 0.050619782157369814 -0.0694421617144617 0 0.052229518278688263 -0.071414654545586445 0 0.052372794374447147 -0.069820315976750327 0 0.055352827317279932 -0.06950149650860786 0 0.056569145445039805 -0.07075536419349468 0 0.058191485478824787 -0.069568455802579768 0 0.055337174584942493 -0.072054404701085942 0 0.055352827317279932 -0.06950149650860786 0 0.056569145445039805 -0.07075536419349468 0 0.023641225704136421 -0.065430031322106008 0 0.02516229352689274 -0.065417145722672126 0 0.025598458118863254 -0.067719053299056212 0 0.057341891270291448 -0.072261260639333372 0 0.056569145445039805 -0.07075536419349468 0 0.058191485478824787 -0.069568455802579768 0 0.037969888754013685 -0.072453918159906691 0 0.03670365346847701 -0.071151849408363887 0 0.02516229352689274 -0.065417145722672126 0 0.025598458118863254 -0.067719053299056212 0 0.026866730604918534 -0.064796376735349062 0 0.027714812426566402 -0.066909813022243553 0 0.025806252231496275 -0.06789308258630572 0 0.026866730604918534 -0.064796376735349062 0 0.027714812426566402 -0.066909813022243553 0 0.026866730604918534 -0.064796376735349062 0 0.028126777979150818 -0.064692046633598843 0 0.025806252231496275 -0.06789308258630572 0 0.027107836221422078 -0.070126485473690839 0 0.024517754446992605 -0.071103833694163385 0 0.027714812426566402 -0.066909813022243553 0 0.028554939340927763 -0.069115396169027205 0 0.025806252231496275 -0.06789308258630572 0 0.028554939340927763 -0.069115396169027205 0 0.025806252231496275 -0.06789308258630572 0 0.027107836221422078 -0.070126485473690839 0 0.028554939340927763 -0.069115396169027205 0 0.027107836221422078 -0.070126485473690839 0 0.028607427904861382 -0.070914632226528801 0 0.043666894631527009 -0.067808171696323985 0 0.044521329338762093 -0.074504715282193018 0 0.037969888754013685 -0.072453918159906691 0 0.043240787072321402 -0.074705768627640293 0 0.025598458118863254 -0.067719053299056212 0 0.024020938699069752 -0.070566987266199033 0 0.024342869884577296 -0.070828560065794466 0 0.023641225704136421 -0.065430031322106008 0 0.025598458118863254 -0.067719053299056212 0 0.024020938699069752 -0.070566987266199033 0 0.057341891270291448 -0.072261260639333372 0 0.058191485478824787 -0.069568455802579768 0 0.058506934254639362 -0.074666620047230903 0 0.057341891270291448 -0.072261260639333372 0 0.058107738497331855 -0.074332426321903122 0 0.058506934254639362 -0.074666620047230903 0 0.04692283357532287 -0.075174720159791236 0 0.046206648541249666 -0.074934478143696082 0 0.054784211509318906 -0.07288907869190929 0 0.055645172163351721 -0.07346250637803213 0 0.055113533050112393 -0.073731944063773674 0 0.055113533050112393 -0.073731944063773674 0 0.055388898268129198 -0.074126889923757294 0 0.055616060246156507 -0.073837516270302772 0 0.055645172163351721 -0.07346250637803213 0 0.055113533050112393 -0.073731944063773674 0 0.055616060246156507 -0.073837516270302772 0 0.055113533050112393 -0.073731944063773674 0 0.055388898268129198 -0.074126889923757294 0 0.054830848378021109 -0.074435231581413852 0 0.055388898268129198 -0.074126889923757294 0 0.056010692968805717 -0.074307482807185174 0 0.055349109198875306 -0.07451835275713517 0 0.055388898268129198 -0.074126889923757294 0 0.055349109198875306 -0.07451835275713517 0 0.054830848378021109 -0.074435231581413852 0 0.055388898268129198 -0.074126889923757294 0 0.056010692968805717 -0.074307482807185174 0 0.055616060246156507 -0.073837516270302772 0 0.044542691598517328 -0.075870807271695498 0 0.044521329338762093 -0.074504715282193018 0 0.056010692968805717 -0.074307482807185174 0 0.055616060246156507 -0.073837516270302772 0 0.055938874966461972 -0.073689533657385481 0 0.046678881916398914 -0.075064464084071497 0 0.046519043384474282 -0.07277651151747519 0 0.047355964920869888 -0.07346223728656702 0 0.044521329338762093 -0.074504715282193018 0 0.043240787072321402 -0.074705768627640293 0 0.055645172163351721 -0.07346250637803213 0 0.055616060246156507 -0.073837516270302772 0 0.055938874966461972 -0.073689533657385481 0 0.046206648541249666 -0.074934478143696082 0 0.044521329338762093 -0.074504715282193018 0 0.044542691598517328 -0.075870807271695498 0 0.043240787072321402 -0.074705768627640293 0 0.043240787072321402 -0.074705768627640293 0 0.043116558391412811 -0.078036942304252177 0 0.050903601770347584 -0.092889758903881417 0 0.050127888305994156 -0.090556850524957114 0 0.048147359468734482 -0.090670664160125952 0 0.051202107882796534 -0.0921848905018611 0 0.050903601770347584 -0.092889758903881417 0 0.050127888305994156 -0.090556850524957114 0 0.056010692968805717 -0.074307482807185174 0 0.055095223539021632 -0.07524233440587362 0 0.055349109198875306 -0.07451835275713517 0 0.055095223539021632 -0.07524233440587362 0 0.055349109198875306 -0.07451835275713517 0 0.054830848378021109 -0.074435231581413852 0 0.024517754446992605 -0.071103833694163385 0 0.02775795693888064 -0.07285817137714394 0 0.028102811517958879 -0.073312527975549727 0 0.024517754446992605 -0.071103833694163385 0 0.027368894664409314 -0.071460129322750837 0 0.02775795693888064 -0.07285817137714394 0 0.043240787072321402 -0.074705768627640293 0 0.03745416120074968 -0.075052789817404181 0 0.041675927516724789 -0.076498296958176379 0 0.040938607825380682 -0.075959280999154846 0 0.040609801040020675 -0.075909054732263628 0 0.027368894664409314 -0.071460129322750837 0 0.028607427904861382 -0.070914632226528801 0 0.028855275338556797 -0.072390708620493641 0 0.027107836221422078 -0.070126485473690839 0 0.027368894664409314 -0.071460129322750837 0 0.028607427904861382 -0.070914632226528801 0 0.027107836221422078 -0.070126485473690839 0 0.024517754446992605 -0.071103833694163385 0 0.027368894664409314 -0.071460129322750837 0 0.027368894664409314 -0.071460129322750837 0 0.02775795693888064 -0.07285817137714394 0 0.028855275338556797 -0.072390708620493641 0 0.037366227552500277 -0.074976967232281352 0 0.03745416120074968 -0.075052789817404181 0 0.02775795693888064 -0.07285817137714394 0 0.028120739454675837 -0.073315969570290351 0 0.028855275338556797 -0.072390708620493641 0 0.048147359468734482 -0.090670664160125952 0 0.047943896867231953 -0.087026572336514049 0 0.045303203575546333 -0.088440306301368371 0 0.048147359468734482 -0.090670664160125952 0 0.049292664961788184 -0.088781239673337259 0 0.047943896867231953 -0.087026572336514049 0 0.040938607825380682 -0.075959280999154846 0 0.040609801040020675 -0.075909054732263628 0 0.040202330030471967 -0.075419616090714486 0 0.043116558391412811 -0.078036942304252177 0 0.03956017545933193 -0.077528190017184681 0 0.050127888305994156 -0.090556850524957114 0 0.048147359468734482 -0.090670664160125952 0 0.049292664961788184 -0.088781239673337259 0 0.049292664961788184 -0.088781239673337259 0 0.050937150597209858 -0.087253675769373151 0 0.047943896867231953 -0.087026572336514049 0 0.047943896867231953 -0.087026572336514049 0 0.046224224012391818 -0.086569764375844072 0 0.045303203575546333 -0.088440306301368371 0 0.044542691598517328 -0.075870807271695498 0 0.047728750441871463 -0.081467973757736012 0 0.050127888305994156 -0.090556850524957114 0 0.049292664961788184 -0.088781239673337259 0 0.050937150597209858 -0.087253675769373151 0 0.056010692968805717 -0.074307482807185174 0 0.055095223539021632 -0.07524233440587362 0 0.054652916240394228 -0.077073650565671281 0 0.051202107882796534 -0.0921848905018611 0 0.050127888305994156 -0.090556850524957114 0 0.050937150597209858 -0.087253675769373151 0 0.044542691598517328 -0.075870807271695498 0 0.048039987205645666 -0.076631040470002007 0 0.0511736201715568 -0.082228638831385995 0 0.051075845365644794 -0.080417763034448794 0 0.051885869512825672 -0.080663347639523167 0 0.054652916240394228 -0.077073650565671281 0 0.053801732314980998 -0.076532287399509721 0 0.054288586405067986 -0.075981287941886452 0 0.054652916240394228 -0.077073650565671281 0 0.053165522398841709 -0.077103107293205117 0 0.053059117516188609 -0.077753498929587522 0 0.053165522398841709 -0.077103107293205117 0 0.053801732314980998 -0.076532287399509721 0 0.053159999773512337 -0.07617991872984696 0 0.054652916240394228 -0.077073650565671281 0 0.053165522398841709 -0.077103107293205117 0 0.053801732314980998 -0.076532287399509721 0 0.053801732314980998 -0.076532287399509721 0 0.053625954988533189 -0.075847282101606142 0 0.054288586405067986 -0.075981287941886452 0 0.053801732314980998 -0.076532287399509721 0 0.053159999773512337 -0.07617991872984696 0 0.053625954988533189 -0.075847282101606142 0 0.053159999773512337 -0.07617991872984696 0 0.053625954988533189 -0.075847282101606142 0 0.053018074311127546 -0.075487331894125528 0 0.055095223539021632 -0.07524233440587362 0 0.054652916240394228 -0.077073650565671281 0 0.054288586405067986 -0.075981287941886452 0 0.053625954988533189 -0.075847282101606142 0 0.054288586405067986 -0.075981287941886452 0 0.054308955180609894 -0.075225003060790718 0 0.055095223539021632 -0.07524233440587362 0 0.054288586405067986 -0.075981287941886452 0 0.054308955180609894 -0.075225003060790718 0 0.055095223539021632 -0.07524233440587362 0 0.054308955180609894 -0.075225003060790718 0 0.054830848378021109 -0.074435231581413852 0 0.054308955180609894 -0.075225003060790718 0 0.054830848378021109 -0.074435231581413852 0 0.054232447201820133 -0.074487441776898339 0 0.053625954988533189 -0.075847282101606142 0 0.054308955180609894 -0.075225003060790718 0 0.053481657775510734 -0.074935960770881785 0 0.053625954988533189 -0.075847282101606142 0 0.053481657775510734 -0.074935960770881785 0 0.053018074311127546 -0.075487331894125528 0 0.054308955180609894 -0.075225003060790718 0 0.053481657775510734 -0.074935960770881785 0 0.054232447201820133 -0.074487441776898339 0 0.053481657775510734 -0.074935960770881785 0 0.053720677080885897 -0.074140557409737351 0 0.054232447201820133 -0.074487441776898339 0 0.053720677080885897 -0.074140557409737351 0 0.054432368785829077 -0.073836965786104103 0 0.054232447201820133 -0.074487441776898339 0 0.053481657775510734 -0.074935960770881785 0 0.053720677080885897 -0.074140557409737351 0 0.05299208760213199 -0.07417091524522279 0 0.053221257342578175 -0.073431287529681449 0 0.053720677080885897 -0.074140557409737351 0 0.05299208760213199 -0.07417091524522279 0 0.053912067374546006 -0.073391484099861043 0 0.053221257342578175 -0.073431287529681449 0 0.053720677080885897 -0.074140557409737351 0 0.053912067374546006 -0.073391484099861043 0 0.053720677080885897 -0.074140557409737351 0 0.054432368785829077 -0.073836965786104103 0 0.055113533050112393 -0.073731944063773674 0 0.054432368785829077 -0.073836965786104103 0 0.054830848378021109 -0.074435231581413852 0 0.054432368785829077 -0.073836965786104103 0 0.054830848378021109 -0.074435231581413852 0 0.054232447201820133 -0.074487441776898339 0 0.076611412572987508 -0.062016601227428809 0 0.076779714170427477 -0.060996283500059416 0 0.077022396336548532 -0.062016965001019636 0 0.065153617327973576 -0.066186706418432412 0 0.064462449269547556 -0.068741820188277875 0 0.051600557335895782 -0.072869501019472233 0 0.052651537503295077 -0.074469790354378118 0 0.052280906512119273 -0.075848231932209242 0 0.052555590323742997 -0.07342681613661188 0 0.051600557335895782 -0.072869501019472233 0 0.052651537503295077 -0.074469790354378118 0 0.052555590323742997 -0.07342681613661188 0 0.05299208760213199 -0.07417091524522279 0 0.052651537503295077 -0.074469790354378118 0 0.053221257342578175 -0.073431287529681449 0 0.052555590323742997 -0.07342681613661188 0 0.05299208760213199 -0.07417091524522279 0 0.053481657775510734 -0.074935960770881785 0 0.052651537503295077 -0.074469790354378118 0 0.053018074311127546 -0.075487331894125528 0 0.052651537503295077 -0.074469790354378118 0 0.052280906512119273 -0.075848231932209242 0 0.053018074311127546 -0.075487331894125528 0 0.053481657775510734 -0.074935960770881785 0 0.05299208760213199 -0.07417091524522279 0 0.052651537503295077 -0.074469790354378118 0 0.070097318759416979 -0.064412371515905092 0 0.066330600758974761 -0.070789368734073849 0 0.076611412572987508 -0.062016601227428809 0 0.077022396336548532 -0.062016965001019636 0 0.076777535026917934 -0.063135003949246704 0 0.064462449269547556 -0.068741820188277875 0 0.063425323007829798 -0.070452988053625154 0 0.053165522398841709 -0.077103107293205117 0 0.052280906512119273 -0.075848231932209242 0 0.053059117516188609 -0.077753498929587522 0 0.053165522398841709 -0.077103107293205117 0 0.053159999773512337 -0.07617991872984696 0 0.052280906512119273 -0.075848231932209242 0 0.053159999773512337 -0.07617991872984696 0 0.052280906512119273 -0.075848231932209242 0 0.053018074311127546 -0.075487331894125528 0 0.077022396336548532 -0.062016965001019636 0 0.076777535026917934 -0.063135003949246704 0 0.077339756126504275 -0.063142405521899189 0 0.076688651817535411 -0.060046366461883043 0 0.076513940685120616 -0.060877724648646478 0 0.076179268969953293 -0.059995978010824694 0 0.052280906512119273 -0.075848231932209242 0 0.053059117516188609 -0.077753498929587522 0 0.052803605096862473 -0.078618029317620228 0 0.066330600758974761 -0.070789368734073849 0 0.063425323007829798 -0.070452988053625154 0 0.055634812913249045 -0.082139691449977875 0 0.053938924801924769 -0.082143519271829168 0 0.054780819864171076 -0.081135241790067328 0 0.051885869512825672 -0.080663347639523167 0 0.052703137848883801 -0.078825927050537439 0 0.051648790056732306 -0.079474190917987367 0 0.048039987205645666 -0.076631040470002007 0 0.048979988761812261 -0.076930249000401879 0 0.054652916240394228 -0.077073650565671281 0 0.052957896807499759 -0.07859321695778769 0 0.052703137848883801 -0.078825927050537439 0 0.054652916240394228 -0.077073650565671281 0 0.053059117516188609 -0.077753498929587522 0 0.052957896807499759 -0.07859321695778769 0 0.053059117516188609 -0.077753498929587522 0 0.052957896807499759 -0.07859321695778769 0 0.052803605096862473 -0.078618029317620228 0 0.063359204156515289 -0.070467024259297018 0 0.063425323007829798 -0.070452988053625154 0 0.052957896807499759 -0.07859321695778769 0 0.0529712520139827 -0.078896344409385033 0 0.052703137848883801 -0.078825927050537439 0 0.0529712520139827 -0.078896344409385033 0 0.052703137848883801 -0.078825927050537439 0 0.052292153659223559 -0.078097578805468651 0 0.063425323007829798 -0.070452988053625154 0 0.059276255997282458 -0.074924944980474584 0 0.053938924801924769 -0.082143519271829168 0 0.054780819864171076 -0.081135241790067328 0 0.05282925717500745 -0.079043235352508359 0 0.051896239087901273 -0.078733493615038272 0 0.052703137848883801 -0.078825927050537439 0 0.052292153659223559 -0.078097578805468651 0 0.051896239087901273 -0.078733493615038272 0 0.052703137848883801 -0.078825927050537439 0 0.051648790056732306 -0.079474190917987367 0 0.055132555952874571 -0.079864695484329035 0 0.054780819864171076 -0.081135241790067328 0 0.05282925717500745 -0.079043235352508359 0 0.057468549701050226 -0.080721436750419123 0 0.05578977113136728 -0.082418638655745349 0 0.055231598540176383 -0.079981580179163514 0 0.066330600758974761 -0.070789368734073849 0 0.063799816467442858 -0.075111250129652252 0 0.055634812913249045 -0.082139691449977875 0 0.055132555952874571 -0.079864695484329035 0 0.054780819864171076 -0.081135241790067328 0 0.05791966113944489 -0.078152140324746308 0 0.055231598540176383 -0.079981580179163514 0 0.054643066682292005 -0.077526556891067813 0 0.055132555952874571 -0.079864695484329035 0 0.054643066682292005 -0.077526556891067813 0 0.05282925717500745 -0.079043235352508359 0 0.063799816467442858 -0.075111250129652252 0 0.062873886528669709 -0.075764905387538467 0 0.059276255997282458 -0.074924944980474584 0 0.057695514086359742 -0.075020523276712478 0 0.05282925717500745 -0.079043235352508359 0 0.053060407592149382 -0.077108795404615738 0 0.051567351848586157 -0.075726728109766772 0 0.054643066682292005 -0.077526556891067813 0 0.05282925717500745 -0.079043235352508359 0 0.053060407592149382 -0.077108795404615738 0 0.054643066682292005 -0.077526556891067813 0 0.053183136184332951 -0.076132291440792851 0 0.053060407592149382 -0.077108795404615738 0 0.053183136184332951 -0.076132291440792851 0 0.05533117791334017 -0.074999866527346012 0 0.051408263951871799 -0.075000174674857631 0 0.053183136184332951 -0.076132291440792851 0 0.053060407592149382 -0.077108795404615738 0 0.051567351848586157 -0.075726728109766772 0 0.053183136184332951 -0.076132291440792851 0 0.051567351848586157 -0.075726728109766772 0 0.051408263951871799 -0.075000174674857631 0 0.056507707292998109 -0.07667217947905916 0 0.054643066682292005 -0.077526556891067813 0 0.05533117791334017 -0.074999866527346012 0 0.054643066682292005 -0.077526556891067813 0 0.053183136184332951 -0.076132291440792851 0 0.05533117791334017 -0.074999866527346012 0 0.047825361628321565 -0.076937179494398877 0 0.047484460886038901 -0.074999287353676058 0 0.050102199974463302 -0.077010728567660502 0 0.047825361628321565 -0.076937179494398877 0 0.047484460886038901 -0.074999287353676058 0 0.045925019947224491 -0.076718156674681376 0 0.047484460886038901 -0.074999287353676058 0 0.051408263951871799 -0.075000174674857631 0 0.050102199974463302 -0.077010728567660502 0 0.051567351848586157 -0.075726728109766772 0 0.051408263951871799 -0.075000174674857631 0 0.050102199974463302 -0.077010728567660502 0 0.049112903995332351 -0.079051825093798475 0 0.04888326600362991 -0.080349823207255186 0 0.052292153659223559 -0.078097578805468651 0 0.051567351848586157 -0.075726728109766772 0 0.050102199974463302 -0.077010728567660502 0 0.052292153659223559 -0.078097578805468651 0 0.050102199974463302 -0.077010728567660502 0 0.050896965339659199 -0.078699074214179071 0 0.050102199974463302 -0.077010728567660502 0 0.047794650009835765 -0.0795757168903138 0 0.050658853184013419 -0.082058251144714822 0 0.047825361628321565 -0.076937179494398877 0 0.050102199974463302 -0.077010728567660502 0 0.047794650009835765 -0.0795757168903138 0 0.047825361628321565 -0.076937179494398877 0 0.047794650009835765 -0.0795757168903138 0 0.045925019947224491 -0.076718156674681376 0 0.047794650009835765 -0.0795757168903138 0 0.04644691818719078 -0.081704934046104558 0 0.050658853184013419 -0.082058251144714822 0 0.04644691818719078 -0.081704934046104558 0 0.050658853184013419 -0.082058251144714822 0 0.04685972375115173 -0.084212850165231057 0 0.051896239087901273 -0.078733493615038272 0 0.052292153659223559 -0.078097578805468651 0 0.050896965339659199 -0.078699074214179071 0 0.051896239087901273 -0.078733493615038272 0 0.050896965339659199 -0.078699074214179071 0 0.051648790056732306 -0.079474190917987367 0 0.047728750441871463 -0.081467973757736012 0 0.04888326600362991 -0.080349823207255186 0 0.051075845365644794 -0.080417763034448794 0 0.050896965339659199 -0.078699074214179071 0 0.051648790056732306 -0.079474190917987367 0 0.050937150597209858 -0.087253675769373151 0 0.050658853184013419 -0.082058251144714822 0 0.047943896867231953 -0.087026572336514049 0 0.051075845365644794 -0.080417763034448794 0 0.051885869512825672 -0.080663347639523167 0 0.051648790056732306 -0.079474190917987367 0 0.050658853184013419 -0.082058251144714822 0 0.04685972375115173 -0.084212850165231057 0 0.047943896867231953 -0.087026572336514049 0 0.04685972375115173 -0.084212850165231057 0 0.047943896867231953 -0.087026572336514049 0 0.046224224012391818 -0.086569764375844072 0 0.03787320113723313 -0.076564629184778035 0 0.03956017545933193 -0.077528190017184681 0 0.039215804701435299 -0.078908774686878028 0 0.03956017545933193 -0.077528190017184681 0 0.044860112629911367 -0.085863009751844271 0 0.042445521275105175 -0.085019502678666897 0 0.045303203575546333 -0.088440306301368371 0 0.046224224012391818 -0.086569764375844072 0 0.044860112629911367 -0.085863009751844271 0 0.045303203575546333 -0.088440306301368371 0 0.035166044912876011 -0.076609907079646919 0 0.035091660715578531 -0.076663865261493741 0 0.034965118205289906 -0.076423257808311065 0 0.04685972375115173 -0.084212850165231057 0 0.046224224012391818 -0.086569764375844072 0 0.044860112629911367 -0.085863009751844271 0 0.044860112629911367 -0.085863009751844271 0 0.043765681549180466 -0.084552420573739795 0 0.044513222948612485 -0.083385191792166954 0 0.044860112629911367 -0.085863009751844271 0 0.043765681549180466 -0.084552420573739795 0 0.042445521275105175 -0.085019502678666897 0 0.043250468972140403 -0.083923699123149759 0 0.043765681549180466 -0.084552420573739795 0 0.042445521275105175 -0.085019502678666897 0 0.043250468972140403 -0.083923699123149759 0 0.043765681549180466 -0.084552420573739795 0 0.044513222948612485 -0.083385191792166954 0 0.04685972375115173 -0.084212850165231057 0 0.044860112629911367 -0.085863009751844271 0 0.044513222948612485 -0.083385191792166954 0 0.035065890315730243 -0.075165142365433382 0 0.03511032863075534 -0.074851580119512998 0 0.035166044912876011 -0.076609907079646919 0 0.035233666513253797 -0.076542368240596598 0 0.035165844700175981 -0.076605513403457851 0 0.035233666513253797 -0.076542368240596598 0 0.033803864330768991 -0.075062252075486724 0 0.031905627497404783 -0.075432182077431381 0 0.035091660715578531 -0.076663865261493741 0 0.03520368157011685 -0.07667204904143636 0 0.035276516063031796 -0.076770444458055198 0 0.035166044912876011 -0.076609907079646919 0 0.035091660715578531 -0.076663865261493741 0 0.03520368157011685 -0.07667204904143636 0 0.035166044912876011 -0.076609907079646919 0 0.03520368157011685 -0.07667204904143636 0 0.035233666513253797 -0.076542368240596598 0 0.03520368157011685 -0.07667204904143636 0 0.035276516063031796 -0.076770444458055198 0 0.035233666513253797 -0.076542368240596598 0 0.035091660715578531 -0.076663865261493741 0 0.035276516063031796 -0.076770444458055198 0 0.035495327365267004 -0.076945896604690284 0 0.042445521275105175 -0.085019502678666897 0 0.042112301080964913 -0.082470163487928919 0 0.0390042707304179 -0.081223866159109662 0 0.039215804701435299 -0.078908774686878028 0 0.038077261464225569 -0.078270955379159929 0 0.043250468972140403 -0.083923699123149759 0 0.042445521275105175 -0.085019502678666897 0 0.042112301080964913 -0.082470163487928919 0 0.042112301080964913 -0.082470163487928919 0 0.041914514967152733 -0.080428052115619389 0 0.0390042707304179 -0.081223866159109662 0 0.04644691818719078 -0.081704934046104558 0 0.04685972375115173 -0.084212850165231057 0 0.044513222948612485 -0.083385191792166954 0 0.043250468972140403 -0.083923699123149759 0 0.042112301080964913 -0.082470163487928919 0 0.044513222948612485 -0.083385191792166954 0 0.042112301080964913 -0.082470163487928919 0 0.044513222948612485 -0.083385191792166954 0 0.044337769773802813 -0.080899802540433566 0 0.042112301080964913 -0.082470163487928919 0 0.041914514967152733 -0.080428052115619389 0 0.044337769773802813 -0.080899802540433566 0 0.047794650009835765 -0.0795757168903138 0 0.04644691818719078 -0.081704934046104558 0 0.044337769773802813 -0.080899802540433566 0 0.04644691818719078 -0.081704934046104558 0 0.044513222948612485 -0.083385191792166954 0 0.044337769773802813 -0.080899802540433566 0 0.044296624493346273 -0.07884898907992248 0 0.041301389017179446 -0.078269634359529563 0 0.045925019947224491 -0.076718156674681376 0 0.047794650009835765 -0.0795757168903138 0 0.044337769773802813 -0.080899802540433566 0 0.044296624493346273 -0.07884898907992248 0 0.047794650009835765 -0.0795757168903138 0 0.044296624493346273 -0.07884898907992248 0 0.045925019947224491 -0.076718156674681376 0 0.041914514967152733 -0.080428052115619389 0 0.044337769773802813 -0.080899802540433566 0 0.044296624493346273 -0.07884898907992248 0 0.041914514967152733 -0.080428052115619389 0 0.0390042707304179 -0.081223866159109662 0 0.041301389017179446 -0.078269634359529563 0 0.041301389017179446 -0.078269634359529563 0 0.038118611616072773 -0.075186462868230622 0 0.045925019947224491 -0.076718156674681376 0 0.041914514967152733 -0.080428052115619389 0 0.044296624493346273 -0.07884898907992248 0 0.041301389017179446 -0.078269634359529563 0 0.0390042707304179 -0.081223866159109662 0 0.038495604318810113 -0.077721990123649332 0 0.041301389017179446 -0.078269634359529563 0 0.038495604318810113 -0.077721990123649332 0 0.041301389017179446 -0.078269634359529563 0 0.038118611616072773 -0.075186462868230622 0 0.043561368123469328 -0.074999988946264265 0 0.042265979217150522 -0.076773823125976734 0 0.045925019947224491 -0.076718156674681376 0 0.040092412485912665 -0.076151088849067516 0 0.042468979652906941 -0.07632125541582252 0 0.047484460886038901 -0.074999287353676058 0 0.043561368123469328 -0.074999988946264265 0 0.045925019947224491 -0.076718156674681376 0 0.035712820908436763 -0.074998922202841503 0 0.039639157414537982 -0.075000232507660664 0 0.038188197892619083 -0.076620377284849411 0 0.038118611616072773 -0.075186462868230622 0 0.033593461543782656 -0.075316362854277202 0 0.035353915927927845 -0.076027356818450006 0 0.042265979217150522 -0.076773823125976734 0 0.039639157414537982 -0.075000232507660664 0 0.038188197892619083 -0.076620377284849411 0 0.040092412485912665 -0.076151088849067516 0 0.036880623852528327 -0.07597332300009571 0 0.043561368123469328 -0.074999988946264265 0 0.042265979217150522 -0.076773823125976734 0 0.039639157414537982 -0.075000232507660664 0 0.038077261464225569 -0.078270955379159929 0 0.037384109994230544 -0.077567928537608508 0 0.0390042707304179 -0.081223866159109662 0 0.038495604318810113 -0.077721990123649332 0 0.035732987864873805 -0.076267866516525507 0 0.034269731641079493 -0.076069948943082083 0 0.034015873280117515 -0.076047417976202097 0 0.038118611616072773 -0.075186462868230622 0 0.035353915927927845 -0.076027356818450006 0 0.035732987864873805 -0.076267866516525507 0 0.035353915927927845 -0.076027356818450006 0 0.035732987864873805 -0.076267866516525507 0 0.035595554061061276 -0.076627133981933548 0 0.035495327365267004 -0.076945896604690284 0 0.035732987864873805 -0.076267866516525507 0 0.035595554061061276 -0.076627133981933548 0 0.035353915927927845 -0.076027356818450006 0 0.034352856787274108 -0.076145601332844995 0 0.034378695613145903 -0.07626127545388954 0 0.035353915927927845 -0.076027356818450006 0 0.035595554061061276 -0.076627133981933548 0 0.035527429284442198 -0.077164216080501155 0 0.038495604318810113 -0.077721990123649332 0 0.038118611616072773 -0.075186462868230622 0 0.035732987864873805 -0.076267866516525507 0 0.033593461543782656 -0.075316362854277202 0 0.035353915927927845 -0.076027356818450006 0 0.034113687627421348 -0.075929803100854038 0 0.035353915927927845 -0.076027356818450006 0 0.034352856787274108 -0.076145601332844995 0 0.034113687627421348 -0.075929803100854038 0 0.033690969679984493 -0.075715665337914032 0 0.033593461543782656 -0.075316362854277202 0 0.034113687627421348 -0.075929803100854038 0 0.033690969679984493 -0.075715665337914032 0 0.034113687627421348 -0.075929803100854038 0 0.03392058392656102 -0.075980922142412602 0 0.034352856787274108 -0.076145601332844995 0 0.034113687627421348 -0.075929803100854038 0 0.03392058392656102 -0.075980922142412602 0 0.034352856787274108 -0.076145601332844995 0 0.03392058392656102 -0.075980922142412602 0 0.034084206658037186 -0.076207501522226564 0 0.034352856787274108 -0.076145601332844995 0 0.034084206658037186 -0.076207501522226564 0 0.034378695613145903 -0.07626127545388954 0 0.034084206658037186 -0.076207501522226564 0 0.034378695613145903 -0.07626127545388954 0 0.034114526041211762 -0.076511193837781613 0 0.035276516063031796 -0.076770444458055198 0 0.035495327365267004 -0.076945896604690284 0 0.035527429284442198 -0.077164216080501155 0 0.035276516063031796 -0.076770444458055198 0 0.035527429284442198 -0.077164216080501155 0 0.035233666513253797 -0.076542368240596598 0 0.035495327365267004 -0.076945896604690284 0 0.035595554061061276 -0.076627133981933548 0 0.035527429284442198 -0.077164216080501155 0 0.034015873280117515 -0.076047417976202097 0 0.033115182502570464 -0.074925695712598259 0 0.034378695613145903 -0.07626127545388954 0 0.034114526041211762 -0.076511193837781613 0 0.034407896028768099 -0.076734936276859594 0 0.035527429284442198 -0.077164216080501155 0 0.035233666513253797 -0.076542368240596598 0 0.035570916160247983 -0.075399785625520493 0 0.035233666513253797 -0.076542368240596598 0 0.035570916160247983 -0.075399785625520493 0 0.033803864330768991 -0.075062252075486724 0 0.033865166459581382 -0.076326203015536234 0 0.034084206658037186 -0.076207501522226564 0 0.034114526041211762 -0.076511193837781613 0 0.033633130017226058 -0.076631968355765037 0 0.034114526041211762 -0.076511193837781613 0 0.034112006033296165 -0.076943230397878995 0 0.032354685570805362 -0.074025761830631101 0 0.031735948324003886 -0.072764131869715615 0 0.034114526041211762 -0.076511193837781613 0 0.034112006033296165 -0.076943230397878995 0 0.034407896028768099 -0.076734936276859594 0 0.028179335821151306 -0.070091489252577258 0 0.026502694264489195 -0.067587300768055483 0 0.028693665491957152 -0.06729033726615935 0 0.030658593920241888 -0.069535285934745533 0 0.028179335821151306 -0.070091489252577258 0 0.028693665491957152 -0.06729033726615935 0 0.03091334207514719 -0.070719811791140674 0 0.033115182502570464 -0.074925695712598259 0 0.031735948324003886 -0.072764131869715615 0 0.03091334207514719 -0.070719811791140674 0 0.034112006033296165 -0.076943230397878995 0 0.03445084868962351 -0.077231750564030976 0 0.034407896028768099 -0.076734936276859594 0 0.035292535545428265 -0.071175230614567153 0 0.035570916160247983 -0.075399785625520493 0 0.033828246816136616 -0.073502215216500369 0 0.035570916160247983 -0.075399785625520493 0 0.033803864330768991 -0.075062252075486724 0 0.033828246816136616 -0.073502215216500369 0 0.033803864330768991 -0.075062252075486724 0 0.031905627497404783 -0.075432182077431381 0 0.032372363643210757 -0.07388158995211519 0 0.033803864330768991 -0.075062252075486724 0 0.032372363643210757 -0.07388158995211519 0 0.033828246816136616 -0.073502215216500369 0 0.03745416120074968 -0.075052789817404181 0 0.03511032863075534 -0.074851580119512998 0 0.028120739454675837 -0.073315969570290351 0 0.031905627497404783 -0.075432182077431381 0 0.030638861744024769 -0.073411817068411517 0 0.035166044912876011 -0.076609907079646919 0 0.035165844700175981 -0.076605513403457851 0 0.035189832846833233 -0.076599250083143097 0 0.035210288832392321 -0.076600670802099438 0 0.035165844700175981 -0.076605513403457851 0 0.035189832846833233 -0.076599250083143097 0 0.031905627497404783 -0.075432182077431381 0 0.032372363643210757 -0.07388158995211519 0 0.030638861744024769 -0.073411817068411517 0 0.03745416120074968 -0.075052789817404181 0 0.03956017545933193 -0.077528190017184681 0 0.030638861744024769 -0.073411817068411517 0 0.028855275338556797 -0.072390708620493641 0 0.030361265789754489 -0.070893673578487276 0 0.028120739454675837 -0.073315969570290351 0 0.030638861744024769 -0.073411817068411517 0 0.028855275338556797 -0.072390708620493641 0 0.030638861744024769 -0.073411817068411517 0 0.030361265789754489 -0.070893673578487276 0 0.03255856788075779 -0.071692804165789659 0 0.028607427904861382 -0.070914632226528801 0 0.028855275338556797 -0.072390708620493641 0 0.030361265789754489 -0.070893673578487276 0 0.035292535545428265 -0.071175230614567153 0 0.033828246816136616 -0.073502215216500369 0 0.03255856788075779 -0.071692804165789659 0 0.032372363643210757 -0.07388158995211519 0 0.033828246816136616 -0.073502215216500369 0 0.03255856788075779 -0.071692804165789659 0 0.032372363643210757 -0.07388158995211519 0 0.030638861744024769 -0.073411817068411517 0 0.03255856788075779 -0.071692804165789659 0 0.026894067051791152 -0.066320755767185144 0 0.025790835138765934 -0.064921730331131189 0 0.026779705702993605 -0.065304807059343092 0 0.03091334207514719 -0.070719811791140674 0 0.028568232582544047 -0.067287592907135624 0 0.030361265789754489 -0.070893673578487276 0 0.03255856788075779 -0.071692804165789659 0 0.031879167310958315 -0.067940382568374619 0 0.035292535545428265 -0.071175230614567153 0 0.03255856788075779 -0.071692804165789659 0 0.031879167310958315 -0.067940382568374619 0 0.027714812426566402 -0.066909813022243553 0 0.028554939340927763 -0.069115396169027205 0 0.031879167310958315 -0.067940382568374619 0 0.028554939340927763 -0.069115396169027205 0 0.030361265789754489 -0.070893673578487276 0 0.031879167310958315 -0.067940382568374619 0 0.028554939340927763 -0.069115396169027205 0 0.028607427904861382 -0.070914632226528801 0 0.030361265789754489 -0.070893673578487276 0 0.025790835138765934 -0.064921730331131189 0 0.025638450817629506 -0.063678411078371369 0 0.024813168307333013 -0.063141900517626526 0 0.027714812426566402 -0.066909813022243553 0 0.031879167310958315 -0.067940382568374619 0 0.028126777979150818 -0.064692046633598843 0 0.028568232582544047 -0.067287592907135624 0 0.026629860302188828 -0.064896773613309797 0 0.025790835138765934 -0.064921730331131189 0 0.025638450817629506 -0.063678411078371369 0 0.026754724962031694 -0.063843096916366582 0 0.025790835138765934 -0.064921730331131189 0 0.026754724962031694 -0.063843096916366582 0 0.026779705702993605 -0.065304807059343092 0 0.026754724962031694 -0.063843096916366582 0 0.027990388625776758 -0.063622075993085267 0 0.026779705702993605 -0.065304807059343092 0 0.027990388625776758 -0.063622075993085267 0 0.028090888699806939 -0.065512937944186042 0 0.026779705702993605 -0.065304807059343092 0 0.029573755476150418 -0.064957922270196186 0 0.027990388625776758 -0.063622075993085267 0 0.028090888699806939 -0.065512937944186042 0 0.029573755476150418 -0.064957922270196186 0 0.027990388625776758 -0.063622075993085267 0 0.029384500961138111 -0.062126303845846879 0 0.026502694264489195 -0.067587300768055483 0 0.028693665491957152 -0.06729033726615935 0 0.028090888699806939 -0.065512937944186042 0 0.029573755476150418 -0.064957922270196186 0 0.028693665491957152 -0.06729033726615935 0 0.028090888699806939 -0.065512937944186042 0 0.026502694264489195 -0.067587300768055483 0 0.028090888699806939 -0.065512937944186042 0 0.026779705702993605 -0.065304807059343092 0 0.03091334207514719 -0.070719811791140674 0 0.030379456342335676 -0.069118396219004202 0 0.02755915535282118 -0.061783325441542213 0 0.029384500961138111 -0.062126303845846879 0 0.028942469232754404 -0.060332713396390632 0 0.027990388625776758 -0.063622075993085267 0 0.02755915535282118 -0.061783325441542213 0 0.029384500961138111 -0.062126303845846879 0 0.026754724962031694 -0.063843096916366582 0 0.027990388625776758 -0.063622075993085267 0 0.02755915535282118 -0.061783325441542213 0 0.025638450817629506 -0.063678411078371369 0 0.026754724962031694 -0.063843096916366582 0 0.026135337209373624 -0.062865051387286944 0 0.026754724962031694 -0.063843096916366582 0 0.02755915535282118 -0.061783325441542213 0 0.026135337209373624 -0.062865051387286944 0 0.025638450817629506 -0.063678411078371369 0 0.025373937125542617 -0.062897684832062581 0 0.024813168307333013 -0.063141900517626526 0 0.025373937125542617 -0.062897684832062581 0 0.024891656467709904 -0.062445324312576114 0 0.024813168307333013 -0.063141900517626526 0 0.025638450817629506 -0.063678411078371369 0 0.026135337209373624 -0.062865051387286944 0 0.025373937125542617 -0.062897684832062581 0 0.026135337209373624 -0.062865051387286944 0 0.025373937125542617 -0.062897684832062581 0 0.025451064990946418 -0.062208437845609782 0 0.026135337209373624 -0.062865051387286944 0 0.025451064990946418 -0.062208437845609782 0 0.026225397583481507 -0.061671135575113972 0 0.025373937125542617 -0.062897684832062581 0 0.025451064990946418 -0.062208437845609782 0 0.024891656467709904 -0.062445324312576114 0 0.025451064990946418 -0.062208437845609782 0 0.026225397583481507 -0.061671135575113972 0 0.025362948450094711 -0.061081147450447369 0 0.025451064990946418 -0.062208437845609782 0 0.025362948450094711 -0.061081147450447369 0 0.024826840813071141 -0.061915610455939019 0 0.025451064990946418 -0.062208437845609782 0 0.024826840813071141 -0.061915610455939019 0 0.024891656467709904 -0.062445324312576114 0 0.02755915535282118 -0.061783325441542213 0 0.026135337209373624 -0.062865051387286944 0 0.026225397583481507 -0.061671135575113972 0 0.02755915535282118 -0.061783325441542213 0 0.026225397583481507 -0.061671135575113972 0 0.026694829081781158 -0.060446351401692064 0 0.026225397583481507 -0.061671135575113972 0 0.026694829081781158 -0.060446351401692064 0 0.025362948450094711 -0.061081147450447369 0 0.026694829081781158 -0.060446351401692064 0 0.027270388069822873 -0.059158277186404075 0 0.027950193480309905 -0.060101021463479072 0 0.028129999828357424 -0.059814144685280977 0 0.028975333917424306 -0.058788415387149795 0 0.025362948450094711 -0.061081147450447369 0 0.025492217984700773 -0.059538704978205459 0 0.024615333191717787 -0.060565640099178565 0 0.026694829081781158 -0.060446351401692064 0 0.025362948450094711 -0.061081147450447369 0 0.025276672266945601 -0.058868308671589278 0 0.026694829081781158 -0.060446351401692064 0 0.025276672266945601 -0.058868308671589278 0 0.027270388069822873 -0.059158277186404075 0 0.025276672266945601 -0.058868308671589278 0 0.027270388069822873 -0.059158277186404075 0 0.026936413387594775 -0.057859275595594062 0 0.027270388069822873 -0.059158277186404075 0 0.028746816498339472 -0.059061497114451092 0 0.027950193480309905 -0.060101021463479072 0 0.027270388069822873 -0.059158277186404075 0 0.028746816498339472 -0.059061497114451092 0 0.026936413387594775 -0.057859275595594062 0 0.02755915535282118 -0.061783325441542213 0 0.026694829081781158 -0.060446351401692064 0 0.027950193480309905 -0.060101021463479072 0 0.02755915535282118 -0.061783325441542213 0 0.027950193480309905 -0.060101021463479072 0 0.028942469232754404 -0.060332713396390632 0 0.028746816498339472 -0.059061497114451092 0 0.027950193480309905 -0.060101021463479072 0 0.028942469232754404 -0.060332713396390632 0 0.029577962075887046 -0.059262012948853172 0 0.028746816498339472 -0.059061497114451092 0 0.028942469232754404 -0.060332713396390632 0 0.029577962075887046 -0.059262012948853172 0 0.028746816498339472 -0.059061497114451092 0 0.029243258338021959 -0.05872046479410678 0 0.028746816498339472 -0.059061497114451092 0 0.029243258338021959 -0.05872046479410678 0 0.028957674585560724 -0.058598227665438138 0 0.028746816498339472 -0.059061497114451092 0 0.028957674585560724 -0.058598227665438138 0 0.028873843097677262 -0.058569442551143665 0 0.029501109519705162 -0.05735735150949163 0 0.0296709159903965 -0.056877842232290574 0 0.028957674585560724 -0.058598227665438138 0 0.028948517552304719 -0.058450573902218583 0 0.028873843097677262 -0.058569442551143665 0 0.028957674585560724 -0.058598227665438138 0 0.028948517552304719 -0.058450573902218583 0 0.029051091799395894 -0.058279824904267974 0 0.029243258338021959 -0.05872046479410678 0 0.028957674585560724 -0.058598227665438138 0 0.029051091799395894 -0.058279824904267974 0 0.029243258338021959 -0.05872046479410678 0 0.029226739545425991 -0.058259046552730315 0 0.029240705924648034 -0.058364549302955052 0 0.029226739545425991 -0.058259046552730315 0 0.029240705924648034 -0.058364549302955052 0 0.02932908998529838 -0.058251068025651012 0 0.028948517552304719 -0.058450573902218583 0 0.029051091799395894 -0.058279824904267974 0 0.028983021349199369 -0.058319081689218844 0 0.029255757741213795 -0.058491150908241335 0 0.029187758626749369 -0.058313604563752904 0 0.029718057288364415 -0.058497737952634292 0 0.029243258338021959 -0.05872046479410678 0 0.029240705924648034 -0.058364549302955052 0 0.029477357321671796 -0.058298601726608931 0 0.029240705924648034 -0.058364549302955052 0 0.02932908998529838 -0.058251068025651012 0 0.029551600640709951 -0.058433555049417031 0 0.029397318511078772 -0.058403583504490576 0 0.029477357321671796 -0.058298601726608931 0 0.029398137793973884 -0.058183827671627941 0 0.02932908998529838 -0.058251068025651012 0 0.029398137793973884 -0.058183827671627941 0 0.02932908998529838 -0.058251068025651012 0 0.029303597419703294 -0.058156528123322213 0 0.029187758626749369 -0.058313604563752904 0 0.029131107345807629 -0.058118475778893293 0 0.029226739545425991 -0.058259046552730315 0 0.029303597419703294 -0.058156528123322213 0 0.029245812301521866 -0.058111042732956045 0 0.029226739545425991 -0.058259046552730315 0 0.02932908998529838 -0.058251068025651012 0 0.029303597419703294 -0.058156528123322213 0 0.029051091799395894 -0.058279824904267974 0 0.029007684700100435 -0.058216125777985676 0 0.028983021349199369 -0.058319081689218844 0 0.029303597419703294 -0.058156528123322213 0 0.029382976745019367 -0.058081959119184796 0 0.029245812301521866 -0.058111042732956045 0 0.029398137793973884 -0.058183827671627941 0 0.029303597419703294 -0.058156528123322213 0 0.029382976745019367 -0.058081959119184796 0 0.029456861911752806 -0.058115416104952515 0 0.029398137793973884 -0.058183827671627941 0 0.029382976745019367 -0.058081959119184796 0 0.029065925740072891 -0.058050501119805448 0 0.029013540980083349 -0.058129492964511732 0 0.02900303535531339 -0.058089658242751314 0 0.029065925740072891 -0.058050501119805448 0 0.02900303535531339 -0.058089658242751314 0 0.02907088567201363 -0.058055910386958266 0 0.02900303535531339 -0.058089658242751314 0 0.02907088567201363 -0.058055910386958266 0 0.029063267964868345 -0.058064430280266588 0 0.029065925740072891 -0.058050501119805448 0 0.02907088567201363 -0.058055910386958266 0 0.029099344544198505 -0.058004059912506546 0 0.029065925740072891 -0.058050501119805448 0 0.029072474443025239 -0.058076988401549005 0 0.029013540980083349 -0.058129492964511732 0 0.029013540980083349 -0.058129492964511732 0 0.028975103936967957 -0.058216522004382334 0 0.028968644832201299 -0.058179726897563636 0 0.029051091799395894 -0.058279824904267974 0 0.029072474443025239 -0.058076988401549005 0 0.029007684700100435 -0.058216125777985676 0 0.029013540980083349 -0.058129492964511732 0 0.029007684700100435 -0.058216125777985676 0 0.028975103936967957 -0.058216522004382334 0 0.029072474443025239 -0.058076988401549005 0 0.029013540980083349 -0.058129492964511732 0 0.029007684700100435 -0.058216125777985676 0 0.029007684700100435 -0.058216125777985676 0 0.028983021349199369 -0.058319081689218844 0 0.028952356754733344 -0.058303023353827373 0 0.029007684700100435 -0.058216125777985676 0 0.028975103936967957 -0.058216522004382334 0 0.028952356754733344 -0.058303023353827373 0 0.028975103936967957 -0.058216522004382334 0 0.028933039705091926 -0.058269431267819208 0 0.028952356754733344 -0.058303023353827373 0 0.028933039705091926 -0.058269431267819208 0 0.028925170347459981 -0.058228228408039803 0 0.02889986958031979 -0.058284829000987894 0 0.028925170347459981 -0.058228228408039803 0 0.028898819682257142 -0.058204087566927992 0 0.02889986958031979 -0.058284829000987894 0 0.028925170347459981 -0.058228228408039803 0 0.028968644832201299 -0.058179726897563636 0 0.028935288456387567 -0.058174393619355884 0 0.028933039705091926 -0.058269431267819208 0 0.028925170347459981 -0.058228228408039803 0 0.028968644832201299 -0.058179726897563636 0 0.028975103936967957 -0.058216522004382334 0 0.028933039705091926 -0.058269431267819208 0 0.028968644832201299 -0.058179726897563636 0 0.029013540980083349 -0.058129492964511732 0 0.028968644832201299 -0.058179726897563636 0 0.02900303535531339 -0.058089658242751314 0 0.02900303535531339 -0.058089658242751314 0 0.029016866953504965 -0.058017089228073276 0 0.029072899004952125 -0.058039293174946903 0 0.02900303535531339 -0.058089658242751314 0 0.028935288456387567 -0.058174393619355884 0 0.028905022917479404 -0.058195728741447642 0 0.032948478821429421 -0.057458591893503982 0 0.033048645480667146 -0.05738516675692075 0 0.028968644832201299 -0.058179726897563636 0 0.02900303535531339 -0.058089658242751314 0 0.028935288456387567 -0.058174393619355884 0 0.033048645480667146 -0.05738516675692075 0 0.035430178168301123 -0.056111914529506667 0 0.028925170347459981 -0.058228228408039803 0 0.028935288456387567 -0.058174393619355884 0 0.028898819682257142 -0.058204087566927992 0 0.033031460668645186 -0.057399619670153591 0 0.033048645480667146 -0.05738516675692075 0 0.033048645480667146 -0.05738516675692075 0 0.032028143308326866 -0.056467181147026736 0 0.032624889732352086 -0.055042255151852348 0 0.032650716755437473 -0.058687646001423371 0 0.030814586383915068 -0.057416954305283957 0 0.028894757496105837 -0.05836816161599602 0 0.028843531123469358 -0.058352884089744261 0 0.028873843097677262 -0.058569442551143665 0 0.028898819682257142 -0.058204087566927992 0 0.02889986958031979 -0.058284829000987894 0 0.028843531123469358 -0.058352884089744261 0 0.032028143308326866 -0.056467181147026736 0 0.035430178168301123 -0.056111914529506667 0 0.02889986958031979 -0.058284829000987894 0 0.028894757496105837 -0.05836816161599602 0 0.028843531123469358 -0.058352884089744261 0 0.028933039705091926 -0.058269431267819208 0 0.02889986958031979 -0.058284829000987894 0 0.028894757496105837 -0.05836816161599602 0 0.028983021349199369 -0.058319081689218844 0 0.028952356754733344 -0.058303023353827373 0 0.02892889381365615 -0.058404995295741488 0 0.028933039705091926 -0.058269431267819208 0 0.028894757496105837 -0.05836816161599602 0 0.028952356754733344 -0.058303023353827373 0 0.028894757496105837 -0.05836816161599602 0 0.028952356754733344 -0.058303023353827373 0 0.02892889381365615 -0.058404995295741488 0 0.028894757496105837 -0.05836816161599602 0 0.02892889381365615 -0.058404995295741488 0 0.028873843097677262 -0.058569442551143665 0 0.028948517552304719 -0.058450573902218583 0 0.02892889381365615 -0.058404995295741488 0 0.028873843097677262 -0.058569442551143665 0 0.028948517552304719 -0.058450573902218583 0 0.028983021349199369 -0.058319081689218844 0 0.02892889381365615 -0.058404995295741488 0 0.025492217984700773 -0.059538704978205459 0 0.025541902921078916 -0.057940042657202553 0 0.024912686706746408 -0.058852505530185908 0 0.028975333917424306 -0.058788415387149795 0 0.032028143308326866 -0.056467181147026736 0 0.032028143308326866 -0.056467181147026736 0 0.0296709159903965 -0.056877842232290574 0 0.025276672266945601 -0.058868308671589278 0 0.025274485770463689 -0.056709529452071472 0 0.026936413387594775 -0.057859275595594062 0 0.043548816151091796 -0.056320040448572611 0 0.037820394591439155 -0.055043112909471371 0 0.024912686706746408 -0.058852505530185908 0 0.024145623615452003 -0.058838804602846358 0 0.024481060956867251 -0.059593554396926915 0 0.024912686706746408 -0.058852505530185908 0 0.024145623615452003 -0.058838804602846358 0 0.025015187967543744 -0.058134931549451686 0 0.05995651324896091 -0.050906723050851865 0 0.058937405244270741 -0.050623512005678113 0 0.059010752440265032 -0.052163753887736516 0 0.05995651324896091 -0.050906723050851865 0 0.059542231552779989 -0.049813125448701132 0 0.058937405244270741 -0.050623512005678113 0 0.05995651324896091 -0.050906723050851865 0 0.059542231552779989 -0.049813125448701132 0 0.060144022722321923 -0.04965075613091096 0 0.059542231552779989 -0.049813125448701132 0 0.058990984291456681 -0.049190394185926196 0 0.058937405244270741 -0.050623512005678113 0 0.060144022722321923 -0.04965075613091096 0 0.059656578511301253 -0.049123501257665257 0 0.060450739279821135 -0.048934427022679951 0 0.059542231552779989 -0.049813125448701132 0 0.060144022722321923 -0.04965075613091096 0 0.059656578511301253 -0.049123501257665257 0 0.059542231552779989 -0.049813125448701132 0 0.059656578511301253 -0.049123501257665257 0 0.058990984291456681 -0.049190394185926196 0 0.05995651324896091 -0.050906723050851865 0 0.060144022722321923 -0.04965075613091096 0 0.060842500126637604 -0.049718131865260549 0 0.024145623615452003 -0.058838804602846358 0 0.024878005205612303 -0.057870660743624541 0 0.025015187967543744 -0.058134931549451686 0 0.024875351258838423 -0.057866192999883465 0 0.025015187967543744 -0.058134931549451686 0 0.025074940136471022 -0.057606295795181624 0 0.025541902921078916 -0.057940042657202553 0 0.024912686706746408 -0.058852505530185908 0 0.025015187967543744 -0.058134931549451686 0 0.025541902921078916 -0.057940042657202553 0 0.025015187967543744 -0.058134931549451686 0 0.025074940136471022 -0.057606295795181624 0 0.037820394591439155 -0.055043112909471371 0 0.037647327484086404 -0.05498466704313397 0 0.060144022722321923 -0.04965075613091096 0 0.060842500126637604 -0.049718131865260549 0 0.060450739279821135 -0.048934427022679951 0 0.037820394591439155 -0.055043112909471371 0 0.040767213317998 -0.0555267257820206 0 0.035430178168301123 -0.056111914529506667 0 0.040767213317998 -0.0555267257820206 0 0.0407601434346299 -0.057377050493410402 0 0.042257449781534388 -0.05541312577876345 0 0.038149333738310295 -0.052569151476375663 0 0.037820394591439155 -0.055043112909471371 0 0.035430178168301123 -0.056111914529506667 0 0.029016866953504965 -0.058017089228073276 0 0.029076476809696907 -0.057961047387825565 0 0.02907735526741858 -0.058008387642478461 0 0.029076476809696907 -0.057961047387825565 0 0.02907735526741858 -0.058008387642478461 0 0.029122123704778576 -0.05799980195792543 0 0.029016866953504965 -0.058017089228073276 0 0.02907735526741858 -0.058008387642478461 0 0.029072899004952125 -0.058039293174946903 0 0.029103789108783785 -0.058041802108828214 0 0.029122123704778576 -0.05799980195792543 0 0.029129478404677975 -0.058101785356956731 0 0.02900303535531339 -0.058089658242751314 0 0.029072899004952125 -0.058039293174946903 0 0.029063267964868345 -0.058064430280266588 0 0.02907735526741858 -0.058008387642478461 0 0.029072899004952125 -0.058039293174946903 0 0.029103789108783785 -0.058041802108828214 0 0.029072899004952125 -0.058039293174946903 0 0.029063267964868345 -0.058064430280266588 0 0.029098716733357038 -0.05805770689117995 0 0.029072899004952125 -0.058039293174946903 0 0.029103789108783785 -0.058041802108828214 0 0.029098716733357038 -0.05805770689117995 0 0.02907735526741858 -0.058008387642478461 0 0.029103789108783785 -0.058041802108828214 0 0.029122123704778576 -0.05799980195792543 0 0.040767213317998 -0.0555267257820206 0 0.043500019190347586 -0.053587617459070376 0 0.040767213317998 -0.0555267257820206 0 0.045838207064092515 -0.056380239875054042 0 0.059656578511301253 -0.049123501257665257 0 0.060450739279821135 -0.048934427022679951 0 0.059115765883563806 -0.048050637183216456 0 0.059264071803328454 -0.048223853084800206 0 0.059115765883563806 -0.048050637183216456 0 0.059071370593460348 -0.047848732929541692 0 0.059656578511301253 -0.049123501257665257 0 0.059115765883563806 -0.048050637183216456 0 0.058990984291456681 -0.049190394185926196 0 0.059071370593460348 -0.047848732929541692 0 0.058770682542440313 -0.047793221061053777 0 0.058722998631178538 -0.047892019212649323 0 0.059071370593460348 -0.047848732929541692 0 0.058770682542440313 -0.047793221061053777 0 0.058852308940874863 -0.047831470993144158 0 0.059115765883563806 -0.048050637183216456 0 0.059071370593460348 -0.047848732929541692 0 0.058852308940874863 -0.047831470993144158 0 0.029129478404677975 -0.058101785356956731 0 0.029122187428121671 -0.058026793303230628 0 0.029111668294142353 -0.057883003804885889 0 0.029122187428121671 -0.058026793303230628 0 0.02907088567201363 -0.058055910386958266 0 0.029099344544198505 -0.058004059912506546 0 0.029122187428121671 -0.058026793303230628 0 0.02907088567201363 -0.058055910386958266 0 0.029098716733357038 -0.05805770689117995 0 0.02907088567201363 -0.058055910386958266 0 0.029063267964868345 -0.058064430280266588 0 0.029098716733357038 -0.05805770689117995 0 0.029103789108783785 -0.058041802108828214 0 0.029129478404677975 -0.058101785356956731 0 0.029098716733357038 -0.05805770689117995 0 0.029129478404677975 -0.058101785356956731 0 0.029122187428121671 -0.058026793303230628 0 0.029098716733357038 -0.05805770689117995 0 0.059116145611043926 -0.047602550719298621 0 0.058799447991081576 -0.047805847789997698 0 0.058386178337654797 -0.04767503027625853 0 0.059116145611043926 -0.047602550719298621 0 0.059209063736506334 -0.047816434146242183 0 0.058799447991081576 -0.047805847789997698 0 0.059209063736506334 -0.047816434146242183 0 0.058799447991081576 -0.047805847789997698 0 0.058916245019981064 -0.047917949465696615 0 0.058799447991081576 -0.047805847789997698 0 0.058770682542440313 -0.047793221061053777 0 0.058916245019981064 -0.047917949465696615 0 0.058770682542440313 -0.047793221061053777 0 0.058852308940874863 -0.047831470993144158 0 0.058386178337654797 -0.04767503027625853 0 0.058799447991081576 -0.047805847789997698 0 0.058770682542440313 -0.047793221061053777 0 0.058386178337654797 -0.04767503027625853 0 0.058386178337654797 -0.04767503027625853 0 0.058506888506989339 -0.048574884926606839 0 0.055723903166995756 -0.050115311518336696 0 0.058852308940874863 -0.047831470993144158 0 0.058386178337654797 -0.04767503027625853 0 0.058506888506989339 -0.048574884926606839 0 0.059115765883563806 -0.048050637183216456 0 0.058852308940874863 -0.047831470993144158 0 0.058506888506989339 -0.048574884926606839 0 0.059115765883563806 -0.048050637183216456 0 0.058506888506989339 -0.048574884926606839 0 0.058990984291456681 -0.049190394185926196 0 0.058633106636988036 -0.04904018273913608 0 0.058717656267546027 -0.049425725509955637 0 0.058386178337654797 -0.04767503027625853 0 0.058874318352421184 -0.047003930646762365 0 0.059348735725226302 -0.047217962606051989 0 0.059116145611043926 -0.047602550719298621 0 0.058386178337654797 -0.04767503027625853 0 0.059348735725226302 -0.047217962606051989 0 0.058874318352421184 -0.047003930646762365 0 0.059506649145592498 -0.046841518816265339 0 0.059348735725226302 -0.047217962606051989 0 0.055723903166995756 -0.050115311518336696 0 0.057950099400584092 -0.050417363280431872 0 0.056489795531905397 -0.053002715088390391 0 0.058874318352421184 -0.047003930646762365 0 0.059916697514109558 -0.046005397808302942 0 0.059506649145592498 -0.046841518816265339 0 0.053358914337711928 -0.052516924211843181 0 0.052509116421992956 -0.054049502154000235 0 0.058990984291456681 -0.049190394185926196 0 0.057950099400584092 -0.050417363280431872 0 0.059677885918493601 -0.05272730768833736 0 0.058506888506989339 -0.048574884926606839 0 0.058990984291456681 -0.049190394185926196 0 0.057950099400584092 -0.050417363280431872 0 0.058506888506989339 -0.048574884926606839 0 0.055723903166995756 -0.050115311518336696 0 0.057950099400584092 -0.050417363280431872 0 0.059677885918493601 -0.05272730768833736 0 0.057780766448898374 -0.054958314143567256 0 0.056489795531905397 -0.053002715088390391 0 0.057950099400584092 -0.050417363280431872 0 0.059677885918493601 -0.05272730768833736 0 0.056489795531905397 -0.053002715088390391 0 0.052509116421992956 -0.054049502154000235 0 0.049600394962275571 -0.058334611897835432 0 0.059677885918493601 -0.05272730768833736 0 0.057780766448898374 -0.054958314143567256 0 0.060173994058797226 -0.057104940703836135 0 0.057780766448898374 -0.054958314143567256 0 0.056489795531905397 -0.053002715088390391 0 0.055514574306531277 -0.055305966781799179 0 0.055723903166995756 -0.050115311518336696 0 0.056489795531905397 -0.053002715088390391 0 0.053138162911817791 -0.054459447537734157 0 0.058717656267546027 -0.049425725509955637 0 0.059481387116030501 -0.050068553347512076 0 0.058874318352421184 -0.047003930646762365 0 0.059807598757638879 -0.044082695035239747 0 0.059916697514109558 -0.046005397808302942 0 0.056489795531905397 -0.053002715088390391 0 0.053138162911817791 -0.054459447537734157 0 0.055514574306531277 -0.055305966781799179 0 0.053138162911817791 -0.054459447537734157 0 0.055514574306531277 -0.055305966781799179 0 0.054005040132782824 -0.057235219527266082 0 0.055514574306531277 -0.055305966781799179 0 0.056372824913868469 -0.057389742868176608 0 0.054005040132782824 -0.057235219527266082 0 0.056372824913868469 -0.057389742868176608 0 0.054005040132782824 -0.057235219527266082 0 0.05413459407952928 -0.059516121857872924 0 0.054005040132782824 -0.057235219527266082 0 0.05413459407952928 -0.059516121857872924 0 0.050780830207606577 -0.059557621220745968 0 0.056372824913868469 -0.057389742868176608 0 0.05413459407952928 -0.059516121857872924 0 0.056819612784820027 -0.061571115438255553 0 0.05413459407952928 -0.059516121857872924 0 0.053021383948338795 -0.06234478348328578 0 0.050780830207606577 -0.059557621220745968 0 0.05413459407952928 -0.059516121857872924 0 0.053021383948338795 -0.06234478348328578 0 0.056819612784820027 -0.061571115438255553 0 0.052028606186771027 -0.059991646046470899 0 0.049600394962275571 -0.058334611897835432 0 0.055129006212609848 -0.062993587551254893 0 0.057413315220408059 -0.059956393253764347 0 0.057790297227297512 -0.064626897808987074 0 0.056372824913868469 -0.057389742868176608 0 0.056819612784820027 -0.061571115438255553 0 0.060173994058797226 -0.057104940703836135 0 0.057780766448898374 -0.054958314143567256 0 0.056372824913868469 -0.057389742868176608 0 0.060173994058797226 -0.057104940703836135 0 0.057780766448898374 -0.054958314143567256 0 0.055514574306531277 -0.055305966781799179 0 0.056372824913868469 -0.057389742868176608 0 0.043548816151091796 -0.056320040448572611 0 0.049600394962275571 -0.058334611897835432 0 0.024145623615452003 -0.058838804602846358 0 0.023449666805047016 -0.059769934334646169 0 0.024481060956867251 -0.059593554396926915 0 0.023449666805047016 -0.059769934334646169 0 0.024481060956867251 -0.059593554396926915 0 0.024615333191717787 -0.060565640099178565 0 0.025492217984700773 -0.059538704978205459 0 0.024912686706746408 -0.058852505530185908 0 0.024481060956867251 -0.059593554396926915 0 0.025492217984700773 -0.059538704978205459 0 0.024481060956867251 -0.059593554396926915 0 0.024615333191717787 -0.060565640099178565 0 0.023449666805047016 -0.059769934334646169 0 0.024115392185925153 -0.061078502916594911 0 0.023392743355949985 -0.061383557542739046 0 0.023449666805047016 -0.059769934334646169 0 0.024615333191717787 -0.060565640099178565 0 0.024115392185925153 -0.061078502916594911 0 0.049600394962275571 -0.058334611897835432 0 0.044997896460781783 -0.06302416626501052 0 0.023392743355949985 -0.061383557542739046 0 0.024270305579476167 -0.062100479892518462 0 0.024602165226161168 -0.063806009063623922 0 0.024115392185925153 -0.061078502916594911 0 0.023392743355949985 -0.061383557542739046 0 0.024270305579476167 -0.062100479892518462 0 0.024615333191717787 -0.060565640099178565 0 0.024115392185925153 -0.061078502916594911 0 0.024826840813071141 -0.061915610455939019 0 0.025362948450094711 -0.061081147450447369 0 0.024615333191717787 -0.060565640099178565 0 0.024826840813071141 -0.061915610455939019 0 0.024270305579476167 -0.062100479892518462 0 0.024826840813071141 -0.061915610455939019 0 0.024891656467709904 -0.062445324312576114 0 0.024115392185925153 -0.061078502916594911 0 0.024270305579476167 -0.062100479892518462 0 0.024826840813071141 -0.061915610455939019 0 0.024270305579476167 -0.062100479892518462 0 0.024891656467709904 -0.062445324312576114 0 0.024813168307333013 -0.063141900517626526 0 0.025595115690478506 -0.063782242890331714 0 0.026629860302188828 -0.064896773613309797 0 0.024270305579476167 -0.062100479892518462 0 0.026866730604918534 -0.064796376735349062 0 0.028126777979150818 -0.064692046633598843 0 0.02516229352689274 -0.065417145722672126 0 0.026866730604918534 -0.064796376735349062 0 0.024602165226161168 -0.063806009063623922 0 0.023641225704136421 -0.065430031322106008 0 0.023392743355949985 -0.061383557542739046 0 0.024602165226161168 -0.063806009063623922 0 0.024270305579476167 -0.062100479892518462 0 0.026866730604918534 -0.064796376735349062 0 0.024602165226161168 -0.063806009063623922 0 0.043666894631527009 -0.067808171696323985 0 0.044997896460781783 -0.06302416626501052 0 0.023641225704136421 -0.065430031322106008 0 0.02516229352689274 -0.065417145722672126 0 0.024602165226161168 -0.063806009063623922 0 0.058191485478824787 -0.069568455802579768 0 0.057790297227297512 -0.064626897808987074 0 0.055688089843526814 -0.067167403145810642 0 0.055352827317279932 -0.06950149650860786 0 0.058191485478824787 -0.069568455802579768 0 0.055688089843526814 -0.067167403145810642 0 0.055352827317279932 -0.06950149650860786 0 0.055688089843526814 -0.067167403145810642 0 0.053665779201876714 -0.068087818614561452 0 0.055688089843526814 -0.067167403145810642 0 0.053665779201876714 -0.068087818614561452 0 0.052897473472022581 -0.065935709491504693 0 0.052372794374447147 -0.069820315976750327 0 0.053665779201876714 -0.068087818614561452 0 0.051797063728012842 -0.067670998756761289 0 0.053665779201876714 -0.068087818614561452 0 0.052897473472022581 -0.065935709491504693 0 0.051797063728012842 -0.067670998756761289 0 0.055688089843526814 -0.067167403145810642 0 0.052897473472022581 -0.065935709491504693 0 0.055355597773754088 -0.065179657176239358 0 0.053021383948338795 -0.06234478348328578 0 0.056819612784820027 -0.061571115438255553 0 0.052897473472022581 -0.065935709491504693 0 0.055129006212609848 -0.062993587551254893 0 0.052897473472022581 -0.065935709491504693 0 0.055355597773754088 -0.065179657176239358 0 0.052028606186771027 -0.059991646046470899 0 0.051860904076335944 -0.061582624003831563 0 0.055129006212609848 -0.062993587551254893 0 0.057790297227297512 -0.064626897808987074 0 0.055355597773754088 -0.065179657176239358 0 0.057790297227297512 -0.064626897808987074 0 0.055688089843526814 -0.067167403145810642 0 0.055355597773754088 -0.065179657176239358 0 0.067716336081871512 -0.040198409459682713 0 0.069944841141641734 -0.039312144976792758 0 0.069719994662140433 -0.041392130772527326 0 0.053021383948338795 -0.06234478348328578 0 0.052897473472022581 -0.065935709491504693 0 0.048882422186169956 -0.064658136122015708 0 0.066010819468563589 -0.062044336854752413 0 0.066638515159856762 -0.051436204217223148 0 0.050619782157369814 -0.0694421617144617 0 0.048882422186169956 -0.064658136122015708 0 0.051797063728012842 -0.067670998756761289 0 0.052897473472022581 -0.065935709491504693 0 0.048882422186169956 -0.064658136122015708 0 0.051797063728012842 -0.067670998756761289 0 0.050619782157369814 -0.0694421617144617 0 0.052372794374447147 -0.069820315976750327 0 0.051797063728012842 -0.067670998756761289 0 0.072473899013542245 -0.050696377550188104 0 0.066638515159856762 -0.051436204217223148 0 0.076465977453825995 -0.06071413902155192 0 0.076644299489583817 -0.060694617548699564 0 0.076516607728600167 -0.060370335282799954 0 0.068905044311929356 -0.037303881353601638 0 0.067716336081871512 -0.040198409459682713 0 0.069944841141641734 -0.039312144976792758 0 0.071988976656522485 -0.037151305119033001 0 0.068905044311929356 -0.037303881353601638 0 0.069944841141641734 -0.039312144976792758 0 0.071988976656522485 -0.037151305119033001 0 0.069944841141641734 -0.039312144976792758 0 0.071944007722893333 -0.039281069350998628 0 0.071988976656522485 -0.037151305119033001 0 0.071944007722893333 -0.039281069350998628 0 0.074186927976853709 -0.039913554212741113 0 0.076049618980661718 -0.048848634393535657 0 0.077062814652630998 -0.047347394111034884 0 0.071466158348975961 -0.040881084865632904 0 0.073455139400823377 -0.042700003940667919 0 0.074186927976853709 -0.039913554212741113 0 0.071944007722893333 -0.039281069350998628 0 0.071466158348975961 -0.040881084865632904 0 0.074186927976853709 -0.039913554212741113 0 0.069944841141641734 -0.039312144976792758 0 0.071466158348975961 -0.040881084865632904 0 0.069719994662140433 -0.041392130772527326 0 0.069944841141641734 -0.039312144976792758 0 0.071944007722893333 -0.039281069350998628 0 0.071466158348975961 -0.040881084865632904 0 0.069719994662140433 -0.041392130772527326 0 0.070910186303243819 -0.043118124906726937 0 0.068613364409267213 -0.043507599446946967 0 0.071466158348975961 -0.040881084865632904 0 0.069719994662140433 -0.041392130772527326 0 0.070910186303243819 -0.043118124906726937 0 0.071466158348975961 -0.040881084865632904 0 0.070910186303243819 -0.043118124906726937 0 0.073455139400823377 -0.042700003940667919 0 0.070910186303243819 -0.043118124906726937 0 0.073455139400823377 -0.042700003940667919 0 0.072908574425270448 -0.045274338842392146 0 0.070910186303243819 -0.043118124906726937 0 0.070282221115792659 -0.044889549777064941 0 0.068613364409267213 -0.043507599446946967 0 0.070910186303243819 -0.043118124906726937 0 0.070282221115792659 -0.044889549777064941 0 0.072908574425270448 -0.045274338842392146 0 0.066464384490167977 -0.039805105996740517 0 0.064423693281534744 -0.043172526885225208 0 0.065941841379171751 -0.044767662517153792 0 0.066464384490167977 -0.039805105996740517 0 0.062718230922135548 -0.041814487092923361 0 0.064423693281534744 -0.043172526885225208 0 0.064072258518990108 -0.032764320086274487 0 0.066464384490167977 -0.039805105996740517 0 0.061989794953250514 -0.038206584224445027 0 0.067716336081871512 -0.040198409459682713 0 0.069719994662140433 -0.041392130772527326 0 0.068613364409267213 -0.043507599446946967 0 0.066638515159856762 -0.051436204217223148 0 0.066283375415921747 -0.044068504261618027 0 0.066638515159856762 -0.051436204217223148 0 0.061744261489822823 -0.050647222085195905 0 0.053021383948338795 -0.06234478348328578 0 0.048882422186169956 -0.064658136122015708 0 0.050780830207606577 -0.059557621220745968 0 0.053138162911817791 -0.054459447537734157 0 0.054005040132782824 -0.057235219527266082 0 0.050780830207606577 -0.059557621220745968 0 0.059481387116030501 -0.050068553347512076 0 0.061744261489822823 -0.050647222085195905 0 0.066464384490167977 -0.039805105996740517 0 0.061989794953250514 -0.038206584224445027 0 0.062718230922135548 -0.041814487092923361 0 0.059807598757638879 -0.044082695035239747 0 0.061989794953250514 -0.038206584224445027 0 0.062718230922135548 -0.041814487092923361 0 0.059807598757638879 -0.044082695035239747 0 0.062718230922135548 -0.041814487092923361 0 0.062950243540257064 -0.04472688661923882 0 0.059807598757638879 -0.044082695035239747 0 0.062950243540257064 -0.04472688661923882 0 0.059916697514109558 -0.046005397808302942 0 0.062950243540257064 -0.04472688661923882 0 0.059916697514109558 -0.046005397808302942 0 0.067729291043934173 -0.048565181873054725 0 0.062718230922135548 -0.041814487092923361 0 0.062950243540257064 -0.04472688661923882 0 0.064423693281534744 -0.043172526885225208 0 0.066464384490167977 -0.039805105996740517 0 0.065941841379171751 -0.044767662517153792 0 0.06907869100906705 -0.047257833192460699 0 0.066283375415921747 -0.044068504261618027 0 0.06723112506639739 -0.045383566784394133 0 0.062950243540257064 -0.04472688661923882 0 0.065941841379171751 -0.044767662517153792 0 0.067729291043934173 -0.048565181873054725 0 0.062950243540257064 -0.04472688661923882 0 0.064423693281534744 -0.043172526885225208 0 0.065941841379171751 -0.044767662517153792 0 0.065941841379171751 -0.044767662517153792 0 0.067729291043934173 -0.048565181873054725 0 0.06907869100906705 -0.047257833192460699 0 0.060237160970942172 -0.046781710484373747 0 0.060027471461057753 -0.046721268245101977 0 0.060116809224590541 -0.047036835678944663 0 0.059823588346477892 -0.046919334245249009 0 0.060027471461057753 -0.046721268245101977 0 0.060116809224590541 -0.047036835678944663 0 0.060237160970942172 -0.046781710484373747 0 0.060116809224590541 -0.047036835678944663 0 0.060411896167741119 -0.047038491091287098 0 0.062297962703079808 -0.045924430126271384 0 0.0643216230309748 -0.046125998728961663 0 0.059916697514109558 -0.046005397808302942 0 0.060237160970942172 -0.046781710484373747 0 0.060027471461057753 -0.046721268245101977 0 0.059916697514109558 -0.046005397808302942 0 0.059823588346477892 -0.046919334245249009 0 0.059506649145592498 -0.046841518816265339 0 0.059916697514109558 -0.046005397808302942 0 0.059823588346477892 -0.046919334245249009 0 0.060027471461057753 -0.046721268245101977 0 0.059823588346477892 -0.046919334245249009 0 0.059506649145592498 -0.046841518816265339 0 0.059348735725226302 -0.047217962606051989 0 0.059823588346477892 -0.046919334245249009 0 0.059348735725226302 -0.047217962606051989 0 0.059639409382625942 -0.047423704973493797 0 0.059823588346477892 -0.046919334245249009 0 0.059639409382625942 -0.047423704973493797 0 0.060116809224590541 -0.047036835678944663 0 0.059116145611043926 -0.047602550719298621 0 0.059348735725226302 -0.047217962606051989 0 0.059639409382625942 -0.047423704973493797 0 0.060116809224590541 -0.047036835678944663 0 0.0599991546716157 -0.047465440170880717 0 0.060314992757159368 -0.047311663366026137 0 0.059639409382625942 -0.047423704973493797 0 0.060116809224590541 -0.047036835678944663 0 0.0599991546716157 -0.047465440170880717 0 0.0599991546716157 -0.047465440170880717 0 0.059714879702828925 -0.047752290816476008 0 0.060203049996136987 -0.047742789895852143 0 0.0599991546716157 -0.047465440170880717 0 0.060314992757159368 -0.047311663366026137 0 0.060203049996136987 -0.047742789895852143 0 0.059209063736506334 -0.047816434146242183 0 0.059639409382625942 -0.047423704973493797 0 0.059714879702828925 -0.047752290816476008 0 0.059639409382625942 -0.047423704973493797 0 0.0599991546716157 -0.047465440170880717 0 0.059714879702828925 -0.047752290816476008 0 0.059116145611043926 -0.047602550719298621 0 0.059209063736506334 -0.047816434146242183 0 0.059639409382625942 -0.047423704973493797 0 0.06058795804712027 -0.047531320441516256 0 0.061002770965631406 -0.04738904373357742 0 0.060840510925004983 -0.047868619571233062 0 0.06058795804712027 -0.047531320441516256 0 0.060615144886967433 -0.0472117179356377 0 0.061002770965631406 -0.04738904373357742 0 0.06058795804712027 -0.047531320441516256 0 0.060314992757159368 -0.047311663366026137 0 0.060203049996136987 -0.047742789895852143 0 0.06058795804712027 -0.047531320441516256 0 0.060314992757159368 -0.047311663366026137 0 0.060615144886967433 -0.0472117179356377 0 0.060411896167741119 -0.047038491091287098 0 0.060615144886967433 -0.0472117179356377 0 0.060804637544090503 -0.046937254510005536 0 0.060314992757159368 -0.047311663366026137 0 0.060411896167741119 -0.047038491091287098 0 0.060615144886967433 -0.0472117179356377 0 0.060116809224590541 -0.047036835678944663 0 0.060314992757159368 -0.047311663366026137 0 0.060411896167741119 -0.047038491091287098 0 0.060615144886967433 -0.0472117179356377 0 0.060804637544090503 -0.046937254510005536 0 0.061002770965631406 -0.04738904373357742 0 0.072802015081541632 -0.049380447787653464 0 0.071975157608022033 -0.047007907940700297 0 0.074674989607851419 -0.048475530509919998 0 0.0643216230309748 -0.046125998728961663 0 0.067775463784172943 -0.045611157638972513 0 0.060237160970942172 -0.046781710484373747 0 0.060411896167741119 -0.047038491091287098 0 0.060804637544090503 -0.046937254510005536 0 0.072802015081541632 -0.049380447787653464 0 0.06907869100906705 -0.047257833192460699 0 0.071975157608022033 -0.047007907940700297 0 0.067729291043934173 -0.048565181873054725 0 0.072802015081541632 -0.049380447787653464 0 0.06907869100906705 -0.047257833192460699 0 0.070282221115792659 -0.044889549777064941 0 0.068613364409267213 -0.043507599446946967 0 0.06907869100906705 -0.047257833192460699 0 0.070282221115792659 -0.044889549777064941 0 0.06907869100906705 -0.047257833192460699 0 0.071975157608022033 -0.047007907940700297 0 0.070282221115792659 -0.044889549777064941 0 0.071975157608022033 -0.047007907940700297 0 0.072908574425270448 -0.045274338842392146 0 0.071975157608022033 -0.047007907940700297 0 0.072908574425270448 -0.045274338842392146 0 0.074674989607851419 -0.048475530509919998 0 0.072908574425270448 -0.045274338842392146 0 0.075930428336178635 -0.045980932882966501 0 0.075422221571636291 -0.04454430847681335 0 0.074898690655407468 -0.045003921598288373 0 0.075854905272684583 -0.045220756796498625 0 0.072908574425270448 -0.045274338842392146 0 0.075908343756026161 -0.046856888244662935 0 0.074674989607851419 -0.048475530509919998 0 0.075930428336178635 -0.045980932882966501 0 0.077526745711526124 -0.045040391373831347 0 0.077717275936431254 -0.04591832401650453 0 0.075930428336178635 -0.045980932882966501 0 0.077717275936431254 -0.04591832401650453 0 0.075422221571636291 -0.04454430847681335 0 0.076556156127504715 -0.049025560175279266 0 0.07761462336354101 -0.04942642951890782 0 0.078549027199052185 -0.048284632433851192 0 0.075854905272684583 -0.045220756796498625 0 0.076881085967339016 -0.044975728593154164 0 0.075908343756026161 -0.046856888244662935 0 0.076556156127504715 -0.049025560175279266 0 0.078549027199052185 -0.048284632433851192 0 0.076556156127504715 -0.049025560175279266 0 0.07761462336354101 -0.04942642951890782 0 0.076677354548726609 -0.050039258255387527 0 0.072802015081541632 -0.049380447787653464 0 0.074674989607851419 -0.048475530509919998 0 0.076680069777332494 -0.05018074548578353 0 0.075908343756026161 -0.046856888244662935 0 0.076556156127504715 -0.049025560175279266 0 0.074674989607851419 -0.048475530509919998 0 0.076556156127504715 -0.049025560175279266 0 0.074674989607851419 -0.048475530509919998 0 0.076680069777332494 -0.05018074548578353 0 0.067775463784172943 -0.045611157638972513 0 0.073797900253609425 -0.043704538565244345 0 0.060804637544090503 -0.046937254510005536 0 0.061422048761465182 -0.047087291752737633 0 0.061002770965631406 -0.04738904373357742 0 0.07392011883281048 -0.044321269628236758 0 0.073797900253609425 -0.043704538565244345 0 0.07761462336354101 -0.04942642951890782 0 0.076677354548726609 -0.050039258255387527 0 0.078604707159158446 -0.049839781878914267 0 0.073797900253609425 -0.043704538565244345 0 0.072552460560128207 -0.042518285936503801 0 0.081208395500403874 -0.041548729454912378 0 0.080880308269542484 -0.038033717738476115 0 0.07935144862758238 -0.039898501847300587 0 0.080880308269542484 -0.038033717738476115 0 0.078694822191619496 -0.037982238188633756 0 0.07935144862758238 -0.039898501847300587 0 0.061450609156813676 -0.047593059430980321 0 0.061002770965631406 -0.04738904373357742 0 0.0612032654849975 -0.047852267816399285 0 0.061422048761465182 -0.047087291752737633 0 0.061450609156813676 -0.047593059430980321 0 0.061002770965631406 -0.04738904373357742 0 0.076335713033420627 -0.039251902053122456 0 0.074999986777984182 -0.038096730510008933 0 0.076066289058525444 -0.040667925951006177 0 0.076335713033420627 -0.039251902053122456 0 0.076940440409907662 -0.038215580814994772 0 0.077334394606131271 -0.040028469446115766 0 0.076335713033420627 -0.039251902053122456 0 0.074999986777984182 -0.038096730510008933 0 0.076940440409907662 -0.038215580814994772 0 0.077296959554776001 -0.040853142980284744 0 0.076669276679463341 -0.041875190407185181 0 0.078694822191619496 -0.037982238188633756 0 0.077294571227642203 -0.040049964063303224 0 0.07935144862758238 -0.039898501847300587 0 0.076940440409907662 -0.038215580814994772 0 0.078694822191619496 -0.037982238188633756 0 0.077334394606131271 -0.040028469446115766 0 0.081208395500403874 -0.041548729454912378 0 0.07935144862758238 -0.039898501847300587 0 0.07703548345034758 -0.040434807486203574 0 0.073797900253609425 -0.043704538565244345 0 0.076440139762781162 -0.042253038083268253 0 0.076677354548726609 -0.050039258255387527 0 0.078604707159158446 -0.049839781878914267 0 0.080127390459249853 -0.050909889150291897 0 0.077294571227642203 -0.040049964063303224 0 0.07935144862758238 -0.039898501847300587 0 0.07703548345034758 -0.040434807486203574 0 0.07761462336354101 -0.04942642951890782 0 0.078604707159158446 -0.049839781878914267 0 0.078701919428609213 -0.049268959665403601 0 0.078604707159158446 -0.049839781878914267 0 0.079738188091618326 -0.049640962101168203 0 0.078701919428609213 -0.049268959665403601 0 0.078604707159158446 -0.049839781878914267 0 0.079738188091618326 -0.049640962101168203 0 0.080127390459249853 -0.050909889150291897 0 0.076440139762781162 -0.042253038083268253 0 0.075789122851576504 -0.043147134415670058 0 0.077078238966610951 -0.04041461509889225 0 0.076066289058525444 -0.040667925951006177 0 0.075959202089421723 -0.042089795111864267 0 0.079738188091618326 -0.049640962101168203 0 0.080127390459249853 -0.050909889150291897 0 0.081034689567558049 -0.049547841175605067 0 0.074999986777984182 -0.038096730510008933 0 0.076066289058525444 -0.040667925951006177 0 0.07499998974506783 -0.041613640155643047 0 0.077334394606131271 -0.040028469446115766 0 0.077078238966610951 -0.04041461509889225 0 0.076066289058525444 -0.040667925951006177 0 0.076335713033420627 -0.039251902053122456 0 0.077334394606131271 -0.040028469446115766 0 0.076066289058525444 -0.040667925951006177 0 0.076669276679463341 -0.041875190407185181 0 0.076440139762781162 -0.042253038083268253 0 0.076066289058525444 -0.040667925951006177 0 0.075959202089421723 -0.042089795111864267 0 0.07499998974506783 -0.041613640155643047 0 0.075789122851576504 -0.043147134415670058 0 0.075001159919251256 -0.041622060638706354 0 0.075963549654339088 -0.042096597342077997 0 0.074999997723511166 -0.041613677360135562 0 0.074999999488706795 -0.043528024497633599 0 0.075601666767879466 -0.042954026819643353 0 0.074999648821984816 -0.043530629296996089 0 0.077526745711526124 -0.045040391373831347 0 0.075789122851576504 -0.043147134415670058 0 0.075002495530719748 -0.043527693529482693 0 0.074999648821984816 -0.043530629296996089 0 0.077526745711526124 -0.045040391373831347 0 0.077717275936431254 -0.04591832401650453 0 0.075789122851576504 -0.043147134415670058 0 0.076881085967339016 -0.044975728593154164 0 0.079738188091618326 -0.049640962101168203 0 0.081034689567558049 -0.049547841175605067 0 0.078549027199052185 -0.048284632433851192 0 0.07761462336354101 -0.04942642951890782 0 0.078701919428609213 -0.049268959665403601 0 0.078549027199052185 -0.048284632433851192 0 0.079738188091618326 -0.049640962101168203 0 0.078701919428609213 -0.049268959665403601 0 0.078549027199052185 -0.048284632433851192 0 0.074999648821984816 -0.043530629296996089 0 0.077717275936431254 -0.04591832401650453 0 0.074999182252105417 -0.054604035667826366 0 0.077717275936431254 -0.04591832401650453 0 0.080216228328912273 -0.049804299697112642 0 0.074999182252105417 -0.054604035667826366 0 0.077477687759644712 -0.046306649924318044 0 0.07750240719476835 -0.046666547632371914 0 0.077717275936431254 -0.04591832401650453 0 0.075422221571636291 -0.04454430847681335 0 0.076413308102185926 -0.042977085779295723 0 0.073455139400823377 -0.042700003940667919 0 0.072908574425270448 -0.045274338842392146 0 0.075422221571636291 -0.04454430847681335 0 0.073455139400823377 -0.042700003940667919 0 0.075422221571636291 -0.04454430847681335 0 0.076413308102185926 -0.042977085779295723 0 0.07750240719476835 -0.046666547632371914 0 0.077062814652630998 -0.047347394111034884 0 0.073455139400823377 -0.042700003940667919 0 0.076413308102185926 -0.042977085779295723 0 0.074186927976853709 -0.039913554212741113 0 0.080216228328912273 -0.049804299697112642 0 0.079507688546158042 -0.053174107281218297 0 0.082151842063746455 -0.053601651812291637 0 0.081742189825598527 -0.05652840633290785 0 0.082151842063746455 -0.053601651812291637 0 0.080533508045969301 -0.055552044116832087 0 0.081742189825598527 -0.05652840633290785 0 0.083116395530228648 -0.056208304438655605 0 0.082151842063746455 -0.053601651812291637 0 0.079507688546158042 -0.053174107281218297 0 0.082151842063746455 -0.053601651812291637 0 0.080533508045969301 -0.055552044116832087 0 0.079507688546158042 -0.053174107281218297 0 0.080533508045969301 -0.055552044116832087 0 0.078109286551192453 -0.055436190669979415 0 0.080216228328912273 -0.049804299697112642 0 0.079507688546158042 -0.053174107281218297 0 0.074999182252105417 -0.054604035667826366 0 0.077483626317984985 -0.058555594116209489 0 0.078109286551192453 -0.055436190669979415 0 0.074999182252105417 -0.054604035667826366 0 0.079507688546158042 -0.053174107281218297 0 0.078109286551192453 -0.055436190669979415 0 0.074999182252105417 -0.054604035667826366 0 0.079511800776528349 -0.020553490411940774 0 0.078837239913668852 -0.022303980469889604 0 0.079657818689679596 -0.023565773321505425 0 0.074592865840582903 -0.025273412929262693 0 0.074126844034773529 -0.026953167366346151 0 0.078444575981294798 -0.021380824564481659 0 0.077717894593458806 -0.022195652843702111 0 0.077731878396258364 -0.020408330277801437 0 0.077717894593458806 -0.022195652843702111 0 0.076302502535990746 -0.021289131506876623 0 0.077731878396258364 -0.020408330277801437 0 0.078444575981294798 -0.021380824564481659 0 0.079511800776528349 -0.020553490411940774 0 0.078837239913668852 -0.022303980469889604 0 0.078444575981294798 -0.021380824564481659 0 0.079511800776528349 -0.020553490411940774 0 0.077731878396258364 -0.020408330277801437 0 0.078837239913668852 -0.022303980469889604 0 0.078331538546987822 -0.023389854050142506 0 0.079657818689679596 -0.023565773321505425 0 0.078837239913668852 -0.022303980469889604 0 0.077717894593458806 -0.022195652843702111 0 0.078331538546987822 -0.023389854050142506 0 0.078444575981294798 -0.021380824564481659 0 0.078837239913668852 -0.022303980469889604 0 0.077717894593458806 -0.022195652843702111 0 0.077717894593458806 -0.022195652843702111 0 0.077412625163543733 -0.023238773906802804 0 0.078331538546987822 -0.023389854050142506 0 0.077717894593458806 -0.022195652843702111 0 0.077412625163543733 -0.023238773906802804 0 0.07680378122054278 -0.022509589815296639 0 0.077412625163543733 -0.023238773906802804 0 0.07680378122054278 -0.022509589815296639 0 0.075982136268015116 -0.023242020014615401 0 0.077717894593458806 -0.022195652843702111 0 0.07680378122054278 -0.022509589815296639 0 0.076302502535990746 -0.021289131506876623 0 0.07680378122054278 -0.022509589815296639 0 0.075982136268015116 -0.023242020014615401 0 0.076302502535990746 -0.021289131506876623 0 0.074999782811401447 -0.023180738860537842 0 0.076302502535990746 -0.021289131506876623 0 0.074999187162348477 -0.018812827433432964 0 0.074999782811401447 -0.023180738860537842 0 0.075982136268015116 -0.023242020014615401 0 0.076302502535990746 -0.021289131506876623 0 0.076302502535990746 -0.021289131506876623 0 0.074999187162348477 -0.018812827433432964 0 0.076705888875945233 -0.018915297582959335 0 0.076302502535990746 -0.021289131506876623 0 0.076705888875945233 -0.018915297582959335 0 0.077731878396258364 -0.020408330277801437 0 0.076705888875945233 -0.018915297582959335 0 0.078191651829353753 -0.018161008282406542 0 0.076908737624053744 -0.015721594011057455 0 0.078191651829353753 -0.018161008282406542 0 0.08106769214938514 -0.020523092914632973 0 0.079372181573689166 -0.014364024128340227 0 0.076705888875945233 -0.018915297582959335 0 0.077731878396258364 -0.020408330277801437 0 0.078191651829353753 -0.018161008282406542 0 0.079511800776528349 -0.020553490411940774 0 0.077731878396258364 -0.020408330277801437 0 0.078191651829353753 -0.018161008282406542 0 0.079511800776528349 -0.020553490411940774 0 0.078191651829353753 -0.018161008282406542 0 0.08106769214938514 -0.020523092914632973 0 0.078776615706393702 -0.012443185272637648 0 0.08010661499485873 -0.0097021471626178406 0 0.079372181573689166 -0.014364024128340227 0 0.075670814254669733 -0.01739831581574559 0 0.076178153481963412 -0.016218407001446822 0 0.078776615706393702 -0.012443185272637648 0 0.078979152503605557 -0.010479356504675047 0 0.078400042489177452 -0.010527490268646881 0 0.078979152503605557 -0.010479356504675047 0 0.078400042489177452 -0.010527490268646881 0 0.078774835787710246 -0.0093913961702253822 0 0.078979152503605557 -0.010479356504675047 0 0.08010661499485873 -0.0097021471626178406 0 0.078774835787710246 -0.0093913961702253822 0 0.078776615706393702 -0.012443185272637648 0 0.078979152503605557 -0.010479356504675047 0 0.08010661499485873 -0.0097021471626178406 0 0.078776615706393702 -0.012443185272637648 0 0.078400042489177452 -0.010527490268646881 0 0.077995867590650692 -0.010975845850312404 0 0.078400042489177452 -0.010527490268646881 0 0.077616240852281401 -0.0093405723470715799 0 0.078180140280408275 -0.009449788143865552 0 0.078400042489177452 -0.010527490268646881 0 0.078180140280408275 -0.009449788143865552 0 0.078774835787710246 -0.0093913961702253822 0 0.077616240852281401 -0.0093405723470715799 0 0.076983281098601294 -0.0092298201241701981 0 0.077995867590650692 -0.010975845850312404 0 0.078400042489177452 -0.010527490268646881 0 0.077616240852281401 -0.0093405723470715799 0 0.077995867590650692 -0.010975845850312404 0 0.077616240852281401 -0.0093405723470715799 0 0.078045458107173268 -0.0086043104501860868 0 0.077356660377206149 -0.0082841407161886801 0 0.078045458107173268 -0.0086043104501860868 0 0.078774835787710246 -0.0093913961702253822 0 0.078777224787871039 -0.0082919913028247638 0 0.077616240852281401 -0.0093405723470715799 0 0.078180140280408275 -0.009449788143865552 0 0.078045458107173268 -0.0086043104501860868 0 0.078180140280408275 -0.009449788143865552 0 0.078045458107173268 -0.0086043104501860868 0 0.078774835787710246 -0.0093913961702253822 0 0.078045458107173268 -0.0086043104501860868 0 0.078777224787871039 -0.0082919913028247638 0 0.077948286835854572 -0.0076726580683159828 0 0.077356660377206149 -0.0082841407161886801 0 0.077948286835854572 -0.0076726580683159828 0 0.076958309012864795 -0.0074225797694914934 0 0.078045458107173268 -0.0086043104501860868 0 0.077356660377206149 -0.0082841407161886801 0 0.077948286835854572 -0.0076726580683159828 0 0.08106769214938514 -0.020523092914632973 0 0.08169549999036832 -0.025589474901935926 0 0.079867931972426517 -0.024767922948287339 0 0.079511800776528349 -0.020553490411940774 0 0.08106769214938514 -0.020523092914632973 0 0.079867931972426517 -0.024767922948287339 0 0.075670814254669733 -0.01739831581574559 0 0.073801507424352916 -0.021472093939048444 0 0.08010661499485873 -0.0097021471626178406 0 0.078777224787871039 -0.0082919913028247638 0 0.079430197307202063 -0.0073743177895197612 0 0.08010661499485873 -0.0097021471626178406 0 0.078774835787710246 -0.0093913961702253822 0 0.078777224787871039 -0.0082919913028247638 0 0.079430197307202063 -0.0073743177895197612 0 0.078063267308952911 -0.0067011107256888178 0 0.078985402378671701 -0.0057164177294265926 0 0.073801507424352916 -0.021472093939048444 0 0.07030067275279199 -0.03252695808368463 0 0.08169549999036832 -0.025589474901935926 0 0.080233670226539697 -0.028843152301411292 0 0.079867931972426517 -0.024767922948287339 0 0.078777224787871039 -0.0082919913028247638 0 0.079430197307202063 -0.0073743177895197612 0 0.078545105850161598 -0.0074901752529426329 0 0.079430197307202063 -0.0073743177895197612 0 0.078545105850161598 -0.0074901752529426329 0 0.078063267308952911 -0.0067011107256888178 0 0.077948286835854572 -0.0076726580683159828 0 0.078063267308952911 -0.0067011107256888178 0 0.076958309012864795 -0.0074225797694914934 0 0.078777224787871039 -0.0082919913028247638 0 0.078545105850161598 -0.0074901752529426329 0 0.077948286835854572 -0.0076726580683159828 0 0.078545105850161598 -0.0074901752529426329 0 0.077948286835854572 -0.0076726580683159828 0 0.078063267308952911 -0.0067011107256888178 0 0.069940398273443102 -0.033582381226046121 0 0.068951628798616632 -0.03058448897086603 0 0.061650418767577569 -0.049141059493406275 0 0.061152608683453964 -0.048823073194426143 0 0.060902278026371069 -0.049193104587537152 0 0.078063267308952911 -0.0067011107256888178 0 0.078809853539351368 -0.0055963901972847672 0 0.076660393330855239 -0.0057852005172772747 0 0.08169549999036832 -0.025589474901935926 0 0.080233670226539697 -0.028843152301411292 0 0.082383642855140451 -0.03051664021858564 0 0.072516269491336049 -0.031187896741271579 0 0.07030067275279199 -0.03252695808368463 0 0.072516269491336049 -0.031187896741271579 0 0.071739351008185473 -0.033282605614725409 0 0.078063267308952911 -0.0067011107256888178 0 0.078985402378671701 -0.0057164177294265926 0 0.078809853539351368 -0.0055963901972847672 0 0.07030067275279199 -0.03252695808368463 0 0.069940398273443102 -0.033582381226046121 0 0.074511908701013152 -0.036347141194170172 0 0.073893420149690234 -0.032295520486475021 0 0.069327346696384115 -0.032368375579739858 0 0.07030067275279199 -0.03252695808368463 0 0.070183505015301698 -0.033618720469426794 0 0.070183505015301698 -0.033618720469426794 0 0.069940398273443102 -0.033582381226046121 0 0.072683902127836125 -0.033541052533236443 0 0.07126680425068585 -0.032459540218185097 0 0.072552592093536011 -0.032195558681323039 0 0.070183505015301698 -0.033618720469426794 0 0.071739351008185473 -0.033282605614725409 0 0.07126680425068585 -0.032459540218185097 0 0.071229484699175866 -0.032217428317138169 0 0.072552592093536011 -0.032195558681323039 0 0.079862146876070766 -0.027515547407723117 0 0.077434139852449069 -0.027539940556901475 0 0.078547099928620329 -0.029293103413387429 0 0.071739351008185473 -0.033282605614725409 0 0.074738005103919578 -0.03011044848684695 0 0.079854331502085624 -0.027458220110525764 0 0.07742021919855499 -0.02749353471886605 0 0.078236576567330615 -0.026221064191942457 0 0.07973538694097837 -0.026179969712893953 0 0.079854331502085624 -0.027458220110525764 0 0.078236576567330615 -0.026221064191942457 0 0.072516269491336049 -0.031187896741271579 0 0.074126844034773529 -0.026953167366346151 0 0.072516269491336049 -0.031187896741271579 0 0.073644069164357576 -0.029642120669570015 0 0.07989276092855907 -0.026315006868170763 0 0.077846214230425786 -0.024715898631310355 0 0.079657818689679596 -0.023565773321505425 0 0.07973538694097837 -0.026179969712893953 0 0.078236576567330615 -0.026221064191942457 0 0.077900682074601046 -0.024736536255034434 0 0.078236576567330615 -0.026221064191942457 0 0.077900682074601046 -0.024736536255034434 0 0.076029137329950758 -0.02548004063824328 0 0.077412625163543733 -0.023238773906802804 0 0.077846214230425786 -0.024715898631310355 0 0.078331538546987822 -0.023389854050142506 0 0.077846214230425786 -0.024715898631310355 0 0.078331538546987822 -0.023389854050142506 0 0.079657818689679596 -0.023565773321505425 0 0.074999782811401447 -0.023180738860537842 0 0.076029137329950758 -0.02548004063824328 0 0.074999992354613521 -0.027545803535649432 0 0.074999782811401447 -0.023180738860537842 0 0.075982136268015116 -0.023242020014615401 0 0.076029137329950758 -0.02548004063824328 0 0.075982136268015116 -0.023242020014615401 0 0.077900682074601046 -0.024736536255034434 0 0.076029137329950758 -0.02548004063824328 0 0.073703505159152374 -0.028933473296621756 0 0.073644069164357576 -0.029642120669570015 0 0.077412625163543733 -0.023238773906802804 0 0.075982136268015116 -0.023242020014615401 0 0.077846214230425786 -0.024715898631310355 0 0.074738005103919578 -0.03011044848684695 0 0.075000244354389678 -0.027553371866240243 0 0.07742021919855499 -0.02749353471886605 0 0.076029137329950758 -0.02548004063824328 0 0.074999992354613521 -0.027545803535649432 0 0.07742021919855499 -0.02749353471886605 0 0.078236576567330615 -0.026221064191942457 0 0.076029137329950758 -0.02548004063824328 0 0.077434139852449069 -0.027539940556901475 0 0.074999986751555142 -0.027545962974761074 0 0.076951394249797675 -0.029786693817512214 0 0.074999986751555142 -0.027545962974761074 0 0.076951394249797675 -0.029786693817512214 0 0.074999982633506712 -0.031062840945868513 0 0.079862146876070766 -0.027515547407723117 0 0.078547099928620329 -0.029293103413387429 0 0.0802104588544751 -0.031008448691095616 0 0.077434139852449069 -0.027539940556901475 0 0.076951394249797675 -0.029786693817512214 0 0.078547099928620329 -0.029293103413387429 0 0.076951394249797675 -0.029786693817512214 0 0.078547099928620329 -0.029293103413387429 0 0.0784115037620947 -0.031029118603396948 0 0.078547099928620329 -0.029293103413387429 0 0.0784115037620947 -0.031029118603396948 0 0.0802104588544751 -0.031008448691095616 0 0.076951394249797675 -0.029786693817512214 0 0.0784115037620947 -0.031029118603396948 0 0.077005822704006063 -0.032387058600271218 0 0.0784115037620947 -0.031029118603396948 0 0.07902922239143699 -0.032794276600717903 0 0.0802104588544751 -0.031008448691095616 0 0.0784115037620947 -0.031029118603396948 0 0.07902922239143699 -0.032794276600717903 0 0.077005822704006063 -0.032387058600271218 0 0.074999982633506712 -0.031062840945868513 0 0.077005822704006063 -0.032387058600271218 0 0.074999979777082518 -0.034579796641311188 0 0.076951394249797675 -0.029786693817512214 0 0.074999982633506712 -0.031062840945868513 0 0.077005822704006063 -0.032387058600271218 0 0.077005822704006063 -0.032387058600271218 0 0.074999979777082518 -0.034579796641311188 0 0.077459360480480785 -0.035606429911869804 0 0.07902922239143699 -0.032794276600717903 0 0.077459360480480785 -0.035606429911869804 0 0.080550818321575485 -0.034520734660995235 0 0.07902922239143699 -0.032794276600717903 0 0.077005822704006063 -0.032387058600271218 0 0.077459360480480785 -0.035606429911869804 0 0.076940440409907662 -0.038215580814994772 0 0.078694822191619496 -0.037982238188633756 0 0.077459360480480785 -0.035606429911869804 0 0.078694822191619496 -0.037982238188633756 0 0.077459360480480785 -0.035606429911869804 0 0.080550818321575485 -0.034520734660995235 0 0.074999986777984182 -0.038096730510008933 0 0.074999979777082518 -0.034579796641311188 0 0.077459360480480785 -0.035606429911869804 0 0.074999986777984182 -0.038096730510008933 0 0.076940440409907662 -0.038215580814994772 0 0.077459360480480785 -0.035606429911869804 0 0.061002770965631406 -0.04738904373357742 0 0.0612032654849975 -0.047852267816399285 0 0.060840510925004983 -0.047868619571233062 0 0.0612032654849975 -0.047852267816399285 0 0.061058297275917599 -0.04818810944966459 0 0.060840510925004983 -0.047868619571233062 0 0.072552460560128207 -0.042518285936503801 0 0.071943751434652897 -0.040892584527843993 0 0.061450609156813676 -0.047593059430980321 0 0.0612032654849975 -0.047852267816399285 0 0.061462653200304064 -0.048075903419890105 0 0.080880308269542484 -0.038033717738476115 0 0.078694822191619496 -0.037982238188633756 0 0.080550818321575485 -0.034520734660995235 0 0.0612032654849975 -0.047852267816399285 0 0.061462653200304064 -0.048075903419890105 0 0.061058297275917599 -0.04818810944966459 0 0.061462653200304064 -0.048075903419890105 0 0.061058297275917599 -0.04818810944966459 0 0.061289579124821303 -0.048345708282471304 0 0.061058297275917599 -0.04818810944966459 0 0.061090963530268209 -0.048456890769441319 0 0.061289579124821303 -0.048345708282471304 0 0.061090963530268209 -0.048456890769441319 0 0.061289579124821303 -0.048345708282471304 0 0.061347315016890752 -0.048482588218738597 0 0.061462653200304064 -0.048075903419890105 0 0.061289579124821303 -0.048345708282471304 0 0.061422730894126865 -0.048454251350054031 0 0.07902922239143699 -0.032794276600717903 0 0.080550818321575485 -0.034520734660995235 0 0.0802104588544751 -0.031008448691095616 0 0.071943751434652897 -0.040892584527843993 0 0.071730721645019965 -0.038495424158793888 0 0.061289579124821303 -0.048345708282471304 0 0.061347315016890752 -0.048482588218738597 0 0.061422730894126865 -0.048454251350054031 0 0.061428269152535055 -0.048878262285260099 0 0.061393086391888958 -0.048880752748815974 0 0.061347315016890752 -0.048482588218738597 0 0.070183505015301698 -0.033618720469426794 0 0.06940853705848278 -0.040420778871800241 0 0.061417022519690376 -0.048439647141826546 0 0.061347315016890752 -0.048482588218738597 0 0.061422730894126865 -0.048454251350054031 0 0.061413050988457105 -0.048435556045438144 0 0.061417022519690376 -0.048439647141826546 0 0.061347315016890752 -0.048482588218738597 0 0.071739351008185473 -0.033282605614725409 0 0.071730721645019965 -0.038495424158793888 0 0.069940398273443102 -0.033582381226046121 0 0.067497525389773091 -0.039212151118228143 0 0.061393086391888958 -0.048880752748815974 0 0.061347315016890752 -0.048482588218738597 0 0.061044749350803493 -0.048682235501404422 0 0.061090963530268209 -0.048456890769441319 0 0.061347315016890752 -0.048482588218738597 0 0.061044749350803493 -0.048682235501404422 0 0.067497525389773091 -0.039212151118228143 0 0.066567334801462694 -0.040736407082557331 0 0.061152608683453964 -0.048823073194426143 0 0.060612393494150922 -0.048900272373723179 0 0.060902278026371069 -0.049193104587537152 0 0.061152608683453964 -0.048823073194426143 0 0.060612393494150922 -0.048900272373723179 0 0.060666180325832486 -0.048536700588364956 0 0.060612393494150922 -0.048900272373723179 0 0.060666180325832486 -0.048536700588364956 0 0.060174247946499636 -0.048726970573246244 0 0.060612393494150922 -0.048900272373723179 0 0.060174247946499636 -0.048726970573246244 0 0.060201992868208418 -0.049220591149106499 0 0.060666180325832486 -0.048536700588364956 0 0.060185479793057953 -0.048253285345428804 0 0.060174247946499636 -0.048726970573246244 0 0.061090963530268209 -0.048456890769441319 0 0.061044749350803493 -0.048682235501404422 0 0.060666180325832486 -0.048536700588364956 0 0.061058297275917599 -0.04818810944966459 0 0.061090963530268209 -0.048456890769441319 0 0.060666180325832486 -0.048536700588364956 0 0.061058297275917599 -0.04818810944966459 0 0.060666180325832486 -0.048536700588364956 0 0.060666172462530879 -0.048180215502236889 0 0.061058297275917599 -0.04818810944966459 0 0.060666172462530879 -0.048180215502236889 0 0.060840510925004983 -0.047868619571233062 0 0.060666180325832486 -0.048536700588364956 0 0.060666172462530879 -0.048180215502236889 0 0.060185479793057953 -0.048253285345428804 0 0.060666172462530879 -0.048180215502236889 0 0.060185479793057953 -0.048253285345428804 0 0.060479943779938129 -0.047942678745803206 0 0.06058795804712027 -0.047531320441516256 0 0.060479943779938129 -0.047942678745803206 0 0.060203049996136987 -0.047742789895852143 0 0.060185479793057953 -0.048253285345428804 0 0.060479943779938129 -0.047942678745803206 0 0.060203049996136987 -0.047742789895852143 0 0.06058795804712027 -0.047531320441516256 0 0.060479943779938129 -0.047942678745803206 0 0.060840510925004983 -0.047868619571233062 0 0.060666172462530879 -0.048180215502236889 0 0.060479943779938129 -0.047942678745803206 0 0.060840510925004983 -0.047868619571233062 0 0.059383533078283285 -0.047992675391045105 0 0.059845840804644793 -0.047997931684321211 0 0.059623706124430118 -0.048250768787600026 0 0.059714879702828925 -0.047752290816476008 0 0.059383533078283285 -0.047992675391045105 0 0.059845840804644793 -0.047997931684321211 0 0.059209063736506334 -0.047816434146242183 0 0.059714879702828925 -0.047752290816476008 0 0.059383533078283285 -0.047992675391045105 0 0.059714879702828925 -0.047752290816476008 0 0.060203049996136987 -0.047742789895852143 0 0.059845840804644793 -0.047997931684321211 0 0.060185479793057953 -0.048253285345428804 0 0.060203049996136987 -0.047742789895852143 0 0.059845840804644793 -0.047997931684321211 0 0.060185479793057953 -0.048253285345428804 0 0.059623706124430118 -0.048250768787600026 0 0.059711836123962234 -0.048573930457025481 0 0.060185479793057953 -0.048253285345428804 0 0.059845840804644793 -0.047997931684321211 0 0.059623706124430118 -0.048250768787600026 0 0.059623706124430118 -0.048250768787600026 0 0.05938361603862858 -0.048415374169941995 0 0.059145600764134186 -0.048154091487305296 0 0.059383533078283285 -0.047992675391045105 0 0.059623706124430118 -0.048250768787600026 0 0.059145600764134186 -0.048154091487305296 0 0.059623706124430118 -0.048250768787600026 0 0.05938361603862858 -0.048415374169941995 0 0.059711836123962234 -0.048573930457025481 0 0.05938361603862858 -0.048415374169941995 0 0.059711836123962234 -0.048573930457025481 0 0.05923844163175615 -0.048605243383892389 0 0.059711836123962234 -0.048573930457025481 0 0.059329307026300522 -0.048900427285346951 0 0.05923844163175615 -0.048605243383892389 0 0.060185479793057953 -0.048253285345428804 0 0.059711836123962234 -0.048573930457025481 0 0.060174247946499636 -0.048726970573246244 0 0.060174247946499636 -0.048726970573246244 0 0.059788732391108969 -0.048930151761251588 0 0.060201992868208418 -0.049220591149106499 0 0.059711836123962234 -0.048573930457025481 0 0.060174247946499636 -0.048726970573246244 0 0.059788732391108969 -0.048930151761251588 0 0.059711836123962234 -0.048573930457025481 0 0.059788732391108969 -0.048930151761251588 0 0.059329307026300522 -0.048900427285346951 0 0.059788732391108969 -0.048930151761251588 0 0.059537409840849528 -0.049239120789946869 0 0.059329307026300522 -0.048900427285346951 0 0.07488995753944673 -0.0069625473513834964 0 0.074836273173895088 -0.0068814863795705729 0 0.075115618999996747 -0.0069196051878448687 0 0.074836273173895088 -0.0068814863795705729 0 0.075038585874160707 -0.0067973745073829101 0 0.074753470600497751 -0.0069049738991074699 0 0.074836273173895088 -0.0068814863795705729 0 0.075038585874160707 -0.0067973745073829101 0 0.075115618999996747 -0.0069196051878448687 0 0.074836273173895088 -0.0068814863795705729 0 0.075262990898763538 -0.0068056824282489202 0 0.074939391641535125 -0.0070204428649923633 0 0.074836273173895088 -0.0068814863795705729 0 0.075119891445204659 -0.0063354119447180651 0 0.075262990898763538 -0.0068056824282489202 0 0.074836273173895088 -0.0068814863795705729 0 0.074753470600497751 -0.0069049738991074699 0 0.074939391641535125 -0.0070204428649923633 0 0.07488995753944673 -0.0069625473513834964 0 0.074836273173895088 -0.0068814863795705729 0 0.075119891445204659 -0.0063354119447180651 0 0.067047791337106186 -0.028860532830374375 0 0.06795853231389834 -0.029299406207115755 0 0.059788732391108969 -0.048930151761251588 0 0.059537409840849528 -0.049239120789946869 0 0.060201992868208418 -0.049220591149106499 0 0.06795853231389834 -0.029299406207115755 0 0.068951628798616632 -0.03058448897086603 0 0.075119891445204659 -0.0063354119447180651 0 0.076170321171069547 -0.0066600060907978913 0 0.075262990898763538 -0.0068056824282489202 0 0.060612393494150922 -0.048900272373723179 0 0.060201992868208418 -0.049220591149106499 0 0.060902278026371069 -0.049193104587537152 0 0.075119891445204659 -0.0063354119447180651 0 0.076660393330855239 -0.0057852005172772747 0 0.076170321171069547 -0.0066600060907978913 0 0.078063267308952911 -0.0067011107256888178 0 0.076660393330855239 -0.0057852005172772747 0 0.076170321171069547 -0.0066600060907978913 0 0.078063267308952911 -0.0067011107256888178 0 0.076170321171069547 -0.0066600060907978913 0 0.076958309012864795 -0.0074225797694914934 0 0.076170321171069547 -0.0066600060907978913 0 0.076958309012864795 -0.0074225797694914934 0 0.075741335942726529 -0.0072769842376088911 0 0.076170321171069547 -0.0066600060907978913 0 0.075262990898763538 -0.0068056824282489202 0 0.075741335942726529 -0.0072769842376088911 0 0.075262990898763538 -0.0068056824282489202 0 0.075741335942726529 -0.0072769842376088911 0 0.074939391641535125 -0.0070204428649923633 0 0.075741335942726529 -0.0072769842376088911 0 0.075214669123280967 -0.0073223415993370405 0 0.074939391641535125 -0.0070204428649923633 0 0.075741335942726529 -0.0072769842376088911 0 0.075774847989170183 -0.0077319180604503183 0 0.076596846002626159 -0.008227405446662105 0 0.075741335942726529 -0.0072769842376088911 0 0.075774847989170183 -0.0077319180604503183 0 0.075214669123280967 -0.0073223415993370405 0 0.075774847989170183 -0.0077319180604503183 0 0.075214669123280967 -0.0073223415993370405 0 0.075263700711143633 -0.0076189196146549979 0 0.076958309012864795 -0.0074225797694914934 0 0.075741335942726529 -0.0072769842376088911 0 0.076596846002626159 -0.008227405446662105 0 0.077356660377206149 -0.0082841407161886801 0 0.076958309012864795 -0.0074225797694914934 0 0.076596846002626159 -0.008227405446662105 0 0.075774847989170183 -0.0077319180604503183 0 0.076596846002626159 -0.008227405446662105 0 0.076190950007615901 -0.0085067995918364399 0 0.077616240852281401 -0.0093405723470715799 0 0.077356660377206149 -0.0082841407161886801 0 0.076596846002626159 -0.008227405446662105 0 0.076983281098601294 -0.0092298201241701981 0 0.076954918562270963 -0.0098006130468158634 0 0.077995867590650692 -0.010975845850312404 0 0.077616240852281401 -0.0093405723470715799 0 0.076596846002626159 -0.008227405446662105 0 0.076983281098601294 -0.0092298201241701981 0 0.076596846002626159 -0.008227405446662105 0 0.076983281098601294 -0.0092298201241701981 0 0.076190950007615901 -0.0085067995918364399 0 0.076983281098601294 -0.0092298201241701981 0 0.076190950007615901 -0.0085067995918364399 0 0.076954918562270963 -0.0098006130468158634 0 0.075263700711143633 -0.0076189196146549979 0 0.076190950007615901 -0.0085067995918364399 0 0.07557336194257698 -0.0085488215342694376 0 0.075774847989170183 -0.0077319180604503183 0 0.075263700711143633 -0.0076189196146549979 0 0.076190950007615901 -0.0085067995918364399 0 0.076190950007615901 -0.0085067995918364399 0 0.07557336194257698 -0.0085488215342694376 0 0.076954918562270963 -0.0098006130468158634 0 0.075263700711143633 -0.0076189196146549979 0 0.07557336194257698 -0.0085488215342694376 0 0.074660253544328009 -0.0071452284150755425 0 0.073708896456602543 -0.0060218921363129653 0 0.074824485984817835 -0.0066061299386307873 0 0.074473394708798671 -0.0069582291694641474 0 0.07557336194257698 -0.0085488215342694376 0 0.074660253544328009 -0.0071452284150755425 0 0.073708896456602543 -0.0060218921363129653 0 0.074660253544328009 -0.0071452284150755425 0 0.073708896456602543 -0.0060218921363129653 0 0.074473394708798671 -0.0069582291694641474 0 0.075263700711143633 -0.0076189196146549979 0 0.074660253544328009 -0.0071452284150755425 0 0.074473394708798671 -0.0069582291694641474 0 0.073708896456602543 -0.0060218921363129653 0 0.074824485984817835 -0.0066061299386307873 0 0.075633671528102089 -0.005615691992942309 0 0.073708896456602543 -0.0060218921363129653 0 0.075633671528102089 -0.005615691992942309 0 0.073718321987481752 -0.0036744362231019784 0 0.074824485984817835 -0.0066061299386307873 0 0.074753470600497751 -0.0069049738991074699 0 0.074473394708798671 -0.0069582291694641474 0 0.074824485984817835 -0.0066061299386307873 0 0.075038585874160707 -0.0067973745073829101 0 0.074753470600497751 -0.0069049738991074699 0 0.074753470600497751 -0.0069049738991074699 0 0.074939391641535125 -0.0070204428649923633 0 0.074473394708798671 -0.0069582291694641474 0 0.075214669123280967 -0.0073223415993370405 0 0.074939391641535125 -0.0070204428649923633 0 0.074473394708798671 -0.0069582291694641474 0 0.075214669123280967 -0.0073223415993370405 0 0.075263700711143633 -0.0076189196146549979 0 0.074473394708798671 -0.0069582291694641474 0 0.075851934298019272 -0.0064206750640105779 0 0.075591554236193695 -0.0066843211399029868 0 0.07556132713198685 -0.0063651325418910484 0 0.075851934298019272 -0.0064206750640105779 0 0.075591554236193695 -0.0066843211399029868 0 0.075878135503284427 -0.0066687809211402205 0 0.074824485984817835 -0.0066061299386307873 0 0.075038585874160707 -0.0067973745073829101 0 0.07556132713198685 -0.0063651325418910484 0 0.075038585874160707 -0.0067973745073829101 0 0.075591554236193695 -0.0066843211399029868 0 0.07556132713198685 -0.0063651325418910484 0 0.07556132713198685 -0.0063651325418910484 0 0.075633671528102089 -0.005615691992942309 0 0.075828786004634885 -0.0060960383286684247 0 0.072438415503730882 -0.0033898344456352722 0 0.071740962417438645 -0.0036487624713764993 0 0.074824485984817835 -0.0066061299386307873 0 0.07556132713198685 -0.0063651325418910484 0 0.075633671528102089 -0.005615691992942309 0 0.075851934298019272 -0.0064206750640105779 0 0.07556132713198685 -0.0063651325418910484 0 0.075828786004634885 -0.0060960383286684247 0 0.071740962417438645 -0.0036487624713764993 0 0.069277594525713637 -0.0042438217226830593 0 0.075851934298019272 -0.0064206750640105779 0 0.075828786004634885 -0.0060960383286684247 0 0.076190446463476752 -0.0062135247500259179 0 0.069827141965292258 0.0014733562803788745 0 0.068444452523454963 0.0017485389353513283 0 0.069094508619134257 0.00068716121061463558 0 0.069001758332320126 0.00032121271954194835 0 0.068027265538579185 -0.00049993434993192605 0 0.069468047274599626 -0.0010155514406606332 0 0.069001758332320126 0.00032121271954194835 0 0.069468047274599626 -0.0010155514406606332 0 0.070091303332136062 0.0010638757747759467 0 0.069001758332320126 0.00032121271954194835 0 0.068027265538579185 -0.00049993434993192605 0 0.068432538211121025 0.0011772314978919349 0 0.069277594525713637 -0.0042438217226830593 0 0.069300713835050695 -0.0031981682301350607 0 0.067214148365261031 -0.0009220544922307856 0 0.069468047274599626 -0.0010155514406606332 0 0.068004143247175242 -0.0023267263905123094 0 0.069277594525713637 -0.0042438217226830593 0 0.069143571466088419 -0.0040070812200986537 0 0.068004143247175242 -0.0023267263905123094 0 0.06765495110072782 -0.0040001480494249106 0 0.071716731292021857 -0.0026175517052136011 0 0.067214148365261031 -0.0009220544922307856 0 0.068004143247175242 -0.0023267263905123094 0 0.067256817541866049 -0.0043490490283114511 0 0.069277594525713637 -0.0042438217226830593 0 0.065044829334365756 -0.0098222372640716458 0 0.068004143247175242 -0.0023267263905123094 0 0.06765495110072782 -0.0040001480494249106 0 0.067256817541866049 -0.0043490490283114511 0 0.06765495110072782 -0.0040001480494249106 0 0.066684975167382032 -0.0039210793188946668 0 0.065866955937808169 -0.0045394673784936021 0 0.075851934298019272 -0.0064206750640105779 0 0.076190446463476752 -0.0062135247500259179 0 0.076014552612644559 -0.0065006075853589829 0 0.076190446463476752 -0.0062135247500259179 0 0.076014552612644559 -0.0065006075853589829 0 0.076129629756912343 -0.0067156526429964251 0 0.076014552612644559 -0.0065006075853589829 0 0.075878135503284427 -0.0066687809211402205 0 0.076129629756912343 -0.0067156526429964251 0 0.075851934298019272 -0.0064206750640105779 0 0.076014552612644559 -0.0065006075853589829 0 0.075878135503284427 -0.0066687809211402205 0 0.065044829334365756 -0.0098222372640716458 0 0.056347738783288415 -0.029343017348140144 0 0.075878135503284427 -0.0066687809211402205 0 0.076129629756912343 -0.0067156526429964251 0 0.0757934872427352 -0.0069609316199583885 0 0.076129629756912343 -0.0067156526429964251 0 0.0757934872427352 -0.0069609316199583885 0 0.076035647377042812 -0.0073003694307304306 0 0.067256817541866049 -0.0043490490283114511 0 0.067068135678124391 -0.0030632332637629237 0 0.067903881283077991 -0.0020790077391373914 0 0.066684975167382032 -0.0039210793188946668 0 0.066658383609956448 -0.0034657965444093628 0 0.065893020546872488 -0.0035491909154381916 0 0.06765495110072782 -0.0040001480494249106 0 0.066684975167382032 -0.0039210793188946668 0 0.067106708600596671 -0.0039114865866175423 0 0.066684975167382032 -0.0039210793188946668 0 0.067106708600596671 -0.0039114865866175423 0 0.066658383609956448 -0.0034657965444093628 0 0.067256817541866049 -0.0043490490283114511 0 0.067106708600596671 -0.0039114865866175423 0 0.067068135678124391 -0.0030632332637629237 0 0.06765495110072782 -0.0040001480494249106 0 0.067256817541866049 -0.0043490490283114511 0 0.067106708600596671 -0.0039114865866175423 0 0.066658383609956448 -0.0034657965444093628 0 0.066008913227751556 -0.0025925900466736225 0 0.065893020546872488 -0.0035491909154381916 0 0.067068135678124391 -0.0030632332637629237 0 0.066658383609956448 -0.0034657965444093628 0 0.066008913227751556 -0.0025925900466736225 0 0.067106708600596671 -0.0039114865866175423 0 0.067068135678124391 -0.0030632332637629237 0 0.066658383609956448 -0.0034657965444093628 0 0.052041920498110329 -0.031658846974406261 0 0.055494594670083774 -0.027460678887228782 0 0.067068135678124391 -0.0030632332637629237 0 0.066719209310687047 -0.0020454742013327767 0 0.066008913227751556 -0.0025925900466736225 0 0.067068135678124391 -0.0030632332637629237 0 0.066719209310687047 -0.0020454742013327767 0 0.067903881283077991 -0.0020790077391373914 0 0.052041920498110329 -0.031658846974406261 0 0.045374523355294433 -0.04595720839175383 0 0.052041920498110329 -0.031658846974406261 0 0.056347738783288415 -0.029343017348140144 0 0.051850568260354543 -0.032980942682253982 0 0.053327536852054588 -0.032968656694807301 0 0.053454482049591766 -0.031398593950025817 0 0.056347738783288415 -0.029343017348140144 0 0.065043885760140488 -0.0288771184377218 0 0.058137059308955345 -0.049245542934396473 0 0.058866984057524142 -0.049248947662135709 0 0.058301777924953321 -0.048945177709474486 0 0.0757934872427352 -0.0069609316199583885 0 0.076035647377042812 -0.0073003694307304306 0 0.075437207668979225 -0.0072491208944870074 0 0.056347738783288415 -0.029343017348140144 0 0.045374523355294433 -0.04595720839175383 0 0.075591554236193695 -0.0066843211399029868 0 0.0757934872427352 -0.0069609316199583885 0 0.075437207668979225 -0.0072491208944870074 0 0.075591554236193695 -0.0066843211399029868 0 0.075878135503284427 -0.0066687809211402205 0 0.0757934872427352 -0.0069609316199583885 0 0.075038585874160707 -0.0067973745073829101 0 0.075591554236193695 -0.0066843211399029868 0 0.075115618999996747 -0.0069196051878448687 0 0.075591554236193695 -0.0066843211399029868 0 0.075437207668979225 -0.0072491208944870074 0 0.075115618999996747 -0.0069196051878448687 0 0.067047791337106186 -0.028860532830374375 0 0.065043885760140488 -0.0288771184377218 0 0.059537409840849528 -0.049239120789946869 0 0.058866984057524142 -0.049248947662135709 0 0.059329307026300522 -0.048900427285346951 0 0.07488995753944673 -0.0069625473513834964 0 0.075437207668979225 -0.0072491208944870074 0 0.075115618999996747 -0.0069196051878448687 0 0.058866984057524142 -0.049248947662135709 0 0.059329307026300522 -0.048900427285346951 0 0.058931700423288005 -0.048785101051602671 0 0.059329307026300522 -0.048900427285346951 0 0.058931700423288005 -0.048785101051602671 0 0.05923844163175615 -0.048605243383892389 0 0.058866984057524142 -0.049248947662135709 0 0.058661332233537269 -0.048894885851656814 0 0.058301777924953321 -0.048945177709474486 0 0.058866984057524142 -0.049248947662135709 0 0.058661332233537269 -0.048894885851656814 0 0.058931700423288005 -0.048785101051602671 0 0.058661332233537269 -0.048894885851656814 0 0.058931700423288005 -0.048785101051602671 0 0.058544145907313487 -0.048607570266234017 0 0.058544145907313487 -0.048607570266234017 0 0.058997091384824639 -0.048505412460433203 0 0.058885136097003729 -0.048314100484191665 0 0.058931700423288005 -0.048785101051602671 0 0.058544145907313487 -0.048607570266234017 0 0.058997091384824639 -0.048505412460433203 0 0.050677970905913007 -0.051747351788847686 0 0.050409560711470451 -0.051756973112716362 0 0.029061574568935419 -0.055923139431457616 0 0.028451300670644067 -0.056618011662395606 0 0.028998814767735033 -0.056742434104385973 0 0.046457625232563506 -0.050277126644664286 0 0.050409560711470451 -0.051756973112716362 0 0.058931700423288005 -0.048785101051602671 0 0.05923844163175615 -0.048605243383892389 0 0.058997091384824639 -0.048505412460433203 0 0.058997091384824639 -0.048505412460433203 0 0.059139531435640776 -0.048358488788914987 0 0.058929534964126597 -0.04837293764323914 0 0.05923844163175615 -0.048605243383892389 0 0.058997091384824639 -0.048505412460433203 0 0.059139531435640776 -0.048358488788914987 0 0.05938361603862858 -0.048415374169941995 0 0.05923844163175615 -0.048605243383892389 0 0.059139531435640776 -0.048358488788914987 0 0.05938361603862858 -0.048415374169941995 0 0.059145600764134186 -0.048154091487305296 0 0.059139531435640776 -0.048358488788914987 0 0.059145600764134186 -0.048154091487305296 0 0.058857235398349472 -0.048384569396210934 0 0.058904274502785021 -0.048073525986359895 0 0.059145600764134186 -0.048154091487305296 0 0.059139531435640776 -0.048358488788914987 0 0.058929534964126597 -0.04837293764323914 0 0.052601667137321381 -0.050043489995696223 0 0.050409560711470451 -0.051756973112716362 0 0.028451300670644067 -0.056618011662395606 0 0.028998814767735033 -0.056742434104385973 0 0.028940723469403774 -0.057578838071742057 0 0.050409560711470451 -0.051756973112716362 0 0.046171568253172472 -0.052279468480502474 0 0.058857235398349472 -0.048384569396210934 0 0.058904274502785021 -0.048073525986359895 0 0.058722998631178538 -0.047892019212649323 0 0.058904274502785021 -0.048073525986359895 0 0.058722998631178538 -0.047892019212649323 0 0.058916245019981064 -0.047917949465696615 0 0.058770682542440313 -0.047793221061053777 0 0.058722998631178538 -0.047892019212649323 0 0.058916245019981064 -0.047917949465696615 0 0.059209063736506334 -0.047816434146242183 0 0.059383533078283285 -0.047992675391045105 0 0.058916245019981064 -0.047917949465696615 0 0.059383533078283285 -0.047992675391045105 0 0.059145600764134186 -0.048154091487305296 0 0.058916245019981064 -0.047917949465696615 0 0.059145600764134186 -0.048154091487305296 0 0.058904274502785021 -0.048073525986359895 0 0.058916245019981064 -0.047917949465696615 0 0.02909363851955921 -0.057914199259351762 0 0.029099344544198505 -0.058004059912506546 0 0.029162607523254915 -0.057938381488105935 0 0.02909363851955921 -0.057914199259351762 0 0.029099344544198505 -0.058004059912506546 0 0.029107787758908391 -0.057946228823054585 0 0.029122187428121671 -0.058026793303230628 0 0.029099344544198505 -0.058004059912506546 0 0.029107787758908391 -0.057946228823054585 0 0.035059698238523021 -0.057351516281625062 0 0.037144717412530136 -0.055859811824114113 0 0.029122187428121671 -0.058026793303230628 0 0.029107787758908391 -0.057946228823054585 0 0.029111668294142353 -0.057883003804885889 0 0.043500019190347586 -0.053587617459070376 0 0.046171568253172472 -0.052279468480502474 0 0.02909363851955921 -0.057914199259351762 0 0.029107787758908391 -0.057946228823054585 0 0.029111668294142353 -0.057883003804885889 0 0.029129478404677975 -0.058101785356956731 0 0.028940723469403774 -0.057578838071742057 0 0.029111668294142353 -0.057883003804885889 0 0.02909363851955921 -0.057914199259351762 0 0.029111668294142353 -0.057883003804885889 0 0.02908010408488966 -0.057874734206883618 0 0.028940723469403774 -0.057578838071742057 0 0.029111668294142353 -0.057883003804885889 0 0.029547147629997279 -0.056760057469418534 0 0.028998814767735033 -0.056742434104385973 0 0.028940723469403774 -0.057578838071742057 0 0.029547147629997279 -0.056760057469418534 0 0.02909363851955921 -0.057914199259351762 0 0.029125371809038809 -0.057858829452095431 0 0.029162607523254915 -0.057938381488105935 0 0.02909363851955921 -0.057914199259351762 0 0.02908010408488966 -0.057874734206883618 0 0.029125371809038809 -0.057858829452095431 0 0.029125371809038809 -0.057858829452095431 0 0.029126878389258506 -0.057773524128922539 0 0.029181795303574558 -0.057743034521071053 0 0.02908010408488966 -0.057874734206883618 0 0.029125371809038809 -0.057858829452095431 0 0.029126878389258506 -0.057773524128922539 0 0.02908010408488966 -0.057874734206883618 0 0.029126878389258506 -0.057773524128922539 0 0.029106220030975981 -0.057708124101454546 0 0.037144717412530136 -0.055859811824114113 0 0.045374523355294433 -0.04595720839175383 0 0.029061574568935419 -0.055923139431457616 0 0.029547147629997279 -0.056760057469418534 0 0.029832057955456018 -0.055158497904668584 0 0.029061574568935419 -0.055923139431457616 0 0.028998814767735033 -0.056742434104385973 0 0.029547147629997279 -0.056760057469418534 0 0.058544145907313487 -0.048607570266234017 0 0.058173319857200277 -0.048908734686185229 0 0.058301777924953321 -0.048945177709474486 0 0.046457625232563506 -0.050277126644664286 0 0.045374523355294433 -0.04595720839175383 0 0.058661332233537269 -0.048894885851656814 0 0.058544145907313487 -0.048607570266234017 0 0.058301777924953321 -0.048945177709474486 0 0.058137059308955345 -0.049245542934396473 0 0.058160640246677817 -0.048902446263931254 0 0.058301777924953321 -0.048945177709474486 0 0.045374523355294433 -0.04595720839175383 0 0.045824539009473642 -0.046077324707711614 0 0.03340735372403994 -0.059216451886070366 0 0.034331640776894531 -0.058314755548255222 0 0.032597368913754858 -0.057916804165923944 0 0.029126878389258506 -0.057773524128922539 0 0.029106220030975981 -0.057708124101454546 0 0.029181795303574558 -0.057743034521071053 0 0.045374523355294433 -0.04595720839175383 0 0.035047441434471097 -0.050985889868311873 0 0.029181795303574558 -0.057743034521071053 0 0.029301647436424067 -0.057749059579070741 0 0.029162607523254915 -0.057938381488105935 0 0.029125371809038809 -0.057858829452095431 0 0.029181795303574558 -0.057743034521071053 0 0.029162607523254915 -0.057938381488105935 0 0.032597368913754858 -0.057916804165923944 0 0.030987390129948757 -0.05765663591626044 0 0.03153976396923245 -0.059208147512993428 0 0.030987390129948757 -0.05765663591626044 0 0.030415459128693954 -0.058439572994309602 0 0.03153976396923245 -0.059208147512993428 0 0.035047441434471097 -0.050985889868311873 0 0.031997214583198937 -0.053658994446369242 0 0.029301647436424067 -0.057749059579070741 0 0.029162607523254915 -0.057938381488105935 0 0.029373089710440423 -0.05789167648160537 0 0.029162607523254915 -0.057938381488105935 0 0.029284437944387721 -0.057985382391063676 0 0.029373089710440423 -0.05789167648160537 0 0.029245812301521866 -0.058111042732956045 0 0.029162607523254915 -0.057938381488105935 0 0.029284437944387721 -0.057985382391063676 0 0.029131107345807629 -0.058118475778893293 0 0.029108494264318118 -0.058030437280182388 0 0.029065925740072891 -0.058050501119805448 0 0.029072474443025239 -0.058076988401549005 0 0.029162607523254915 -0.057938381488105935 0 0.029065925740072891 -0.058050501119805448 0 0.029099344544198505 -0.058004059912506546 0 0.029162607523254915 -0.057938381488105935 0 0.029382976745019367 -0.058081959119184796 0 0.029384726434213981 -0.057996503884255875 0 0.029474538750598921 -0.057999172747901777 0 0.029384726434213981 -0.057996503884255875 0 0.029492293724268731 -0.057913137207179 0 0.029474538750598921 -0.057999172747901777 0 0.029456861911752806 -0.058115416104952515 0 0.029382976745019367 -0.058081959119184796 0 0.029474538750598921 -0.057999172747901777 0 0.029245812301521866 -0.058111042732956045 0 0.029284437944387721 -0.057985382391063676 0 0.029384726434213981 -0.057996503884255875 0 0.029382976745019367 -0.058081959119184796 0 0.029245812301521866 -0.058111042732956045 0 0.029384726434213981 -0.057996503884255875 0 0.029384726434213981 -0.057996503884255875 0 0.029373089710440423 -0.05789167648160537 0 0.029492293724268731 -0.057913137207179 0 0.029284437944387721 -0.057985382391063676 0 0.029384726434213981 -0.057996503884255875 0 0.029373089710440423 -0.05789167648160537 0 0.029492293724268731 -0.057913137207179 0 0.02948786498849755 -0.057893222424222283 0 0.029474538750598921 -0.057999172747901777 0 0.029373089710440423 -0.05789167648160537 0 0.029492293724268731 -0.057913137207179 0 0.029616346112336125 -0.057781124820889124 0 0.029492293724268731 -0.057913137207179 0 0.029616346112336125 -0.057781124820889124 0 0.02948786498849755 -0.057893222424222283 0 0.029616346112336125 -0.057781124820889124 0 0.029739153083947013 -0.058220846710581642 0 0.029395475901971956 -0.057919816274946023 0 0.029616346112336125 -0.057781124820889124 0 0.030033865941509499 -0.058123969879636528 0 0.029739153083947013 -0.058220846710581642 0 0.031997214583198937 -0.053658994446369242 0 0.031221427615406274 -0.054455420446548143 0 0.029301647436424067 -0.057749059579070741 0 0.029373089710440423 -0.05789167648160537 0 0.029616346112336125 -0.057781124820889124 0 0.030987390129948757 -0.05765663591626044 0 0.029616346112336125 -0.057781124820889124 0 0.030033865941509499 -0.058123969879636528 0 0.030987390129948757 -0.05765663591626044 0 0.030033865941509499 -0.058123969879636528 0 0.030415459128693954 -0.058439572994309602 0 0.030033865941509499 -0.058123969879636528 0 0.030415459128693954 -0.058439572994309602 0 0.029982398947585906 -0.058528873114063941 0 0.030415459128693954 -0.058439572994309602 0 0.029982398947585906 -0.058528873114063941 0 0.029996973145915169 -0.059084411884143151 0 0.029739153083947013 -0.058220846710581642 0 0.029790301384680164 -0.058902062643707044 0 0.029395475901971956 -0.057919816274946023 0 0.037344205374108486 -0.045535995245233961 0 0.034419136842470756 -0.051453267791288552 0 0.029739153083947013 -0.058220846710581642 0 0.029982398947585906 -0.058528873114063941 0 0.029790301384680164 -0.058902062643707044 0 0.037344205374108486 -0.045535995245233961 0 0.033944138607794064 -0.054212410490809736 0 0.030033865941509499 -0.058123969879636528 0 0.029739153083947013 -0.058220846710581642 0 0.029982398947585906 -0.058528873114063941 0 0.039104317066613874 -0.041354476601698754 0 0.041711324260292844 -0.035304020272016137 0 0.059267667170627446 -0.0012866288173831826 0 0.058681850082729282 -0.0027181357005505425 0 0.05528888480315567 -0.0013492063237914263 0 0.030929206385276665 -0.05911278307885267 0 0.031031720022481731 -0.059165458068211566 0 0.03041882197597362 -0.059219128804321015 0 0.029982398947585906 -0.058528873114063941 0 0.029790301384680164 -0.058902062643707044 0 0.029996973145915169 -0.059084411884143151 0 0.037344205374108486 -0.045535995245233961 0 0.039104317066613874 -0.041354476601698754 0 0.059267667170627446 -0.0012866288173831826 0 0.058681850082729282 -0.0027181357005505425 0 0.059952126208369594 -0.0017239120523870415 0 0.058681850082729282 -0.0027181357005505425 0 0.06003661610124917 -0.0038582139002593351 0 0.057634601351593602 -0.0053150543699845365 0 0.058681850082729282 -0.0027181357005505425 0 0.057634601351593602 -0.0053150543699845365 0 0.05528888480315567 -0.0013492063237914263 0 0.06003661610124917 -0.0038582139002593351 0 0.062027283220651916 -0.0039235602067245858 0 0.060776704734509045 -0.0053313500110677954 0 0.058681850082729282 -0.0027181357005505425 0 0.06003661610124917 -0.0038582139002593351 0 0.059904995531145783 -0.0027856432177414182 0 0.06003661610124917 -0.0038582139002593351 0 0.059904995531145783 -0.0027856432177414182 0 0.060907690654914089 -0.0029884737278762837 0 0.06003661610124917 -0.0038582139002593351 0 0.060907690654914089 -0.0029884737278762837 0 0.062027283220651916 -0.0039235602067245858 0 0.060907690654914089 -0.0029884737278762837 0 0.062255617970255799 -0.0026868853475299761 0 0.062027283220651916 -0.0039235602067245858 0 0.039104317066613874 -0.041354476601698754 0 0.046828837255475535 -0.034980907786736147 0 0.05929548100921616 -0.0013022506814949881 0 0.059952126208369594 -0.0017239120523870415 0 0.063378234872795633 -0.0013811276414394792 0 0.060907690654914089 -0.0029884737278762837 0 0.059952126208369594 -0.0017239120523870415 0 0.062255617970255799 -0.0026868853475299761 0 0.030415459128693954 -0.058439572994309602 0 0.029996973145915169 -0.059084411884143151 0 0.03153976396923245 -0.059208147512993428 0 0.058681850082729282 -0.0027181357005505425 0 0.059904995531145783 -0.0027856432177414182 0 0.059952126208369594 -0.0017239120523870415 0 0.059904995531145783 -0.0027856432177414182 0 0.060907690654914089 -0.0029884737278762837 0 0.059952126208369594 -0.0017239120523870415 0 0.039104317066613874 -0.041354476601698754 0 0.039215053693455938 -0.040875184851117789 0 0.059952126208369594 -0.0017239120523870415 0 0.063378234872795633 -0.0013811276414394792 0 0.062255617970255799 -0.0026868853475299761 0 0.063378234872795633 -0.0013811276414394792 0 0.064269252460870577 -0.0034548937733920363 0 0.062255617970255799 -0.0026868853475299761 0 0.052041920498110329 -0.031658846974406261 0 0.046828837255475535 -0.034980907786736147 0 0.067065821826818722 -0.0015796534185677203 0 0.063378234872795633 -0.0013811276414394792 0 0.066008913227751556 -0.0025925900466736225 0 0.063378234872795633 -0.0013811276414394792 0 0.066008913227751556 -0.0025925900466736225 0 0.064269252460870577 -0.0034548937733920363 0 0.03340735372403994 -0.059216451886070366 0 0.032597368913754858 -0.057916804165923944 0 0.03153976396923245 -0.059208147512993428 0 0.064269252460870577 -0.0034548937733920363 0 0.06305517924016471 -0.005139328595423329 0 0.065866955937808169 -0.0045394673784936021 0 0.066008913227751556 -0.0025925900466736225 0 0.064269252460870577 -0.0034548937733920363 0 0.065893020546872488 -0.0035491909154381916 0 0.064269252460870577 -0.0034548937733920363 0 0.065893020546872488 -0.0035491909154381916 0 0.065866955937808169 -0.0045394673784936021 0 0.066684975167382032 -0.0039210793188946668 0 0.065893020546872488 -0.0035491909154381916 0 0.065866955937808169 -0.0045394673784936021 0 0.064269252460870577 -0.0034548937733920363 0 0.062255617970255799 -0.0026868853475299761 0 0.062027283220651916 -0.0039235602067245858 0 0.064269252460870577 -0.0034548937733920363 0 0.062027283220651916 -0.0039235602067245858 0 0.06305517924016471 -0.005139328595423329 0 0.067279187621583136 -0.0028841418926581707 0 0.066908630871517619 -0.0017917445194917852 0 0.062027283220651916 -0.0039235602067245858 0 0.06305517924016471 -0.005139328595423329 0 0.060776704734509045 -0.0053313500110677954 0 0.06305517924016471 -0.005139328595423329 0 0.0643849748323988 -0.0060859667513594598 0 0.060717066026355425 -0.0073402282018572053 0 0.06305517924016471 -0.005139328595423329 0 0.0643849748323988 -0.0060859667513594598 0 0.065866955937808169 -0.0045394673784936021 0 0.067251640380022501 -0.003192062441522335 0 0.067279187621583136 -0.0028841418926581707 0 0.069468047274599626 -0.0010155514406606332 0 0.068004143247175242 -0.0023267263905123094 0 0.071716731292021857 -0.0026175517052136011 0 0.06765495110072782 -0.0040001480494249106 0 0.0643849748323988 -0.0060859667513594598 0 0.065866955937808169 -0.0045394673784936021 0 0.069468047274599626 -0.0010155514406606332 0 0.072115331553971596 0.00038156252493552197 0 0.070091303332136062 0.0010638757747759467 0 0.069468047274599626 -0.0010155514406606332 0 0.071716731292021857 -0.0026175517052136011 0 0.072115331553971596 0.00038156252493552197 0 0.071716731292021857 -0.0026175517052136011 0 0.072115331553971596 0.00038156252493552197 0 0.075157598724907029 -0.001405364602093423 0 0.072115331553971596 0.00038156252493552197 0 0.075157598724907029 -0.001405364602093423 0 0.074535417414907212 0.0015767876079731456 0 0.066908630871517619 -0.0017917445194917852 0 0.065573402973385639 0.00062324421748082329 0 0.075157598724907029 -0.001405364602093423 0 0.077484591920460713 0.0019536344571201856 0 0.07848164697849648 -0.00020769889751574204 0 0.060717066026355425 -0.0073402282018572053 0 0.057634601351593602 -0.0053150543699845365 0 0.056944741745847974 -0.0084505191456344334 0 0.06003661610124917 -0.0038582139002593351 0 0.057634601351593602 -0.0053150543699845365 0 0.060776704734509045 -0.0053313500110677954 0 0.060717066026355425 -0.0073402282018572053 0 0.057634601351593602 -0.0053150543699845365 0 0.060776704734509045 -0.0053313500110677954 0 0.06305517924016471 -0.005139328595423329 0 0.060717066026355425 -0.0073402282018572053 0 0.060776704734509045 -0.0053313500110677954 0 0.076083306123266761 0.0034017837673550738 0 0.074374130990438811 0.004229089757902948 0 0.074535417414907212 0.0015767876079731456 0 0.076083306123266761 0.0034017837673550738 0 0.074374130990438811 0.004229089757902948 0 0.076133362569096752 0.0053733717154008809 0 0.076083306123266761 0.0034017837673550738 0 0.077653202798682597 0.0042836253625708571 0 0.077484591920460713 0.0019536344571201856 0 0.076083306123266761 0.0034017837673550738 0 0.077653202798682597 0.0042836253625708571 0 0.076133362569096752 0.0053733717154008809 0 0.077653202798682597 0.0042836253625708571 0 0.077484591920460713 0.0019536344571201856 0 0.079189470322195213 0.0036664094524292163 0 0.075157598724907029 -0.001405364602093423 0 0.077484591920460713 0.0019536344571201856 0 0.074535417414907212 0.0015767876079731456 0 0.076083306123266761 0.0034017837673550738 0 0.077484591920460713 0.0019536344571201856 0 0.074535417414907212 0.0015767876079731456 0 0.072115331553971596 0.00038156252493552197 0 0.071134132068149503 0.0022354059511668235 0 0.072660165771926383 0.0028332653910636794 0 0.072115331553971596 0.00038156252493552197 0 0.074535417414907212 0.0015767876079731456 0 0.072660165771926383 0.0028332653910636794 0 0.072115331553971596 0.00038156252493552197 0 0.070091303332136062 0.0010638757747759467 0 0.071134132068149503 0.0022354059511668235 0 0.070091303332136062 0.0010638757747759467 0 0.071134132068149503 0.0022354059511668235 0 0.069751113995428216 0.0029404544782021579 0 0.071134132068149503 0.0022354059511668235 0 0.069751113995428216 0.0029404544782021579 0 0.071176548473322804 0.0040051203291961296 0 0.071134132068149503 0.0022354059511668235 0 0.071176548473322804 0.0040051203291961296 0 0.072660165771926383 0.0028332653910636794 0 0.071176548473322804 0.0040051203291961296 0 0.072588497097657884 0.0050566841679710629 0 0.071113239296598463 0.0059104293233268549 0 0.069751113995428216 0.0029404544782021579 0 0.071176548473322804 0.0040051203291961296 0 0.069713267322854031 0.0054358757945776447 0 0.074374130990438811 0.004229089757902948 0 0.074535417414907212 0.0015767876079731456 0 0.072660165771926383 0.0028332653910636794 0 0.071176548473322804 0.0040051203291961296 0 0.072660165771926383 0.0028332653910636794 0 0.072588497097657884 0.0050566841679710629 0 0.074374130990438811 0.004229089757902948 0 0.072660165771926383 0.0028332653910636794 0 0.072588497097657884 0.0050566841679710629 0 0.074374130990438811 0.004229089757902948 0 0.072588497097657884 0.0050566841679710629 0 0.074134708657980025 0.0064310073778859576 0 0.072588497097657884 0.0050566841679710629 0 0.074134708657980025 0.0064310073778859576 0 0.071965039170373127 0.0073121654835897896 0 0.072588497097657884 0.0050566841679710629 0 0.071965039170373127 0.0073121654835897896 0 0.071113239296598463 0.0059104293233268549 0 0.074134708657980025 0.0064310073778859576 0 0.071965039170373127 0.0073121654835897896 0 0.0725203314922237 0.0094126984698850308 0 0.069713267322854031 0.0054358757945776447 0 0.070162104753920193 0.0078206530823540215 0 0.068476165548410836 0.0086811025673697532 0 0.069713267322854031 0.0054358757945776447 0 0.071113239296598463 0.0059104293233268549 0 0.070162104753920193 0.0078206530823540215 0 0.071176548473322804 0.0040051203291961296 0 0.069713267322854031 0.0054358757945776447 0 0.071113239296598463 0.0059104293233268549 0 0.071965039170373127 0.0073121654835897896 0 0.071113239296598463 0.0059104293233268549 0 0.070162104753920193 0.0078206530823540215 0 0.069933852439683641 0.0071253811749557548 0 0.069329423225388806 0.0050372281667468485 0 0.070162104753920193 0.0078206530823540215 0 0.070521307072429901 0.01030181093628907 0 0.068476165548410836 0.0086811025673697532 0 0.070521307072429901 0.01030181093628907 0 0.070079496576472403 0.011714838001248793 0 0.068476165548410836 0.0086811025673697532 0 0.071965039170373127 0.0073121654835897896 0 0.070162104753920193 0.0078206530823540215 0 0.070521307072429901 0.01030181093628907 0 0.070043855735253277 0.011568002940310245 0 0.068889346429089074 0.012820463005340545 0 0.06956936397158997 0.011793584954713263 0 0.071965039170373127 0.0073121654835897896 0 0.070521307072429901 0.01030181093628907 0 0.0725203314922237 0.0094126984698850308 0 0.07040909749241292 0.012401489788413022 0 0.070448542236269548 0.012453743092546914 0 0.070521307072429901 0.01030181093628907 0 0.070043855735253277 0.011568002940310245 0 0.070065220483171278 0.011461665856491433 0 0.074134708657980025 0.0064310073778859576 0 0.0725203314922237 0.0094126984698850308 0 0.076351963361665415 0.007654415029639967 0 0.070448542236269548 0.012453743092546914 0 0.068741361623415181 0.01316440275342221 0 0.070448542236269548 0.012453743092546914 0 0.072040149699758846 0.011791342083742962 0 0.07120347017232001 0.013330353425226526 0 0.069570041233425681 0.013074053509127085 0 0.069303069494465283 0.013811502644194996 0 0.074134708657980025 0.0064310073778859576 0 0.076351963361665415 0.007654415029639967 0 0.076133362569096752 0.0053733717154008809 0 0.074374130990438811 0.004229089757902948 0 0.074134708657980025 0.0064310073778859576 0 0.076133362569096752 0.0053733717154008809 0 0.076351963361665415 0.007654415029639967 0 0.077943868735497746 0.0062201993820635909 0 0.079692554955291164 0.0064971550374246356 0 0.072040149699758846 0.011791342083742962 0 0.070957645312075754 0.012298898891187968 0 0.077653202798682597 0.0042836253625708571 0 0.077943868735497746 0.0062201993820635909 0 0.078986969839741905 0.0050054094306213768 0 0.077653202798682597 0.0042836253625708571 0 0.076133362569096752 0.0053733717154008809 0 0.077943868735497746 0.0062201993820635909 0 0.076351963361665415 0.007654415029639967 0 0.076133362569096752 0.0053733717154008809 0 0.077943868735497746 0.0062201993820635909 0 0.069303069494465283 0.013811502644194996 0 0.067926227451655274 0.012817456314305239 0 0.067389771523175615 0.014294333964863863 0 0.069570041233425681 0.013074053509127085 0 0.069303069494465283 0.013811502644194996 0 0.067926227451655274 0.012817456314305239 0 0.068741361623415181 0.01316440275342221 0 0.066826950685839465 0.013978457767921467 0 0.068889346429089074 0.012820463005340545 0 0.068575880578189433 0.012332459596822869 0 0.067629599144614486 0.013633563813599817 0 0.068575880578189433 0.012332459596822869 0 0.067629599144614486 0.013633563813599817 0 0.067337907683571396 0.013229358820205711 0 0.068889346429089074 0.012820463005340545 0 0.068575880578189433 0.012332459596822869 0 0.06956936397158997 0.011793584954713263 0 0.068575880578189433 0.012332459596822869 0 0.069665247000800901 0.010815018417802438 0 0.06956936397158997 0.011793584954713263 0 0.068575880578189433 0.012332459596822869 0 0.068670391724256596 0.011898584724370954 0 0.069665247000800901 0.010815018417802438 0 0.068575880578189433 0.012332459596822869 0 0.0679580077169602 0.01257426656523631 0 0.068670391724256596 0.011898584724370954 0 0.068575880578189433 0.012332459596822869 0 0.0679580077169602 0.01257426656523631 0 0.067337907683571396 0.013229358820205711 0 0.0679580077169602 0.01257426656523631 0 0.068670391724256596 0.011898584724370954 0 0.06818015442228019 0.012350792241508365 0 0.068670391724256596 0.011898584724370954 0 0.068776488530855787 0.011835994549969831 0 0.068186990994653293 0.012533519554527818 0 0.068670391724256596 0.011898584724370954 0 0.06818015442228019 0.012350792241508365 0 0.068186990994653293 0.012533519554527818 0 0.06818015442228019 0.012350792241508365 0 0.068182673698248847 0.012754226094004549 0 0.068186990994653293 0.012533519554527818 0 0.067813034327737942 0.012112474902287434 0 0.068776488530855787 0.011835994549969831 0 0.067834797483229917 0.012976690809272138 0 0.068776488530855787 0.011835994549969831 0 0.067834797483229917 0.012976690809272138 0 0.068186990994653293 0.012533519554527818 0 0.068670391724256596 0.011898584724370954 0 0.068776488530855787 0.011835994549969831 0 0.069665247000800901 0.010815018417802438 0 0.067813034327737942 0.012112474902287434 0 0.068776488530855787 0.011835994549969831 0 0.068637194455625009 0.009624454007090482 0 0.068776488530855787 0.011835994549969831 0 0.069665247000800901 0.010815018417802438 0 0.068637194455625009 0.009624454007090482 0 0.070138226703490902 0.0080567952726195227 0 0.069933852439683641 0.0071253811749557548 0 0.069665247000800901 0.010815018417802438 0 0.070746842119232753 0.0058160744330602969 0 0.068637194455625009 0.009624454007090482 0 0.069665247000800901 0.010815018417802438 0 0.06956936397158997 0.011793584954713263 0 0.070079496576472403 0.011714838001248793 0 0.06956936397158997 0.011793584954713263 0 0.070065220483171278 0.011461665856491433 0 0.070079496576472403 0.011714838001248793 0 0.070043855735253277 0.011568002940310245 0 0.06956936397158997 0.011793584954713263 0 0.070065220483171278 0.011461665856491433 0 0.070521307072429901 0.01030181093628907 0 0.070065220483171278 0.011461665856491433 0 0.070079496576472403 0.011714838001248793 0 0.06897864027850259 0.0041988631245660378 0 0.066210954411154543 0.0072593625244770253 0 0.06931017831932447 0.00014083385781892482 0 0.070746842119232753 0.0058160744330602969 0 0.06897864027850259 0.0041988631245660378 0 0.068637194455625009 0.009624454007090482 0 0.072856603658249655 -0.0010608993824620817 0 0.070986725597837266 -0.0010503144998841101 0 0.06931017831932447 0.00014083385781892482 0 0.070070662497378089 0.004881877195250647 0 0.069891826708285212 0.003412184081593547 0 0.070070662497378089 0.004881877195250647 0 0.070471532774782339 0.0081595074767084348 0 0.066210954411154543 0.0072593625244770253 0 0.068637194455625009 0.009624454007090482 0 0.066348488191799962 0.011393819460176743 0 0.06897864027850259 0.0041988631245660378 0 0.066210954411154543 0.0072593625244770253 0 0.068637194455625009 0.009624454007090482 0 0.067813034327737942 0.012112474902287434 0 0.068637194455625009 0.009624454007090482 0 0.066348488191799962 0.011393819460176743 0 0.07580300992501833 0.0035401000521009156 0 0.073097504712212019 0.0076280860515684371 0 0.071878829939098943 0.00097886616425647962 0 0.072856603658249655 -0.0010608993824620817 0 0.07580300992501833 0.0035401000521009156 0 0.071878829939098943 0.00097886616425647962 0 0.07580300992501833 0.0035401000521009156 0 0.073097504712212019 0.0076280860515684371 0 0.074987477590217885 0.011080731722524184 0 0.070471532774782339 0.0081595074767084348 0 0.07060933852373856 0.012481196147254511 0 0.07580300992501833 0.0035401000521009156 0 0.074987477590217885 0.011080731722524184 0 0.07628313222081555 0.011758162507793751 0 0.066348488191799962 0.011393819460176743 0 0.06705883822656751 0.012384802834509762 0 0.06664465575036721 0.013034913684863573 0 0.067813034327737942 0.012112474902287434 0 0.066348488191799962 0.011393819460176743 0 0.06705883822656751 0.012384802834509762 0 0.067813034327737942 0.012112474902287434 0 0.06705883822656751 0.012384802834509762 0 0.067376022080750983 0.01282847268692454 0 0.071170179891612534 0.0044963042723325398 0 0.072873995941303282 0.0035134019263387412 0 0.070931886768040589 0.0075826942684914279 0 0.069313694868125164 -8.2936067286811153e-05 0 0.063773542698933761 0.0070766498521500874 0 0.070931886768040589 0.0075826942684914279 0 0.068244759460873911 0.010297472349312524 0 0.069567641410711006 0.01162576269190225 0 0.070931886768040589 0.0075826942684914279 0 0.073097504712212019 0.0076280860515684371 0 0.071732510532873967 0.010875805367107636 0 0.070931886768040589 0.0075826942684914279 0 0.073097504712212019 0.0076280860515684371 0 0.071878829939098943 0.00097886616425647962 0 0.071878829939098943 0.00097886616425647962 0 0.069313694868125164 -8.2936067286811153e-05 0 0.070682854639189843 -0.0011499950407124241 0 0.070931886768040589 0.0075826942684914279 0 0.071878829939098943 0.00097886616425647962 0 0.069313694868125164 -8.2936067286811153e-05 0 0.071878829939098943 0.00097886616425647962 0 0.070682854639189843 -0.0011499950407124241 0 0.07132247347692712 -0.0013128581045588489 0 0.072856603658249655 -0.0010608993824620817 0 0.071878829939098943 0.00097886616425647962 0 0.07132247347692712 -0.0013128581045588489 0 0.072856603658249655 -0.0010608993824620817 0 0.07132247347692712 -0.0013128581045588489 0 0.070986725597837266 -0.0010503144998841101 0 0.070682854639189843 -0.0011499950407124241 0 0.07132247347692712 -0.0013128581045588489 0 0.071447160088084036 -0.0016453172032981573 0 0.07132247347692712 -0.0013128581045588489 0 0.071426001821533039 -0.0014536950639880146 0 0.071447160088084036 -0.0016453172032981573 0 0.071426001821533039 -0.0014536950639880146 0 0.071838132755034104 -0.0014424790562431599 0 0.071956774689303338 -0.0017200944460170834 0 0.071426001821533039 -0.0014536950639880146 0 0.071956774689303338 -0.0017200944460170834 0 0.071447160088084036 -0.0016453172032981573 0 0.071426001821533039 -0.0014536950639880146 0 0.071838132755034104 -0.0014424790562431599 0 0.070964655470074148 -0.0010216914309293193 0 0.071838132755034104 -0.0014424790562431599 0 0.070964655470074148 -0.0010216914309293193 0 0.071238227280737143 -0.00090627037477821479 0 0.070964655470074148 -0.0010216914309293193 0 0.070986725597837266 -0.0010503144998841101 0 0.069970388296014319 -0.00044733156022850159 0 0.070964655470074148 -0.0010216914309293193 0 0.069970388296014319 -0.00044733156022850159 0 0.070155581113270998 -0.00053156512435249424 0 0.071426001821533039 -0.0014536950639880146 0 0.070964655470074148 -0.0010216914309293193 0 0.070986725597837266 -0.0010503144998841101 0 0.07132247347692712 -0.0013128581045588489 0 0.071426001821533039 -0.0014536950639880146 0 0.070986725597837266 -0.0010503144998841101 0 0.070986725597837266 -0.0010503144998841101 0 0.06931017831932447 0.00014083385781892482 0 0.069970388296014319 -0.00044733156022850159 0 0.06897864027850259 0.0041988631245660378 0 0.06931017831932447 0.00014083385781892482 0 0.07014898188845882 0.00068506518829120023 0 0.070746842119232753 0.0058160744330602969 0 0.06897864027850259 0.0041988631245660378 0 0.07014898188845882 0.00068506518829120023 0 0.06931017831932447 0.00014083385781892482 0 0.07014898188845882 0.00068506518829120023 0 0.069585893686373732 -0.00052698830145372249 0 0.069713267322854031 0.0054358757945776447 0 0.068476165548410836 0.0086811025673697532 0 0.067549333777209369 0.0040775249264085088 0 0.069329423225388806 0.0050372281667468485 0 0.06891374900789754 0.0033736301852424762 0 0.06931017831932447 0.00014083385781892482 0 0.069970388296014319 -0.00044733156022850159 0 0.069585893686373732 -0.00052698830145372249 0 0.069970388296014319 -0.00044733156022850159 0 0.069585893686373732 -0.00052698830145372249 0 0.070155581113270998 -0.00053156512435249424 0 0.06891374900789754 0.0033736301852424762 0 0.068854193166662081 0.0028205221168322581 0 0.067549333777209369 0.0040775249264085088 0 0.068528787404475891 0.0020730076526191826 0 0.069094508619134257 0.00068716121061463558 0 0.069585893686373732 -0.00052698830145372249 0 0.069094508619134257 0.00068716121061463558 0 0.070155581113270998 -0.00053156512435249424 0 0.069751113995428216 0.0029404544782021579 0 0.069713267322854031 0.0054358757945776447 0 0.067549333777209369 0.0040775249264085088 0 0.069751113995428216 0.0029404544782021579 0 0.067549333777209369 0.0040775249264085088 0 0.068528787404475891 0.0020730076526191826 0 0.069751113995428216 0.0029404544782021579 0 0.069168906902087809 0.0017558139475012116 0 0.068528787404475891 0.0020730076526191826 0 0.070091303332136062 0.0010638757747759467 0 0.069751113995428216 0.0029404544782021579 0 0.069168906902087809 0.0017558139475012116 0 0.069168906902087809 0.0017558139475012116 0 0.068528787404475891 0.0020730076526191826 0 0.068432538211121025 0.0011772314978919349 0 0.069001758332320126 0.00032121271954194835 0 0.069168906902087809 0.0017558139475012116 0 0.068432538211121025 0.0011772314978919349 0 0.069001758332320126 0.00032121271954194835 0 0.070091303332136062 0.0010638757747759467 0 0.069168906902087809 0.0017558139475012116 0 0.068528787404475891 0.0020730076526191826 0 0.068432538211121025 0.0011772314978919349 0 0.069094508619134257 0.00068716121061463558 0 0.068444452523454963 0.0017485389353513283 0 0.068432538211121025 0.0011772314978919349 0 0.069094508619134257 0.00068716121061463558 0 0.072213514744388627 2.0309393520797337e-05 0 0.069827141965292258 0.0014733562803788745 0 0.070667869132256145 2.672337891636861e-05 0 0.069094508619134257 0.00068716121061463558 0 0.070667869132256145 2.672337891636861e-05 0 0.070155581113270998 -0.00053156512435249424 0 0.069827141965292258 0.0014733562803788745 0 0.069094508619134257 0.00068716121061463558 0 0.070667869132256145 2.672337891636861e-05 0 0.072213514744388627 2.0309393520797337e-05 0 0.070667869132256145 2.672337891636861e-05 0 0.071920369195732678 -0.00092289662994017032 0 0.072213514744388627 2.0309393520797337e-05 0 0.071920369195732678 -0.00092289662994017032 0 0.07297019990190258 -0.0017660924989407606 0 0.071920369195732678 -0.00092289662994017032 0 0.071238227280737143 -0.00090627037477821479 0 0.072401601238742036 -0.0014410824231740308 0 0.070667869132256145 2.672337891636861e-05 0 0.071920369195732678 -0.00092289662994017032 0 0.071238227280737143 -0.00090627037477821479 0 0.071838132755034104 -0.0014424790562431599 0 0.071238227280737143 -0.00090627037477821479 0 0.072401601238742036 -0.0014410824231740308 0 0.070964655470074148 -0.0010216914309293193 0 0.071238227280737143 -0.00090627037477821479 0 0.070155581113270998 -0.00053156512435249424 0 0.070667869132256145 2.672337891636861e-05 0 0.071238227280737143 -0.00090627037477821479 0 0.070155581113270998 -0.00053156512435249424 0 0.073031490451169967 -0.0017278056834091531 0 0.072658862554987477 -0.0015969191478762831 0 0.073180453512393578 -0.0018844537561719737 0 0.073031490451169967 -0.0017278056834091531 0 0.072401601238742036 -0.0014410824231740308 0 0.07297019990190258 -0.0017660924989407606 0 0.073031490451169967 -0.0017278056834091531 0 0.072401601238742036 -0.0014410824231740308 0 0.072589930621782789 -0.0017945606505636389 0 0.071920369195732678 -0.00092289662994017032 0 0.072401601238742036 -0.0014410824231740308 0 0.07297019990190258 -0.0017660924989407606 0 0.072213514744388627 2.0309393520797337e-05 0 0.07297019990190258 -0.0017660924989407606 0 0.073718321987481752 -0.0036744362231019784 0 0.073031490451169967 -0.0017278056834091531 0 0.07297019990190258 -0.0017660924989407606 0 0.073718321987481752 -0.0036744362231019784 0 0.072438415503730882 -0.0033898344456352722 0 0.072435780647070763 -0.0033417596921142523 0 0.073031490451169967 -0.0017278056834091531 0 0.073718321987481752 -0.0036744362231019784 0 0.072658862554987477 -0.0015969191478762831 0 0.075105876409524569 -0.0064692999594287278 0 0.075381580382858818 -0.0064563410583762778 0 0.073708896456602543 -0.0060218921363129653 0 0.073718321987481752 -0.0036744362231019784 0 0.072658862554987477 -0.0015969191478762831 0 0.07557336194257698 -0.0085488215342694376 0 0.076154294462192296 -0.011186476594026539 0 0.076954918562270963 -0.0098006130468158634 0 0.07557336194257698 -0.0085488215342694376 0 0.073708896456602543 -0.0060218921363129653 0 0.076154294462192296 -0.011186476594026539 0 0.076154294462192296 -0.011186476594026539 0 0.078013137397845614 -0.011306512958613003 0 0.076954918562270963 -0.0098006130468158634 0 0.078013137397845614 -0.011306512958613003 0 0.076954918562270963 -0.0098006130468158634 0 0.077995867590650692 -0.010975845850312404 0 0.075381580382858818 -0.0064563410583762778 0 0.076155421545501034 -0.0065627396310643663 0 0.076154294462192296 -0.011186476594026539 0 0.078013137397845614 -0.011306512958613003 0 0.079106584955299805 -0.011163720821625488 0 0.072658862554987477 -0.0015969191478762831 0 0.073180453512393578 -0.0018844537561719737 0 0.075186919579661227 -0.0021816043925170997 0 0.073180453512393578 -0.0018844537561719737 0 0.075186919579661227 -0.0021816043925170997 0 0.073677552580692252 -0.0028141778904488281 0 0.075186919579661227 -0.0021816043925170997 0 0.075427079948951439 -0.0043473120310233036 0 0.073677552580692252 -0.0028141778904488281 0 0.075427079948951439 -0.0043473120310233036 0 0.073677552580692252 -0.0028141778904488281 0 0.07406673997542268 -0.0031965712586998346 0 0.073677552580692252 -0.0028141778904488281 0 0.072605822816837459 -0.0022060737980837274 0 0.072589930621782789 -0.0017945606505636389 0 0.073180453512393578 -0.0018844537561719737 0 0.073677552580692252 -0.0028141778904488281 0 0.072589930621782789 -0.0017945606505636389 0 0.073031490451169967 -0.0017278056834091531 0 0.073180453512393578 -0.0018844537561719737 0 0.072589930621782789 -0.0017945606505636389 0 0.071838132755034104 -0.0014424790562431599 0 0.072401601238742036 -0.0014410824231740308 0 0.072589930621782789 -0.0017945606505636389 0 0.071838132755034104 -0.0014424790562431599 0 0.072589930621782789 -0.0017945606505636389 0 0.071956774689303338 -0.0017200944460170834 0 0.072605822816837459 -0.0022060737980837274 0 0.072589930621782789 -0.0017945606505636389 0 0.071956774689303338 -0.0017200944460170834 0 0.072605822816837459 -0.0022060737980837274 0 0.071956774689303338 -0.0017200944460170834 0 0.071447160088084036 -0.0016453172032981573 0 0.070682854639189843 -0.0011499950407124241 0 0.071447160088084036 -0.0016453172032981573 0 0.071781527433507436 -0.0018507982383934773 0 0.072605822816837459 -0.0022060737980837274 0 0.071447160088084036 -0.0016453172032981573 0 0.071781527433507436 -0.0018507982383934773 0 0.072605822816837459 -0.0022060737980837274 0 0.071781527433507436 -0.0018507982383934773 0 0.07406673997542268 -0.0031965712586998346 0 0.071781527433507436 -0.0018507982383934773 0 0.073020627324214993 -0.0028793984482359033 0 0.07406673997542268 -0.0031965712586998346 0 0.069313694868125164 -8.2936067286811153e-05 0 0.070682854639189843 -0.0011499950407124241 0 0.071781527433507436 -0.0018507982383934773 0 0.069313694868125164 -8.2936067286811153e-05 0 0.071781527433507436 -0.0018507982383934773 0 0.073020627324214993 -0.0028793984482359033 0 0.069313694868125164 -8.2936067286811153e-05 0 0.073020627324214993 -0.0028793984482359033 0 0.071407242788017314 -0.0047091886426493326 0 0.073020627324214993 -0.0028793984482359033 0 0.071407242788017314 -0.0047091886426493326 0 0.074377369458091716 -0.0050837046832393502 0 0.072873995941303282 0.0035134019263387412 0 0.076327072144132577 0.00050503970070895948 0 0.072142404839257643 0.0027504706446470472 0 0.072873995941303282 0.0035134019263387412 0 0.076303824272531073 -0.0048853450499288052 0 0.074377369458091716 -0.0050837046832393502 0 0.075725588568531857 -0.004049655297626192 0 0.077226736131805959 -0.000793694666896876 0 0.076327072144132577 0.00050503970070895948 0 0.073020627324214993 -0.0028793984482359033 0 0.074377369458091716 -0.0050837046832393502 0 0.075725588568531857 -0.004049655297626192 0 0.075725588568531857 -0.004049655297626192 0 0.07406673997542268 -0.0031965712586998346 0 0.076150129683317233 -0.0045285032609181479 0 0.073020627324214993 -0.0028793984482359033 0 0.075725588568531857 -0.004049655297626192 0 0.07406673997542268 -0.0031965712586998346 0 0.073677552580692252 -0.0028141778904488281 0 0.072605822816837459 -0.0022060737980837274 0 0.07406673997542268 -0.0031965712586998346 0 0.075427079948951439 -0.0043473120310233036 0 0.07406673997542268 -0.0031965712586998346 0 0.076150129683317233 -0.0045285032609181479 0 0.075427079948951439 -0.0043473120310233036 0 0.076150129683317233 -0.0045285032609181479 0 0.077904063577603627 -0.007007685538745259 0 0.077094173779627725 -0.0048060667514416688 0 0.076994159926192254 -0.0067168879206737035 0 0.077904063577603627 -0.007007685538745259 0 0.076150129683317233 -0.0045285032609181479 0 0.077094173779627725 -0.0048060667514416688 0 0.077904063577603627 -0.007007685538745259 0 0.077094173779627725 -0.0048060667514416688 0 0.077114598330543516 -0.0044177373945618586 0 0.076994159926192254 -0.0067168879206737035 0 0.075725588568531857 -0.004049655297626192 0 0.076150129683317233 -0.0045285032609181479 0 0.077094173779627725 -0.0048060667514416688 0 0.076303824272531073 -0.0048853450499288052 0 0.075725588568531857 -0.004049655297626192 0 0.077138817357722392 -0.004109905060049459 0 0.075725588568531857 -0.004049655297626192 0 0.077094173779627725 -0.0048060667514416688 0 0.077138817357722392 -0.004109905060049459 0 0.077094173779627725 -0.0048060667514416688 0 0.077138817357722392 -0.004109905060049459 0 0.077114598330543516 -0.0044177373945618586 0 0.077138817357722392 -0.004109905060049459 0 0.077211723987317626 -0.0033241737658089503 0 0.077114598330543516 -0.0044177373945618586 0 0.077138817357722392 -0.004109905060049459 0 0.077335035769597563 -0.003665265864415233 0 0.077211723987317626 -0.0033241737658089503 0 0.076303824272531073 -0.0048853450499288052 0 0.077138817357722392 -0.004109905060049459 0 0.077335035769597563 -0.003665265864415233 0 0.077226736131805959 -0.000793694666896876 0 0.077062121703493552 -0.0011828120821908439 0 0.074999446609057274 -0.0013571032433966699 0 0.076708217259150155 -0.00090212906404446504 0 0.076341624267270342 -0.0030397443770217103 0 0.076708217259150155 -0.00090212906404446504 0 0.077211723987317626 -0.0033241737658089503 0 0.076341624267270342 -0.0030397443770217103 0 0.077335035769597563 -0.003665265864415233 0 0.076708217259150155 -0.00090212906404446504 0 0.077211723987317626 -0.0033241737658089503 0 0.077062121703493552 -0.0011828120821908439 0 0.076599539551335055 -0.0011866033264748708 0 0.078643576366057399 -0.00031796918011912651 0 0.076708217259150155 -0.00090212906404446504 0 0.077778427098639732 -0.00011309051372343433 0 0.077211723987317626 -0.0033241737658089503 0 0.077114598330543516 -0.0044177373945618586 0 0.076341624267270342 -0.0030397443770217103 0 0.077114598330543516 -0.0044177373945618586 0 0.076341624267270342 -0.0030397443770217103 0 0.074999648470223182 -0.0057198924120053377 0 0.074999446609057274 -0.0013571032433966699 0 0.076341624267270342 -0.0030397443770217103 0 0.074999648470223182 -0.0057198924120053377 0 0.077114598330543516 -0.0044177373945618586 0 0.074999648470223182 -0.0057198924120053377 0 0.076994159926192254 -0.0067168879206737035 0 0.074999648470223182 -0.0057198924120053377 0 0.076994159926192254 -0.0067168879206737035 0 0.074998916809533953 -0.010083407339024424 0 0.076994159926192254 -0.0067168879206737035 0 0.074998916809533953 -0.010083407339024424 0 0.076700890341716649 -0.0095030677460194359 0 0.074998916809533953 -0.010083407339024424 0 0.076700890341716649 -0.0095030677460194359 0 0.074999672684161744 -0.014447854459634087 0 0.076700890341716649 -0.0095030677460194359 0 0.074999672684161744 -0.014447854459634087 0 0.077482636524798296 -0.011985830471159937 0 0.076994159926192254 -0.0067168879206737035 0 0.076700890341716649 -0.0095030677460194359 0 0.077904063577603627 -0.007007685538745259 0 0.077904063577603627 -0.007007685538745259 0 0.078645270709324269 -0.012507921247109977 0 0.077482636524798296 -0.011985830471159937 0 0.079106584955299805 -0.011163720821625488 0 0.077904063577603627 -0.007007685538745259 0 0.078645270709324269 -0.012507921247109977 0 0.075186919579661227 -0.0021816043925170997 0 0.075427079948951439 -0.0043473120310233036 0 0.077904063577603627 -0.007007685538745259 0 0.076155421545501034 -0.0065627396310643663 0 0.076539741320102661 -0.0066508372927935999 0 0.076700890341716649 -0.0095030677460194359 0 0.077904063577603627 -0.007007685538745259 0 0.077482636524798296 -0.011985830471159937 0 0.078645270709324269 -0.012507921247109977 0 0.079372181573689166 -0.014364024128340227 0 0.077482636524798296 -0.011985830471159937 0 0.078013137397845614 -0.011306512958613003 0 0.079106584955299805 -0.011163720821625488 0 0.078645270709324269 -0.012507921247109977 0 0.078776615706393702 -0.012443185272637648 0 0.078645270709324269 -0.012507921247109977 0 0.077995867590650692 -0.010975845850312404 0 0.078013137397845614 -0.011306512958613003 0 0.078645270709324269 -0.012507921247109977 0 0.077995867590650692 -0.010975845850312404 0 0.078776615706393702 -0.012443185272637648 0 0.078645270709324269 -0.012507921247109977 0 0.079372181573689166 -0.014364024128340227 0 0.078191651829353753 -0.018161008282406542 0 0.079372181573689166 -0.014364024128340227 0 0.076908737624053744 -0.015721594011057455 0 0.079372181573689166 -0.014364024128340227 0 0.076908737624053744 -0.015721594011057455 0 0.077482636524798296 -0.011985830471159937 0 0.074999187162348477 -0.018812827433432964 0 0.076908737624053744 -0.015721594011057455 0 0.074999672684161744 -0.014447854459634087 0 0.074999187162348477 -0.018812827433432964 0 0.076705888875945233 -0.018915297582959335 0 0.076908737624053744 -0.015721594011057455 0 0.076908737624053744 -0.015721594011057455 0 0.074999672684161744 -0.014447854459634087 0 0.077482636524798296 -0.011985830471159937 0 0.041002864430276745 0.025579092582535254 0 0.041185944870651893 0.025623520300771266 0 0.041009867655585876 0.025463261029526327 0 0.041185944870651893 0.025623520300771266 0 0.041009867655585876 0.025463261029526327 0 0.041297073581902474 0.025516230656253473 0 0.041009867655585876 0.025463261029526327 0 0.041297073581902474 0.025516230656253473 0 0.041095565024705238 0.025256089146395336 0 0.041009867655585876 0.025463261029526327 0 0.040872235345703417 0.025499441911966479 0 0.040857172316630261 0.025343462128747364 0 0.040872235345703417 0.025499441911966479 0 0.040857172316630261 0.025343462128747364 0 0.040726294364710008 0.025432057443999141 0 0.040872235345703417 0.025499441911966479 0 0.040738756345076267 0.025578545520064121 0 0.040726294364710008 0.025432057443999141 0 0.040911385727730183 0.025590416788263418 0 0.040872235345703417 0.025499441911966479 0 0.040738756345076267 0.025578545520064121 0 0.041002864430276745 0.025579092582535254 0 0.040911385727730183 0.025590416788263418 0 0.040872235345703417 0.025499441911966479 0 0.041002864430276745 0.025579092582535254 0 0.041009867655585876 0.025463261029526327 0 0.040872235345703417 0.025499441911966479 0 0.040738756345076267 0.025578545520064121 0 0.041030852044618905 0.025705886878296981 0 0.040545939335784334 0.025580928711081998 0 0.00088636036873120908 -0.029042894956721001 0 0.0032564974761800708 -0.02988548101695436 0 -0.0014008205854703149 -0.029803803764435758 0 0.02245525950189833 -0.0071717699914256184 0 0.016103755870707 -0.0011824033948546772 0 0.040911385727730183 0.025590416788263418 0 0.040738756345076267 0.025578545520064121 0 0.041030852044618905 0.025705886878296981 0 0.00088636036873120908 -0.029042894956721001 0 -0.00043439588988234031 -0.028488333812835501 0 0.00046510024001557846 -0.027950244994555881 0 0.00088636036873120908 -0.029042894956721001 0 0.0016212712832774495 -0.027716744492327468 0 0.00046510024001557846 -0.027950244994555881 0 0.00088636036873120908 -0.029042894956721001 0 0.0021529868974573354 -0.029143333594732826 0 0.0032564974761800708 -0.02988548101695436 0 0.00088636036873120908 -0.029042894956721001 0 0.0021529868974573354 -0.029143333594732826 0 0.0016212712832774495 -0.027716744492327468 0 0.0021529868974573354 -0.029143333594732826 0 0.0025146963368081082 -0.028307631160893954 0 0.0016212712832774495 -0.027716744492327468 0 0.0021529868974573354 -0.029143333594732826 0 0.0025146963368081082 -0.028307631160893954 0 0.0028296776441175974 -0.029065498513423695 0 0.0034000486987107539 -0.028952584637222833 0 0.0032564974761800708 -0.02988548101695436 0 0.0084916751597257523 -0.029825472207013662 0 0.0025146963368081082 -0.028307631160893954 0 0.0034000486987107539 -0.028952584637222833 0 0.0028296776441175974 -0.029065498513423695 0 0.0021529868974573354 -0.029143333594732826 0 0.0028296776441175974 -0.029065498513423695 0 0.0032564974761800708 -0.02988548101695436 0 0.0034000486987107539 -0.028952584637222833 0 0.0028296776441175974 -0.029065498513423695 0 0.0032564974761800708 -0.02988548101695436 0 0.041002864430276745 0.025579092582535254 0 0.041185944870651893 0.025623520300771266 0 0.041030852044618905 0.025705886878296981 0 0.041002864430276745 0.025579092582535254 0 0.040911385727730183 0.025590416788263418 0 0.041030852044618905 0.025705886878296981 0 0.02245525950189833 -0.0071717699914256184 0 0.029488998380628063 -0.017105229528348229 0 0.041185944870651893 0.025623520300771266 0 0.041030852044618905 0.025705886878296981 0 0.041638450899425999 0.025889742820863988 0 0.029488998380628063 -0.017105229528348229 0 0.023514315141658335 -0.033030602274160194 0 0.0034000486987107539 -0.028952584637222833 0 0.0084916751597257523 -0.029825472207013662 0 0.0053521306365712958 -0.026790329595605792 0 0.028038686837042838 -0.059327908850159768 0 0.028264678832067146 -0.059139380221451807 0 0.028490749662750042 -0.059325185136097497 0 0.029488998380628063 -0.017105229528348229 0 0.0335465827838793 -0.02430539816430834 0 0.029488998380628063 -0.017105229528348229 0 0.03345282982864721 -0.0010136178073356012 0 0.041638450899425999 0.025889742820863988 0 0.041605248675805902 0.025369200429823144 0 0.042164949390200553 0.02570272687032402 0 0.041638450899425999 0.025889742820863988 0 0.041297073581902474 0.025516230656253473 0 0.041605248675805902 0.025369200429823144 0 0.041185944870651893 0.025623520300771266 0 0.041638450899425999 0.025889742820863988 0 0.041297073581902474 0.025516230656253473 0 0.041297073581902474 0.025516230656253473 0 0.041605248675805902 0.025369200429823144 0 0.041095565024705238 0.025256089146395336 0 0.041605248675805902 0.025369200429823144 0 0.041295768803524098 0.02503920683165179 0 0.041095565024705238 0.025256089146395336 0 0.041605248675805902 0.025369200429823144 0 0.041562828039246567 0.024848256210789212 0 0.042163477539602652 0.025194603571726207 0 0.041605248675805902 0.025369200429823144 0 0.042164949390200553 0.02570272687032402 0 0.042163477539602652 0.025194603571726207 0 0.041562828039246567 0.024848256210789212 0 0.042163477539602652 0.025194603571726207 0 0.042597743504438068 0.024439118632563255 0 0.041562828039246567 0.024848256210789212 0 0.041295768803524098 0.02503920683165179 0 0.041255469660186589 0.024934923034687747 0 0.041605248675805902 0.025369200429823144 0 0.041562828039246567 0.024848256210789212 0 0.041295768803524098 0.02503920683165179 0 0.041295768803524098 0.02503920683165179 0 0.041041165854415612 0.025016400014728438 0 0.041255469660186589 0.024934923034687747 0 0.041295768803524098 0.02503920683165179 0 0.041041165854415612 0.025016400014728438 0 0.041095565024705238 0.025256089146395336 0 0.041009867655585876 0.025463261029526327 0 0.041095565024705238 0.025256089146395336 0 0.040857172316630261 0.025343462128747364 0 0.041095565024705238 0.025256089146395336 0 0.040857172316630261 0.025343462128747364 0 0.040849710688295633 0.025173422274643614 0 0.041041165854415612 0.025016400014728438 0 0.041095565024705238 0.025256089146395336 0 0.040849710688295633 0.025173422274643614 0 0.041041165854415612 0.025016400014728438 0 0.040849710688295633 0.025173422274643614 0 0.040856602708688045 0.025042907787109523 0 0.040849710688295633 0.025173422274643614 0 0.040643452238696948 0.025132136559722389 0 0.040856602708688045 0.025042907787109523 0 0.040473415513571469 0.024614397000606001 0 0.040539511860405032 0.02457299783269239 0 0.04066658182854023 0.024883608344420754 0 0.040473415513571469 0.024614397000606001 0 0.040539511860405032 0.02457299783269239 0 0.040446468212555063 0.024487549904716632 0 0.040643452238696948 0.025132136559722389 0 0.040696805230417202 0.025309629097512568 0 0.040510061337115454 0.025355857220038268 0 0.032068442118472297 0.021534016323632929 0 0.025019933199032736 0.014987493189655964 0 0.040849710688295633 0.025173422274643614 0 0.040643452238696948 0.025132136559722389 0 0.040696805230417202 0.025309629097512568 0 0.040857172316630261 0.025343462128747364 0 0.040849710688295633 0.025173422274643614 0 0.040696805230417202 0.025309629097512568 0 0.0087581809727670674 0.01182363935331091 0 0.0084630370769375532 0.0081923546193663436 0 0.041059651632195049 0.02480131508643307 0 0.040539511860405032 0.02457299783269239 0 0.04079072094208254 0.023409224133157172 0 0.041059651632195049 0.02480131508643307 0 0.040539511860405032 0.02457299783269239 0 0.040786345533272858 0.024919689718792146 0 0.040539511860405032 0.02457299783269239 0 0.04079072094208254 0.023409224133157172 0 0.039103220947807042 0.022729607596095786 0 0.032981681672956037 0.023647900059225877 0 0.025019933199032736 0.014987493189655964 0 -0.022788770672252222 -0.00048600698776856533 0 -0.024510253248373769 -0.0040242924103070449 0 -0.022618811699762254 -0.0034684305343472359 0 -0.024510253248373769 -0.0040242924103070449 0 -0.022618811699762254 -0.0034684305343472359 0 -0.023063715126570208 -0.0055279818194384428 0 -0.021575916834872394 -0.0049146327972715538 0 -0.022618811699762254 -0.0034684305343472359 0 -0.023063715126570208 -0.0055279818194384428 0 -0.024510253248373769 -0.0040242924103070449 0 -0.023063715126570208 -0.0055279818194384428 0 -0.024397284944913913 -0.0063872154344955974 0 -0.021515332273783133 -0.0063323354843985175 0 -0.023063715126570208 -0.0055279818194384428 0 -0.023153718672193808 -0.0076640769676199101 0 -0.023063715126570208 -0.0055279818194384428 0 -0.024397284944913913 -0.0063872154344955974 0 -0.023153718672193808 -0.0076640769676199101 0 0.0084630370769375532 0.0081923546193663436 0 0.0067994482077046474 0.00043468463865300235 0 0.04079072094208254 0.023409224133157172 0 0.039745014130727771 0.021286854710564431 0 0.039103220947807042 0.022729607596095786 0 -0.024510253248373769 -0.0040242924103070449 0 -0.024397284944913913 -0.0063872154344955974 0 -0.026289038037594629 -0.0076434295355466116 0 -0.030690636663693909 -0.0074524535076281378 0 -0.025977281505142672 -0.010541463647973197 0 -0.023011196504256898 -0.0075711134742589949 0 0.0067994482077046474 0.00043468463865300235 0 -0.014696716001998183 -0.0027246412630855567 0 -0.024397284944913913 -0.0063872154344955974 0 -0.026289038037594629 -0.0076434295355466116 0 -0.023153718672193808 -0.0076640769676199101 0 -0.030690636663693909 -0.0074524535076281378 0 -0.034160774212687858 -0.014147265789925435 0 -0.029001123275431698 -0.012288780524626997 0 -0.030690636663693909 -0.0074524535076281378 0 -0.025977281505142672 -0.010541463647973197 0 -0.029001123275431698 -0.012288780524626997 0 -0.025977281505142672 -0.010541463647973197 0 -0.02315904934018272 -0.01103122275807936 0 -0.023011196504256898 -0.0075711134742589949 0 -0.020618719339153071 -0.0088088997825018448 0 -0.02315904934018272 -0.01103122275807936 0 -0.023011196504256898 -0.0075711134742589949 0 0.040696805230417202 0.025309629097512568 0 0.040625113218949224 0.025416750709955024 0 0.040510061337115454 0.025355857220038268 0 0.040625113218949224 0.025416750709955024 0 0.040726294364710008 0.025432057443999141 0 0.040619919823643873 0.02548146701982143 0 0.040738756345076267 0.025578545520064121 0 0.040726294364710008 0.025432057443999141 0 0.040545939335784334 0.025580928711081998 0 0.017228291369028672 0.0022641615073156702 0 0.016103755870707 -0.0011824033948546772 0 0.040696805230417202 0.025309629097512568 0 0.040625113218949224 0.025416750709955024 0 0.040726294364710008 0.025432057443999141 0 0.040857172316630261 0.025343462128747364 0 0.040696805230417202 0.025309629097512568 0 0.040726294364710008 0.025432057443999141 0 0.025019933199032736 0.014987493189655964 0 0.014202519824610406 0.0015268434225417086 0 0.040625113218949224 0.025416750709955024 0 0.040510061337115454 0.025355857220038268 0 0.040577433680683679 0.025482462220703609 0 0.039745014130727771 0.021286854710564431 0 0.039103220947807042 0.022729607596095786 0 0.039349475343468047 0.021276173133007198 0 0.025019933199032736 0.014987493189655964 0 0.01713855001061132 3.3681496775330377e-05 0 0.020390988777907206 0.0026322964790116399 0 0.020430463128997267 0.0023898627934525311 0 0.020249777245267313 0.0023813439911077976 0 0.0067994482077046474 0.00043468463865300235 0 0.0036121521205806036 -0.011975633430261558 0 0.0090297689401386688 -0.0021202914318995333 0 0.0093878748930813338 -0.0021527388956225049 0 0.009296410359713193 -0.0023088871737715557 0 0.008580120744685598 -0.0023029812184956074 0 0.0087595831524902527 -0.0023034187792653035 0 0.0089588213226679085 -0.0015784702350628386 0 0.0087595831524902527 -0.0023034187792653035 0 0.0090297689401386688 -0.0021202914318995333 0 0.0089588213226679085 -0.0015784702350628386 0 0.0087595831524902527 -0.0023034187792653035 0 0.0090297689401386688 -0.0021202914318995333 0 0.009296410359713193 -0.0023088871737715557 0 0.014202519824610406 0.0015268434225417086 0 0.01713855001061132 3.3681496775330377e-05 0 0.0067994482077046474 0.00043468463865300235 0 0.014202519824610406 0.0015268434225417086 0 0.0090297689401386688 -0.0021202914318995333 0 0.0093878748930813338 -0.0021527388956225049 0 0.0089588213226679085 -0.0015784702350628386 0 -0.0018054439899511613 -0.029193678820526904 0 -0.0014008205854703149 -0.029803803764435758 0 -0.00043439588988234031 -0.028488333812835501 0 0.013680555880023669 -0.0052103361754692714 0 0.01713855001061132 3.3681496775330377e-05 0 0.01713855001061132 3.3681496775330377e-05 0 0.016103755870707 -0.0011824033948546772 0 0.040625113218949224 0.025416750709955024 0 0.040577433680683679 0.025482462220703609 0 0.040619919823643873 0.02548146701982143 0 0.011201915271414417 0.010470717030455066 0 0.0033649369245576741 -0.0027493137356196925 0 0.020267044933263492 -0.002484010404221285 0 0.013680555880023669 -0.0052103361754692714 0 0.016103755870707 -0.0011824033948546772 0 0.00088636036873120908 -0.029042894956721001 0 -0.0014008205854703149 -0.029803803764435758 0 -0.00043439588988234031 -0.028488333812835501 0 -0.00043439588988234031 -0.028488333812835501 0 -0.00020878111363569328 -0.026584725352770351 0 0.00046510024001557846 -0.027950244994555881 0 -0.0024530012982218563 -0.029340540956719726 0 -0.00090538392576847572 -0.026808505482199992 0 -0.0024580079314133543 -0.026809527234508589 0 -0.0018054439899511613 -0.029193678820526904 0 -0.00043439588988234031 -0.028488333812835501 0 -0.00020878111363569328 -0.026584725352770351 0 0.013680555880023669 -0.0052103361754692714 0 0.0045094671597716461 -0.019828236792757577 0 -0.00090538392576847572 -0.026808505482199992 0 -0.0024580079314133543 -0.026809527234508589 0 -0.0017408673089718606 -0.025468314336649686 0 -0.0024530012982218563 -0.029340540956719726 0 -0.0024580079314133543 -0.026809527234508589 0 -0.0040769229304634174 -0.027099395921923619 0 0.013680555880023669 -0.0052103361754692714 0 0.0036121521205806036 -0.011975633430261558 0 0.0036121521205806036 -0.011975633430261558 0 -0.0049931890984800309 -0.015047902765775356 0 -0.0024580079314133543 -0.026809527234508589 0 -0.0040769229304634174 -0.027099395921923619 0 -0.0032357059670980563 -0.0253293671974123 0 0.0036121521205806036 -0.011975633430261558 0 0.0019626366129530362 -0.015180618863185892 0 -0.0032357059670980563 -0.0253293671974123 0 -0.0042383348902010958 -0.023860603686238085 0 -0.0056163079265269958 -0.024926796450843395 0 -0.0041218596512762528 -0.027025864879778955 0 -0.0032357059670980563 -0.0253293671974123 0 -0.0056163079265269958 -0.024926796450843395 0 -0.0042383348902010958 -0.023860603686238085 0 -0.0056163079265269958 -0.024926796450843395 0 -0.0047652062703515581 -0.022192790727772534 0 -0.0032357059670980563 -0.0253293671974123 0 -0.0042383348902010958 -0.023860603686238085 0 -0.0033154133488291228 -0.023037387033503151 0 -0.0032357059670980563 -0.0253293671974123 0 -0.0016306198528294744 -0.023774558977143815 0 -0.0033154133488291228 -0.023037387033503151 0 -0.0016306198528294744 -0.023774558977143815 0 -0.00083069444411109782 -0.025034413449705712 0 -0.0017408673089718606 -0.025468314336649686 0 -0.0016306198528294744 -0.023774558977143815 0 -0.00083069444411109782 -0.025034413449705712 0 0.0009692816346434823 -0.024071457826842717 0 -0.00090538392576847572 -0.026808505482199992 0 -0.00083069444411109782 -0.025034413449705712 0 -0.0017408673089718606 -0.025468314336649686 0 -0.0024580079314133543 -0.026809527234508589 0 -0.0032357059670980563 -0.0253293671974123 0 -0.0017408673089718606 -0.025468314336649686 0 -0.0032357059670980563 -0.0253293671974123 0 -0.0016306198528294744 -0.023774558977143815 0 -0.0017408673089718606 -0.025468314336649686 0 -0.018140049478469304 -0.015296813268435669 0 -0.02432309928878831 -0.014336652294354275 0 -0.020900609922813923 -0.018178727990884179 0 -0.019857795519246435 -0.012269329749439367 0 -0.02315904934018272 -0.01103122275807936 0 -0.02432309928878831 -0.014336652294354275 0 -0.025977281505142672 -0.010541463647973197 0 -0.02315904934018272 -0.01103122275807936 0 -0.02432309928878831 -0.014336652294354275 0 -0.02432309928878831 -0.014336652294354275 0 -0.028462281651920846 -0.015990189698057735 0 -0.024810622626908738 -0.01939730526215851 0 -0.034160774212687858 -0.014147265789925435 0 -0.028462281651920846 -0.015990189698057735 0 -0.030890896305429839 -0.018987804181928841 0 -0.034160774212687858 -0.014147265789925435 0 -0.028462281651920846 -0.015990189698057735 0 -0.029001123275431698 -0.012288780524626997 0 -0.02432309928878831 -0.014336652294354275 0 -0.028462281651920846 -0.015990189698057735 0 -0.029001123275431698 -0.012288780524626997 0 -0.025977281505142672 -0.010541463647973197 0 -0.02432309928878831 -0.014336652294354275 0 -0.029001123275431698 -0.012288780524626997 0 -0.030890896305429839 -0.018987804181928841 0 -0.024810622626908738 -0.01939730526215851 0 -0.027580138497898345 -0.023876058740020779 0 -0.028462281651920846 -0.015990189698057735 0 -0.030890896305429839 -0.018987804181928841 0 -0.024810622626908738 -0.01939730526215851 0 -0.0049931890984800309 -0.015047902765775356 0 -0.0093801495114303416 -0.017777895846168245 0 -0.019330818542189803 -0.0218048554112182 0 -0.024810622626908738 -0.01939730526215851 0 -0.020900609922813923 -0.018178727990884179 0 -0.019330818542189803 -0.0218048554112182 0 -0.024810622626908738 -0.01939730526215851 0 -0.027580138497898345 -0.023876058740020779 0 -0.02432309928878831 -0.014336652294354275 0 -0.024810622626908738 -0.01939730526215851 0 -0.020900609922813923 -0.018178727990884179 0 -0.0087976254322564909 -0.021014346716091644 0 -0.0078999891323789598 -0.021385987988663552 0 -0.0081343247802091387 -0.020935930328118853 0 -0.012674762440185408 -0.019601267185346424 0 -0.0093801495114303416 -0.017777895846168245 0 -0.0094494748635032995 -0.021202872563703644 0 -0.0087976254322564909 -0.021014346716091644 0 -0.0078999891323789598 -0.021385987988663552 0 -0.0071823999272347411 -0.02248917672284886 0 -0.0064618898079093065 -0.020545208270095483 0 -0.0081343247802091387 -0.020935930328118853 0 -0.0056163079265269958 -0.024926796450843395 0 -0.0070720706807190122 -0.022844615771216485 0 -0.0047652062703515581 -0.022192790727772534 0 -0.0071823999272347411 -0.02248917672284886 0 -0.0064618898079093065 -0.020545208270095483 0 -0.0051348311787329758 -0.022111771790306926 0 -0.0093801495114303416 -0.017777895846168245 0 -0.0089439736885578158 -0.018491974053149385 0 -0.0093801495114303416 -0.017777895846168245 0 -0.0070959609812414068 -0.01848005267524238 0 -0.0050711566029237156 -0.01923915159544377 0 -0.0078423215290245301 -0.019538366565054859 0 -0.0064618898079093065 -0.020545208270095483 0 -0.0078423215290245301 -0.019538366565054859 0 -0.0064618898079093065 -0.020545208270095483 0 -0.0081343247802091387 -0.020935930328118853 0 -0.0090761474925805056 -0.019511216416984806 0 -0.0078423215290245301 -0.019538366565054859 0 -0.0089168441016895233 -0.020368029315369143 0 -0.0078423215290245301 -0.019538366565054859 0 -0.0081343247802091387 -0.020935930328118853 0 -0.0089168441016895233 -0.020368029315369143 0 -0.0087976254322564909 -0.021014346716091644 0 -0.0081343247802091387 -0.020935930328118853 0 -0.0089168441016895233 -0.020368029315369143 0 -0.0016306198528294744 -0.023774558977143815 0 -0.0016578740499463599 -0.021519203115894558 0 0.0009692816346434823 -0.024071457826842717 0 -0.0026594849379008669 -0.021557275749426001 0 -0.002329098359366935 -0.022472788886408985 0 -0.0033154133488291228 -0.023037387033503151 0 -0.0026594849379008669 -0.021557275749426001 0 -0.0016578740499463599 -0.021519203115894558 0 -0.002329098359366935 -0.022472788886408985 0 -0.0016306198528294744 -0.023774558977143815 0 -0.0016578740499463599 -0.021519203115894558 0 -0.002329098359366935 -0.022472788886408985 0 -0.0016306198528294744 -0.023774558977143815 0 -0.002329098359366935 -0.022472788886408985 0 -0.0033154133488291228 -0.023037387033503151 0 -0.0042383348902010958 -0.023860603686238085 0 -0.0033154133488291228 -0.023037387033503151 0 -0.0047652062703515581 -0.022192790727772534 0 -0.0026594849379008669 -0.021557275749426001 0 -0.0033154133488291228 -0.023037387033503151 0 -0.0047652062703515581 -0.022192790727772534 0 -0.0061323006852725308 -0.018628607044372452 0 -0.0070959609812414068 -0.01848005267524238 0 -0.0050711566029237156 -0.01923915159544377 0 -0.0064618898079093065 -0.020545208270095483 0 -0.0051348311787329758 -0.022111771790306926 0 -0.0050711566029237156 -0.01923915159544377 0 -0.0026594849379008669 -0.021557275749426001 0 -0.0051348311787329758 -0.022111771790306926 0 -0.0050711566029237156 -0.01923915159544377 0 -0.0026594849379008669 -0.021557275749426001 0 -0.0016578740499463599 -0.021519203115894558 0 0.010481756345520706 -0.038865453173572304 0 0.013353577190484217 -0.039379173541081072 0 0.025325415065832534 -0.058586454019325364 0 0.025902389227168584 -0.058738114229028783 0 0.025911454178197631 -0.058559359959985298 0 0.025902389227168584 -0.058738114229028783 0 0.025911454178197631 -0.058559359959985298 0 0.025994137520134308 -0.058696695589796288 0 0.026136368884846734 -0.05829970417522768 0 0.025911454178197631 -0.058559359959985298 0 0.025994137520134308 -0.058696695589796288 0 0.027346665989686689 -0.058371445324333401 0 0.027242288549787514 -0.058583390053659853 0 0.027515937780409207 -0.058650618957353171 0 0.027346665989686689 -0.058371445324333401 0 0.027515937780409207 -0.058650618957353171 0 0.027713266944386201 -0.058478849489505394 0 0.027515937780409207 -0.058650618957353171 0 0.027399469271425884 -0.058880075738019004 0 0.027764035647655578 -0.058770790130057989 0 0.027515937780409207 -0.058650618957353171 0 0.027764035647655578 -0.058770790130057989 0 0.027713266944386201 -0.058478849489505394 0 0.013353577190484217 -0.039379173541081072 0 0.017588011128594639 -0.039861557826496433 0 0.027242288549787514 -0.058583390053659853 0 0.027515937780409207 -0.058650618957353171 0 0.027399469271425884 -0.058880075738019004 0 0.025902389227168584 -0.058738114229028783 0 0.025994137520134308 -0.058696695589796288 0 0.025957526610921745 -0.058629471620759932 0 -0.0016578740499463599 -0.021519203115894558 0 0.0019725321008819633 -0.024460284006994834 0 0.0009692816346434823 -0.024071457826842717 0 0.023322665425953765 -0.054969357991369198 0 0.017588011128594639 -0.039861557826496433 0 -0.00090538392576847572 -0.026808505482199992 0 -0.00083069444411109782 -0.025034413449705712 0 0.0009692816346434823 -0.024071457826842717 0 -0.00020878111363569328 -0.026584725352770351 0 0.0012116024019179349 -0.025839926086337464 0 0.0009692816346434823 -0.024071457826842717 0 0.0045094671597716461 -0.019828236792757577 0 0.0029146273167343639 -0.022262835117382994 0 0.017588011128594639 -0.039861557826496433 0 0.013273559929495761 -0.032151484871974459 0 0.0012116024019179349 -0.025839926086337464 0 0.0019725321008819633 -0.024460284006994834 0 0.0026359938519614243 -0.026655139689535055 0 0.0012116024019179349 -0.025839926086337464 0 0.0019725321008819633 -0.024460284006994834 0 0.0009692816346434823 -0.024071457826842717 0 0.027399469271425884 -0.058880075738019004 0 0.027721872351951962 -0.05910018621419582 0 0.027764035647655578 -0.058770790130057989 0 0.017588011128594639 -0.039861557826496433 0 0.023514315141658335 -0.033030602274160194 0 0.0024850880538661588 -0.024025409037655668 0 0.0029930540605462158 -0.026425297544178446 0 0.0053521306365712958 -0.026790329595605792 0 0.0034000486987107539 -0.028952584637222833 0 0.0029930540605462158 -0.026425297544178446 0 0.0053521306365712958 -0.026790329595605792 0 0.0025146963368081082 -0.028307631160893954 0 0.0034000486987107539 -0.028952584637222833 0 0.0026359938519614243 -0.026655139689535055 0 0.012103676453501657 -0.030568578588290419 0 0.013273559929495761 -0.032151484871974459 0 0.0025146963368081082 -0.028307631160893954 0 0.0026359938519614243 -0.026655139689535055 0 0.0016212712832774495 -0.027716744492327468 0 -0.00020878111363569328 -0.026584725352770351 0 0.0016212712832774495 -0.027716744492327468 0 0.00046510024001557846 -0.027950244994555881 0 -0.00020878111363569328 -0.026584725352770351 0 0.0012116024019179349 -0.025839926086337464 0 0.0016212712832774495 -0.027716744492327468 0 0.0012116024019179349 -0.025839926086337464 0 0.0026359938519614243 -0.026655139689535055 0 0.0016212712832774495 -0.027716744492327468 0 0.028038686837042838 -0.059327908850159768 0 0.028264678832067146 -0.059139380221451807 0 0.027721872351951962 -0.05910018621419582 0 0.028264678832067146 -0.059139380221451807 0 0.027721872351951962 -0.05910018621419582 0 0.028150896872677807 -0.058901994008341056 0 0.027721872351951962 -0.05910018621419582 0 0.028150896872677807 -0.058901994008341056 0 0.027764035647655578 -0.058770790130057989 0 0.028150896872677807 -0.058901994008341056 0 0.028116620715554937 -0.058578217637607261 0 0.028364036837603433 -0.058714796136582363 0 0.028150896872677807 -0.058901994008341056 0 0.027764035647655578 -0.058770790130057989 0 0.028116620715554937 -0.058578217637607261 0 0.027764035647655578 -0.058770790130057989 0 0.027713266944386201 -0.058478849489505394 0 0.028116620715554937 -0.058578217637607261 0 0.027996488612725166 -0.058347755853764227 0 0.027713266944386201 -0.058478849489505394 0 0.028116620715554937 -0.058578217637607261 0 0.028312023621148492 -0.05823262922170485 0 0.027996488612725166 -0.058347755853764227 0 0.028116620715554937 -0.058578217637607261 0 0.028312023621148492 -0.05823262922170485 0 0.028116620715554937 -0.058578217637607261 0 0.028573945612563066 -0.058533296552149269 0 0.028573945612563066 -0.058533296552149269 0 0.028364036837603433 -0.058714796136582363 0 0.028609255821044555 -0.058839171304596691 0 0.028116620715554937 -0.058578217637607261 0 0.028573945612563066 -0.058533296552149269 0 0.028364036837603433 -0.058714796136582363 0 0.028573945612563066 -0.058533296552149269 0 0.02891767149786954 -0.058621120265954896 0 0.028609255821044555 -0.058839171304596691 0 0.028573945612563066 -0.058533296552149269 0 0.028942514621627235 -0.058408644038041101 0 0.02891767149786954 -0.058621120265954896 0 0.028697808919568954 -0.058270200980289101 0 0.028573945612563066 -0.058533296552149269 0 0.028942514621627235 -0.058408644038041101 0 0.029703606863220978 -0.057606872114567442 0 0.02999136991839052 -0.057454492079135611 0 0.028942514621627235 -0.058408644038041101 0 0.029229722818575311 -0.058481603926725009 0 0.02891767149786954 -0.058621120265954896 0 0.029400846524295084 -0.058227717710658128 0 0.028942514621627235 -0.058408644038041101 0 0.02934028037730434 -0.05850410899826209 0 0.029229722818575311 -0.058481603926725009 0 0.029131106833040155 -0.058883746585294119 0 0.029611954310428297 -0.058602325332573917 0 0.029229722818575311 -0.058481603926725009 0 0.02891767149786954 -0.058621120265954896 0 0.029131106833040155 -0.058883746585294119 0 0.02891767149786954 -0.058621120265954896 0 0.029131106833040155 -0.058883746585294119 0 0.028609255821044555 -0.058839171304596691 0 0.029131106833040155 -0.058883746585294119 0 0.028687799697844938 -0.059100981095318278 0 0.028946942600316623 -0.059299058785060012 0 0.028264678832067146 -0.059139380221451807 0 0.028687799697844938 -0.059100981095318278 0 0.028609255821044555 -0.058839171304596691 0 0.028150896872677807 -0.058901994008341056 0 0.028364036837603433 -0.058714796136582363 0 0.028609255821044555 -0.058839171304596691 0 0.028264678832067146 -0.059139380221451807 0 0.028150896872677807 -0.058901994008341056 0 0.028609255821044555 -0.058839171304596691 0 0.029131106833040155 -0.058883746585294119 0 0.028687799697844938 -0.059100981095318278 0 0.028609255821044555 -0.058839171304596691 0 0.02948786498849755 -0.057893222424222283 0 0.029556418034924783 -0.057962282846591433 0 0.029395475901971956 -0.057919816274946023 0 0.02948786498849755 -0.057893222424222283 0 0.029474538750598921 -0.057999172747901777 0 0.029556418034924783 -0.057962282846591433 0 0.02952247662977071 -0.058125400496659554 0 0.029456861911752806 -0.058115416104952515 0 0.029474538750598921 -0.057999172747901777 0 0.029606553030263712 -0.058226832158143525 0 0.02952247662977071 -0.058125400496659554 0 0.029556418034924783 -0.057962282846591433 0 0.02952247662977071 -0.058125400496659554 0 0.029474538750598921 -0.057999172747901777 0 0.029556418034924783 -0.057962282846591433 0 0.029606553030263712 -0.058226832158143525 0 0.02934028037730434 -0.05850410899826209 0 0.029593730684113258 -0.058577131077166888 0 0.029606553030263712 -0.058226832158143525 0 0.029807578936241332 -0.058462686254157091 0 0.029593730684113258 -0.058577131077166888 0 0.029807578936241332 -0.058462686254157091 0 0.029593730684113258 -0.058577131077166888 0 0.02980954977126573 -0.058607170859866907 0 0.031170145590240235 -0.056965486808963788 0 0.03179395020657904 -0.056446802741215635 0 0.02999136991839052 -0.057454492079135611 0 0.030744634892019149 -0.056791034324764657 0 0.029131106833040155 -0.058883746585294119 0 0.029611954310428297 -0.058602325332573917 0 0.029682952407625602 -0.058954953514678929 0 0.029131106833040155 -0.058883746585294119 0 0.029682952407625602 -0.058954953514678929 0 0.029398387339904773 -0.059266220818174044 0 0.029682952407625602 -0.058954953514678929 0 0.030038596245898653 -0.058744128011970341 0 0.030122045419138866 -0.059010573225016322 0 0.029682952407625602 -0.058954953514678929 0 0.030122045419138866 -0.059010573225016322 0 0.029877707182097746 -0.059243816651207003 0 0.029611954310428297 -0.058602325332573917 0 0.029682952407625602 -0.058954953514678929 0 0.030038596245898653 -0.058744128011970341 0 0.030744634892019149 -0.056791034324764657 0 0.032086375344698347 -0.055136848383876384 0 0.03179395020657904 -0.056446802741215635 0 0.033944138607794064 -0.054212410490809736 0 0.029807578936241332 -0.058462686254157091 0 0.02980954977126573 -0.058607170859866907 0 0.0299299048875671 -0.058573757723204459 0 0.032086375344698347 -0.055136848383876384 0 0.034419136842470756 -0.051453267791288552 0 0.030038596245898653 -0.058744128011970341 0 0.030122045419138866 -0.059010573225016322 0 0.030514747061893343 -0.058923122637418404 0 0.030122045419138866 -0.059010573225016322 0 0.030514747061893343 -0.058923122637418404 0 0.03041882197597362 -0.059219128804321015 0 0.02980954977126573 -0.058607170859866907 0 0.029948472477400772 -0.058589712324853993 0 0.0299299048875671 -0.058573757723204459 0 0.030018598152312774 -0.058568158288669965 0 0.029948472477400772 -0.058589712324853993 0 0.0299299048875671 -0.058573757723204459 0 0.029616346112336125 -0.057781124820889124 0 0.02948786498849755 -0.057893222424222283 0 0.029395475901971956 -0.057919816274946023 0 0.057634601351593602 -0.0053150543699845365 0 0.05528888480315567 -0.0013492063237914263 0 0.053691654109356529 -0.0056655017357475496 0 0.030929206385276665 -0.05911278307885267 0 0.030514747061893343 -0.058923122637418404 0 0.03041882197597362 -0.059219128804321015 0 0.05528888480315567 -0.0013492063237914263 0 0.05174071799608556 -0.0040336436986489381 0 0.051333796567308583 -0.0014461096694928888 0 0.030122045419138866 -0.059010573225016322 0 0.03041882197597362 -0.059219128804321015 0 0.029877707182097746 -0.059243816651207003 0 0.041711324260292844 -0.035304020272016137 0 0.040409525454524697 -0.032188700810355866 0 0.05528888480315567 -0.0013492063237914263 0 0.05174071799608556 -0.0040336436986489381 0 0.053691654109356529 -0.0056655017357475496 0 0.05174071799608556 -0.0040336436986489381 0 0.051333796567308583 -0.0014461096694928888 0 0.047416144093855084 -0.0015466580781262717 0 0.029682952407625602 -0.058954953514678929 0 0.029877707182097746 -0.059243816651207003 0 0.029398387339904773 -0.059266220818174044 0 0.040409525454524697 -0.032188700810355866 0 0.038354737131427868 -0.030142638300758206 0 0.05174071799608556 -0.0040336436986489381 0 0.047416144093855084 -0.0015466580781262717 0 0.047312082043634615 -0.0046916566538867744 0 0.050156958946608175 -0.0061419891138297994 0 0.047312082043634615 -0.0046916566538867744 0 0.046553866477672248 -0.0075411229328277334 0 0.05174071799608556 -0.0040336436986489381 0 0.050156958946608175 -0.0061419891138297994 0 0.047312082043634615 -0.0046916566538867744 0 0.046553866477672248 -0.0075411229328277334 0 0.04617254956671276 -0.0096647411992289486 0 0.049369328390560428 -0.010514411335613703 0 0.050156958946608175 -0.0061419891138297994 0 0.046553866477672248 -0.0075411229328277334 0 0.049369328390560428 -0.010514411335613703 0 0.050156958946608175 -0.0061419891138297994 0 0.052172450999459538 -0.0081437586129932838 0 0.049369328390560428 -0.010514411335613703 0 0.052172450999459538 -0.0081437586129932838 0 0.053168978380506333 -0.0094908690989260278 0 0.049369328390560428 -0.010514411335613703 0 0.05174071799608556 -0.0040336436986489381 0 0.050156958946608175 -0.0061419891138297994 0 0.053691654109356529 -0.0056655017357475496 0 0.050156958946608175 -0.0061419891138297994 0 0.053691654109356529 -0.0056655017357475496 0 0.052172450999459538 -0.0081437586129932838 0 0.053691654109356529 -0.0056655017357475496 0 0.052172450999459538 -0.0081437586129932838 0 0.053524185961970581 -0.0076777361849144502 0 0.053691654109356529 -0.0056655017357475496 0 0.053524185961970581 -0.0076777361849144502 0 0.054850335283370057 -0.0076125752645681624 0 0.052172450999459538 -0.0081437586129932838 0 0.053168978380506333 -0.0094908690989260278 0 0.053524185961970581 -0.0076777361849144502 0 0.053168978380506333 -0.0094908690989260278 0 0.053524185961970581 -0.0076777361849144502 0 0.054850335283370057 -0.0076125752645681624 0 0.053168978380506333 -0.0094908690989260278 0 0.054850335283370057 -0.0076125752645681624 0 0.056944741745847974 -0.0084505191456344334 0 0.061536675026246219 0.0053766354718783691 0 0.065573402973385639 0.00062324421748082329 0 0.057634601351593602 -0.0053150543699845365 0 0.053691654109356529 -0.0056655017357475496 0 0.054850335283370057 -0.0076125752645681624 0 0.057634601351593602 -0.0053150543699845365 0 0.054850335283370057 -0.0076125752645681624 0 0.056944741745847974 -0.0084505191456344334 0 0.041507278187232897 -0.0039143127375311799 0 0.03826369692135375 -0.0042382239280630727 0 0.040709379005349607 -0.0066460901778860604 0 0.041507278187232897 -0.0039143127375311799 0 0.03826369692135375 -0.0042382239280630727 0 0.03967212047255516 -0.0017413674705280986 0 0.035824674646083778 -0.0018436145457924929 0 0.03826369692135375 -0.0042382239280630727 0 0.03967212047255516 -0.0017413674705280986 0 0.028264678832067146 -0.059139380221451807 0 0.028687799697844938 -0.059100981095318278 0 0.028490749662750042 -0.059325185136097497 0 0.041507278187232897 -0.0039143127375311799 0 0.03967212047255516 -0.0017413674705280986 0 0.043531910088032727 -0.0016443760779193206 0 0.0335465827838793 -0.02430539816430834 0 0.036111713330172303 -0.027947105246999764 0 0.028687799697844938 -0.059100981095318278 0 0.028490749662750042 -0.059325185136097497 0 0.028946942600316623 -0.059299058785060012 0 0.029131106833040155 -0.058883746585294119 0 0.029398387339904773 -0.059266220818174044 0 0.028946942600316623 -0.059299058785060012 0 0.038354737131427868 -0.030142638300758206 0 0.036111713330172303 -0.027947105246999764 0 0.047416144093855084 -0.0015466580781262717 0 0.043531910088032727 -0.0016443760779193206 0 0.047312082043634615 -0.0046916566538867744 0 0.043531910088032727 -0.0016443760779193206 0 0.047312082043634615 -0.0046916566538867744 0 0.043917510426913872 -0.0054999969889662917 0 0.041507278187232897 -0.0039143127375311799 0 0.043531910088032727 -0.0016443760779193206 0 0.043917510426913872 -0.0054999969889662917 0 0.047312082043634615 -0.0046916566538867744 0 0.043917510426913872 -0.0054999969889662917 0 0.046553866477672248 -0.0075411229328277334 0 0.046553866477672248 -0.0075411229328277334 0 0.043161659859939805 -0.009079193009170268 0 0.04617254956671276 -0.0096647411992289486 0 0.043917510426913872 -0.0054999969889662917 0 0.046553866477672248 -0.0075411229328277334 0 0.043161659859939805 -0.009079193009170268 0 0.044165709317052305 0.0081065206471921877 0 0.038950711633847251 0.0050575343782395359 0 0.04434717310338402 0.02446927028223184 0 0.043137734851005249 0.02532468442322507 0 0.043504640725277516 0.02402021975980739 0 0.041507278187232897 -0.0039143127375311799 0 0.043917510426913872 -0.0054999969889662917 0 0.040709379005349607 -0.0066460901778860604 0 0.043917510426913872 -0.0054999969889662917 0 0.043161659859939805 -0.009079193009170268 0 0.040709379005349607 -0.0066460901778860604 0 0.042164949390200553 0.02570272687032402 0 0.043137734851005249 0.02532468442322507 0 0.042163477539602652 0.025194603571726207 0 0.03345282982864721 -0.0010136178073356012 0 0.038950711633847251 0.0050575343782395359 0 0.043137734851005249 0.02532468442322507 0 0.042597743504438068 0.024439118632563255 0 0.043504640725277516 0.02402021975980739 0 0.043137734851005249 0.02532468442322507 0 0.042163477539602652 0.025194603571726207 0 0.042597743504438068 0.024439118632563255 0 0.042597743504438068 0.024439118632563255 0 0.04298092036332065 0.023591388390662403 0 0.042266765622656327 0.023208816146874575 0 0.042597743504438068 0.024439118632563255 0 0.04298092036332065 0.023591388390662403 0 0.043504640725277516 0.02402021975980739 0 0.041412495484580307 0.024899394693328712 0 0.041598204912357335 0.02468279282909636 0 0.041416074947655312 0.024831279593086442 0 0.042266765622656327 0.023208816146874575 0 0.043118147976495089 0.022814507756782326 0 0.043152819365319423 0.021533128782655616 0 0.042465059034050574 0.024173827052698261 0 0.043404475016303679 0.023498529388571589 0 0.04298092036332065 0.023591388390662403 0 0.042266765622656327 0.023208816146874575 0 0.043118147976495089 0.022814507756782326 0 0.04298092036332065 0.023591388390662403 0 0.043118147976495089 0.022814507756782326 0 0.04356346686711024 0.023279727992466095 0 0.044420518713256446 0.022376873372884579 0 0.043603818431754794 0.02239211590338815 0 0.04356346686711024 0.023279727992466095 0 0.043118147976495089 0.022814507756782326 0 0.043603818431754794 0.02239211590338815 0 0.04356346686711024 0.023279727992466095 0 0.04434717310338402 0.02446927028223184 0 0.043504640725277516 0.02402021975980739 0 0.044398883627631849 0.023166842641736088 0 0.04356346686711024 0.023279727992466095 0 0.043504640725277516 0.02402021975980739 0 0.044398883627631849 0.023166842641736088 0 0.04298092036332065 0.023591388390662403 0 0.04356346686711024 0.023279727992466095 0 0.043504640725277516 0.02402021975980739 0 0.043161659859939805 -0.009079193009170268 0 0.04617254956671276 -0.0096647411992289486 0 0.045616690889724622 -0.011527818745465318 0 0.049504940971287131 0.011418296659681828 0 0.048631831669190925 0.0126894845427217 0 0.044165709317052305 0.0081065206471921877 0 0.049504940971287131 0.011418296659681828 0 0.04434717310338402 0.02446927028223184 0 0.045437878108989263 0.023437954318213144 0 0.044398883627631849 0.023166842641736088 0 0.04617254956671276 -0.0096647411992289486 0 0.045616690889724622 -0.011527818745465318 0 0.049369328390560428 -0.010514411335613703 0 0.045663663072545498 0.023545469853931297 0 0.045073091770540384 0.022756334345069268 0 0.047108021361235167 0.02212272301647376 0 0.046994411813258578 0.019040321123442425 0 0.055892683336658887 0.014077599545673621 0 0.049504940971287131 0.011418296659681828 0 0.055892683336658887 0.014077599545673621 0 0.045439796435105796 0.022960597230100389 0 0.046276417929123757 0.02229595319866173 0 0.04723029910001348 0.022419145823331467 0 0.045439796435105796 0.022960597230100389 0 0.045409220868946977 0.022055676317277385 0 0.046276417929123757 0.02229595319866173 0 0.044420518713256446 0.022376873372884579 0 0.04356346686711024 0.023279727992466095 0 0.045439796435105796 0.022960597230100389 0 0.04356346686711024 0.023279727992466095 0 0.044398883627631849 0.023166842641736088 0 0.045073091770540384 0.022756334345069268 0 0.045663663072545498 0.023545469853931297 0 0.044398883627631849 0.023166842641736088 0 0.045073091770540384 0.022756334345069268 0 0.045142408659463472 0.020162756298220352 0 0.046994411813258578 0.019040321123442425 0 0.044420518713256446 0.022376873372884579 0 0.045439796435105796 0.022960597230100389 0 0.045409220868946977 0.022055676317277385 0 0.044420518713256446 0.022376873372884579 0 0.045409220868946977 0.022055676317277385 0 0.044753068789841498 0.021698089249099852 0 0.045409220868946977 0.022055676317277385 0 0.045281046516068263 0.021357969439711286 0 0.044753068789841498 0.021698089249099852 0 0.045409220868946977 0.022055676317277385 0 0.045281046516068263 0.021357969439711286 0 0.046122339921098848 0.021431994325578844 0 0.045281046516068263 0.021357969439711286 0 0.044753068789841498 0.021698089249099852 0 0.044815308198126236 0.021007334414481046 0 0.047281444332815351 0.022470408958618168 0 0.049480680494893146 0.024514445639175136 0 0.049181019934024565 0.021305834270675113 0 0.052399643859072031 0.016233573469365149 0 0.055892683336658887 0.014077599545673621 0 0.046276417929123757 0.02229595319866173 0 0.046122339921098848 0.021431994325578844 0 0.04723029910001348 0.022419145823331467 0 0.045409220868946977 0.022055676317277385 0 0.046276417929123757 0.02229595319866173 0 0.046122339921098848 0.021431994325578844 0 0.047411322987337509 0.0204173547200498 0 0.046308821419341839 0.020823151423343463 0 0.048252072060329353 0.021057167340753913 0 0.047281444332815351 0.022470408958618168 0 0.046308821419341839 0.020823151423343463 0 0.049181019934024565 0.021305834270675113 0 0.050527625748155627 0.016887954725630074 0 0.05269498874802734 0.016533781454623833 0 0.047411322987337509 0.0204173547200498 0 0.046308821419341839 0.020823151423343463 0 0.046363468442114891 0.0200374377871812 0 0.044753068789841498 0.021698089249099852 0 0.044815308198126236 0.021007334414481046 0 0.044134209874289461 0.020970506708931087 0 0.045281046516068263 0.021357969439711286 0 0.044815308198126236 0.021007334414481046 0 0.045226955288008991 0.020504460292467622 0 0.047281444332815351 0.022470408958618168 0 0.046308821419341839 0.020823151423343463 0 0.045226955288008991 0.020504460292467622 0 0.045281046516068263 0.021357969439711286 0 0.046122339921098848 0.021431994325578844 0 0.045226955288008991 0.020504460292467622 0 0.052399643859072031 0.016233573469365149 0 0.051053802575313362 0.016591535627788402 0 0.046308821419341839 0.020823151423343463 0 0.045424776033464669 0.019967122038066495 0 0.046363468442114891 0.0200374377871812 0 0.046308821419341839 0.020823151423343463 0 0.045226955288008991 0.020504460292467622 0 0.045424776033464669 0.019967122038066495 0 0.045226955288008991 0.020504460292467622 0 0.044727978429191392 0.020431314998270181 0 0.045424776033464669 0.019967122038066495 0 0.044815308198126236 0.021007334414481046 0 0.045226955288008991 0.020504460292467622 0 0.044727978429191392 0.020431314998270181 0 0.043404475016303679 0.023498529388571589 0 0.045144356836442197 0.022906632526493807 0 0.044727978429191392 0.020431314998270181 0 0.044134209874289461 0.020970506708931087 0 0.044103640970374378 0.019555807769559636 0 0.044134209874289461 0.020970506708931087 0 0.043152819365319423 0.021533128782655616 0 0.044103640970374378 0.019555807769559636 0 0.041598204912357335 0.02468279282909636 0 0.041561400718459297 0.024395368129591848 0 0.041792638343532279 0.024344564459074732 0 0.044815308198126236 0.021007334414481046 0 0.044727978429191392 0.020431314998270181 0 0.044134209874289461 0.020970506708931087 0 0.04147406796116173 0.024545228764838119 0 0.041598204912357335 0.02468279282909636 0 0.041388484243287414 0.024653318643530413 0 0.04147406796116173 0.024545228764838119 0 0.041598204912357335 0.02468279282909636 0 0.041561400718459297 0.024395368129591848 0 0.04147406796116173 0.024545228764838119 0 0.041561400718459297 0.024395368129591848 0 0.04135022011565407 0.024446064572434523 0 0.041598204912357335 0.02468279282909636 0 0.041388484243287414 0.024653318643530413 0 0.041416074947655312 0.024831279593086442 0 0.043118147976495089 0.022814507756782326 0 0.043603818431754794 0.02239211590338815 0 0.043152819365319423 0.021533128782655616 0 0.043603818431754794 0.02239211590338815 0 0.043152819365319423 0.021533128782655616 0 0.043942236532750208 0.021758738496975575 0 0.044420518713256446 0.022376873372884579 0 0.044753068789841498 0.021698089249099852 0 0.043942236532750208 0.021758738496975575 0 0.044420518713256446 0.022376873372884579 0 0.043603818431754794 0.02239211590338815 0 0.043942236532750208 0.021758738496975575 0 0.044753068789841498 0.021698089249099852 0 0.044134209874289461 0.020970506708931087 0 0.043942236532750208 0.021758738496975575 0 0.044134209874289461 0.020970506708931087 0 0.043152819365319423 0.021533128782655616 0 0.043942236532750208 0.021758738496975575 0 0.079189470322195213 0.0036664094524292163 0 0.080211056383144408 0.0023435353140067298 0 0.080495305953672949 0.0044094206678547236 0 0.077653202798682597 0.0042836253625708571 0 0.078986969839741905 0.0050054094306213768 0 0.079189470322195213 0.0036664094524292163 0 0.078986969839741905 0.0050054094306213768 0 0.079189470322195213 0.0036664094524292163 0 0.080495305953672949 0.0044094206678547236 0 0.077484591920460713 0.0019536344571201856 0 0.079189470322195213 0.0036664094524292163 0 0.080211056383144408 0.0023435353140067298 0 0.077484591920460713 0.0019536344571201856 0 0.07848164697849648 -0.00020769889751574204 0 0.080211056383144408 0.0023435353140067298 0 0.081573192597745953 0.00093649871915047075 0 0.07848164697849648 -0.00020769889751574204 0 0.080211056383144408 0.0023435353140067298 0 0.080211056383144408 0.0023435353140067298 0 0.081792975610692223 0.0023928233368262228 0 0.081970116758728215 0.0033940111735708861 0 0.081573192597745953 0.00093649871915047075 0 0.081792975610692223 0.0023928233368262228 0 0.083283810065301819 0.0029072699682419221 0 0.081573192597745953 0.00093649871915047075 0 0.080211056383144408 0.0023435353140067298 0 0.081792975610692223 0.0023928233368262228 0 0.080211056383144408 0.0023435353140067298 0 0.081970116758728215 0.0033940111735708861 0 0.080495305953672949 0.0044094206678547236 0 0.081970116758728215 0.0033940111735708861 0 0.080495305953672949 0.0044094206678547236 0 0.082673362104182829 0.0055418519183206508 0 0.06798185205505497 0.010748317771029459 0 0.066492537912237692 0.012429954051274197 0 0.083028455490555694 0.0039829909749247777 0 0.084833886009512999 0.0045402952228749413 0 0.082503716591960041 0.005048564370186014 0 0.081970116758728215 0.0033940111735708861 0 0.083028455490555694 0.0039829909749247777 0 0.082503716591960041 0.005048564370186014 0 0.083028455490555694 0.0039829909749247777 0 0.083283810065301819 0.0029072699682419221 0 0.084833886009512999 0.0045402952228749413 0 0.081970116758728215 0.0033940111735708861 0 0.083028455490555694 0.0039829909749247777 0 0.083283810065301819 0.0029072699682419221 0 0.061536675026246219 0.0053766354718783691 0 0.053087982535321487 0.0058455910721003802 0 0.058517101633258642 0.0097065658852010968 0 0.057252323053650737 0.0085607342782330481 0 0.056564707186279532 0.009197113274343395 0 0.061536675026246219 0.0053766354718783691 0 0.062227245158443821 0.010247203855137678 0 0.081792975610692223 0.0023928233368262228 0 0.081970116758728215 0.0033940111735708861 0 0.083283810065301819 0.0029072699682419221 0 0.049504940971287131 0.011418296659681828 0 0.053087982535321487 0.0058455910721003802 0 0.057252323053650737 0.0085607342782330481 0 0.056564707186279532 0.009197113274343395 0 0.056056408809939944 0.0082533630257076284 0 0.054619914816334859 0.008670583914561136 0 0.056564707186279532 0.009197113274343395 0 0.056056408809939944 0.0082533630257076284 0 0.062227245158443821 0.010247203855137678 0 0.055892683336658887 0.014077599545673621 0 0.057252323053650737 0.0085607342782330481 0 0.056056408809939944 0.0082533630257076284 0 0.055938962083416546 0.007348764353355167 0 0.054619914816334859 0.008670583914561136 0 0.056056408809939944 0.0082533630257076284 0 0.055938962083416546 0.007348764353355167 0 0.055892683336658887 0.014077599545673621 0 0.060183165512571531 0.015437058169492743 0 0.049480680494893146 0.024514445639175136 0 0.049181019934024565 0.021305834270675113 0 0.052108575827993137 0.021872849941541737 0 0.059600961439001052 0.012540985595671281 0 0.060348473417224942 0.011805595893308828 0 0.06012928446681659 0.012213436734512594 0 0.05269498874802734 0.016533781454623833 0 0.060183165512571531 0.015437058169492743 0 0.048252072060329353 0.021057167340753913 0 0.048650902360710964 0.020810192280592828 0 0.048528408693863774 0.020734552423824375 0 0.047411322987337509 0.0204173547200498 0 0.048252072060329353 0.021057167340753913 0 0.048568318829736723 0.020543162573451509 0 0.048252072060329353 0.021057167340753913 0 0.048568318829736723 0.020543162573451509 0 0.048528408693863774 0.020734552423824375 0 0.048568318829736723 0.020543162573451509 0 0.048528408693863774 0.020734552423824375 0 0.048312002464519145 0.020750409273895761 0 0.048528408693863774 0.020734552423824375 0 0.048662326781896172 0.020774896083112969 0 0.048312002464519145 0.020750409273895761 0 0.060626623489640132 0.016212113368737263 0 0.060292387794455636 0.016554944380983452 0 0.060759598068918702 0.016630417254093061 0 0.061041697993884744 0.015322206758039879 0 0.058535962609371966 0.016930725547684287 0 0.048650902360710964 0.020810192280592828 0 0.048528408693863774 0.020734552423824375 0 0.048662326781896172 0.020774896083112969 0 0.065153128235943145 0.013694237336297498 0 0.065207311261451698 0.013860032795761389 0 0.066277639008409259 0.012563198669322111 0 0.061041697993884744 0.015322206758039879 0 0.061665820926476808 0.015078456913692183 0 0.066706076229931702 0.012087575171323037 0 0.061684987663494936 0.017163918175689703 0 0.059571629936982444 0.010650002041728399 0 0.060183165512571531 0.015437058169492743 0 0.061665820926476808 0.015078456913692183 0 0.060183165512571531 0.015437058169492743 0 0.061041697993884744 0.015322206758039879 0 0.061665820926476808 0.015078456913692183 0 0.066492537912237692 0.012429954051274197 0 0.060449598835029594 0.011825703077478667 0 0.06012928446681659 0.012213436734512594 0 0.060615173295508751 0.012326144825396845 0 0.059600961439001052 0.012540985595671281 0 0.06012928446681659 0.012213436734512594 0 0.060615173295508751 0.012326144825396845 0 0.055892683336658887 0.014077599545673621 0 0.066492537912237692 0.012429954051274197 0 0.060348473417224942 0.011805595893308828 0 0.060449598835029594 0.011825703077478667 0 0.06012928446681659 0.012213436734512594 0 0.061665820926476808 0.015078456913692183 0 0.070957645312075754 0.012298898891187968 0 0.066492537912237692 0.012429954051274197 0 0.070957645312075754 0.012298898891187968 0 0.064294672877988707 0.013588033569788927 0 0.064885757076921985 0.015396191385117212 0 0.068616328235999613 0.014451804012145507 0 0.080495305953672949 0.0044094206678547236 0 0.082673362104182829 0.0055418519183206508 0 0.079564605794789453 0.0064122426813103817 0 0.065207311261451698 0.013860032795761389 0 0.067389771523175615 0.014294333964863863 0 0.066277639008409259 0.012563198669322111 0 0.061041697993884744 0.015322206758039879 0 0.063645150241250975 0.01497966396730952 0 0.067926227451655274 0.012817456314305239 0 0.067389771523175615 0.014294333964863863 0 0.066277639008409259 0.012563198669322111 0 0.072509377420243548 0.012099877700294271 0 0.070957645312075754 0.012298898891187968 0 0.078986969839741905 0.0050054094306213768 0 0.080495305953672949 0.0044094206678547236 0 0.079564605794789453 0.0064122426813103817 0 0.077943868735497746 0.0062201993820635909 0 0.078986969839741905 0.0050054094306213768 0 0.079564605794789453 0.0064122426813103817 0 0.0679580077169602 0.01257426656523631 0 0.066818184102432759 0.013333758669697165 0 0.067337907683571396 0.013229358820205711 0 0.066818184102432759 0.013333758669697165 0 0.067337907683571396 0.013229358820205711 0 0.066423092117493907 0.013643240739811262 0 0.067629599144614486 0.013633563813599817 0 0.067337907683571396 0.013229358820205711 0 0.066637469294559118 0.013826737789407295 0 0.067629599144614486 0.013633563813599817 0 0.066637469294559118 0.013826737789407295 0 0.066396821693787036 0.014100233608159702 0 0.066826950685839465 0.013978457767921467 0 0.063645150241250975 0.01497966396730952 0 0.067337907683571396 0.013229358820205711 0 0.066637469294559118 0.013826737789407295 0 0.066423092117493907 0.013643240739811262 0 0.066637469294559118 0.013826737789407295 0 0.066107607772546206 0.013914773944041701 0 0.066423092117493907 0.013643240739811262 0 0.066637469294559118 0.013826737789407295 0 0.066293852903767755 0.014142413604789053 0 0.066107607772546206 0.013914773944041701 0 0.063806377239599796 0.014851793147021633 0 0.063645150241250975 0.01497966396730952 0 0.066107607772546206 0.013914773944041701 0 0.066423092117493907 0.013643240739811262 0 0.065868664818029263 0.01381929886298686 0 0.066423092117493907 0.013643240739811262 0 0.065824341426288693 0.01368849907986535 0 0.065868664818029263 0.01381929886298686 0 0.066818184102432759 0.013333758669697165 0 0.066423092117493907 0.013643240739811262 0 0.065824341426288693 0.01368849907986535 0 0.066818184102432759 0.013333758669697165 0 0.065824341426288693 0.01368849907986535 0 0.065389171651087027 0.013771151460253189 0 0.065824341426288693 0.01368849907986535 0 0.065868664818029263 0.01381929886298686 0 0.065477709160637401 0.01405355673601414 0 0.065868664818029263 0.01381929886298686 0 0.065684193208162878 0.013996931624240537 0 0.065477709160637401 0.01405355673601414 0 0.066293852903767755 0.014142413604789053 0 0.066107607772546206 0.013914773944041701 0 0.065684193208162878 0.013996931624240537 0 0.063645150241250975 0.01497966396730952 0 0.058535962609371966 0.016930725547684287 0 0.066107607772546206 0.013914773944041701 0 0.065868664818029263 0.01381929886298686 0 0.065684193208162878 0.013996931624240537 0 0.048568318829736723 0.020543162573451509 0 0.048312002464519145 0.020750409273895761 0 0.049017806690977501 0.021386889394230352 0 0.050900351230304133 0.022121311185501091 0 0.050876600837379854 0.022127290085701714 0 0.050904266394808162 0.022131305378177344 0 0.058535962609371966 0.016930725547684287 0 0.054117125072677234 0.017763751112561621 0 0.050876600837379854 0.022127290085701714 0 0.050904266394808162 0.022131305378177344 0 0.050868616463309993 0.022124759207472193 0 0.058535962609371966 0.016930725547684287 0 0.05806477994285552 0.017916965011797313 0 0.05806477994285552 0.017916965011797313 0 0.057429738148043606 0.018367854617792383 0 0.050904266394808162 0.022131305378177344 0 0.051027391666332918 0.022122919864569792 0 0.05092878212584584 0.02217093872923926 0 0.065477709160637401 0.01405355673601414 0 0.064700661476259913 0.015855868628523961 0 0.064911312544770852 0.015232964285098358 0 0.064700661476259913 0.015855868628523961 0 0.064911312544770852 0.015232964285098358 0 0.064206518094707274 0.016397300677780759 0 0.064911312544770852 0.015232964285098358 0 0.064046471455206144 0.01615856915832203 0 0.064206518094707274 0.016397300677780759 0 0.065824341426288693 0.01368849907986535 0 0.065477709160637401 0.01405355673601414 0 0.065389171651087027 0.013771151460253189 0 0.065477709160637401 0.01405355673601414 0 0.064911312544770852 0.015232964285098358 0 0.065389171651087027 0.013771151460253189 0 0.066818184102432759 0.013333758669697165 0 0.065389171651087027 0.013771151460253189 0 0.067436139447885957 0.012823567565116635 0 0.065992559975878343 0.014528321125670958 0 0.066175810854960632 0.014683421064336248 0 0.065389171651087027 0.013771151460253189 0 0.067436139447885957 0.012823567565116635 0 0.067860361865726512 0.012163211585031794 0 0.064911312544770852 0.015232964285098358 0 0.065389171651087027 0.013771151460253189 0 0.064046471455206144 0.01615856915832203 0 0.06818015442228019 0.012350792241508365 0 0.067860361865726512 0.012163211585031794 0 0.068182673698248847 0.012754226094004549 0 0.06818015442228019 0.012350792241508365 0 0.067436139447885957 0.012823567565116635 0 0.067860361865726512 0.012163211585031794 0 0.0679580077169602 0.01257426656523631 0 0.066818184102432759 0.013333758669697165 0 0.067436139447885957 0.012823567565116635 0 0.0679580077169602 0.01257426656523631 0 0.06818015442228019 0.012350792241508365 0 0.067436139447885957 0.012823567565116635 0 0.050820170511648298 0.022248715380662018 0 0.050851846302437338 0.022227757892227428 0 0.050760220032907026 0.022364115777972916 0 0.050820170511648298 0.022248715380662018 0 0.050887727963465877 0.022305990851640024 0 0.050760220032907026 0.022364115777972916 0 0.048103821913947971 0.02298956926685752 0 0.049203573284782795 0.022558625733013586 0 0.048136253527078218 0.022780251780927414 0 0.048103821913947971 0.02298956926685752 0 0.04644444313300241 0.023006374067227324 0 0.046276130983986911 0.022947987454261038 0 0.04634460048991601 0.023042753919096201 0 0.046276130983986911 0.022947987454261038 0 0.04634460048991601 0.023042753919096201 0 0.046265735460256092 0.023055982156505016 0 0.04634460048991601 0.023042753919096201 0 0.046332334010368174 0.023131220522385289 0 0.04642396689014433 0.023060924969585068 0 0.046265735460256092 0.023055982156505016 0 0.046332334010368174 0.023131220522385289 0 0.046200602072925111 0.023160199838931261 0 0.044427399953494755 0.023604773633923846 0 0.044220743753668135 0.02418268699033653 0 0.04634460048991601 0.023042753919096201 0 0.046265735460256092 0.023055982156505016 0 0.046332334010368174 0.023131220522385289 0 0.046332334010368174 0.023131220522385289 0 0.04642396689014433 0.023060924969585068 0 0.046465267147747097 0.023100643744463877 0 0.044427399953494755 0.023604773633923846 0 0.045144356836442197 0.022906632526493807 0 0.04644444313300241 0.023006374067227324 0 0.04634460048991601 0.023042753919096201 0 0.04642396689014433 0.023060924969585068 0 0.04644444313300241 0.023006374067227324 0 0.04642396689014433 0.023060924969585068 0 0.04648169678532986 0.023068117997874567 0 0.04642396689014433 0.023060924969585068 0 0.04648169678532986 0.023068117997874567 0 0.046465267147747097 0.023100643744463877 0 0.045158484015237664 0.022899308189998885 0 0.045144356836442197 0.022906632526493807 0 0.044103640970374378 0.019555807769559636 0 0.045424776033464669 0.019967122038066495 0 0.046009390070894399 0.019076018590065687 0 0.04648169678532986 0.023068117997874567 0 0.046465523283537424 0.02309905284722889 0 0.046615949698721494 0.023062796796015479 0 0.04644444313300241 0.023006374067227324 0 0.04648169678532986 0.023068117997874567 0 0.046615949698721494 0.023062796796015479 0 0.048136253527078218 0.022780251780927414 0 0.047312633630045606 0.022403808332902352 0 0.045144356836442197 0.022906632526493807 0 0.047312633630045606 0.022403808332902352 0 0.044727978429191392 0.020431314998270181 0 0.044103640970374378 0.019555807769559636 0 0.045424776033464669 0.019967122038066495 0 0.045424776033464669 0.019967122038066495 0 0.046009390070894399 0.019076018590065687 0 0.046363468442114891 0.0200374377871812 0 0.050905090044688024 0.022053290721275938 0 0.05086346047642764 0.022115173997811675 0 0.050851846302437338 0.022227757892227428 0 0.050938467932395148 0.022006576368342592 0 0.050905090044688024 0.022053290721275938 0 0.05086346047642764 0.022115173997811675 0 0.047339931857623786 0.022398814091473811 0 0.047312633630045606 0.022403808332902352 0 0.050876600837379854 0.022127290085701714 0 0.050740207083240334 0.022027658632705241 0 0.050812880769401145 0.022097229315028014 0 0.048568318829736723 0.020543162573451509 0 0.049017806690977501 0.021386889394230352 0 0.050740207083240334 0.022027658632705241 0 0.048568318829736723 0.020543162573451509 0 0.050938467932395148 0.022006576368342592 0 0.050740207083240334 0.022027658632705241 0 0.047411322987337509 0.0204173547200498 0 0.048568318829736723 0.020543162573451509 0 0.046009390070894399 0.019076018590065687 0 0.048568318829736723 0.020543162573451509 0 0.050938467932395148 0.022006576368342592 0 0.051161680014810189 0.021984162429416997 0 0.054117125072677234 0.017763751112561621 0 0.053117189151943751 0.018087850311219636 0 0.047693967482182138 0.021975569373738294 0 0.047312633630045606 0.022403808332902352 0 0.047411322987337509 0.0204173547200498 0 0.046009390070894399 0.019076018590065687 0 0.046363468442114891 0.0200374377871812 0 0.050938467932395148 0.022006576368342592 0 0.05086346047642764 0.022115173997811675 0 0.050740207083240334 0.022027658632705241 0 0.05086346047642764 0.022115173997811675 0 0.050740207083240334 0.022027658632705241 0 0.050812880769401145 0.022097229315028014 0 0.050876600837379854 0.022127290085701714 0 0.050812880769401145 0.022097229315028014 0 0.050868616463309993 0.022124759207472193 0 0.050904266394808162 0.022131305378177344 0 0.050868616463309993 0.022124759207472193 0 0.05092878212584584 0.02217093872923926 0 0.050812880769401145 0.022097229315028014 0 0.050868616463309993 0.022124759207472193 0 0.05086987528710317 0.022159165376890243 0 0.05086346047642764 0.022115173997811675 0 0.050812880769401145 0.022097229315028014 0 0.05086987528710317 0.022159165376890243 0 0.05086987528710317 0.022159165376890243 0 0.05088323423989511 0.022196381438890616 0 0.05092878212584584 0.02217093872923926 0 0.050868616463309993 0.022124759207472193 0 0.05086987528710317 0.022159165376890243 0 0.05092878212584584 0.02217093872923926 0 0.050820170511648298 0.022248715380662018 0 0.050905090044688024 0.022053290721275938 0 0.050851846302437338 0.022227757892227428 0 0.050851846302437338 0.022227757892227428 0 0.05088323423989511 0.022196381438890616 0 0.050876533400841112 0.022223308679247451 0 0.05086346047642764 0.022115173997811675 0 0.05086987528710317 0.022159165376890243 0 0.050851846302437338 0.022227757892227428 0 0.05086987528710317 0.022159165376890243 0 0.050851846302437338 0.022227757892227428 0 0.05088323423989511 0.022196381438890616 0 0.05088323423989511 0.022196381438890616 0 0.050876533400841112 0.022223308679247451 0 0.05092878212584584 0.02217093872923926 0 0.050876533400841112 0.022223308679247451 0 0.05092878212584584 0.02217093872923926 0 0.050933323908185821 0.022071586528978615 0 0.051027391666332918 0.022122919864569792 0 0.05092878212584584 0.02217093872923926 0 0.050933323908185821 0.022071586528978615 0 0.050933323908185821 0.022071586528978615 0 0.050629975398199412 0.022010451811393914 0 0.050602486557374586 0.021722029869675082 0 0.050876533400841112 0.022223308679247451 0 0.050933323908185821 0.022071586528978615 0 0.050629975398199412 0.022010451811393914 0 0.050851846302437338 0.022227757892227428 0 0.050876533400841112 0.022223308679247451 0 0.050760220032907026 0.022364115777972916 0 0.050876533400841112 0.022223308679247451 0 0.050629975398199412 0.022010451811393914 0 0.050760220032907026 0.022364115777972916 0 0.049905849415802173 0.023095125818839251 0 0.050134405876871596 0.022173904789477804 0 0.049470603231192685 0.022450238595845478 0 0.050629975398199412 0.022010451811393914 0 0.050760220032907026 0.022364115777972916 0 0.050134405876871596 0.022173904789477804 0 0.049905849415802173 0.023095125818839251 0 0.050760220032907026 0.022364115777972916 0 0.050134405876871596 0.022173904789477804 0 0.050226973764100222 0.021833386392203898 0 0.049415881719724136 0.021543547352506083 0 0.050602486557374586 0.021722029869675082 0 0.050629975398199412 0.022010451811393914 0 0.050226973764100222 0.021833386392203898 0 0.050602486557374586 0.021722029869675082 0 0.050134405876871596 0.022173904789477804 0 0.050226973764100222 0.021833386392203898 0 0.049415881719724136 0.021543547352506083 0 0.050629975398199412 0.022010451811393914 0 0.050134405876871596 0.022173904789477804 0 0.050226973764100222 0.021833386392203898 0 0.049391694195617758 0.024118419864697618 0 0.048497584698077308 0.023976462343310488 0 0.048354443631488407 0.024443883791910651 0 0.049391694195617758 0.024118419864697618 0 0.048497584698077308 0.023976462343310488 0 0.048956144785081479 0.023659772254539999 0 0.049391694195617758 0.024118419864697618 0 0.048354443631488407 0.024443883791910651 0 0.048458498452389052 0.025020373004238226 0 0.047598312236592236 0.022793689607725039 0 0.048723499275203946 0.022218015032166277 0 0.047571740425838838 0.023599888091618438 0 0.048727650941696204 0.022827680898938784 0 0.047091873004005511 0.02337648538299246 0 0.049415881719724136 0.021543547352506083 0 0.04728716178935493 0.022293179213402983 0 0.047833946701232005 0.022299839626989004 0 0.047021342549748928 0.022299214297449053 0 0.047598312236592236 0.022793689607725039 0 0.046806884784917784 0.023278911916049461 0 0.047021342549748928 0.022299214297449053 0 0.047598312236592236 0.022793689607725039 0 0.047833946701232005 0.022299839626989004 0 0.047091873004005511 0.02337648538299246 0 0.047124991482442528 0.023355732671484972 0 0.047598312236592236 0.022793689607725039 0 0.047833946701232005 0.022299839626989004 0 0.048723499275203946 0.022218015032166277 0 0.049470603231192685 0.022450238595845478 0 0.048723499275203946 0.022218015032166277 0 0.049022304187626979 0.022944196696350883 0 0.049415881719724136 0.021543547352506083 0 0.047833946701232005 0.022299839626989004 0 0.048723499275203946 0.022218015032166277 0 0.050134405876871596 0.022173904789477804 0 0.049415881719724136 0.021543547352506083 0 0.049470603231192685 0.022450238595845478 0 0.049415881719724136 0.021543547352506083 0 0.049470603231192685 0.022450238595845478 0 0.048723499275203946 0.022218015032166277 0 0.040454056961934062 0.025236546285358277 0 0.040582216705222794 0.025079716077196557 0 0.040561677168839114 0.0252169553880741 0 0.040534831497523613 0.025301956754247349 0 0.040454056961934062 0.025236546285358277 0 0.040519202059660933 0.025435738135345349 0 0.040534831497523613 0.025301956754247349 0 0.040561677168839114 0.0252169553880741 0 0.04059999547927412 0.025316339262055874 0 0.040534831497523613 0.025301956754247349 0 0.040454056961934062 0.025236546285358277 0 0.040561677168839114 0.0252169553880741 0 0.048497584698077308 0.023976462343310488 0 0.047450723487471494 0.024315091718296523 0 0.048311757840654584 0.023228000335204418 0 0.048497584698077308 0.023976462343310488 0 0.048354443631488407 0.024443883791910651 0 0.047450723487471494 0.024315091718296523 0 0.048354443631488407 0.024443883791910651 0 0.047450723487471494 0.024315091718296523 0 0.047948588821066625 0.024782575174404228 0 0.048458498452389052 0.025020373004238226 0 0.047948588821066625 0.024782575174404228 0 0.047528180668853531 0.025234979556018746 0 0.046758350295634708 0.022056983649665973 0 0.044586751405593449 0.022549919605757817 0 0.045395942670145246 0.023342996327936679 0 0.047450723487471494 0.024315091718296523 0 0.047948588821066625 0.024782575174404228 0 0.047528180668853531 0.025234979556018746 0 0.047091873004005511 0.02337648538299246 0 0.045653594045076774 0.023992413889931428 0 0.048354443631488407 0.024443883791910651 0 0.048458498452389052 0.025020373004238226 0 0.047948588821066625 0.024782575174404228 0 0.047091873004005511 0.02337648538299246 0 0.046842616439667473 0.023458239032956071 0 0.044039296116821253 0.024689259226455988 0 0.043565213045523452 0.024753423147745389 0 0.047450723487471494 0.024315091718296523 0 0.047528180668853531 0.025234979556018746 0 0.046582148656714423 0.025442529209356111 0 0.040454056961934062 0.025236546285358277 0 0.040558292589130684 0.024923255760805594 0 0.040582216705222794 0.025079716077196557 0 0.045653594045076774 0.023992413889931428 0 0.043565213045523452 0.024753423147745389 0 0.044586751405593449 0.022549919605757817 0 0.043428858388152275 0.023380036013317281 0 0.042623067325068403 0.023142923720869176 0 0.043090631624042572 0.023983874690494858 0 0.043428858388152275 0.023380036013317281 0 0.044042058401647544 0.023502043746943591 0 0.043090631624042572 0.023983874690494858 0 0.044042058401647544 0.023502043746943591 0 0.04375431544881471 0.024235449870625977 0 0.043090631624042572 0.023983874690494858 0 0.043428858388152275 0.023380036013317281 0 0.042823678453337788 0.023656773004275829 0 0.044586751405593449 0.022549919605757817 0 0.043428858388152275 0.023380036013317281 0 0.044042058401647544 0.023502043746943591 0 0.044042058401647544 0.023502043746943591 0 0.04375431544881471 0.024235449870625977 0 0.04455330927143937 0.024027171766989704 0 0.044042058401647544 0.023502043746943591 0 0.04455330927143937 0.024027171766989704 0 0.045395942670145246 0.023342996327936679 0 0.04455330927143937 0.024027171766989704 0 0.045395942670145246 0.023342996327936679 0 0.045299944502501036 0.024402117391468303 0 0.044586751405593449 0.022549919605757817 0 0.044042058401647544 0.023502043746943591 0 0.045395942670145246 0.023342996327936679 0 0.047021342549748928 0.022299214297449053 0 0.045395942670145246 0.023342996327936679 0 0.046806884784917784 0.023278911916049461 0 0.045395942670145246 0.023342996327936679 0 0.046489270815881979 0.024180599447717679 0 0.046806884784917784 0.023278911916049461 0 0.045395942670145246 0.023342996327936679 0 0.046489270815881979 0.024180599447717679 0 0.045299944502501036 0.024402117391468303 0 0.046489270815881979 0.024180599447717679 0 0.045707936112214728 0.025494720043635271 0 0.045299944502501036 0.024402117391468303 0 0.045707936112214728 0.025494720043635271 0 0.045299944502501036 0.024402117391468303 0 0.044434567231934688 0.024929032582032322 0 0.04455330927143937 0.024027171766989704 0 0.045299944502501036 0.024402117391468303 0 0.044434567231934688 0.024929032582032322 0 0.044434567231934688 0.024929032582032322 0 0.042655186717831278 0.025826311573006931 0 0.042803230437122697 0.025156057101592477 0 0.045707936112214728 0.025494720043635271 0 0.044434567231934688 0.024929032582032322 0 0.042655186717831278 0.025826311573006931 0 0.04375431544881471 0.024235449870625977 0 0.04455330927143937 0.024027171766989704 0 0.044434567231934688 0.024929032582032322 0 0.04375431544881471 0.024235449870625977 0 0.044434567231934688 0.024929032582032322 0 0.043585127115928851 0.024750850117616716 0 0.044434567231934688 0.024929032582032322 0 0.043585127115928851 0.024750850117616716 0 0.042803230437122697 0.025156057101592477 0 0.043585127115928851 0.024750850117616716 0 0.042921067717252272 0.024678242074559868 0 0.042803230437122697 0.025156057101592477 0 0.04375431544881471 0.024235449870625977 0 0.043585127115928851 0.024750850117616716 0 0.042921067717252272 0.024678242074559868 0 0.043090631624042572 0.023983874690494858 0 0.04375431544881471 0.024235449870625977 0 0.042921067717252272 0.024678242074559868 0 0.046796704248545269 0.02335110611247759 0 0.046399651362651145 0.023742443965454999 0 0.048723499275203946 0.022218015032166277 0 0.049125178662431691 0.023694205542116001 0 0.049022304187626979 0.022944196696350883 0 0.046276130983986911 0.022947987454261038 0 0.046265735460256092 0.023055982156505016 0 0.046175375109382015 0.022999048291015491 0 0.048103821913947971 0.02298956926685752 0 0.046399651362651145 0.023742443965454999 0 0.048103821913947971 0.02298956926685752 0 0.04838287984109025 0.023062174536629901 0 0.049925560726443337 0.02327391366112596 0 0.049125178662431691 0.023694205542116001 0 0.049022304187626979 0.022944196696350883 0 0.049905849415802173 0.023095125818839251 0 0.049470603231192685 0.022450238595845478 0 0.049022304187626979 0.022944196696350883 0 0.048723499275203946 0.022218015032166277 0 0.048882929891568776 0.024229975297636337 0 0.047571740425838838 0.023599888091618438 0 0.046489270815881979 0.024180599447717679 0 0.048882929891568776 0.024229975297636337 0 0.047571740425838838 0.023599888091618438 0 0.046489270815881979 0.024180599447717679 0 0.047571740425838838 0.023599888091618438 0 0.046806884784917784 0.023278911916049461 0 0.047598312236592236 0.022793689607725039 0 0.047571740425838838 0.023599888091618438 0 0.046806884784917784 0.023278911916049461 0 0.046489270815881979 0.024180599447717679 0 0.045707936112214728 0.025494720043635271 0 0.048882929891568776 0.024229975297636337 0 0.044996134285912461 0.024780990197596584 0 0.046399651362651145 0.023742443965454999 0 0.04412754612968843 0.02508630767353906 0 0.045577144030122849 0.024356886661035516 0 0.045009019194748201 0.025032570087541953 0 0.045009019194748201 0.025032570087541953 0 0.044809598148122076 0.025340750591507626 0 0.045772223687786474 0.025465382501224442 0 0.04412754612968843 0.02508630767353906 0 0.045009019194748201 0.025032570087541953 0 0.044809598148122076 0.025340750591507626 0 0.046399651362651145 0.023742443965454999 0 0.044220743753668135 0.02418268699033653 0 0.046265735460256092 0.023055982156505016 0 0.046175375109382015 0.022999048291015491 0 0.046200602072925111 0.023160199838931261 0 0.045577144030122849 0.024356886661035516 0 0.045009019194748201 0.025032570087541953 0 0.045772223687786474 0.025465382501224442 0 0.04147406796116173 0.024545228764838119 0 0.04135022011565407 0.024446064572434523 0 0.041388484243287414 0.024653318643530413 0 0.041387746301397133 0.024670069706309396 0 0.041396501375651318 0.024781578348319521 0 0.04129512020633002 0.024756238702907645 0 0.044220743753668135 0.02418268699033653 0 0.043527278383424441 0.024332085949481511 0 0.043527278383424441 0.024332085949481511 0 0.043316099653033041 0.024399348149579465 0 0.041396501375651318 0.024781578348319521 0 0.04135203922110977 0.024834936512429007 0 0.041416074947655312 0.024831279593086442 0 0.041396501375651318 0.024781578348319521 0 0.041329819289366868 0.024801852098045699 0 0.04135203922110977 0.024834936512429007 0 0.041396501375651318 0.024781578348319521 0 0.041329819289366868 0.024801852098045699 0 0.04129512020633002 0.024756238702907645 0 0.041264182042781483 0.024833997626209081 0 0.041201206650199634 0.024820207437251711 0 0.041174207018163357 0.024877177624353854 0 0.041329819289366868 0.024801852098045699 0 0.04135203922110977 0.024834936512429007 0 0.041264182042781483 0.024833997626209081 0 0.041329819289366868 0.024801852098045699 0 0.041264182042781483 0.024833997626209081 0 0.04129512020633002 0.024756238702907645 0 0.041264182042781483 0.024833997626209081 0 0.041201206650199634 0.024820207437251711 0 0.04129512020633002 0.024756238702907645 0 0.044220743753668135 0.02418268699033653 0 0.042864960711563406 0.024867734387822842 0 0.041201206650199634 0.024820207437251711 0 0.04129512020633002 0.024756238702907645 0 0.041178703995131863 0.024722802328109059 0 0.041387746301397133 0.024670069706309396 0 0.04129512020633002 0.024756238702907645 0 0.041178703995131863 0.024722802328109059 0 0.044809598148122076 0.025340750591507626 0 0.045772223687786474 0.025465382501224442 0 0.044326190859467596 0.025776156099105569 0 0.04412754612968843 0.02508630767353906 0 0.044809598148122076 0.025340750591507626 0 0.044326190859467596 0.025776156099105569 0 0.042864960711563406 0.024867734387822842 0 0.042151424464010503 0.025179148471232583 0 0.04412754612968843 0.02508630767353906 0 0.044326190859467596 0.025776156099105569 0 0.043488758362378407 0.025698566478237147 0 0.044326190859467596 0.025776156099105569 0 0.043488758362378407 0.025698566478237147 0 0.042844522073169113 0.026110251120445599 0 0.04412754612968843 0.02508630767353906 0 0.043488758362378407 0.025698566478237147 0 0.042655186717831278 0.025826311573006931 0 0.041178703995131863 0.024722802328109059 0 0.040905106997355459 0.02492859067507773 0 0.040990870491480411 0.024913252366997488 0 0.044996134285912461 0.024780990197596584 0 0.043985319745243917 0.025308971797581032 0 0.043488758362378407 0.025698566478237147 0 0.042844522073169113 0.026110251120445599 0 0.042655186717831278 0.025826311573006931 0 0.040954537356767691 0.02497345640737534 0 0.041078574304362042 0.024895365340897268 0 0.041105604594410657 0.024924980430528668 0 0.040990870491480411 0.024913252366997488 0 0.040954537356767691 0.02497345640737534 0 0.040907668145982151 0.025020056959569652 0 0.040905106997355459 0.02492859067507773 0 0.040990870491480411 0.024913252366997488 0 0.040907668145982151 0.025020056959569652 0 0.040990870491480411 0.024913252366997488 0 0.040954537356767691 0.02497345640737534 0 0.041078574304362042 0.024895365340897268 0 0.041178703995131863 0.024722802328109059 0 0.040990870491480411 0.024913252366997488 0 0.041078574304362042 0.024895365340897268 0 0.041201206650199634 0.024820207437251711 0 0.041178703995131863 0.024722802328109059 0 0.041078574304362042 0.024895365340897268 0 0.041201206650199634 0.024820207437251711 0 0.041078574304362042 0.024895365340897268 0 0.041174207018163357 0.024877177624353854 0 0.041174207018163357 0.024877177624353854 0 0.041105604594410657 0.024924980430528668 0 0.041288239194099498 0.024893411455389342 0 0.041078574304362042 0.024895365340897268 0 0.041174207018163357 0.024877177624353854 0 0.041105604594410657 0.024924980430528668 0 0.041105604594410657 0.024924980430528668 0 0.041255469660186589 0.024934923034687747 0 0.041288239194099498 0.024893411455389342 0 0.040954537356767691 0.02497345640737534 0 0.041105604594410657 0.024924980430528668 0 0.040924468320679058 0.024976979234974505 0 0.041041165854415612 0.025016400014728438 0 0.041105604594410657 0.024924980430528668 0 0.040924468320679058 0.024976979234974505 0 0.041041165854415612 0.025016400014728438 0 0.040924468320679058 0.024976979234974505 0 0.040856602708688045 0.025042907787109523 0 0.041041165854415612 0.025016400014728438 0 0.041105604594410657 0.024924980430528668 0 0.041255469660186589 0.024934923034687747 0 0.041562828039246567 0.024848256210789212 0 0.041255469660186589 0.024934923034687747 0 0.041288239194099498 0.024893411455389342 0 0.041562828039246567 0.024848256210789212 0 0.042597743504438068 0.024439118632563255 0 0.042266765622656327 0.023208816146874575 0 0.041562828039246567 0.024848256210789212 0 0.041412495484580307 0.024899394693328712 0 0.041397638518366385 0.024887294790126097 0 0.041562828039246567 0.024848256210789212 0 0.041397638518366385 0.024887294790126097 0 0.041288239194099498 0.024893411455389342 0 0.042121353766067161 0.024552044339668816 0 0.042465059034050574 0.024173827052698261 0 0.041412495484580307 0.024899394693328712 0 0.041397638518366385 0.024887294790126097 0 0.041416074947655312 0.024831279593086442 0 0.04135203922110977 0.024834936512429007 0 0.041397638518366385 0.024887294790126097 0 0.041416074947655312 0.024831279593086442 0 0.04135203922110977 0.024834936512429007 0 0.041397638518366385 0.024887294790126097 0 0.041288239194099498 0.024893411455389342 0 0.04135203922110977 0.024834936512429007 0 0.041264182042781483 0.024833997626209081 0 0.041288239194099498 0.024893411455389342 0 0.041264182042781483 0.024833997626209081 0 0.041174207018163357 0.024877177624353854 0 0.041288239194099498 0.024893411455389342 0 0.04083572090928593 0.025080477861687843 0 0.040839522608578704 0.025102293477774769 0 0.040911646679829439 0.025221574887516699 0 0.04083572090928593 0.025080477861687843 0 0.040911646679829439 0.025221574887516699 0 0.04083505059804611 0.025148753984513078 0 0.04083572090928593 0.025080477861687843 0 0.04066658182854023 0.024883608344420754 0 0.040839522608578704 0.025102293477774769 0 0.04083572090928593 0.025080477861687843 0 0.040873698476697994 0.025045879289360917 0 0.04083505059804611 0.025148753984513078 0 0.040830868256921671 0.02511035600709741 0 0.040873698476697994 0.025045879289360917 0 0.04083505059804611 0.025148753984513078 0 0.04083572090928593 0.025080477861687843 0 0.040873698476697994 0.025045879289360917 0 0.040786345533272858 0.024919689718792146 0 0.040830868256921671 0.02511035600709741 0 0.041059651632195049 0.02480131508643307 0 0.040873698476697994 0.025045879289360917 0 0.041059651632195049 0.02480131508643307 0 0.040873698476697994 0.025045879289360917 0 0.040786345533272858 0.024919689718792146 0 0.040539511860405032 0.02457299783269239 0 0.040786345533272858 0.024919689718792146 0 0.04066658182854023 0.024883608344420754 0 0.04083572090928593 0.025080477861687843 0 0.040786345533272858 0.024919689718792146 0 0.04066658182854023 0.024883608344420754 0 0.04066658182854023 0.024883608344420754 0 0.040628130005438544 0.02495737336434864 0 0.040839522608578704 0.025102293477774769 0 0.032068442118472297 0.021534016323632929 0 0.035538006678679124 0.023427937972483846 0 0.040473415513571469 0.024614397000606001 0 0.04066658182854023 0.024883608344420754 0 0.040628130005438544 0.02495737336434864 0 0.040643452238696948 0.025132136559722389 0 0.040826869662778542 0.02498335896623554 0 0.040856602708688045 0.025042907787109523 0 0.040924468320679058 0.024976979234974505 0 0.040826869662778542 0.02498335896623554 0 0.040856602708688045 0.025042907787109523 0 0.035538006678679124 0.023427937972483846 0 0.036569916365930412 0.023868835434017271 0 0.040954537356767691 0.02497345640737534 0 0.040924468320679058 0.024976979234974505 0 0.040891762111028511 0.025071593545293973 0 0.040924468320679058 0.024976979234974505 0 0.040826869662778542 0.02498335896623554 0 0.040891762111028511 0.025071593545293973 0 0.040628130005438544 0.02495737336434864 0 0.040839522608578704 0.025102293477774769 0 0.040891762111028511 0.025071593545293973 0 0.040839522608578704 0.025102293477774769 0 0.041086649160476239 0.02538988337063379 0 0.040911646679829439 0.025221574887516699 0 0.040839522608578704 0.025102293477774769 0 0.041086649160476239 0.02538988337063379 0 0.040891762111028511 0.025071593545293973 0 0.041086649160476239 0.02538988337063379 0 0.040891762111028511 0.025071593545293973 0 0.040907668145982151 0.025020056959569652 0 0.040905106997355459 0.02492859067507773 0 0.041086649160476239 0.02538988337063379 0 0.040907668145982151 0.025020056959569652 0 0.040954537356767691 0.02497345640737534 0 0.040891762111028511 0.025071593545293973 0 0.040907668145982151 0.025020056959569652 0 0.042844522073169113 0.026110251120445599 0 0.041086649160476239 0.02538988337063379 0 0.042072254501865899 0.025586452164707927 0 0.042151424464010503 0.025179148471232583 0 0.041849529257034973 0.025263296661887535 0 0.042844522073169113 0.026110251120445599 0 0.042655186717831278 0.025826311573006931 0 0.042072254501865899 0.025586452164707927 0 0.042072254501865899 0.025586452164707927 0 0.04223214883724357 0.025356944509769542 0 0.041618810315125196 0.025233327907707655 0 0.042655186717831278 0.025826311573006931 0 0.042072254501865899 0.025586452164707927 0 0.04223214883724357 0.025356944509769542 0 0.042655186717831278 0.025826311573006931 0 0.04223214883724357 0.025356944509769542 0 0.042803230437122697 0.025156057101592477 0 0.041086649160476239 0.02538988337063379 0 0.041618810315125196 0.025233327907707655 0 0.041102305963337755 0.02507991872352686 0 0.041086649160476239 0.02538988337063379 0 0.041102305963337755 0.02507991872352686 0 0.040947918957609145 0.025194393790132802 0 0.041086649160476239 0.02538988337063379 0 0.042072254501865899 0.025586452164707927 0 0.041618810315125196 0.025233327907707655 0 0.041102305963337755 0.02507991872352686 0 0.040947918957609145 0.025194393790132802 0 0.040841159595039221 0.025032862221009568 0 0.040947918957609145 0.025194393790132802 0 0.040823942764823894 0.025151849106051585 0 0.040841159595039221 0.025032862221009568 0 0.041086649160476239 0.02538988337063379 0 0.040947918957609145 0.025194393790132802 0 0.040911646679829439 0.025221574887516699 0 0.040947918957609145 0.025194393790132802 0 0.040911646679829439 0.025221574887516699 0 0.040823942764823894 0.025151849106051585 0 0.040911646679829439 0.025221574887516699 0 0.04083505059804611 0.025148753984513078 0 0.040823942764823894 0.025151849106051585 0 0.04083505059804611 0.025148753984513078 0 0.040761264172451891 0.025121545060916482 0 0.040823942764823894 0.025151849106051585 0 0.040754223346205556 0.025121687529069296 0 0.04083505059804611 0.025148753984513078 0 0.040761264172451891 0.025121545060916482 0 0.040761264172451891 0.025121545060916482 0 0.040823942764823894 0.025151849106051585 0 0.040728238089324596 0.025068628657922618 0 0.040728238089324596 0.025068628657922618 0 0.040715459462209169 0.024987697493421224 0 0.040841159595039221 0.025032862221009568 0 0.040823942764823894 0.025151849106051585 0 0.040728238089324596 0.025068628657922618 0 0.040841159595039221 0.025032862221009568 0 0.040715459462209169 0.024987697493421224 0 0.040841159595039221 0.025032862221009568 0 0.04077312328973437 0.024725924544134519 0 0.040715459462209169 0.024987697493421224 0 0.04077312328973437 0.024725924544134519 0 0.04066945672434253 0.024887473537042137 0 0.041102305963337755 0.02507991872352686 0 0.04077312328973437 0.024725924544134519 0 0.041412430034353062 0.024704711175710572 0 0.041102305963337755 0.02507991872352686 0 0.040841159595039221 0.025032862221009568 0 0.04077312328973437 0.024725924544134519 0 0.04160710428686417 0.02485686456337784 0 0.042020411990157228 0.024830900979202899 0 0.04077312328973437 0.024725924544134519 0 0.040682858097007404 0.024853842116233902 0 0.04072574434793174 0.024906212984594608 0 0.04077312328973437 0.024725924544134519 0 0.040749638997662332 0.024860381572748343 0 0.04072574434793174 0.024906212984594608 0 0.04077312328973437 0.024725924544134519 0 0.040712727917863824 0.024838424524514482 0 0.040749638997662332 0.024860381572748343 0 0.040712727917863824 0.024838424524514482 0 0.040632050922047511 0.024875520212887345 0 0.04066945672434253 0.024887473537042137 0 0.040609604014591606 0.024830218471964847 0 0.040712727917863824 0.024838424524514482 0 0.040632050922047511 0.024875520212887345 0 0.04077312328973437 0.024725924544134519 0 0.040712727917863824 0.024838424524514482 0 0.04066945672434253 0.024887473537042137 0 0.043090631624042572 0.023983874690494858 0 0.042454297587087839 0.024387960412360146 0 0.042921067717252272 0.024678242074559868 0 0.042454297587087839 0.024387960412360146 0 0.042921067717252272 0.024678242074559868 0 0.042071792975589065 0.024859878690465576 0 0.04223214883724357 0.025356944509769542 0 0.042803230437122697 0.025156057101592477 0 0.042071792975589065 0.024859878690465576 0 0.042921067717252272 0.024678242074559868 0 0.042803230437122697 0.025156057101592477 0 0.042071792975589065 0.024859878690465576 0 0.04223214883724357 0.025356944509769542 0 0.041618810315125196 0.025233327907707655 0 0.042071792975589065 0.024859878690465576 0 0.042454297587087839 0.024387960412360146 0 0.042071792975589065 0.024859878690465576 0 0.042011377674227766 0.024326401094654587 0 0.042071792975589065 0.024859878690465576 0 0.041412430034353062 0.024704711175710572 0 0.042011377674227766 0.024326401094654587 0 0.041618810315125196 0.025233327907707655 0 0.042071792975589065 0.024859878690465576 0 0.041412430034353062 0.024704711175710572 0 0.041618810315125196 0.025233327907707655 0 0.041102305963337755 0.02507991872352686 0 0.041412430034353062 0.024704711175710572 0 0.04077312328973437 0.024725924544134519 0 0.041412430034353062 0.024704711175710572 0 0.041420028759598305 0.024069405764495858 0 0.041412430034353062 0.024704711175710572 0 0.041420028759598305 0.024069405764495858 0 0.042011377674227766 0.024326401094654587 0 0.042020411990157228 0.024830900979202899 0 0.043565213045523452 0.024753423147745389 0 0.041420028759598305 0.024069405764495858 0 0.042337919181184902 0.023740194304005122 0 0.042536396719103038 0.023406231363220304 0 0.041420028759598305 0.024069405764495858 0 0.042011377674227766 0.024326401094654587 0 0.042337919181184902 0.023740194304005122 0 0.040682858097007404 0.024853842116233902 0 0.040558292589130684 0.024923255760805594 0 0.040623372809892949 0.024959029044865667 0 0.042011377674227766 0.024326401094654587 0 0.042337919181184902 0.023740194304005122 0 0.042552163146554058 0.024021909046855371 0 0.043428858388152275 0.023380036013317281 0 0.042623067325068403 0.023142923720869176 0 0.042823678453337788 0.023656773004275829 0 0.043558507434174991 0.024725828817782965 0 0.043565213045523452 0.024753423147745389 0 0.042337919181184902 0.023740194304005122 0 0.042623067325068403 0.023142923720869176 0 0.042823678453337788 0.023656773004275829 0 0.043090631624042572 0.023983874690494858 0 0.042823678453337788 0.023656773004275829 0 0.042552163146554058 0.024021909046855371 0 0.042337919181184902 0.023740194304005122 0 0.042823678453337788 0.023656773004275829 0 0.042552163146554058 0.024021909046855371 0 0.042454297587087839 0.024387960412360146 0 0.042011377674227766 0.024326401094654587 0 0.042552163146554058 0.024021909046855371 0 0.043090631624042572 0.023983874690494858 0 0.042454297587087839 0.024387960412360146 0 0.042552163146554058 0.024021909046855371 0 0.040558292589130684 0.024923255760805594 0 0.040582216705222794 0.025079716077196557 0 0.040623372809892949 0.024959029044865667 0 0.040582216705222794 0.025079716077196557 0 0.040623372809892949 0.024959029044865667 0 0.040660780751527827 0.024993721638105634 0 0.040582216705222794 0.025079716077196557 0 0.040660780751527827 0.024993721638105634 0 0.040636380428244204 0.025134135242601399 0 0.040660780751527827 0.024993721638105634 0 0.040713052612301869 0.025039320469077513 0 0.040636380428244204 0.025134135242601399 0 0.040682858097007404 0.024853842116233902 0 0.040623372809892949 0.024959029044865667 0 0.040660780751527827 0.024993721638105634 0 0.040682858097007404 0.024853842116233902 0 0.040660780751527827 0.024993721638105634 0 0.04072574434793174 0.024906212984594608 0 0.040660780751527827 0.024993721638105634 0 0.040713052612301869 0.025039320469077513 0 0.04072574434793174 0.024906212984594608 0 0.040713052612301869 0.025039320469077513 0 0.040678860219910871 0.025229498772605996 0 0.040783934655032827 0.025210656519710627 0 0.040713052612301869 0.025039320469077513 0 0.040678860219910871 0.025229498772605996 0 0.040636380428244204 0.025134135242601399 0 0.040678860219910871 0.025229498772605996 0 0.040636380428244204 0.025134135242601399 0 0.04059999547927412 0.025316339262055874 0 0.040636380428244204 0.025134135242601399 0 0.040561677168839114 0.0252169553880741 0 0.04059999547927412 0.025316339262055874 0 0.040582216705222794 0.025079716077196557 0 0.040636380428244204 0.025134135242601399 0 0.040561677168839114 0.0252169553880741 0 0.040715367980000652 0.024844211803552133 0 0.040658613588809137 0.024786269552216508 0 0.040709057427208414 0.02486380703358141 0 0.040715367980000652 0.024844211803552133 0 0.040759777423932962 0.024926163388336822 0 0.040709057427208414 0.02486380703358141 0 0.040715367980000652 0.024844211803552133 0 0.040658613588809137 0.024786269552216508 0 0.040678806255266708 0.024823227712490539 0 0.040609604014591606 0.024830218471964847 0 0.040658613588809137 0.024786269552216508 0 0.040678806255266708 0.024823227712490539 0 0.040609604014591606 0.024830218471964847 0 0.040712727917863824 0.024838424524514482 0 0.040678806255266708 0.024823227712490539 0 0.040712727917863824 0.024838424524514482 0 0.040715367980000652 0.024844211803552133 0 0.040678806255266708 0.024823227712490539 0 0.040712727917863824 0.024838424524514482 0 0.040715367980000652 0.024844211803552133 0 0.040749638997662332 0.024860381572748343 0 0.040749638997662332 0.024860381572748343 0 0.04072574434793174 0.024906212984594608 0 0.040759777423932962 0.024926163388336822 0 0.040713052612301869 0.025039320469077513 0 0.04072574434793174 0.024906212984594608 0 0.040759777423932962 0.024926163388336822 0 0.040715367980000652 0.024844211803552133 0 0.040749638997662332 0.024860381572748343 0 0.040759777423932962 0.024926163388336822 0 0.034635047161100718 0.027610148228239675 0 0.032590659542020659 0.030508109967584324 0 0.016473922351732444 0.046238660329108325 0 0.01671424344153332 0.043317429256395805 0 0.0201331627115049 0.044443520596730283 0 0.040713052612301869 0.025039320469077513 0 0.040759777423932962 0.024926163388336822 0 0.040783934655032827 0.025210656519710627 0 0.027383836689852697 0.032333981095540067 0 0.032590659542020659 0.030508109967584324 0 0.040759777423932962 0.024926163388336822 0 0.040709057427208414 0.02486380703358141 0 0.040758942930534663 0.02487562145352638 0 0.013091291707660819 0.04589270972481288 0 0.016473922351732444 0.046238660329108325 0 0.013727452783260879 0.044245029033868281 0 0.013091291707660819 0.04589270972481288 0 0.013463771569140089 0.047143645378560174 0 0.016473922351732444 0.046238660329108325 0 0.022218402694059253 0.032971845327269031 0 0.027383836689852697 0.032333981095540067 0 0.012844504638971478 0.047869946650163336 0 0.013463771569140089 0.047143645378560174 0 0.016473922351732444 0.046238660329108325 0 0.016473922351732444 0.046238660329108325 0 0.01671424344153332 0.043317429256395805 0 0.013727452783260879 0.044245029033868281 0 0.040603132392791022 0.024707929456579875 0 0.040658613588809137 0.024786269552216508 0 0.040709057427208414 0.02486380703358141 0 0.01671424344153332 0.043317429256395805 0 0.013727452783260879 0.044245029033868281 0 0.011621316841773853 0.041888300270365171 0 0.01671424344153332 0.043317429256395805 0 0.017107651591353277 0.040385353110444222 0 0.011621316841773853 0.041888300270365171 0 0.0201331627115049 0.044443520596730283 0 0.019201240020288092 0.041367977228049489 0 0.022326057216473991 0.040024033300526569 0 0.01671424344153332 0.043317429256395805 0 0.0201331627115049 0.044443520596730283 0 0.019201240020288092 0.041367977228049489 0 0.01671424344153332 0.043317429256395805 0 0.019201240020288092 0.041367977228049489 0 0.017107651591353277 0.040385353110444222 0 0.019201240020288092 0.041367977228049489 0 0.019672611301090652 0.038715090370259386 0 0.017107651591353277 0.040385353110444222 0 0.019201240020288092 0.041367977228049489 0 0.019672611301090652 0.038715090370259386 0 0.022326057216473991 0.040024033300526569 0 0.017107651591353277 0.040385353110444222 0 0.015364422242709869 0.037226945429763181 0 0.011621316841773853 0.041888300270365171 0 0.019672611301090652 0.038715090370259386 0 0.017107651591353277 0.040385353110444222 0 0.015364422242709869 0.037226945429763181 0 0.04059999547927412 0.025316339262055874 0 0.040663556737411961 0.025438540089371242 0 0.040519202059660933 0.025435738135345349 0 0.040678860219910871 0.025229498772605996 0 0.04059999547927412 0.025316339262055874 0 0.040663556737411961 0.025438540089371242 0 0.036971929758993785 0.027597479757300362 0 0.038920829400249199 0.026592366140198088 0 0.037830128882214896 0.025743951856047609 0 0.032590659542020659 0.030508109967584324 0 0.031197184358842459 0.032038877825724961 0 0.040678860219910871 0.025229498772605996 0 0.040783934655032827 0.025210656519710627 0 0.040663556737411961 0.025438540089371242 0 0.032590659542020659 0.030508109967584324 0 0.038580799884902747 0.026989816962475374 0 0.019672611301090652 0.038715090370259386 0 0.022326057216473991 0.040024033300526569 0 0.021484678898637075 0.037120900379241671 0 0.038920829400249199 0.026592366140198088 0 0.037830128882214896 0.025743951856047609 0 0.038920713306466133 0.025837037096381282 0 0.037830128882214896 0.025743951856047609 0 0.038920713306466133 0.025837037096381282 0 0.038150102981414392 0.025185655773353962 0 0.038920713306466133 0.025837037096381282 0 0.039614574296896195 0.025105427667999749 0 0.040155770679179165 0.025840222632312292 0 0.038920829400249199 0.026592366140198088 0 0.038920713306466133 0.025837037096381282 0 0.040155770679179165 0.025840222632312292 0 0.038150102981414392 0.025185655773353962 0 0.037798692542080903 0.025596963297461608 0 0.034715491242589318 0.026873490755700228 0 0.038150102981414392 0.025185655773353962 0 0.040500382919606039 0.021594767584500098 0 0.040231891055519373 0.023757730321570657 0 0.039614574296896195 0.025105427667999749 0 0.038150102981414392 0.025185655773353962 0 0.040231891055519373 0.023757730321570657 0 0.038920713306466133 0.025837037096381282 0 0.039614574296896195 0.025105427667999749 0 0.038150102981414392 0.025185655773353962 0 0.031197184358842459 0.032038877825724961 0 0.031514115847221497 0.030544084190900534 0 0.037830128882214896 0.025743951856047609 0 0.038150102981414392 0.025185655773353962 0 0.037798692542080903 0.025596963297461608 0 0.022326057216473991 0.040024033300526569 0 0.024710127142558404 0.035945253726762598 0 0.021484678898637075 0.037120900379241671 0 0.024710127142558404 0.035945253726762598 0 0.021484678898637075 0.037120900379241671 0 0.021745563883828097 0.035079360993812765 0 0.021745563883828097 0.035079360993812765 0 0.022820755930932395 0.032817635925727083 0 0.023701841058506389 0.034565100293336926 0 0.021745563883828097 0.035079360993812765 0 0.022820755930932395 0.032817635925727083 0 0.019322072182258697 0.033086906767890015 0 0.022820755930932395 0.032817635925727083 0 0.023701841058506389 0.034565100293336926 0 0.025032571147972377 0.033206853227751153 0 0.024710127142558404 0.035945253726762598 0 0.023701841058506389 0.034565100293336926 0 0.025032571147972377 0.033206853227751153 0 0.024710127142558404 0.035945253726762598 0 0.021745563883828097 0.035079360993812765 0 0.023701841058506389 0.034565100293336926 0 0.037798692542080903 0.025596963297461608 0 0.034857490729573781 0.027367980218329143 0 0.034715491242589318 0.026873490755700228 0 0.037726568336984283 0.025199154167657525 0 0.037951968065474941 0.024639983987378128 0 0.031514115847221497 0.030544084190900534 0 0.032011126742016165 0.028942204647172228 0 0.024710127142558404 0.035945253726762598 0 0.025032571147972377 0.033206853227751153 0 0.027733019977477888 0.032146719164681051 0 0.015364422242709869 0.037226945429763181 0 0.015981278005507187 0.033621819879947737 0 0.011169137113560611 0.035147456692093987 0 0.015364422242709869 0.037226945429763181 0 0.018826371919822241 0.035778318522875663 0 0.015981278005507187 0.033621819879947737 0 0.019672611301090652 0.038715090370259386 0 0.015364422242709869 0.037226945429763181 0 0.018826371919822241 0.035778318522875663 0 0.019672611301090652 0.038715090370259386 0 0.021484678898637075 0.037120900379241671 0 0.018826371919822241 0.035778318522875663 0 0.021484678898637075 0.037120900379241671 0 0.021745563883828097 0.035079360993812765 0 0.018826371919822241 0.035778318522875663 0 0.019322072182258697 0.033086906767890015 0 0.015981278005507187 0.033621819879947737 0 0.017699703715981355 0.030165600603035574 0 0.018826371919822241 0.035778318522875663 0 0.019322072182258697 0.033086906767890015 0 0.015981278005507187 0.033621819879947737 0 0.021745563883828097 0.035079360993812765 0 0.018826371919822241 0.035778318522875663 0 0.019322072182258697 0.033086906767890015 0 0.015981278005507187 0.033621819879947737 0 0.017699703715981355 0.030165600603035574 0 0.013415024821462956 0.030436587348103165 0 0.015066474432100112 0.027587327092150948 0 0.017699703715981355 0.030165600603035574 0 0.013415024821462956 0.030436587348103165 0 0.015066474432100112 0.027587327092150948 0 0.014141576223830873 0.024757949398051458 0 0.018790272819023519 0.025611353560285526 0 0.015066474432100112 0.027587327092150948 0 0.017699703715981355 0.030165600603035574 0 0.018790272819023519 0.025611353560285526 0 0.017699703715981355 0.030165600603035574 0 0.021611367659946631 0.029964686954581696 0 0.018790272819023519 0.025611353560285526 0 0.021611367659946631 0.029964686954581696 0 0.023145336520592797 0.027371770156909 0 0.018790272819023519 0.025611353560285526 0 0.019322072182258697 0.033086906767890015 0 0.017699703715981355 0.030165600603035574 0 0.021611367659946631 0.029964686954581696 0 0.022820755930932395 0.032817635925727083 0 0.019322072182258697 0.033086906767890015 0 0.021611367659946631 0.029964686954581696 0 0.022820755930932395 0.032817635925727083 0 0.0246806202242307 0.031304194449817989 0 0.021611367659946631 0.029964686954581696 0 0.022820755930932395 0.032817635925727083 0 0.025032571147972377 0.033206853227751153 0 0.0246806202242307 0.031304194449817989 0 0.0246806202242307 0.031304194449817989 0 0.021611367659946631 0.029964686954581696 0 0.024912971380464763 0.029106696908696845 0 0.025032571147972377 0.033206853227751153 0 0.0246806202242307 0.031304194449817989 0 0.026011625615023383 0.031783722045596999 0 0.025032571147972377 0.033206853227751153 0 0.027733019977477888 0.032146719164681051 0 0.026011625615023383 0.031783722045596999 0 0.027733019977477888 0.032146719164681051 0 0.026011625615023383 0.031783722045596999 0 0.026587130316731239 0.030401932905895455 0 0.0246806202242307 0.031304194449817989 0 0.026011625615023383 0.031783722045596999 0 0.026587130316731239 0.030401932905895455 0 0.0246806202242307 0.031304194449817989 0 0.026587130316731239 0.030401932905895455 0 0.024912971380464763 0.029106696908696845 0 0.027733019977477888 0.032146719164681051 0 0.026587130316731239 0.030401932905895455 0 0.028749694408003287 0.029126333309886333 0 0.027733019977477888 0.032146719164681051 0 0.028749694408003287 0.029126333309886333 0 0.032295141626773168 0.027447840954603616 0 0.028749694408003287 0.029126333309886333 0 0.027439738446166151 0.028413834115699768 0 0.029129079532672273 0.02684657489353301 0 0.026587130316731239 0.030401932905895455 0 0.027439738446166151 0.028413834115699768 0 0.024912971380464763 0.029106696908696845 0 0.027439738446166151 0.028413834115699768 0 0.026272926858461387 0.026914312597216907 0 0.024912971380464763 0.029106696908696845 0 0.026587130316731239 0.030401932905895455 0 0.028749694408003287 0.029126333309886333 0 0.027439738446166151 0.028413834115699768 0 0.027439738446166151 0.028413834115699768 0 0.026272926858461387 0.026914312597216907 0 0.029129079532672273 0.02684657489353301 0 0.026272926858461387 0.026914312597216907 0 0.029129079532672273 0.02684657489353301 0 0.028551565044201976 0.024715242161480876 0 0.028749694408003287 0.029126333309886333 0 0.029129079532672273 0.02684657489353301 0 0.032295141626773168 0.027447840954603616 0 0.023145336520592797 0.027371770156909 0 0.02451626610148171 0.024743099765333367 0 0.018790272819023519 0.025611353560285526 0 0.021611367659946631 0.029964686954581696 0 0.024912971380464763 0.029106696908696845 0 0.023145336520592797 0.027371770156909 0 0.026272926858461387 0.026914312597216907 0 0.024912971380464763 0.029106696908696845 0 0.023145336520592797 0.027371770156909 0 0.026272926858461387 0.026914312597216907 0 0.023145336520592797 0.027371770156909 0 0.02451626610148171 0.024743099765333367 0 0.022081406499761154 0.022311297843471346 0 0.02451626610148171 0.024743099765333367 0 0.028433257510970839 0.020653692969474415 0 0.022081406499761154 0.022311297843471346 0 0.02451626610148171 0.024743099765333367 0 0.018790272819023519 0.025611353560285526 0 0.02451626610148171 0.024743099765333367 0 0.028551565044201976 0.024715242161480876 0 0.028433257510970839 0.020653692969474415 0 0.028551565044201976 0.024715242161480876 0 0.028433257510970839 0.020653692969474415 0 0.032970227897439405 0.023472609673472082 0 0.029129079532672273 0.02684657489353301 0 0.028551565044201976 0.024715242161480876 0 0.031449172883413652 0.025758224416137454 0 0.026272926858461387 0.026914312597216907 0 0.02451626610148171 0.024743099765333367 0 0.028551565044201976 0.024715242161480876 0 0.022081406499761154 0.022311297843471346 0 0.019087904730213136 0.019752922561085268 0 0.023921464574450869 0.016625267437567304 0 0.022081406499761154 0.022311297843471346 0 0.028433257510970839 0.020653692969474415 0 0.023921464574450869 0.016625267437567304 0 0.019087904730213136 0.019752922561085268 0 0.014307171092615723 0.021316364046781975 0 0.018790272819023519 0.025611353560285526 0 0.019087904730213136 0.019752922561085268 0 0.014307171092615723 0.021316364046781975 0 0.018500223708831209 0.013863457707272431 0 0.014307171092615723 0.021316364046781975 0 0.014141576223830873 0.024757949398051458 0 0.018790272819023519 0.025611353560285526 0 0.022081406499761154 0.022311297843471346 0 0.019087904730213136 0.019752922561085268 0 0.018790272819023519 0.025611353560285526 0 0.045372727823896668 0.01851733727058066 0 0.045665957606470305 0.017717870276677074 0 0.044331480483004518 0.017606466565521055 0 0.046498004830472561 0.018456615718352019 0 0.046646450846566455 0.017674300317324056 0 0.045665957606470305 0.017717870276677074 0 0.045372727823896668 0.01851733727058066 0 0.046498004830472561 0.018456615718352019 0 0.045665957606470305 0.017717870276677074 0 0.045372727823896668 0.01851733727058066 0 0.046498004830472561 0.018456615718352019 0 0.046525996082202814 0.019491525528563598 0 0.046498004830472561 0.018456615718352019 0 0.047547078205759381 0.018719468523614734 0 0.046525996082202814 0.019491525528563598 0 0.046498004830472561 0.018456615718352019 0 0.047547078205759381 0.018719468523614734 0 0.047560437772645806 0.018014960326624713 0 0.047547078205759381 0.018719468523614734 0 0.047560437772645806 0.018014960326624713 0 0.048504986890554311 0.01814221372996461 0 0.046498004830472561 0.018456615718352019 0 0.047560437772645806 0.018014960326624713 0 0.046646450846566455 0.017674300317324056 0 0.047560437772645806 0.018014960326624713 0 0.046646450846566455 0.017674300317324056 0 0.047384921747580189 0.017176470313010402 0 0.046646450846566455 0.017674300317324056 0 0.047384921747580189 0.017176470313010402 0 0.046396557103689548 0.017075714893900806 0 0.047560437772645806 0.018014960326624713 0 0.047384921747580189 0.017176470313010402 0 0.048167050447127914 0.017474577644725965 0 0.047384921747580189 0.017176470313010402 0 0.047753983121777213 0.016459130310749394 0 0.047021393686804351 0.016567796772585065 0 0.047384921747580189 0.017176470313010402 0 0.048087576261435866 0.016942553210351468 0 0.047753983121777213 0.016459130310749394 0 0.047384921747580189 0.017176470313010402 0 0.048087576261435866 0.016942553210351468 0 0.048167050447127914 0.017474577644725965 0 0.047384921747580189 0.017176470313010402 0 0.046396557103689548 0.017075714893900806 0 0.047021393686804351 0.016567796772585065 0 0.045519847377680722 0.016900286402379394 0 0.045665957606470305 0.017717870276677074 0 0.044331480483004518 0.017606466565521055 0 0.046396557103689548 0.017075714893900806 0 0.045519847377680722 0.016900286402379394 0 0.046162015137837256 0.016179762939806466 0 0.045519847377680722 0.016900286402379394 0 0.044331480483004518 0.017606466565521055 0 0.044422677628833368 0.015468511866067011 0 0.046396557103689548 0.017075714893900806 0 0.045519847377680722 0.016900286402379394 0 0.045665957606470305 0.017717870276677074 0 0.046646450846566455 0.017674300317324056 0 0.046396557103689548 0.017075714893900806 0 0.045665957606470305 0.017717870276677074 0 0.038023059852910941 0.02241991711058542 0 0.034697194523218518 0.019544080386176183 0 0.038411883194566801 0.017040582106991286 0 0.041061071415595458 0.019466023868818228 0 0.042462368010107283 0.017065621822969501 0 0.038023059852910941 0.02241991711058542 0 0.034697194523218518 0.019544080386176183 0 0.032970227897439405 0.023472609673472082 0 0.028433257510970839 0.020653692969474415 0 0.034697194523218518 0.019544080386176183 0 0.033187601947929933 0.015997231642020059 0 0.028433257510970839 0.020653692969474415 0 0.034697194523218518 0.019544080386176183 0 0.032970227897439405 0.023472609673472082 0 0.038023059852910941 0.02241991711058542 0 0.032970227897439405 0.023472609673472082 0 0.033166835986961699 0.027927105104950327 0 0.032970227897439405 0.023472609673472082 0 0.031449172883413652 0.025758224416137454 0 0.033166835986961699 0.027927105104950327 0 0.028551565044201976 0.024715242161480876 0 0.032970227897439405 0.023472609673472082 0 0.031449172883413652 0.025758224416137454 0 0.041061071415595458 0.019466023868818228 0 0.038972045860192192 0.022894643705836694 0 0.044331480483004518 0.017606466565521055 0 0.044188821848219588 0.018939826197110911 0 0.042849075934296509 0.019190164354015042 0 0.045372727823896668 0.01851733727058066 0 0.044331480483004518 0.017606466565521055 0 0.044188821848219588 0.018939826197110911 0 0.045372727823896668 0.01851733727058066 0 0.044188821848219588 0.018939826197110911 0 0.044716656548280775 0.019775610224768422 0 0.044188821848219588 0.018939826197110911 0 0.043653103661689806 0.019863252563375438 0 0.042849075934296509 0.019190164354015042 0 0.044188821848219588 0.018939826197110911 0 0.043653103661689806 0.019863252563375438 0 0.044716656548280775 0.019775610224768422 0 0.034857490729573781 0.027367980218329143 0 0.032295141626773168 0.027447840954603616 0 0.033166835986961699 0.027927105104950327 0 0.031449172883413652 0.025758224416137454 0 0.032295141626773168 0.027447840954603616 0 0.033166835986961699 0.027927105104950327 0 0.029129079532672273 0.02684657489353301 0 0.031449172883413652 0.025758224416137454 0 0.032295141626773168 0.027447840954603616 0 0.034857490729573781 0.027367980218329143 0 0.033166835986961699 0.027927105104950327 0 0.034715491242589318 0.026873490755700228 0 0.032011126742016165 0.028942204647172228 0 0.032374278145731482 0.027962097337287967 0 0.042849075934296509 0.019190164354015042 0 0.042728891544940431 0.020802927941873366 0 0.040500382919606039 0.021594767584500098 0 0.038972045860192192 0.022894643705836694 0 0.037951968065474941 0.024639983987378128 0 0.043653103661689806 0.019863252563375438 0 0.042849075934296509 0.019190164354015042 0 0.042728891544940431 0.020802927941873366 0 0.044716656548280775 0.019775610224768422 0 0.043950588006679996 0.020720176881660574 0 0.044812530426771739 0.020811770385487788 0 0.043653103661689806 0.019863252563375438 0 0.044716656548280775 0.019775610224768422 0 0.043950588006679996 0.020720176881660574 0 0.043653103661689806 0.019863252563375438 0 0.042728891544940431 0.020802927941873366 0 0.043950588006679996 0.020720176881660574 0 0.042728891544940431 0.020802927941873366 0 0.043950588006679996 0.020720176881660574 0 0.04331032448339505 0.021701745844675876 0 0.043950588006679996 0.020720176881660574 0 0.044605365988715347 0.021533636711117247 0 0.04331032448339505 0.021701745844675876 0 0.043950588006679996 0.020720176881660574 0 0.044812530426771739 0.020811770385487788 0 0.044605365988715347 0.021533636711117247 0 0.044812530426771739 0.020811770385487788 0 0.045619454671073062 0.020520352632446722 0 0.045584272239857178 0.021372027782405642 0 0.044812530426771739 0.020811770385487788 0 0.045584272239857178 0.021372027782405642 0 0.044605365988715347 0.021533636711117247 0 0.045619454671073062 0.020520352632446722 0 0.04660114115875625 0.020406703500961944 0 0.046573902733516422 0.021149434014885258 0 0.045619454671073062 0.020520352632446722 0 0.046573902733516422 0.021149434014885258 0 0.045584272239857178 0.021372027782405642 0 0.045619454671073062 0.020520352632446722 0 0.046525996082202814 0.019491525528563598 0 0.04660114115875625 0.020406703500961944 0 0.044716656548280775 0.019775610224768422 0 0.044812530426771739 0.020811770385487788 0 0.045619454671073062 0.020520352632446722 0 0.045372727823896668 0.01851733727058066 0 0.044716656548280775 0.019775610224768422 0 0.046525996082202814 0.019491525528563598 0 0.044716656548280775 0.019775610224768422 0 0.045619454671073062 0.020520352632446722 0 0.046525996082202814 0.019491525528563598 0 0.046525996082202814 0.019491525528563598 0 0.047606579373063111 0.020266421197106428 0 0.047998482898893705 0.019430647023818377 0 0.047547078205759381 0.018719468523614734 0 0.046525996082202814 0.019491525528563598 0 0.047998482898893705 0.019430647023818377 0 0.046525996082202814 0.019491525528563598 0 0.047606579373063111 0.020266421197106428 0 0.04660114115875625 0.020406703500961944 0 0.047606579373063111 0.020266421197106428 0 0.04660114115875625 0.020406703500961944 0 0.046573902733516422 0.021149434014885258 0 0.047606579373063111 0.020266421197106428 0 0.046573902733516422 0.021149434014885258 0 0.047536409895369024 0.021329830687617436 0 0.047606579373063111 0.020266421197106428 0 0.047536409895369024 0.021329830687617436 0 0.048345741526483854 0.021054515781673395 0 0.047536409895369024 0.021329830687617436 0 0.048242368326337895 0.021966611199353215 0 0.046874566715322072 0.022001642907380006 0 0.047536409895369024 0.021329830687617436 0 0.048242368326337895 0.021966611199353215 0 0.048345741526483854 0.021054515781673395 0 0.048242368326337895 0.021966611199353215 0 0.046874566715322072 0.022001642907380006 0 0.046424871469911019 0.023091912672821461 0 0.046573902733516422 0.021149434014885258 0 0.047536409895369024 0.021329830687617436 0 0.046874566715322072 0.022001642907380006 0 0.046573902733516422 0.021149434014885258 0 0.045584272239857178 0.021372027782405642 0 0.045709928469234315 0.022309944221816053 0 0.046573902733516422 0.021149434014885258 0 0.046874566715322072 0.022001642907380006 0 0.045709928469234315 0.022309944221816053 0 0.044605365988715347 0.021533636711117247 0 0.045709928469234315 0.022309944221816053 0 0.044063429344351153 0.022675563205375265 0 0.045584272239857178 0.021372027782405642 0 0.044605365988715347 0.021533636711117247 0 0.045709928469234315 0.022309944221816053 0 0.045709928469234315 0.022309944221816053 0 0.044927039676352164 0.023736089270879529 0 0.044063429344351153 0.022675563205375265 0 0.045709928469234315 0.022309944221816053 0 0.046424871469911019 0.023091912672821461 0 0.044927039676352164 0.023736089270879529 0 0.046874566715322072 0.022001642907380006 0 0.045709928469234315 0.022309944221816053 0 0.046424871469911019 0.023091912672821461 0 0.046424871469911019 0.023091912672821461 0 0.044927039676352164 0.023736089270879529 0 0.046609215803351839 0.024849422532718018 0 0.044927039676352164 0.023736089270879529 0 0.046609215803351839 0.024849422532718018 0 0.043735766588175615 0.025508791461544604 0 0.046055316752630519 0.023407206329714984 0 0.043020917159208617 0.024449435360270822 0 0.048242368326337895 0.021966611199353215 0 0.046424871469911019 0.023091912672821461 0 0.046609215803351839 0.024849422532718018 0 0.049148489651530604 0.022197669746744173 0 0.049758219400899535 0.022614649454153223 0 0.049962275898392076 0.022120383364211269 0 0.048242368326337895 0.021966611199353215 0 0.047367771702872562 0.023272977670475575 0 0.048647755133292205 0.02305205102477851 0 0.046055316752630519 0.023407206329714984 0 0.048082306161684907 0.022973499394068193 0 0.046696111893567899 0.022846006910201909 0 0.046055316752630519 0.023407206329714984 0 0.040500382919606039 0.021594767584500098 0 0.04133027475085177 0.022752017696504784 0 0.040231891055519373 0.023757730321570657 0 0.04133027475085177 0.022752017696504784 0 0.041346389698397247 0.023588905949807261 0 0.040231891055519373 0.023757730321570657 0 0.040500382919606039 0.021594767584500098 0 0.042006910216922287 0.021926173081246478 0 0.04133027475085177 0.022752017696504784 0 0.042728891544940431 0.020802927941873366 0 0.040500382919606039 0.021594767584500098 0 0.042006910216922287 0.021926173081246478 0 0.04133027475085177 0.022752017696504784 0 0.042471899618586148 0.022972945559986701 0 0.041346389698397247 0.023588905949807261 0 0.042006910216922287 0.021926173081246478 0 0.04133027475085177 0.022752017696504784 0 0.042471899618586148 0.022972945559986701 0 0.042471899618586148 0.022972945559986701 0 0.044063429344351153 0.022675563205375265 0 0.043277359061338221 0.023943906897253977 0 0.042471899618586148 0.022972945559986701 0 0.04331032448339505 0.021701745844675876 0 0.044063429344351153 0.022675563205375265 0 0.042728891544940431 0.020802927941873366 0 0.042006910216922287 0.021926173081246478 0 0.04331032448339505 0.021701745844675876 0 0.042006910216922287 0.021926173081246478 0 0.042471899618586148 0.022972945559986701 0 0.04331032448339505 0.021701745844675876 0 0.044605365988715347 0.021533636711117247 0 0.04331032448339505 0.021701745844675876 0 0.044063429344351153 0.022675563205375265 0 0.044927039676352164 0.023736089270879529 0 0.044063429344351153 0.022675563205375265 0 0.043277359061338221 0.023943906897253977 0 0.044927039676352164 0.023736089270879529 0 0.043277359061338221 0.023943906897253977 0 0.043735766588175615 0.025508791461544604 0 0.043277359061338221 0.023943906897253977 0 0.041578952309950727 0.024535787063339348 0 0.043735766588175615 0.025508791461544604 0 0.042471899618586148 0.022972945559986701 0 0.043277359061338221 0.023943906897253977 0 0.041578952309950727 0.024535787063339348 0 0.041578952309950727 0.024535787063339348 0 0.040155770679179165 0.025840222632312292 0 0.043735766588175615 0.025508791461544604 0 0.042471899618586148 0.022972945559986701 0 0.041346389698397247 0.023588905949807261 0 0.041578952309950727 0.024535787063339348 0 0.041346389698397247 0.023588905949807261 0 0.041578952309950727 0.024535787063339348 0 0.040588350744849885 0.024586565440476538 0 0.039614574296896195 0.025105427667999749 0 0.040588350744849885 0.024586565440476538 0 0.040155770679179165 0.025840222632312292 0 0.041578952309950727 0.024535787063339348 0 0.040588350744849885 0.024586565440476538 0 0.040155770679179165 0.025840222632312292 0 0.039614574296896195 0.025105427667999749 0 0.040588350744849885 0.024586565440476538 0 0.040231891055519373 0.023757730321570657 0 0.041346389698397247 0.023588905949807261 0 0.040588350744849885 0.024586565440476538 0 0.040231891055519373 0.023757730321570657 0 0.041951058546718531 0.024785503782944553 0 0.043020917159208617 0.024449435360270822 0 0.038580799884902747 0.026989816962475374 0 0.039700448331168127 0.026319886008496527 0 0.038920829400249199 0.026592366140198088 0 0.040155770679179165 0.025840222632312292 0 0.040475480361774625 0.025736698905109687 0 0.040155770679179165 0.025840222632312292 0 0.040475480361774625 0.025736698905109687 0 0.040695603926639366 0.025556707931581029 0 0.040663556737411961 0.025438540089371242 0 0.040475480361774625 0.025736698905109687 0 0.04053148279243448 0.025550930628438637 0 0.040475480361774625 0.025736698905109687 0 0.04053148279243448 0.025550930628438637 0 0.040513755589128599 0.025602730459348477 0 0.040513755589128599 0.025602730459348477 0 0.040695603926639366 0.025556707931581029 0 0.040543101238398535 0.025560355323671239 0 0.040475480361774625 0.025736698905109687 0 0.040513755589128599 0.025602730459348477 0 0.040695603926639366 0.025556707931581029 0 0.040513755589128599 0.025602730459348477 0 0.040543101238398535 0.025560355323671239 0 0.040519202059660933 0.025435738135345349 0 0.040454056961934062 0.025236546285358277 0 0.040543101238398535 0.025560355323671239 0 0.040519202059660933 0.025435738135345349 0 0.044039296116821253 0.024689259226455988 0 0.044735395920033415 0.024331826508529657 0 0.040663556737411961 0.025438540089371242 0 0.04053148279243448 0.025550930628438637 0 0.040519202059660933 0.025435738135345349 0 0.04053148279243448 0.025550930628438637 0 0.040513755589128599 0.025602730459348477 0 0.040519202059660933 0.025435738135345349 0 0.040534831497523613 0.025301956754247349 0 0.04059999547927412 0.025316339262055874 0 0.040519202059660933 0.025435738135345349 0 0.049148489651530604 0.022197669746744173 0 0.049758219400899535 0.022614649454153223 0 0.049306901544534543 0.023144050393550889 0 0.049758219400899535 0.022614649454153223 0 0.049306901544534543 0.023144050393550889 0 0.050273958376447006 0.023236496079893004 0 0.049148489651530604 0.022197669746744173 0 0.048311757840654584 0.023228000335204418 0 0.049306901544534543 0.023144050393550889 0 0.046055316752630519 0.023407206329714984 0 0.044735395920033415 0.024331826508529657 0 0.040690517455676221 0.025553250367212281 0 0.040695603926639366 0.025556707931581029 0 0.040543101238398535 0.025560355323671239 0 0.048497584698077308 0.023976462343310488 0 0.048311757840654584 0.023228000335204418 0 0.048956144785081479 0.023659772254539999 0 0.048311757840654584 0.023228000335204418 0 0.048956144785081479 0.023659772254539999 0 0.049306901544534543 0.023144050393550889 0 0.049391694195617758 0.024118419864697618 0 0.048956144785081479 0.023659772254539999 0 0.049306901544534543 0.023144050393550889 0 0.049391694195617758 0.024118419864697618 0 0.049306901544534543 0.023144050393550889 0 0.050273958376447006 0.023236496079893004 0 0.048727650941696204 0.022827680898938784 0 0.049773223246743908 0.022437343044535877 0 0.049758219400899535 0.022614649454153223 0 0.050273958376447006 0.023236496079893004 0 0.050317225690194853 0.022441601114475591 0 0.049758219400899535 0.022614649454153223 0 0.050317225690194853 0.022441601114475591 0 0.049962275898392076 0.022120383364211269 0 0.050602486557374586 0.021722029869675082 0 0.051039047517840004 0.022247899946721831 0 0.051026830363413545 0.022073439312057304 0 0.050273958376447006 0.023236496079893004 0 0.050317225690194853 0.022441601114475591 0 0.051039047517840004 0.022247899946721831 0 0.049773223246743908 0.022437343044535877 0 0.050180819821651935 0.02226384369313273 0 0.050933323908185821 0.022071586528978615 0 0.050602486557374586 0.021722029869675082 0 0.051026830363413545 0.022073439312057304 0 0.051027391666332918 0.022122919864569792 0 0.050933323908185821 0.022071586528978615 0 0.051026830363413545 0.022073439312057304 0 0.051027391666332918 0.022122919864569792 0 0.051026830363413545 0.022073439312057304 0 0.05122441258118797 0.022103431856763455 0 0.057429738148043606 0.018367854617792383 0 0.05654190100244872 0.01830828949936809 0 0.051039047517840004 0.022247899946721831 0 0.051026830363413545 0.022073439312057304 0 0.05122441258118797 0.022103431856763455 0 0.051039047517840004 0.022247899946721831 0 0.051864335591237723 0.021827009527591663 0 0.051225156222011958 0.021718110886268828 0 0.051039047517840004 0.022247899946721831 0 0.05122441258118797 0.022103431856763455 0 0.051864335591237723 0.021827009527591663 0 0.05654190100244872 0.01830828949936809 0 0.055444351050748138 0.017374530027310573 0 0.062371464659620922 0.016794160858515643 0 0.058873470458307424 0.015710763714126767 0 0.061634562909216178 0.015929839378557662 0 0.058873470458307424 0.015710763714126767 0 0.05837065466221545 0.014271727053514354 0 0.061634562909216178 0.015929839378557662 0 0.055444351050748138 0.017374530027310573 0 0.054410764623755659 0.015813078154179205 0 0.058873470458307424 0.015710763714126767 0 0.05837065466221545 0.014271727053514354 0 0.055408143183667151 0.013146444398687361 0 0.051864335591237723 0.021827009527591663 0 0.051794278138842194 0.020767165162694775 0 0.051225156222011958 0.021718110886268828 0 0.051864335591237723 0.021827009527591663 0 0.051794278138842194 0.020767165162694775 0 0.052794371730396139 0.019616663421846137 0 0.051794278138842194 0.020767165162694775 0 0.051225156222011958 0.021718110886268828 0 0.050870819289212443 0.020779040031711035 0 0.051225156222011958 0.021718110886268828 0 0.050611517278077112 0.021648377477790342 0 0.050870819289212443 0.020779040031711035 0 0.050611517278077112 0.021648377477790342 0 0.050870819289212443 0.020779040031711035 0 0.04976328502983772 0.021667596950792387 0 0.050611517278077112 0.021648377477790342 0 0.04976328502983772 0.021667596950792387 0 0.050568220666187415 0.022217490629581216 0 0.050870819289212443 0.020779040031711035 0 0.049744046663234474 0.020740613638378896 0 0.04976328502983772 0.021667596950792387 0 0.049744046663234474 0.020740613638378896 0 0.048946716401669893 0.021602261981769975 0 0.04976328502983772 0.021667596950792387 0 0.048242368326337895 0.021966611199353215 0 0.048946716401669893 0.021602261981769975 0 0.048345741526483854 0.021054515781673395 0 0.049744046663234474 0.020740613638378896 0 0.048946716401669893 0.021602261981769975 0 0.048345741526483854 0.021054515781673395 0 0.048242368326337895 0.021966611199353215 0 0.048946716401669893 0.021602261981769975 0 0.049084099833631323 0.022229923545188407 0 0.048946716401669893 0.021602261981769975 0 0.04976328502983772 0.021667596950792387 0 0.049084099833631323 0.022229923545188407 0 0.048082306161684907 0.022973499394068193 0 0.048764708965944724 0.022824471593394215 0 0.049084099833631323 0.022229923545188407 0 0.048647755133292205 0.02305205102477851 0 0.050568220666187415 0.022217490629581216 0 0.050317225690194853 0.022441601114475591 0 0.049962275898392076 0.022120383364211269 0 0.050568220666187415 0.022217490629581216 0 0.04976328502983772 0.021667596950792387 0 0.049084099833631323 0.022229923545188407 0 0.050568220666187415 0.022217490629581216 0 0.048242368326337895 0.021966611199353215 0 0.049084099833631323 0.022229923545188407 0 0.048647755133292205 0.02305205102477851 0 0.050317225690194853 0.022441601114475591 0 0.051039047517840004 0.022247899946721831 0 0.050568220666187415 0.022217490629581216 0 0.051039047517840004 0.022247899946721831 0 0.051225156222011958 0.021718110886268828 0 0.050568220666187415 0.022217490629581216 0 0.051225156222011958 0.021718110886268828 0 0.050611517278077112 0.021648377477790342 0 0.050568220666187415 0.022217490629581216 0 0.064974938834282625 0.016809756921330951 0 0.064046471455206144 0.01615856915832203 0 0.064302318755857429 0.016588346328947238 0 0.06647733352867119 0.01511151377605824 0 0.066175810854960632 0.014683421064336248 0 0.068748605330011495 0.01393183967985636 0 0.067860361865726512 0.012163211585031794 0 0.068182673698248847 0.012754226094004549 0 0.064046471455206144 0.01615856915832203 0 0.064302318755857429 0.016588346328947238 0 0.064206518094707274 0.016397300677780759 0 0.064974938834282625 0.016809756921330951 0 0.064302318755857429 0.016588346328947238 0 0.064504236984485888 0.016386587677772853 0 0.064302318755857429 0.016588346328947238 0 0.064206518094707274 0.016397300677780759 0 0.063637556271633713 0.016382055711673778 0 0.064206518094707274 0.016397300677780759 0 0.063270036672892438 0.016627361478537744 0 0.063637556271633713 0.016382055711673778 0 0.064700661476259913 0.015855868628523961 0 0.064206518094707274 0.016397300677780759 0 0.063270036672892438 0.016627361478537744 0 0.064700661476259913 0.015855868628523961 0 0.062371464659620922 0.016794160858515643 0 0.063270036672892438 0.016627361478537744 0 0.062371464659620922 0.016794160858515643 0 0.063270036672892438 0.016627361478537744 0 0.061634562909216178 0.015929839378557662 0 0.063270036672892438 0.016627361478537744 0 0.061634562909216178 0.015929839378557662 0 0.063637556271633713 0.016382055711673778 0 0.061634562909216178 0.015929839378557662 0 0.061544648190974258 0.014283076330337917 0 0.063227766806877736 0.015086684046129836 0 0.05837065466221545 0.014271727053514354 0 0.061634562909216178 0.015929839378557662 0 0.061544648190974258 0.014283076330337917 0 0.060278800991509764 0.016005182139275591 0 0.059265936608208135 0.016380626087784605 0 0.061544648190974258 0.014283076330337917 0 0.063227766806877736 0.015086684046129836 0 0.063170047893374368 0.013115615505499511 0 0.063646211367928127 0.015840178958300158 0 0.064665121331911435 0.015378611137434517 0 0.063627715032448864 0.015100583122608329 0 0.063646211367928127 0.015840178958300158 0 0.063637556271633713 0.016382055711673778 0 0.064504236984485888 0.016386587677772853 0 0.060278800991509764 0.016005182139275591 0 0.060604570284611484 0.01609695118917227 0 0.061634562909216178 0.015929839378557662 0 0.063227766806877736 0.015086684046129836 0 0.063637556271633713 0.016382055711673778 0 0.064302318755857429 0.016588346328947238 0 0.063637556271633713 0.016382055711673778 0 0.064504236984485888 0.016386587677772853 0 0.064504236984485888 0.016386587677772853 0 0.064665121331911435 0.015378611137434517 0 0.065514712918716855 0.016458326603229451 0 0.063646211367928127 0.015840178958300158 0 0.064504236984485888 0.016386587677772853 0 0.064665121331911435 0.015378611137434517 0 0.062067189793920743 0.017311617716231551 0 0.06357033962701121 0.017722900554441093 0 0.060404720300055066 0.020456189567224503 0 0.063222679969619819 0.02042914256252356 0 0.06309322674205238 0.019426204913171694 0 0.064665121331911435 0.015378611137434517 0 0.065514712918716855 0.016458326603229451 0 0.06646533741835399 0.01599817926469161 0 0.064974938834282625 0.016809756921330951 0 0.064504236984485888 0.016386587677772853 0 0.065514712918716855 0.016458326603229451 0 0.060828154902211606 0.01856653044050539 0 0.061880141879271426 0.019022065166655083 0 0.062458789242178181 0.018350004217303588 0 0.060828154902211606 0.01856653044050539 0 0.061880141879271426 0.019022065166655083 0 0.059731337157962208 0.019113009488801382 0 0.060404720300055066 0.020456189567224503 0 0.061880141879271426 0.019022065166655083 0 0.06309322674205238 0.019426204913171694 0 0.060404720300055066 0.020456189567224503 0 0.061880141879271426 0.019022065166655083 0 0.059731337157962208 0.019113009488801382 0 0.060404720300055066 0.020456189567224503 0 0.059731337157962208 0.019113009488801382 0 0.058690987632666815 0.020103429604498447 0 0.062067189793920743 0.017311617716231551 0 0.059265936608208135 0.016380626087784605 0 0.059731337157962208 0.019113009488801382 0 0.058524591949701429 0.018755234527184982 0 0.058690987632666815 0.020103429604498447 0 0.056716773500128125 0.016528645910366874 0 0.059265936608208135 0.016380626087784605 0 0.05097065909051219 0.014673367110285326 0 0.050828763602712088 0.012142387264681921 0 0.052495194471407519 0.012524350217823192 0 0.05837065466221545 0.014271727053514354 0 0.061544648190974258 0.014283076330337917 0 0.06037748670765606 0.012540779294208585 0 0.059265936608208135 0.016380626087784605 0 0.057357574247691175 0.01505706744857936 0 0.061544648190974258 0.014283076330337917 0 0.063170047893374368 0.013115615505499511 0 0.06037748670765606 0.012540779294208585 0 0.05097065909051219 0.014673367110285326 0 0.052495194471407519 0.012524350217823192 0 0.052900927246343606 0.014222394082522294 0 0.05097065909051219 0.014673367110285326 0 0.052900927246343606 0.014222394082522294 0 0.052387595740136995 0.015358317644349211 0 0.05097065909051219 0.014673367110285326 0 0.051211160157051426 0.0162228415239766 0 0.052387595740136995 0.015358317644349211 0 0.051211160157051426 0.0162228415239766 0 0.052387595740136995 0.015358317644349211 0 0.051802052401400324 0.016470135010886341 0 0.056716773500128125 0.016528645910366874 0 0.055309326069877665 0.016723983568360967 0 0.058524591949701429 0.018755234527184982 0 0.05768703272266771 0.018289319774321883 0 0.059128094958320762 0.018243948046578348 0 0.060828154902211606 0.01856653044050539 0 0.059731337157962208 0.019113009488801382 0 0.059128094958320762 0.018243948046578348 0 0.059731337157962208 0.019113009488801382 0 0.058524591949701429 0.018755234527184982 0 0.059128094958320762 0.018243948046578348 0 0.05768703272266771 0.018289319774321883 0 0.059128094958320762 0.018243948046578348 0 0.057268752476148412 0.018192512070542358 0 0.059128094958320762 0.018243948046578348 0 0.059270521368236295 0.018006930489488461 0 0.061094532319263012 0.017951705618884813 0 0.060828154902211606 0.01856653044050539 0 0.059128094958320762 0.018243948046578348 0 0.061094532319263012 0.017951705618884813 0 0.052089159628042642 0.018120206180653974 0 0.050319894007112939 0.017596847337174808 0 0.053357326663182089 0.015613490108220751 0 0.052089159628042642 0.018120206180653974 0 0.050319894007112939 0.017596847337174808 0 0.051641507723437154 0.019520043440673148 0 0.047606579373063111 0.020266421197106428 0 0.047998482898893705 0.019430647023818377 0 0.049081056284916109 0.019687537956189209 0 0.047998482898893705 0.019430647023818377 0 0.049081056284916109 0.019687537956189209 0 0.048850358072195246 0.01872345969116284 0 0.049744046663234474 0.020740613638378896 0 0.048345741526483854 0.021054515781673395 0 0.050319894007112939 0.017596847337174808 0 0.047606579373063111 0.020266421197106428 0 0.048345741526483854 0.021054515781673395 0 0.049081056284916109 0.019687537956189209 0 0.049337787829442689 0.019759472809880552 0 0.050022636401052548 0.0187188646760429 0 0.049744046663234474 0.020740613638378896 0 0.050319894007112939 0.017596847337174808 0 0.050672128678852568 0.019712709218383789 0 0.050870819289212443 0.020779040031711035 0 0.049744046663234474 0.020740613638378896 0 0.050672128678852568 0.019712709218383789 0 0.050870819289212443 0.020779040031711035 0 0.050672128678852568 0.019712709218383789 0 0.051641507723437154 0.019520043440673148 0 0.050319894007112939 0.017596847337174808 0 0.050672128678852568 0.019712709218383789 0 0.051641507723437154 0.019520043440673148 0 0.051794278138842194 0.020767165162694775 0 0.050870819289212443 0.020779040031711035 0 0.051641507723437154 0.019520043440673148 0 0.051794278138842194 0.020767165162694775 0 0.051641507723437154 0.019520043440673148 0 0.052794371730396139 0.019616663421846137 0 0.052089159628042642 0.018120206180653974 0 0.051641507723437154 0.019520043440673148 0 0.052794371730396139 0.019616663421846137 0 0.052495194471407519 0.012524350217823192 0 0.055445026340135692 0.013010714362848589 0 0.052900927246343606 0.014222394082522294 0 0.05837065466221545 0.014271727053514354 0 0.06037748670765606 0.012540779294208585 0 0.055445026340135692 0.013010714362848589 0 0.057357574247691175 0.01505706744857936 0 0.056857424102203714 0.014706413124585663 0 0.05837065466221545 0.014271727053514354 0 0.055408143183667151 0.013146444398687361 0 0.055445026340135692 0.013010714362848589 0 0.052900927246343606 0.014222394082522294 0 0.053982256901835862 0.014586982696596924 0 0.052387595740136995 0.015358317644349211 0 0.055445026340135692 0.013010714362848589 0 0.052900927246343606 0.014222394082522294 0 0.053982256901835862 0.014586982696596924 0 0.052089159628042642 0.018120206180653974 0 0.052794371730396139 0.019616663421846137 0 0.053357326663182089 0.015613490108220751 0 0.055408143183667151 0.013146444398687361 0 0.053982256901835862 0.014586982696596924 0 0.053357326663182089 0.015613490108220751 0 0.055408143183667151 0.013146444398687361 0 0.055445026340135692 0.013010714362848589 0 0.053982256901835862 0.014586982696596924 0 0.054410764623755659 0.015813078154179205 0 0.053976828343576269 0.015102035535953233 0 0.053982256901835862 0.014586982696596924 0 0.053064483991977364 0.015395594200853426 0 0.053357326663182089 0.015613490108220751 0 0.053064483991977364 0.015395594200853426 0 0.053351570927598999 0.014985941222381092 0 0.053357326663182089 0.015613490108220751 0 0.053982256901835862 0.014586982696596924 0 0.053064483991977364 0.015395594200853426 0 0.052387595740136995 0.015358317644349211 0 0.053064483991977364 0.015395594200853426 0 0.051798705101205128 0.016503559125494921 0 0.051802052401400324 0.016470135010886341 0 0.053064483991977364 0.015395594200853426 0 0.052387595740136995 0.015358317644349211 0 0.051802052401400324 0.016470135010886341 0 0.053064483991977364 0.015395594200853426 0 0.053351570927598999 0.014985941222381092 0 0.051798705101205128 0.016503559125494921 0 0.050346366472034561 0.01818332567727237 0 0.050518788248712906 0.016747937642423945 0 0.051798705101205128 0.016503559125494921 0 0.051151999174070324 0.017126856320755224 0 0.051556275339663241 0.016560812296709033 0 0.049971436130693048 0.017563961535557896 0 0.050346366472034561 0.01818332567727237 0 0.050518788248712906 0.016747937642423945 0 0.049546693276644529 0.017290455954158127 0 0.049971436130693048 0.017563961535557896 0 0.050518788248712906 0.016747937642423945 0 0.049546693276644529 0.017290455954158127 0 0.049367900631136045 0.016634979663762539 0 0.050518788248712906 0.016747937642423945 0 0.049971436130693048 0.017563961535557896 0 0.050346366472034561 0.01818332567727237 0 0.049476588668584641 0.018032593586365716 0 0.049546693276644529 0.017290455954158127 0 0.049971436130693048 0.017563961535557896 0 0.049476588668584641 0.018032593586365716 0 0.050022636401052548 0.0187188646760429 0 0.051151999174070324 0.017126856320755224 0 0.050346366472034561 0.01818332567727237 0 0.049476588668584641 0.018032593586365716 0 0.048850358072195246 0.01872345969116284 0 0.049081056284916109 0.019687537956189209 0 0.050346366472034561 0.01818332567727237 0 0.048850358072195246 0.01872345969116284 0 0.050319894007112939 0.017596847337174808 0 0.053351570927598999 0.014985941222381092 0 0.053357326663182089 0.015613490108220751 0 0.047547078205759381 0.018719468523614734 0 0.048850358072195246 0.01872345969116284 0 0.048504986890554311 0.01814221372996461 0 0.047547078205759381 0.018719468523614734 0 0.047998482898893705 0.019430647023818377 0 0.048850358072195246 0.01872345969116284 0 0.049476588668584641 0.018032593586365716 0 0.048850358072195246 0.01872345969116284 0 0.048504986890554311 0.01814221372996461 0 0.049476588668584641 0.018032593586365716 0 0.048504986890554311 0.01814221372996461 0 0.048950771524673767 0.017630350276533879 0 0.047560437772645806 0.018014960326624713 0 0.048504986890554311 0.01814221372996461 0 0.048167050447127914 0.017474577644725965 0 0.048504986890554311 0.01814221372996461 0 0.048167050447127914 0.017474577644725965 0 0.048950771524673767 0.017630350276533879 0 0.048167050447127914 0.017474577644725965 0 0.048950771524673767 0.017630350276533879 0 0.04881428345605205 0.017112441465141185 0 0.049546693276644529 0.017290455954158127 0 0.049476588668584641 0.018032593586365716 0 0.048950771524673767 0.017630350276533879 0 0.049546693276644529 0.017290455954158127 0 0.04881428345605205 0.017112441465141185 0 0.049367900631136045 0.016634979663762539 0 0.049546693276644529 0.017290455954158127 0 0.048950771524673767 0.017630350276533879 0 0.04881428345605205 0.017112441465141185 0 0.048087576261435866 0.016942553210351468 0 0.048167050447127914 0.017474577644725965 0 0.04881428345605205 0.017112441465141185 0 0.048087576261435866 0.016942553210351468 0 0.04881428345605205 0.017112441465141185 0 0.048563790710006265 0.016547235584100636 0 0.048563790710006265 0.016547235584100636 0 0.048375719220626535 0.016068999937425124 0 0.047753983121777213 0.016459130310749394 0 0.048563790710006265 0.016547235584100636 0 0.048978214615953815 0.016164311856164675 0 0.048375719220626535 0.016068999937425124 0 0.048563790710006265 0.016547235584100636 0 0.049367900631136045 0.016634979663762539 0 0.048978214615953815 0.016164311856164675 0 0.04881428345605205 0.017112441465141185 0 0.048563790710006265 0.016547235584100636 0 0.049367900631136045 0.016634979663762539 0 0.048978214615953815 0.016164311856164675 0 0.048759116062746903 0.01554113334779123 0 0.049710629715535581 0.016053440269427885 0 0.049367900631136045 0.016634979663762539 0 0.048978214615953815 0.016164311856164675 0 0.049710629715535581 0.016053440269427885 0 0.048978214615953815 0.016164311856164675 0 0.048375719220626535 0.016068999937425124 0 0.048759116062746903 0.01554113334779123 0 0.048759116062746903 0.01554113334779123 0 0.049746878765427618 0.015337522816783852 0 0.048703978409000856 0.01497246074209436 0 0.048759116062746903 0.01554113334779123 0 0.049710629715535581 0.016053440269427885 0 0.049746878765427618 0.015337522816783852 0 0.049710629715535581 0.016053440269427885 0 0.050678871591650736 0.016077985844784919 0 0.049746878765427618 0.015337522816783852 0 0.050678871591650736 0.016077985844784919 0 0.05035865159168687 0.016017012735741902 0 0.049746878765427618 0.015337522816783852 0 0.049710629715535581 0.016053440269427885 0 0.050518788248712906 0.016747937642423945 0 0.050678871591650736 0.016077985844784919 0 0.049367900631136045 0.016634979663762539 0 0.049710629715535581 0.016053440269427885 0 0.050518788248712906 0.016747937642423945 0 0.050518788248712906 0.016747937642423945 0 0.051798705101205128 0.016503559125494921 0 0.050678871591650736 0.016077985844784919 0 0.051798705101205128 0.016503559125494921 0 0.051802052401400324 0.016470135010886341 0 0.051182881791167076 0.016747098925828263 0 0.051798705101205128 0.016503559125494921 0 0.051182881791167076 0.016747098925828263 0 0.050678871591650736 0.016077985844784919 0 0.051182881791167076 0.016747098925828263 0 0.050678871591650736 0.016077985844784919 0 0.05035865159168687 0.016017012735741902 0 0.05035865159168687 0.016017012735741902 0 0.05023735412276735 0.016418373676083987 0 0.049882002185465138 0.015687143294692334 0 0.051182881791167076 0.016747098925828263 0 0.05035865159168687 0.016017012735741902 0 0.05023735412276735 0.016418373676083987 0 0.051182881791167076 0.016747098925828263 0 0.05023735412276735 0.016418373676083987 0 0.050258945316291721 0.016870266028866265 0 0.05023735412276735 0.016418373676083987 0 0.050258945316291721 0.016870266028866265 0 0.049525709765998918 0.016530320500862967 0 0.05023735412276735 0.016418373676083987 0 0.049882002185465138 0.015687143294692334 0 0.049525709765998918 0.016530320500862967 0 0.049882002185465138 0.015687143294692334 0 0.050033384966104259 0.01630754176556163 0 0.049525709765998918 0.016530320500862967 0 0.049882002185465138 0.015687143294692334 0 0.050182340627071081 0.015703995848165529 0 0.050033384966104259 0.01630754176556163 0 0.049882002185465138 0.015687143294692334 0 0.050182340627071081 0.015703995848165529 0 0.049456231318007679 0.014646569872590172 0 0.049746878765427618 0.015337522816783852 0 0.049456231318007679 0.014646569872590172 0 0.048703978409000856 0.01497246074209436 0 0.049882002185465138 0.015687143294692334 0 0.049746878765427618 0.015337522816783852 0 0.049456231318007679 0.014646569872590172 0 0.05035865159168687 0.016017012735741902 0 0.049882002185465138 0.015687143294692334 0 0.049746878765427618 0.015337522816783852 0 0.058302843367622696 0.018068198220460754 0 0.057268752476148412 0.018192512070542358 0 0.05596240109956159 0.018082117489257477 0 0.058302843367622696 0.018068198220460754 0 0.059270521368236295 0.018006930489488461 0 0.057268752476148412 0.018192512070542358 0 0.059128094958320762 0.018243948046578348 0 0.059270521368236295 0.018006930489488461 0 0.057268752476148412 0.018192512070542358 0 0.057268752476148412 0.018192512070542358 0 0.055753238300014205 0.018302368331971162 0 0.05596240109956159 0.018082117489257477 0 0.05443512600605166 0.016677940772337793 0 0.054060904657885961 0.016531620262988416 0 0.05768703272266771 0.018289319774321883 0 0.057268752476148412 0.018192512070542358 0 0.055753238300014205 0.018302368331971162 0 0.055309326069877665 0.016723983568360967 0 0.05443512600605166 0.016677940772337793 0 0.051211160157051426 0.0162228415239766 0 0.051802052401400324 0.016470135010886341 0 0.051552698132291318 0.016906406847925517 0 0.051182881791167076 0.016747098925828263 0 0.051552698132291318 0.016906406847925517 0 0.052327666878415773 0.017431505048806396 0 0.051802052401400324 0.016470135010886341 0 0.051182881791167076 0.016747098925828263 0 0.051552698132291318 0.016906406847925517 0 0.051182881791167076 0.016747098925828263 0 0.050258945316291721 0.016870266028866265 0 0.052327666878415773 0.017431505048806396 0 0.050258945316291721 0.016870266028866265 0 0.052327666878415773 0.017431505048806396 0 0.051265251786650527 0.017184809030339435 0 0.052327666878415773 0.017431505048806396 0 0.05443935754156199 0.017550226883489079 0 0.051265251786650527 0.017184809030339435 0 0.055753238300014205 0.018302368331971162 0 0.052327666878415773 0.017431505048806396 0 0.05596240109956159 0.018082117489257477 0 0.052327666878415773 0.017431505048806396 0 0.05596240109956159 0.018082117489257477 0 0.05443935754156199 0.017550226883489079 0 0.05443935754156199 0.017550226883489079 0 0.052456109474148818 0.017276995972759664 0 0.051265251786650527 0.017184809030339435 0 0.05443935754156199 0.017550226883489079 0 0.05542767034473331 0.017407339861502207 0 0.053694445628427553 0.017262339081935738 0 0.05443935754156199 0.017550226883489079 0 0.05542767034473331 0.017407339861502207 0 0.05685479614846594 0.018011995823771318 0 0.05596240109956159 0.018082117489257477 0 0.05443935754156199 0.017550226883489079 0 0.05685479614846594 0.018011995823771318 0 0.058302843367622696 0.018068198220460754 0 0.05596240109956159 0.018082117489257477 0 0.05685479614846594 0.018011995823771318 0 0.054068720297093024 0.016406707755653172 0 0.053971494809511494 0.017034687662403285 0 0.05345072040837958 0.015704674376262853 0 0.047606208870514033 0.020316706185603287 0 0.045953158909603199 0.023107789671434797 0 0.054068720297093024 0.016406707755653172 0 0.053971494809511494 0.017034687662403285 0 0.054741660173202339 0.017093746793871975 0 0.05542767034473331 0.017407339861502207 0 0.053971494809511494 0.017034687662403285 0 0.054741660173202339 0.017093746793871975 0 0.05542767034473331 0.017407339861502207 0 0.053694445628427553 0.017262339081935738 0 0.053971494809511494 0.017034687662403285 0 0.05443935754156199 0.017550226883489079 0 0.053694445628427553 0.017262339081935738 0 0.052456109474148818 0.017276995972759664 0 0.053694445628427553 0.017262339081935738 0 0.053971494809511494 0.017034687662403285 0 0.051631925697188455 0.017264469762732621 0 0.053694445628427553 0.017262339081935738 0 0.052456109474148818 0.017276995972759664 0 0.051631925697188455 0.017264469762732621 0 0.053971494809511494 0.017034687662403285 0 0.051631925697188455 0.017264469762732621 0 0.051314191843521748 0.01687272488535662 0 0.052456109474148818 0.017276995972759664 0 0.051631925697188455 0.017264469762732621 0 0.049943847745566206 0.017416126213160278 0 0.051631925697188455 0.017264469762732621 0 0.049943847745566206 0.017416126213160278 0 0.048633229979399742 0.017809443388399245 0 0.052456109474148818 0.017276995972759664 0 0.049943847745566206 0.017416126213160278 0 0.051265251786650527 0.017184809030339435 0 0.050258945316291721 0.016870266028866265 0 0.051265251786650527 0.017184809030339435 0 0.049013333044007484 0.017275868998172076 0 0.049943847745566206 0.017416126213160278 0 0.051265251786650527 0.017184809030339435 0 0.049013333044007484 0.017275868998172076 0 0.049943847745566206 0.017416126213160278 0 0.049013333044007484 0.017275868998172076 0 0.047217218348137746 0.018006083533222601 0 0.049943847745566206 0.017416126213160278 0 0.048633229979399742 0.017809443388399245 0 0.047217218348137746 0.018006083533222601 0 0.043773437721450197 0.019080623885325363 0 0.048633229979399742 0.017809443388399245 0 0.047217218348137746 0.018006083533222601 0 0.042702566242707247 0.023290787602197355 0 0.04139384712782064 0.024954602655119774 0 0.043773437721450197 0.019080623885325363 0 0.048633229979399742 0.017809443388399245 0 0.048751149624945943 0.015788309648688624 0 0.051631925697188455 0.017264469762732621 0 0.048633229979399742 0.017809443388399245 0 0.051314191843521748 0.01687272488535662 0 0.045953158909603199 0.023107789671434797 0 0.04139384712782064 0.024954602655119774 0 0.044062058893243869 0.024916795719825812 0 0.043414579891316966 0.023105102544318197 0 0.042740620748402805 0.023299658452580488 0 0.045953158909603199 0.023107789671434797 0 0.039799304084365647 0.02735835995970767 0 0.047727284616529371 0.028137546071114707 0 0.047451072605554701 0.028769477016360061 0 0.048052408340383983 0.029138331722957659 0 0.048633229979399742 0.017809443388399245 0 0.051314191843521748 0.01687272488535662 0 0.048751149624945943 0.015788309648688624 0 0.047451072605554701 0.028769477016360061 0 0.046835900374082431 0.028393010463476556 0 0.047137146248163848 0.029436827847373885 0 0.047727284616529371 0.028137546071114707 0 0.047451072605554701 0.028769477016360061 0 0.046835900374082431 0.028393010463476556 0 0.047275714610261373 0.027548014569518602 0 0.047727284616529371 0.028137546071114707 0 0.046835900374082431 0.028393010463476556 0 0.049219962076697127 0.022241994184682572 0 0.045953158909603199 0.023107789671434797 0 0.049843797900700829 0.017378016917497161 0 0.051876850794068091 0.018856889042759197 0 0.051341771372717691 0.016854274266459794 0 0.050182340627071081 0.015703995848165529 0 0.050033384966104259 0.01630754176556163 0 0.051341771372717691 0.016854274266459794 0 0.049843797900700829 0.017378016917497161 0 0.050033384966104259 0.01630754176556163 0 0.051341771372717691 0.016854274266459794 0 0.049843797900700829 0.017378016917497161 0 0.050033384966104259 0.01630754176556163 0 0.049525709765998918 0.016530320500862967 0 0.050258945316291721 0.016870266028866265 0 0.049013333044007484 0.017275868998172076 0 0.049525709765998918 0.016530320500862967 0 0.049013333044007484 0.017275868998172076 0 0.049525709765998918 0.016530320500862967 0 0.048625830895977135 0.017401250050595025 0 0.049013333044007484 0.017275868998172076 0 0.048625830895977135 0.017401250050595025 0 0.047217218348137746 0.018006083533222601 0 0.049843797900700829 0.017378016917497161 0 0.048625830895977135 0.017401250050595025 0 0.048150477010562361 0.018549721543517046 0 0.049843797900700829 0.017378016917497161 0 0.049525709765998918 0.016530320500862967 0 0.048625830895977135 0.017401250050595025 0 0.048625830895977135 0.017401250050595025 0 0.048150477010562361 0.018549721543517046 0 0.047217218348137746 0.018006083533222601 0 0.048150477010562361 0.018549721543517046 0 0.047217218348137746 0.018006083533222601 0 0.04627984351136976 0.019486417257171151 0 0.043773437721450197 0.019080623885325363 0 0.047217218348137746 0.018006083533222601 0 0.04627984351136976 0.019486417257171151 0 0.043773437721450197 0.019080623885325363 0 0.04627984351136976 0.019486417257171151 0 0.044962676668698263 0.022911479933867034 0 0.048150477010562361 0.018549721543517046 0 0.047496024968061323 0.021798285862337216 0 0.050109641490137989 0.020360941194833362 0 0.04627984351136976 0.019486417257171151 0 0.047496024968061323 0.021798285862337216 0 0.044962676668698263 0.022911479933867034 0 0.048150477010562361 0.018549721543517046 0 0.04627984351136976 0.019486417257171151 0 0.047496024968061323 0.021798285862337216 0 0.047496024968061323 0.021798285862337216 0 0.049299097399594004 0.022804437163496949 0 0.050109641490137989 0.020360941194833362 0 0.049299097399594004 0.022804437163496949 0 0.050109641490137989 0.020360941194833362 0 0.051291979936913978 0.022728113861941637 0 0.049843797900700829 0.017378016917497161 0 0.048150477010562361 0.018549721543517046 0 0.050109641490137989 0.020360941194833362 0 0.049843797900700829 0.017378016917497161 0 0.050109641490137989 0.020360941194833362 0 0.051876850794068091 0.018856889042759197 0 0.044521666323673978 0.024802668216723233 0 0.046296463879769531 0.028616418502161876 0 0.050109641490137989 0.020360941194833362 0 0.051876850794068091 0.018856889042759197 0 0.05214825035596829 0.022590920381299451 0 0.050109641490137989 0.020360941194833362 0 0.051291979936913978 0.022728113861941637 0 0.05214825035596829 0.022590920381299451 0 0.036327330436539892 0.029023991730661537 0 0.036372027374004468 0.02908739624037638 0 0.036321448763477801 0.029142968557819598 0 0.036372027374004468 0.02908739624037638 0 0.036376924051374666 0.029151502276776764 0 0.036321448763477801 0.029142968557819598 0 0.036372027374004468 0.02908739624037638 0 0.036441492754736099 0.029172452300267462 0 0.036376924051374666 0.029151502276776764 0 0.036372027374004468 0.02908739624037638 0 0.036424321814184882 0.029067622333572959 0 0.036441492754736099 0.029172452300267462 0 0.036424321814184882 0.029067622333572959 0 0.03637414909537718 0.028987334437792722 0 0.036440495967245641 0.028999016062501586 0 0.036372027374004468 0.02908739624037638 0 0.036424321814184882 0.029067622333572959 0 0.03637414909537718 0.028987334437792722 0 0.036327330436539892 0.029023991730661537 0 0.036372027374004468 0.02908739624037638 0 0.03637414909537718 0.028987334437792722 0 0.03637414909537718 0.028987334437792722 0 0.036319933785252882 0.028900671407911593 0 0.036362172213447792 0.028905782583524799 0 0.036327330436539892 0.029023991730661537 0 0.03637414909537718 0.028987334437792722 0 0.036362172213447792 0.028905782583524799 0 0.044521666323673978 0.024802668216723233 0 0.042835060086758144 0.022012845215829507 0 0.036319933785252882 0.028900671407911593 0 0.036112217352948006 0.028748556718876286 0 0.036140348125725794 0.028484334418611746 0 0.032184472828681428 0.032197863571145749 0 0.031771878677568637 0.033896090010997623 0 0.03637414909537718 0.028987334437792722 0 0.036319933785252882 0.028900671407911593 0 0.036440495967245641 0.028999016062501586 0 0.036319933785252882 0.028900671407911593 0 0.036096563919204509 0.02897614683239674 0 0.036392502943191608 0.029040037118834388 0 0.042835060086758144 0.022012845215829507 0 0.041219326448527674 0.016325309180348184 0 0.036319933785252882 0.028900671407911593 0 0.036362172213447792 0.028905782583524799 0 0.036392502943191608 0.029040037118834388 0 0.035222939163597977 0.017441833887656289 0 0.028480975467502403 0.022788718493729307 0 0.032532462993279075 -0.003181282717653151 0 0.040289317775051618 -0.0035899258613295475 0 0.032702696754979582 -0.0090823013826384236 0 0.036096563919204509 0.02897614683239674 0 0.035884550616108908 0.028610847146842852 0 0.036112217352948006 0.028748556718876286 0 0.036319933785252882 0.028900671407911593 0 0.036096563919204509 0.02897614683239674 0 0.036112217352948006 0.028748556718876286 0 0.036096563919204509 0.02897614683239674 0 0.035884550616108908 0.028610847146842852 0 0.035540337167731681 0.028662273627152509 0 0.035884550616108908 0.028610847146842852 0 0.036112217352948006 0.028748556718876286 0 0.036140348125725794 0.028484334418611746 0 0.035884550616108908 0.028610847146842852 0 0.036140348125725794 0.028484334418611746 0 0.035754586607756204 0.028272917519482972 0 0.035884550616108908 0.028610847146842852 0 0.035540337167731681 0.028662273627152509 0 0.035754586607756204 0.028272917519482972 0 0.028480975467502403 0.022788718493729307 0 0.029486453533542685 0.023945095521424251 0 0.035264368567475411 0.028999995670177931 0 0.035469308534008613 0.028276198256563689 0 0.034901186762660283 0.028740675351114051 0 0.025614465048835317 0.038036267997275407 0 0.024195819711046698 0.029380172038760692 0 0.035264368567475411 0.028999995670177931 0 0.035469308534008613 0.028276198256563689 0 0.035754586607756204 0.028272917519482972 0 0.0094979545713099502 0.058338413299332523 0 0.01418069783727844 0.057669616533330928 0 0.016347144483022342 0.051853531603520304 0 0.035469308534008613 0.028276198256563689 0 0.035754586607756204 0.028272917519482972 0 0.035919123943078557 0.027963367037276129 0 0.0094979545713099502 0.058338413299332523 0 0.0030136284547846587 0.064447626845944919 0 0.0096755388798065098 0.064769656809007745 0 0.025614465048835317 0.038036267997275407 0 0.031467690374188735 0.042093423314797554 0 0.0094979545713099502 0.058338413299332523 0 0.012623000949821907 0.062166867377173043 0 0.01418069783727844 0.057669616533330928 0 0.0094979545713099502 0.058338413299332523 0 0.012623000949821907 0.062166867377173043 0 0.0096755388798065098 0.064769656809007745 0 0.036424321814184882 0.029067622333572959 0 0.036440495967245641 0.028999016062501586 0 0.036501288056571921 0.029119245400050005 0 0.036140348125725794 0.028484334418611746 0 0.035754586607756204 0.028272917519482972 0 0.035919123943078557 0.027963367037276129 0 0.031771878677568637 0.033896090010997623 0 0.031467690374188735 0.042093423314797554 0 0.031467690374188735 0.042093423314797554 0 0.041898049156404632 0.038076156750771493 0 0.032315101899393357 0.045142722402291877 0 0.031562232670208593 0.043549954494131606 0 0.034005363077420588 0.043624077792312546 0 0.036424321814184882 0.029067622333572959 0 0.036501288056571921 0.029119245400050005 0 0.036441492754736099 0.029172452300267462 0 0.031467690374188735 0.042093423314797554 0 0.031061425920250116 0.049098711216245657 0 0.012525598972406118 0.065549660776168486 0 0.0096755388798065098 0.064769656809007745 0 0.011812186962873955 0.06848737145435696 0 0.012623000949821907 0.062166867377173043 0 0.012525598972406118 0.065549660776168486 0 0.014948333561040967 0.064638720450376053 0 0.012623000949821907 0.062166867377173043 0 0.012525598972406118 0.065549660776168486 0 0.0096755388798065098 0.064769656809007745 0 0.0030136284547846587 0.064447626845944919 0 0.0096755388798065098 0.064769656809007745 0 0.0084275891262376463 0.068047210711026568 0 0.0084275891262376463 0.068047210711026568 0 0.010335144770847033 0.070170550526312547 0 0.0067893728773541096 0.072231630762119567 0 0.0030136284547846587 0.064447626845944919 0 0.0084275891262376463 0.068047210711026568 0 0.0067893728773541096 0.072231630762119567 0 0.010335144770847033 0.070170550526312547 0 0.01297043510638045 0.070274337486802035 0 0.011212938108435067 0.072283859016082586 0 0.0096755388798065098 0.064769656809007745 0 0.0084275891262376463 0.068047210711026568 0 0.011812186962873955 0.06848737145435696 0 0.0084275891262376463 0.068047210711026568 0 0.010335144770847033 0.070170550526312547 0 0.011812186962873955 0.06848737145435696 0 0.012525598972406118 0.065549660776168486 0 0.011812186962873955 0.06848737145435696 0 0.013630989979743838 0.067592437938456373 0 0.011812186962873955 0.06848737145435696 0 0.013333145636671966 0.069117448374208634 0 0.013630989979743838 0.067592437938456373 0 0.011812186962873955 0.06848737145435696 0 0.013333145636671966 0.069117448374208634 0 0.01297043510638045 0.070274337486802035 0 0.010335144770847033 0.070170550526312547 0 0.011812186962873955 0.06848737145435696 0 0.01297043510638045 0.070274337486802035 0 0.014896980550985661 0.070069157725805103 0 0.013630989979743838 0.067592437938456373 0 0.014948333561040967 0.064638720450376053 0 0.014896980550985661 0.070069157725805103 0 0.016983795730193076 0.069602359896673738 0 0.016286980417645699 0.066769707231074435 0 0.014896980550985661 0.070069157725805103 0 0.014948333561040967 0.064638720450376053 0 0.018799724340325102 0.061024676391194951 0 0.010301698262523204 0.058462776849137033 0 0.01075822044923448 0.054239628320607074 0 0.01297043510638045 0.070274337486802035 0 0.014896980550985661 0.070069157725805103 0 0.014705634765597152 0.071898313859959831 0 0.013333145636671966 0.069117448374208634 0 0.01297043510638045 0.070274337486802035 0 0.014896980550985661 0.070069157725805103 0 0.013333145636671966 0.069117448374208634 0 0.014896980550985661 0.070069157725805103 0 0.013630989979743838 0.067592437938456373 0 0.012525598972406118 0.065549660776168486 0 0.013630989979743838 0.067592437938456373 0 0.014948333561040967 0.064638720450376053 0 0.016983795730193076 0.069602359896673738 0 0.019107339840645884 0.068587601114001986 0 0.016286980417645699 0.066769707231074435 0 0.014896980550985661 0.070069157725805103 0 0.016983795730193076 0.069602359896673738 0 0.016315815836607017 0.071200882050534181 0 0.016983795730193076 0.069602359896673738 0 0.018201084553185226 0.071398928326259492 0 0.016315815836607017 0.071200882050534181 0 0.019107339840645884 0.068587601114001986 0 0.023230017742568804 0.067005895848492078 0 0.020689914334434518 0.071130455532465456 0 0.019107339840645884 0.068587601114001986 0 0.020689914334434518 0.071130455532465456 0 0.018201084553185226 0.071398928326259492 0 0.016983795730193076 0.069602359896673738 0 0.019107339840645884 0.068587601114001986 0 0.018201084553185226 0.071398928326259492 0 0.019341222652416164 0.06569648440042733 0 0.023230017742568804 0.067005895848492078 0 0.01924674852320243 0.062017170648222514 0 0.019107339840645884 0.068587601114001986 0 0.019341222652416164 0.06569648440042733 0 0.023230017742568804 0.067005895848492078 0 0.019341222652416164 0.06569648440042733 0 0.016286980417645699 0.066769707231074435 0 0.017672585668087673 0.063116007048744066 0 0.019107339840645884 0.068587601114001986 0 0.019341222652416164 0.06569648440042733 0 0.016286980417645699 0.066769707231074435 0 0.01075822044923448 0.054239628320607074 0 0.011674846632056134 0.041849199661363516 0 0.01418069783727844 0.057669616533330928 0 0.018799724340325102 0.061024676391194951 0 0.022306559158337347 0.05203209294238776 0 0.011517917813608641 0.04409143498760959 0 0.011674846632056134 0.041849199661363516 0 0.012623000949821907 0.062166867377173043 0 0.01418069783727844 0.057669616533330928 0 0.01528779502890003 0.061295641813749441 0 0.01418069783727844 0.057669616533330928 0 0.01528779502890003 0.061295641813749441 0 0.018799724340325102 0.061024676391194951 0 0.012623000949821907 0.062166867377173043 0 0.014948333561040967 0.064638720450376053 0 0.01528779502890003 0.061295641813749441 0 0.014948333561040967 0.064638720450376053 0 0.01528779502890003 0.061295641813749441 0 0.018799724340325102 0.061024676391194951 0 -0.027315125437199501 0.030819140982269979 0 -0.029870901940158852 0.031118740603426811 0 -0.029955049169692619 0.027771021025224392 0 0.023230017742568804 0.067005895848492078 0 0.023550772025068386 0.073322540737722583 0 0.027230421340436343 0.072060249966667003 0 -0.029870901940158852 0.031118740603426811 0 -0.029955049169692619 0.027771021025224392 0 -0.031276555830637043 0.029567959553938341 0 -0.0007430461664768356 0.051047532280697479 0 -0.0056628575485421712 0.073530479929509007 0 0.023230017742568804 0.067005895848492078 0 0.023550772025068386 0.073322540737722583 0 0.020689914334434518 0.071130455532465456 0 -0.0007430461664768356 0.051047532280697479 0 0.011400268887278086 0.037840454828122087 0 -0.029870901940158852 0.031118740603426811 0 -0.029026263069476099 0.033494899794826241 0 -0.030811266614211449 0.033449833867081558 0 -0.027315125437199501 0.030819140982269979 0 -0.029870901940158852 0.031118740603426811 0 -0.029026263069476099 0.033494899794826241 0 -0.029026263069476099 0.033494899794826241 0 -0.030008032780097272 0.035497079042380829 0 -0.030811266614211449 0.033449833867081558 0 -0.029026263069476099 0.033494899794826241 0 -0.028548280949700057 0.034933117916138734 0 -0.027080495893895034 0.034270741832450415 0 -0.029026263069476099 0.033494899794826241 0 -0.028548280949700057 0.034933117916138734 0 -0.030008032780097272 0.035497079042380829 0 -0.027315125437199501 0.030819140982269979 0 -0.027080495893895034 0.034270741832450415 0 -0.02449705486134816 0.034077225743611918 0 -0.027315125437199501 0.030819140982269979 0 -0.029026263069476099 0.033494899794826241 0 -0.027080495893895034 0.034270741832450415 0 -0.027080495893895034 0.034270741832450415 0 -0.028083782320058207 0.036483425142596872 0 -0.02449705486134816 0.034077225743611918 0 0.014041428011604377 0.013832099468944844 0 0.016063531219506495 0.013490372895341357 0 0.014462061579543346 0.014976351381805796 0 0.015820339557489651 0.027980718570811414 0 0.018256113448492893 0.022188124952529246 0 -0.001532194048871754 0.032148908404832775 0 0.011400268887278086 0.037840454828122087 0 -0.028548280949700057 0.034933117916138734 0 -0.027080495893895034 0.034270741832450415 0 -0.028083782320058207 0.036483425142596872 0 -0.028083782320058207 0.036483425142596872 0 -0.030008032780097272 0.035497079042380829 0 -0.031787676386528831 0.038914733739850597 0 -0.028548280949700057 0.034933117916138734 0 -0.028083782320058207 0.036483425142596872 0 -0.030008032780097272 0.035497079042380829 0 0.024195819711046698 0.029380172038760692 0 0.014748543004855142 0.031390433085012805 0 0.016867422029695694 0.014877960910681403 0 0.016386122965876101 0.015272121552163327 0 0.016700265403983693 0.015299478963506551 0 0.016347144483022342 0.051853531603520304 0 0.02248053760154058 0.051848113900734974 0 0.023433914484717173 0.04533053847240022 0 0.017171516194812598 0.015093882221362862 0 0.016867422029695694 0.014877960910681403 0 0.016700265403983693 0.015299478963506551 0 0.01418069783727844 0.057669616533330928 0 0.016347144483022342 0.051853531603520304 0 0.02248053760154058 0.051848113900734974 0 0.028480975467502403 0.022788718493729307 0 0.024195819711046698 0.029380172038760692 0 0.019341222652416164 0.06569648440042733 0 0.017672585668087673 0.063116007048744066 0 0.01924674852320243 0.062017170648222514 0 0.011674846632056134 0.041849199661363516 0 0.011400268887278086 0.037840454828122087 0 0.02248053760154058 0.051848113900734974 0 0.024506973886228425 0.046648115485469287 0 0.023433914484717173 0.04533053847240022 0 0.01598122558940843 0.012681147809685749 0 0.016253815451687331 0.013014251238321459 0 0.016063531219506495 0.013490372895341357 0 0.011674846632056134 0.041849199661363516 0 0.013614920142442567 0.033583840004996486 0 0.017767595249940309 0.037334113350749785 0 0.013262069495527384 0.040418765477748524 0 0.015474033923358796 0.043131581836926176 0 0.011400268887278086 0.037840454828122087 0 0.013614920142442567 0.033583840004996486 0 0.013614920142442567 0.033583840004996486 0 0.014748543004855142 0.031390433085012805 0 0.015820339557489651 0.027980718570811414 0 0.017128856358049491 0.019704700561348574 0 0.016360674833580103 0.015237750074932589 0 0.016177771471473146 0.015379020432582435 0 0.016471429924691434 0.015372518316206127 0 0.016177771471473146 0.015379020432582435 0 0.01636005332929932 0.015675349657438074 0 0.016471429924691434 0.015372518316206127 0 0.014748543004855142 0.031390433085012805 0 0.014613143832894238 0.0310981264965094 0 0.014041428011604377 0.013832099468944844 0 0.01598122558940843 0.012681147809685749 0 0.016063531219506495 0.013490372895341357 0 0.016177771471473146 0.015379020432582435 0 0.01636005332929932 0.015675349657438074 0 0.016143993559910513 0.016002291471225946 0 0.012421844596055597 0.026015812190478844 0 0.014552920010771813 0.028631106724860137 0 0.0096333977090719749 0.033071570362428263 0 0.013614920142442567 0.033583840004996486 0 0.015820339557489651 0.027980718570811414 0 0.014748543004855142 0.031390433085012805 0 0.015820339557489651 0.027980718570811414 0 0.028480975467502403 0.022788718493729307 0 0.026075690505734737 0.012828949231013386 0 0.016700265403983693 0.015299478963506551 0 0.016471429924691434 0.015372518316206127 0 0.016619201089977234 0.015905010676559281 0 0.017171516194812598 0.015093882221362862 0 0.016700265403983693 0.015299478963506551 0 0.016619201089977234 0.015905010676559281 0 0.032532462993279075 -0.003181282717653151 0 0.032702696754979582 -0.0090823013826384236 0 0.027683351654170185 -0.0012679520164512164 0 0.01636005332929932 0.015675349657438074 0 0.016471429924691434 0.015372518316206127 0 0.016619201089977234 0.015905010676559281 0 0.016386122965876101 0.015272121552163327 0 0.016700265403983693 0.015299478963506551 0 0.016471429924691434 0.015372518316206127 0 0.030904180566873666 0.0013217931870809197 0 0.027683351654170185 -0.0012679520164512164 0 0.028288829743750042 0.0047288566533028866 0 0.032532462993279075 -0.003181282717653151 0 0.030904180566873666 0.0013217931870809197 0 0.027683351654170185 -0.0012679520164512164 0 0.016143993559910513 0.016002291471225946 0 0.015700697562391789 0.016219596455225593 0 0.015909662547810299 0.017033917015287364 0 0.01636005332929932 0.015675349657438074 0 0.016619201089977234 0.015905010676559281 0 0.016143993559910513 0.016002291471225946 0 0.016619201089977234 0.015905010676559281 0 0.016143993559910513 0.016002291471225946 0 0.015909662547810299 0.017033917015287364 0 0.016177771471473146 0.015379020432582435 0 0.016143993559910513 0.016002291471225946 0 0.015700697562391789 0.016219596455225593 0 0.026075690505734737 0.012828949231013386 0 0.021699105947473242 0.013691632606745972 0 0.02289480675048066 0.006532385650094734 0 0.028288829743750042 0.0047288566533028866 0 0.02629157300223596 0.0086354532893861309 0 0.027683351654170185 -0.0012679520164512164 0 0.02289480675048066 0.006532385650094734 0 0.028288829743750042 0.0047288566533028866 0 0.028288829743750042 0.0047288566533028866 0 0.029881188002868507 0.0087485467413019949 0 0.02629157300223596 0.0086354532893861309 0 0.028288829743750042 0.0047288566533028866 0 0.029881188002868507 0.0087485467413019949 0 0.033141414827514287 0.0053122013434564134 0 0.030904180566873666 0.0013217931870809197 0 0.028288829743750042 0.0047288566533028866 0 0.033141414827514287 0.0053122013434564134 0 0.014462061579543346 0.014976351381805796 0 0.01332262550145262 0.016399472231015195 0 0.011462236973018484 0.015131234493226231 0 -0.001532194048871754 0.032148908404832775 0 -0.0081213350168318123 0.03009667050252467 0 0.014041428011604377 0.013832099468944844 0 0.014462061579543346 0.014976351381805796 0 0.011462236973018484 0.015131234493226231 0 0.016431511701547288 0.013315423568238205 0 0.015628121589985139 0.015277446497335118 0 0.014462061579543346 0.014976351381805796 0 0.015628121589985139 0.015277446497335118 0 0.014462061579543346 0.014976351381805796 0 0.014565836754298834 0.01607884782248506 0 0.017128856358049491 0.019704700561348574 0 0.016990724420292813 0.018606669913086595 0 0.015700697562391789 0.016219596455225593 0 0.015909662547810299 0.017033917015287364 0 0.014937066604303349 0.017472034684378714 0 0.015628121589985139 0.015277446497335118 0 0.014565836754298834 0.01607884782248506 0 0.014937066604303349 0.017472034684378714 0 0.014565836754298834 0.01607884782248506 0 0.01332262550145262 0.016399472231015195 0 0.014937066604303349 0.017472034684378714 0 0.014462061579543346 0.014976351381805796 0 0.014565836754298834 0.01607884782248506 0 0.01332262550145262 0.016399472231015195 0 0.01332262550145262 0.016399472231015195 0 0.013780779318020275 0.018106811688232874 0 0.012378058816131948 0.017466923442881192 0 0.01332262550145262 0.016399472231015195 0 0.013780779318020275 0.018106811688232874 0 0.014937066604303349 0.017472034684378714 0 0.013780779318020275 0.018106811688232874 0 0.012999423156382202 0.019486566736484256 0 0.012378058816131948 0.017466923442881192 0 0.013780779318020275 0.018106811688232874 0 0.014846708042897869 0.018998481748658726 0 0.012999423156382202 0.019486566736484256 0 0.021699105947473242 0.013691632606745972 0 0.018176279836170067 0.016880878149311898 0 0.013780779318020275 0.018106811688232874 0 0.014937066604303349 0.017472034684378714 0 0.014846708042897869 0.018998481748658726 0 0.015909662547810299 0.017033917015287364 0 0.014937066604303349 0.017472034684378714 0 0.014846708042897869 0.018998481748658726 0 0.019087904730213136 0.019752922561085268 0 0.018500223708831209 0.013863457707272431 0 0.023921464574450869 0.016625267437567304 0 0.016465951093108562 0.019037735488617789 0 0.018176279836170067 0.016880878149311898 0 0.014307171092615723 0.021316364046781975 0 0.014846708042897869 0.018998481748658726 0 0.012999423156382202 0.019486566736484256 0 0.026789893135858393 0.012658767451216428 0 0.031157684807286371 0.012703833271670165 0 0.029881188002868507 0.0087485467413019949 0 0.026789893135858393 0.012658767451216428 0 0.029881188002868507 0.0087485467413019949 0 0.02629157300223596 0.0086354532893861309 0 0.02289480675048066 0.006532385650094734 0 0.018500223708831209 0.013863457707272431 0 0.023667948038094199 0.011697956687447169 0 0.02289480675048066 0.006532385650094734 0 0.02629157300223596 0.0086354532893861309 0 0.023667948038094199 0.011697956687447169 0 0.026789893135858393 0.012658767451216428 0 0.02629157300223596 0.0086354532893861309 0 0.023667948038094199 0.011697956687447169 0 0.026789893135858393 0.012658767451216428 0 0.023667948038094199 0.011697956687447169 0 0.023921464574450869 0.016625267437567304 0 0.018500223708831209 0.013863457707272431 0 0.023667948038094199 0.011697956687447169 0 0.023921464574450869 0.016625267437567304 0 0.028433257510970839 0.020653692969474415 0 0.023921464574450869 0.016625267437567304 0 0.02867387801061335 0.015780488677625038 0 0.028433257510970839 0.020653692969474415 0 0.02867387801061335 0.015780488677625038 0 0.033187601947929933 0.015997231642020059 0 0.026789893135858393 0.012658767451216428 0 0.023921464574450869 0.016625267437567304 0 0.02867387801061335 0.015780488677625038 0 0.026789893135858393 0.012658767451216428 0 0.031157684807286371 0.012703833271670165 0 0.02867387801061335 0.015780488677625038 0 0.031157684807286371 0.012703833271670165 0 0.02867387801061335 0.015780488677625038 0 0.033187601947929933 0.015997231642020059 0 0.034697194523218518 0.019544080386176183 0 0.033187601947929933 0.015997231642020059 0 0.036250277508275863 0.015156816475539419 0 0.033187601947929933 0.015997231642020059 0 0.036250277508275863 0.015156816475539419 0 0.03481061657787124 0.012737730549757405 0 0.031157684807286371 0.012703833271670165 0 0.033187601947929933 0.015997231642020059 0 0.03481061657787124 0.012737730549757405 0 0.031157684807286371 0.012703833271670165 0 0.03481061657787124 0.012737730549757405 0 0.033614150960912303 0.009584439611858642 0 0.03481061657787124 0.012737730549757405 0 0.036122786314034726 0.010585723935333828 0 0.038419692881504118 0.012041964854482725 0 0.036250277508275863 0.015156816475539419 0 0.03481061657787124 0.012737730549757405 0 0.038419692881504118 0.012041964854482725 0 0.03481061657787124 0.012737730549757405 0 0.036122786314034726 0.010585723935333828 0 0.033614150960912303 0.009584439611858642 0 0.036122786314034726 0.010585723935333828 0 0.033614150960912303 0.009584439611858642 0 0.037460464154404988 0.0082147097552826547 0 0.031157684807286371 0.012703833271670165 0 0.029881188002868507 0.0087485467413019949 0 0.033614150960912303 0.009584439611858642 0 0.040359126794855767 0.010390346809681468 0 0.043161897904758488 0.011273584193820236 0 0.041846970078023078 0.0078683494760994153 0 0.040359126794855767 0.010390346809681468 0 0.037460464154404988 0.0082147097552826547 0 0.041846970078023078 0.0078683494760994153 0 0.036122786314034726 0.010585723935333828 0 0.038419692881504118 0.012041964854482725 0 0.037460464154404988 0.0082147097552826547 0 0.040359126794855767 0.010390346809681468 0 0.038419692881504118 0.012041964854482725 0 0.037460464154404988 0.0082147097552826547 0 0.038419692881504118 0.012041964854482725 0 0.041083348987082186 0.012619885030157579 0 0.040254243715018338 0.014394225214951029 0 0.040359126794855767 0.010390346809681468 0 0.038419692881504118 0.012041964854482725 0 0.041083348987082186 0.012619885030157579 0 0.041083348987082186 0.012619885030157579 0 0.042853152669956089 0.013667907251711334 0 0.043161897904758488 0.011273584193820236 0 0.040359126794855767 0.010390346809681468 0 0.041083348987082186 0.012619885030157579 0 0.043161897904758488 0.011273584193820236 0 0.041083348987082186 0.012619885030157579 0 0.040254243715018338 0.014394225214951029 0 0.042853152669956089 0.013667907251711334 0 0.040254243715018338 0.014394225214951029 0 0.044422677628833368 0.015468511866067011 0 0.042853152669956089 0.013667907251711334 0 0.040254243715018338 0.014394225214951029 0 0.038411883194566801 0.017040582106991286 0 0.044422677628833368 0.015468511866067011 0 0.038023059852910941 0.02241991711058542 0 0.038411883194566801 0.017040582106991286 0 0.044422677628833368 0.015468511866067011 0 0.036250277508275863 0.015156816475539419 0 0.040254243715018338 0.014394225214951029 0 0.038411883194566801 0.017040582106991286 0 0.036250277508275863 0.015156816475539419 0 0.038419692881504118 0.012041964854482725 0 0.040254243715018338 0.014394225214951029 0 0.034697194523218518 0.019544080386176183 0 0.036250277508275863 0.015156816475539419 0 0.038411883194566801 0.017040582106991286 0 0.045519847377680722 0.016900286402379394 0 0.046162015137837256 0.016179762939806466 0 0.044422677628833368 0.015468511866067011 0 0.046162015137837256 0.016179762939806466 0 0.045839302192666624 0.015264006227779939 0 0.044422677628833368 0.015468511866067011 0 0.046162015137837256 0.016179762939806466 0 0.046463517174814867 0.015558137308141222 0 0.045839302192666624 0.015264006227779939 0 0.046463517174814867 0.015558137308141222 0 0.045839302192666624 0.015264006227779939 0 0.046494011967456728 0.014771424234601241 0 0.045839302192666624 0.015264006227779939 0 0.044422677628833368 0.015468511866067011 0 0.045282764278528113 0.014299406389664392 0 0.044422677628833368 0.015468511866067011 0 0.042853152669956089 0.013667907251711334 0 0.045282764278528113 0.014299406389664392 0 0.047753983121777213 0.016459130310749394 0 0.04701274898827125 0.016010840742255304 0 0.04774597727393478 0.015718706018790281 0 0.048087576261435866 0.016942553210351468 0 0.048563790710006265 0.016547235584100636 0 0.047753983121777213 0.016459130310749394 0 0.046396557103689548 0.017075714893900806 0 0.046162015137837256 0.016179762939806466 0 0.047021393686804351 0.016567796772585065 0 0.047753983121777213 0.016459130310749394 0 0.047021393686804351 0.016567796772585065 0 0.04701274898827125 0.016010840742255304 0 0.046162015137837256 0.016179762939806466 0 0.047021393686804351 0.016567796772585065 0 0.04701274898827125 0.016010840742255304 0 0.047056605650022676 0.015400247460298996 0 0.04774597727393478 0.015718706018790281 0 0.047591880749485303 0.015039940530399016 0 0.046463517174814867 0.015558137308141222 0 0.04701274898827125 0.016010840742255304 0 0.047056605650022676 0.015400247460298996 0 0.046162015137837256 0.016179762939806466 0 0.046463517174814867 0.015558137308141222 0 0.04701274898827125 0.016010840742255304 0 0.046463517174814867 0.015558137308141222 0 0.047056605650022676 0.015400247460298996 0 0.046494011967456728 0.014771424234601241 0 0.04701274898827125 0.016010840742255304 0 0.047056605650022676 0.015400247460298996 0 0.04774597727393478 0.015718706018790281 0 0.048375719220626535 0.016068999937425124 0 0.048759116062746903 0.01554113334779123 0 0.04774597727393478 0.015718706018790281 0 0.048375719220626535 0.016068999937425124 0 0.047753983121777213 0.016459130310749394 0 0.04774597727393478 0.015718706018790281 0 0.047591880749485303 0.015039940530399016 0 0.048703978409000856 0.01497246074209436 0 0.046969257836116947 0.014390497858158352 0 0.048759116062746903 0.01554113334779123 0 0.04774597727393478 0.015718706018790281 0 0.047591880749485303 0.015039940530399016 0 0.048759116062746903 0.01554113334779123 0 0.047591880749485303 0.015039940530399016 0 0.048703978409000856 0.01497246074209436 0 0.047056605650022676 0.015400247460298996 0 0.047591880749485303 0.015039940530399016 0 0.046494011967456728 0.014771424234601241 0 0.047591880749485303 0.015039940530399016 0 0.046494011967456728 0.014771424234601241 0 0.046969257836116947 0.014390497858158352 0 0.043384341865272118 0.013445856236035824 0 0.043105704745610117 0.01340379475761687 0 0.045282764278528113 0.014299406389664392 0 0.046494011967456728 0.014771424234601241 0 0.046969257836116947 0.014390497858158352 0 0.045282764278528113 0.014299406389664392 0 0.043161897904758488 0.011273584193820236 0 0.046532561454862439 0.007633367260600538 0 0.042853152669956089 0.013667907251711334 0 0.045282764278528113 0.014299406389664392 0 0.043161897904758488 0.011273584193820236 0 0.045839302192666624 0.015264006227779939 0 0.045282764278528113 0.014299406389664392 0 0.046494011967456728 0.014771424234601241 0 0.043161897904758488 0.011273584193820236 0 0.046532561454862439 0.007633367260600538 0 0.041846970078023078 0.0078683494760994153 0 0.043105704745610117 0.01340379475761687 0 0.041219326448527674 0.016325309180348184 0 0.046532561454862439 0.007633367260600538 0 0.043019782302257517 0.0034989569376659411 0 0.041846970078023078 0.0078683494760994153 0 0.046532561454862439 0.007633367260600538 0 0.043019782302257517 0.0034989569376659411 0 0.048049649658266545 0.0019700278557104938 0 0.049456231318007679 0.014646569872590172 0 0.046969257836116947 0.014390497858158352 0 0.047651242668620614 0.012932335637059129 0 0.049456231318007679 0.014646569872590172 0 0.048703978409000856 0.01497246074209436 0 0.046969257836116947 0.014390497858158352 0 0.043407235181361213 0.016992756165899882 0 0.041219326448527674 0.016325309180348184 0 0.050182340627071081 0.015703995848165529 0 0.049456231318007679 0.014646569872590172 0 0.051120052773577021 0.015384951038961547 0 0.050182340627071081 0.015703995848165529 0 0.051341771372717691 0.016854274266459794 0 0.051120052773577021 0.015384951038961547 0 0.040289317775051618 -0.0035899258613295475 0 0.043019782302257517 0.0034989569376659411 0 0.048049649658266545 0.0019700278557104938 0 0.035222939163597977 0.017441833887656289 0 0.041219326448527674 0.016325309180348184 0 0.040289317775051618 -0.0035899258613295475 0 0.03450171695319406 0.0006018812591760095 0 0.038415448498551961 0.0037569642270880348 0 0.040289317775051618 -0.0035899258613295475 0 0.043019782302257517 0.0034989569376659411 0 0.038415448498551961 0.0037569642270880348 0 0.032532462993279075 -0.003181282717653151 0 0.040289317775051618 -0.0035899258613295475 0 0.03450171695319406 0.0006018812591760095 0 0.032532462993279075 -0.003181282717653151 0 0.030904180566873666 0.0013217931870809197 0 0.03450171695319406 0.0006018812591760095 0 0.030904180566873666 0.0013217931870809197 0 0.03450171695319406 0.0006018812591760095 0 0.033141414827514287 0.0053122013434564134 0 0.03450171695319406 0.0006018812591760095 0 0.033141414827514287 0.0053122013434564134 0 0.038415448498551961 0.0037569642270880348 0 0.029881188002868507 0.0087485467413019949 0 0.033614150960912303 0.009584439611858642 0 0.033141414827514287 0.0053122013434564134 0 0.033614150960912303 0.009584439611858642 0 0.033141414827514287 0.0053122013434564134 0 0.037460464154404988 0.0082147097552826547 0 0.033141414827514287 0.0053122013434564134 0 0.037460464154404988 0.0082147097552826547 0 0.038415448498551961 0.0037569642270880348 0 0.037460464154404988 0.0082147097552826547 0 0.041846970078023078 0.0078683494760994153 0 0.038415448498551961 0.0037569642270880348 0 0.043019782302257517 0.0034989569376659411 0 0.041846970078023078 0.0078683494760994153 0 0.038415448498551961 0.0037569642270880348 0 0.075180872124404871 0.015691970158616238 0 0.075084681192501668 0.017101030167343136 0 0.074783466192090794 0.017055229945735263 0 0.075180872124404871 0.015691970158616238 0 0.074783466192090794 0.017055229945735263 0 0.074721847860820992 0.015974975216368443 0 0.075180872124404871 0.015691970158616238 0 0.074997362563049355 0.016171607161191832 0 0.075000591329139984 0.011751643348561758 0 0.075180872124404871 0.015691970158616238 0 0.074997362563049355 0.016171607161191832 0 0.075084681192501668 0.017101030167343136 0 0.074997362563049355 0.016171607161191832 0 0.075143615749517473 0.018414910968395579 0 0.075084681192501668 0.017101030167343136 0 0.075143615749517473 0.018414910968395579 0 0.075084681192501668 0.017101030167343136 0 0.074729475277293331 0.017942106041503633 0 0.074997362563049355 0.016171607161191832 0 0.075143615749517473 0.018414910968395579 0 0.074999334843315432 0.020606839568927091 0 0.075084681192501668 0.017101030167343136 0 0.074783466192090794 0.017055229945735263 0 0.074729475277293331 0.017942106041503633 0 0.074783466192090794 0.017055229945735263 0 0.074650758256165753 0.018003320602929054 0 0.074729475277293331 0.017942106041503633 0 0.074783466192090794 0.017055229945735263 0 0.074591541533919128 0.0178575111323328 0 0.074378297137276408 0.01654638738482132 0 0.074783466192090794 0.017055229945735263 0 0.074591541533919128 0.0178575111323328 0 0.074650758256165753 0.018003320602929054 0 0.074591541533919128 0.0178575111323328 0 0.074378297137276408 0.01654638738482132 0 0.074623754272294951 0.01831139421096627 0 0.074378297137276408 0.01654638738482132 0 0.074721847860820992 0.015974975216368443 0 0.074273917444826698 0.015731688124791948 0 0.074783466192090794 0.017055229945735263 0 0.074378297137276408 0.01654638738482132 0 0.074721847860820992 0.015974975216368443 0 0.074273917444826698 0.015731688124791948 0 0.074482058665053613 0.015598226675361065 0 0.074935714699337699 0.014697869843892299 0 0.074721847860820992 0.015974975216368443 0 0.074273917444826698 0.015731688124791948 0 0.074935714699337699 0.014697869843892299 0 0.074273917444826698 0.015731688124791948 0 0.073255592075187712 0.016152725648515418 0 0.073682783541332356 0.01616834610485034 0 0.074378297137276408 0.01654638738482132 0 0.074273917444826698 0.015731688124791948 0 0.073255592075187712 0.016152725648515418 0 0.074378297137276408 0.01654638738482132 0 0.073255592075187712 0.016152725648515418 0 0.072017302207860664 0.015650754251664189 0 0.073682783541332356 0.01616834610485034 0 0.073091387782204989 0.016910314971098975 0 0.072606724545153933 0.016557027050797667 0 0.073255592075187712 0.016152725648515418 0 0.073682783541332356 0.01616834610485034 0 0.072606724545153933 0.016557027050797667 0 0.073682783541332356 0.01616834610485034 0 0.074482058665053613 0.015598226675361065 0 0.073979421844742099 0.01651514184050196 0 0.074273917444826698 0.015731688124791948 0 0.073682783541332356 0.01616834610485034 0 0.074482058665053613 0.015598226675361065 0 0.074482058665053613 0.015598226675361065 0 0.074935714699337699 0.014697869843892299 0 0.07511914136224726 0.015438241471476658 0 0.074482058665053613 0.015598226675361065 0 0.07511914136224726 0.015438241471476658 0 0.073979421844742099 0.01651514184050196 0 0.075180872124404871 0.015691970158616238 0 0.074721847860820992 0.015974975216368443 0 0.074935714699337699 0.014697869843892299 0 0.075180872124404871 0.015691970158616238 0 0.074935714699337699 0.014697869843892299 0 0.075000591329139984 0.011751643348561758 0 0.074999968220332461 0.011740126736604422 0 0.075000030821640459 0.007375045244233421 0 0.077509849682150495 0.009236183115007332 0 0.074935714699337699 0.014697869843892299 0 0.075000591329139984 0.011751643348561758 0 0.07511914136224726 0.015438241471476658 0 0.074999827855542101 0.011740215470987463 0 0.075237702160528663 0.011296889795875596 0 0.075000030821640459 0.007375045244233421 0 0.077509849682150495 0.009236183115007332 0 0.077517905977945473 0.0056917641566095927 0 0.07511914136224726 0.015438241471476658 0 0.074373727451401903 0.017392241152685357 0 0.073979421844742099 0.01651514184050196 0 0.075237702160528663 0.011296889795875596 0 0.075711445365997332 0.0096950291506452211 0 0.077509849682150495 0.009236183115007332 0 0.077517905977945473 0.0056917641566095927 0 0.080084775645212464 0.0067157863351407707 0 0.077517905977945473 0.0056917641566095927 0 0.079655061215823122 0.0043434032402664118 0 0.080084775645212464 0.0067157863351407707 0 0.075000030821640459 0.007375045244233421 0 0.077517905977945473 0.0056917641566095927 0 0.074999642186937832 0.0030096477500780694 0 0.077517905977945473 0.0056917641566095927 0 0.074999642186937832 0.0030096477500780694 0 0.077733220032642811 0.0030149976758188637 0 0.077517905977945473 0.0056917641566095927 0 0.079655061215823122 0.0043434032402664118 0 0.077733220032642811 0.0030149976758188637 0 0.079655061215823122 0.0043434032402664118 0 0.077733220032642811 0.0030149976758188637 0 0.080178964712300502 0.0021007459612018661 0 0.077733220032642811 0.0030149976758188637 0 0.077204730767762228 -0.00016410988522476798 0 0.080178964712300502 0.0021007459612018661 0 0.076753937500882843 0.0031546291395146996 0 0.077029280275914672 0.0040402254672120153 0 0.077778427098639732 -0.00011309051372343433 0 0.077204730767762228 -0.00016410988522476798 0 0.078330438996549026 0.00054064257848929328 0 0.076708217259150155 -0.00090212906404446504 0 0.077778427098639732 -0.00011309051372343433 0 0.077204730767762228 -0.00016410988522476798 0 0.074999642186937832 0.0030096477500780694 0 0.077733220032642811 0.0030149976758188637 0 0.077204730767762228 -0.00016410988522476798 0 0.074999446609057274 -0.0013571032433966699 0 0.076708217259150155 -0.00090212906404446504 0 0.074999642186937832 0.0030096477500780694 0 0.076708217259150155 -0.00090212906404446504 0 0.074999642186937832 0.0030096477500780694 0 0.077204730767762228 -0.00016410988522476798 0 0.079412120859991844 -0.00010177257063497913 0 0.078643576366057399 -0.00031796918011912651 0 0.078960066223717429 0.00027490508428257607 0 0.079412120859991844 -0.00010177257063497913 0 0.078960066223717429 0.00027490508428257607 0 0.079328739596921757 0.00052970350133230149 0 0.078643576366057399 -0.00031796918011912651 0 0.078960066223717429 0.00027490508428257607 0 0.078330438996549026 0.00054064257848929328 0 0.078643576366057399 -0.00031796918011912651 0 0.077778427098639732 -0.00011309051372343433 0 0.078330438996549026 0.00054064257848929328 0 0.078960066223717429 0.00027490508428257607 0 0.078330438996549026 0.00054064257848929328 0 0.079000394868181639 0.00093891346361570495 0 0.079655061215823122 0.0043434032402664118 0 0.080178964712300502 0.0021007459612018661 0 0.08276097203029377 0.0041138734769159977 0 0.077029280275914672 0.0040402254672120153 0 0.076497189465332668 0.0059393116335161198 0 0.078960066223717429 0.00027490508428257607 0 0.079000394868181639 0.00093891346361570495 0 0.079328739596921757 0.00052970350133230149 0 0.079034413399667172 0.00081663142703374393 0 0.079328739596921757 0.00052970350133230149 0 0.079388145452040537 0.0010822646912019914 0 0.076497189465332668 0.0059393116335161198 0 0.077502193271106565 0.0047369737527618722 0 0.07331215877988527 0.018636817587795704 0 0.073272250330766439 0.017510214432375531 0 0.072474071024006784 0.018076203557096875 0 0.076497189465332668 0.0059393116335161198 0 0.076250734330826797 0.0085847889511191152 0 0.073272250330766439 0.017510214432375531 0 0.072473520165469221 0.017469439361513159 0 0.072474071024006784 0.018076203557096875 0 0.079655061215823122 0.0043434032402664118 0 0.08276097203029377 0.0041138734769159977 0 0.080084775645212464 0.0067157863351407707 0 0.07331215877988527 0.018636817587795704 0 0.073272250330766439 0.017510214432375531 0 0.074373727451401903 0.017392241152685357 0 0.076497189465332668 0.0059393116335161198 0 0.075711445365997332 0.0096950291506452211 0 0.073272250330766439 0.017510214432375531 0 0.074373727451401903 0.017392241152685357 0 0.073979421844742099 0.01651514184050196 0 0.073272250330766439 0.017510214432375531 0 0.073091387782204989 0.016910314971098975 0 0.072473520165469221 0.017469439361513159 0 0.073272250330766439 0.017510214432375531 0 0.073979421844742099 0.01651514184050196 0 0.073091387782204989 0.016910314971098975 0 0.073682783541332356 0.01616834610485034 0 0.073979421844742099 0.01651514184050196 0 0.073091387782204989 0.016910314971098975 0 0.073091387782204989 0.016910314971098975 0 0.072450032930876387 0.017026684874889366 0 0.072606724545153933 0.016557027050797667 0 0.073091387782204989 0.016910314971098975 0 0.072450032930876387 0.017026684874889366 0 0.072473520165469221 0.017469439361513159 0 0.072450032930876387 0.017026684874889366 0 0.071830021899212712 0.017337825418228484 0 0.071382153872327617 0.016766956379531368 0 0.071830021899212712 0.017337825418228484 0 0.071630184611765624 0.017626524781560408 0 0.072473520165469221 0.017469439361513159 0 0.075500820245920489 0.011432273158418061 0 0.075887604610324191 0.010863676515402225 0 0.072450032930876387 0.017026684874889366 0 0.071830021899212712 0.017337825418228484 0 0.072473520165469221 0.017469439361513159 0 0.068807861855213551 0.016397912391402338 0 0.069915487403996904 0.01698589262450672 0 0.069402954640572043 0.016127861241486616 0 0.069915487403996904 0.01698589262450672 0 0.069927204304885013 0.016756791489273854 0 0.070355380838298814 0.01685162083030697 0 0.071830021899212712 0.017337825418228484 0 0.069915487403996904 0.01698589262450672 0 0.071382153872327617 0.016766956379531368 0 0.075887604610324191 0.010863676515402225 0 0.075396336997322941 0.011138245371278671 0 0.071830021899212712 0.017337825418228484 0 0.07125070128154383 0.018122050600513129 0 0.069915487403996904 0.01698589262450672 0 0.069915487403996904 0.01698589262450672 0 0.069402954640572043 0.016127861241486616 0 0.069927204304885013 0.016756791489273854 0 0.068807861855213551 0.016397912391402338 0 0.068589447017687127 0.015080218437423618 0 0.069402954640572043 0.016127861241486616 0 0.079737042087137319 0.0013579179037213958 0 0.079706501348000239 0.0010164932535123392 0 0.080059368190417382 0.00086523620646145017 0 0.075887604610324191 0.010863676515402225 0 0.074945456131228355 0.0081625750491405736 0 0.071630184611765624 0.017626524781560408 0 0.072473520165469221 0.017469439361513159 0 0.072474071024006784 0.018076203557096875 0 0.075887604610324191 0.010863676515402225 0 0.076250734330826797 0.0085847889511191152 0 0.079737042087137319 0.0013579179037213958 0 0.079706501348000239 0.0010164932535123392 0 0.079388145452040537 0.0010822646912019914 0 0.079706501348000239 0.0010164932535123392 0 0.079388145452040537 0.0010822646912019914 0 0.079638237095492961 0.00076239982469394668 0 0.079328739596921757 0.00052970350133230149 0 0.079638237095492961 0.00076239982469394668 0 0.079822182660941557 0.00040137150616419495 0 0.079328739596921757 0.00052970350133230149 0 0.079388145452040537 0.0010822646912019914 0 0.079638237095492961 0.00076239982469394668 0 0.080059368190417382 0.00086523620646145017 0 0.079822182660941557 0.00040137150616419495 0 0.080347404581002493 0.00039184734245717255 0 0.079638237095492961 0.00076239982469394668 0 0.080059368190417382 0.00086523620646145017 0 0.079822182660941557 0.00040137150616419495 0 0.079706501348000239 0.0010164932535123392 0 0.079638237095492961 0.00076239982469394668 0 0.080059368190417382 0.00086523620646145017 0 0.080037879696058259 -3.7087559464701521e-05 0 0.079822182660941557 0.00040137150616419495 0 0.080347404581002493 0.00039184734245717255 0 0.079412120859991844 -0.00010177257063497913 0 0.079328739596921757 0.00052970350133230149 0 0.079822182660941557 0.00040137150616419495 0 0.079412120859991844 -0.00010177257063497913 0 0.080037879696058259 -3.7087559464701521e-05 0 0.079822182660941557 0.00040137150616419495 0 0.068244759460873911 0.010297472349312524 0 0.068052704955290422 0.01302647731775154 0 0.069567641410711006 0.01162576269190225 0 0.068052704955290422 0.01302647731775154 0 0.06959423002826387 0.014334376717258188 0 0.069567641410711006 0.01162576269190225 0 0.072873995941303282 0.0035134019263387412 0 0.073999923558067449 0.0059226946915901992 0 0.080616241539873609 -2.8505031881407473e-05 0 0.080037879696058259 -3.7087559464701521e-05 0 0.080347404581002493 0.00039184734245717255 0 0.074945456131228355 0.0081625750491405736 0 0.073999923558067449 0.0059226946915901992 0 0.068589447017687127 0.015080218437423618 0 0.068052704955290422 0.01302647731775154 0 0.069038085304895705 0.01487829670570414 0 0.068052704955290422 0.01302647731775154 0 0.069038085304895705 0.01487829670570414 0 0.06959423002826387 0.014334376717258188 0 0.06959423002826387 0.014334376717258188 0 0.069670371911531567 0.016156253289464313 0 0.070424337548179769 0.016340915109842709 0 0.069038085304895705 0.01487829670570414 0 0.06959423002826387 0.014334376717258188 0 0.069670371911531567 0.016156253289464313 0 0.068589447017687127 0.015080218437423618 0 0.069038085304895705 0.01487829670570414 0 0.069402954640572043 0.016127861241486616 0 0.069038085304895705 0.01487829670570414 0 0.069670371911531567 0.016156253289464313 0 0.069402954640572043 0.016127861241486616 0 0.069670371911531567 0.016156253289464313 0 0.069927204304885013 0.016756791489273854 0 0.070288591379791251 0.017042179075328786 0 0.069670371911531567 0.016156253289464313 0 0.069402954640572043 0.016127861241486616 0 0.069927204304885013 0.016756791489273854 0 0.069670371911531567 0.016156253289464313 0 0.070288591379791251 0.017042179075328786 0 0.070424337548179769 0.016340915109842709 0 0.070288591379791251 0.017042179075328786 0 0.071199750726378006 0.017524756572515392 0 0.070424337548179769 0.016340915109842709 0 0.070288591379791251 0.017042179075328786 0 0.071450845534171248 0.018094068867024585 0 0.071199750726378006 0.017524756572515392 0 0.073343651450644518 0.018776429589429454 0 0.072536064719055077 0.018398817085169987 0 0.071450845534171248 0.018094068867024585 0 0.070288591379791251 0.017042179075328786 0 0.070406131249067583 0.016817807186606068 0 0.071450845534171248 0.018094068867024585 0 0.072426951996031261 0.017459742543573586 0 0.072254053662250281 0.017575499250696298 0 0.070288591379791251 0.017042179075328786 0 0.070406131249067583 0.016817807186606068 0 0.070355380838298814 0.01685162083030697 0 0.069927204304885013 0.016756791489273854 0 0.070288591379791251 0.017042179075328786 0 0.070355380838298814 0.01685162083030697 0 0.069915487403996904 0.01698589262450672 0 0.070355380838298814 0.01685162083030697 0 0.071382153872327617 0.016766956379531368 0 0.070355380838298814 0.01685162083030697 0 0.071493816702811214 0.016469502631381538 0 0.071382153872327617 0.016766956379531368 0 0.073255592075187712 0.016152725648515418 0 0.071493816702811214 0.016469502631381538 0 0.072606724545153933 0.016557027050797667 0 0.072450032930876387 0.017026684874889366 0 0.072606724545153933 0.016557027050797667 0 0.071382153872327617 0.016766956379531368 0 0.071493816702811214 0.016469502631381538 0 0.072606724545153933 0.016557027050797667 0 0.071382153872327617 0.016766956379531368 0 0.073255592075187712 0.016152725648515418 0 0.071493816702811214 0.016469502631381538 0 0.072017302207860664 0.015650754251664189 0 0.070406131249067583 0.016817807186606068 0 0.070355380838298814 0.01685162083030697 0 0.071493816702811214 0.016469502631381538 0 0.072426951996031261 0.017459742543573586 0 0.072857679720036719 0.017206768952357312 0 0.070406131249067583 0.016817807186606068 0 0.071493816702811214 0.016469502631381538 0 0.072017302207860664 0.015650754251664189 0 0.073343651450644518 0.018776429589429454 0 0.074377492408082682 0.018100508395756904 0 0.07371883189965682 0.018453423472378775 0 0.074378297137276408 0.01654638738482132 0 0.074377492408082682 0.018100508395756904 0 0.074623754272294951 0.01831139421096627 0 0.073150402892716862 0.017077433432744434 0 0.072857679720036719 0.017206768952357312 0 0.074377492408082682 0.018100508395756904 0 0.074623754272294951 0.01831139421096627 0 0.07371883189965682 0.018453423472378775 0 0.07371883189965682 0.018453423472378775 0 0.072890428458093695 0.018575493699844379 0 0.073516101690246152 0.01901666140557353 0 0.072890428458093695 0.018575493699844379 0 0.072536064719055077 0.018398817085169987 0 0.072010629964988387 0.018386666175581542 0 0.07371883189965682 0.018453423472378775 0 0.072890428458093695 0.018575493699844379 0 0.072536064719055077 0.018398817085169987 0 0.072536064719055077 0.018398817085169987 0 0.072010629964988387 0.018386666175581542 0 0.071450845534171248 0.018094068867024585 0 0.073343651450644518 0.018776429589429454 0 0.07371883189965682 0.018453423472378775 0 0.072536064719055077 0.018398817085169987 0 0.072010629964988387 0.018386666175581542 0 0.071438385111834091 0.018143505740517329 0 0.071338413463468905 0.018100131503823561 0 0.072010629964988387 0.018386666175581542 0 0.071338413463468905 0.018100131503823561 0 0.071450845534171248 0.018094068867024585 0 0.072890428458093695 0.018575493699844379 0 0.072010629964988387 0.018386666175581542 0 0.072442411109300719 0.01865316099268554 0 0.072010629964988387 0.018386666175581542 0 0.071438385111834091 0.018143505740517329 0 0.072442411109300719 0.01865316099268554 0 0.071438385111834091 0.018143505740517329 0 0.069679999010797494 0.017673920197950839 0 0.070989180170400124 0.017781110519727437 0 0.071438385111834091 0.018143505740517329 0 0.070697054956354533 0.017995459998127471 0 0.069679999010797494 0.017673920197950839 0 0.070697054956354533 0.017995459998127471 0 0.070146678351341946 0.018068951907972093 0 0.069679999010797494 0.017673920197950839 0 0.071438385111834091 0.018143505740517329 0 0.070697054956354533 0.017995459998127471 0 0.071338413463468905 0.018100131503823561 0 0.070146678351341946 0.018068951907972093 0 0.071061085473471924 0.017837359333877742 0 0.071338413463468905 0.018100131503823561 0 0.070697054956354533 0.017995459998127471 0 0.070146678351341946 0.018068951907972093 0 0.071338413463468905 0.018100131503823561 0 0.070146678351341946 0.018068951907972093 0 0.07042652404636697 0.017830265184989889 0 0.068654692662066738 0.018221638372412943 0 0.070146678351341946 0.018068951907972093 0 0.07042652404636697 0.017830265184989889 0 0.071061085473471924 0.017837359333877742 0 0.07042652404636697 0.017830265184989889 0 0.071061085473471924 0.017837359333877742 0 0.071369819769661863 0.017347001130095026 0 0.071061085473471924 0.017837359333877742 0 0.071199750726378006 0.017524756572515392 0 0.071369819769661863 0.017347001130095026 0 0.071061085473471924 0.017837359333877742 0 0.071338413463468905 0.018100131503823561 0 0.071199750726378006 0.017524756572515392 0 0.071338413463468905 0.018100131503823561 0 0.071450845534171248 0.018094068867024585 0 0.071199750726378006 0.017524756572515392 0 0.071199750726378006 0.017524756572515392 0 0.071317732524121977 0.016681573010477464 0 0.070424337548179769 0.016340915109842709 0 0.071199750726378006 0.017524756572515392 0 0.071317732524121977 0.016681573010477464 0 0.071369819769661863 0.017347001130095026 0 0.071317732524121977 0.016681573010477464 0 0.071204549018080279 0.014215102068868215 0 0.072110607480685235 0.016567224625746498 0 0.071317732524121977 0.016681573010477464 0 0.072110607480685235 0.016567224625746498 0 0.071369819769661863 0.017347001130095026 0 0.071317732524121977 0.016681573010477464 0 0.070424337548179769 0.016340915109842709 0 0.071204549018080279 0.014215102068868215 0 0.06959423002826387 0.014334376717258188 0 0.071204549018080279 0.014215102068868215 0 0.069567641410711006 0.01162576269190225 0 0.06959423002826387 0.014334376717258188 0 0.070424337548179769 0.016340915109842709 0 0.071204549018080279 0.014215102068868215 0 0.071204549018080279 0.014215102068868215 0 0.073253586971842408 0.01422147436928399 0 0.072110607480685235 0.016567224625746498 0 0.071204549018080279 0.014215102068868215 0 0.072787033834313092 0.011949787308613602 0 0.073253586971842408 0.01422147436928399 0 0.071204549018080279 0.014215102068868215 0 0.072787033834313092 0.011949787308613602 0 0.071732510532873967 0.010875805367107636 0 0.073097504712212019 0.0076280860515684371 0 0.072787033834313092 0.011949787308613602 0 0.071732510532873967 0.010875805367107636 0 0.071204549018080279 0.014215102068868215 0 0.071732510532873967 0.010875805367107636 0 0.069567641410711006 0.01162576269190225 0 0.070931886768040589 0.0075826942684914279 0 0.071732510532873967 0.010875805367107636 0 0.069567641410711006 0.01162576269190225 0 0.07060933852373856 0.012481196147254511 0 0.069379951005836549 0.014304803665176965 0 0.067376022080750983 0.01282847268692454 0 0.06664465575036721 0.013034913684863573 0 0.067445606145724646 0.013364736478970714 0 0.06705883822656751 0.012384802834509762 0 0.067376022080750983 0.01282847268692454 0 0.06664465575036721 0.013034913684863573 0 0.070724570679744081 0.012508107392044771 0 0.07060933852373856 0.012481196147254511 0 0.073097504712212019 0.0076280860515684371 0 0.072787033834313092 0.011949787308613602 0 0.074987477590217885 0.011080731722524184 0 0.072787033834313092 0.011949787308613602 0 0.074987477590217885 0.011080731722524184 0 0.073253586971842408 0.01422147436928399 0 0.074987477590217885 0.011080731722524184 0 0.075722721568645665 0.011900139262994658 0 0.073253586971842408 0.01422147436928399 0 0.075722721568645665 0.011900139262994658 0 0.072871009781736065 0.016616012847473362 0 0.073253586971842408 0.01422147436928399 0 0.07060933852373856 0.012481196147254511 0 0.070900680641818398 0.013414291568282603 0 0.072871009781736065 0.016616012847473362 0 0.073253586971842408 0.01422147436928399 0 0.072110607480685235 0.016567224625746498 0 0.072941410390480022 0.01926503248024445 0 0.072871009781736065 0.016616012847473362 0 0.069837470459352777 0.018509297058472103 0 0.072871009781736065 0.016616012847473362 0 0.069550080347168211 0.017826917593134907 0 0.069837470459352777 0.018509297058472103 0 0.072871009781736065 0.016616012847473362 0 0.071056227551087731 0.017365519134851213 0 0.069550080347168211 0.017826917593134907 0 0.072871009781736065 0.016616012847473362 0 0.071056227551087731 0.017365519134851213 0 0.072110607480685235 0.016567224625746498 0 0.071056227551087731 0.017365519134851213 0 0.072110607480685235 0.016567224625746498 0 0.071369819769661863 0.017347001130095026 0 0.07042652404636697 0.017830265184989889 0 0.071056227551087731 0.017365519134851213 0 0.071369819769661863 0.017347001130095026 0 0.07042652404636697 0.017830265184989889 0 0.071056227551087731 0.017365519134851213 0 0.069145732207940722 0.017953894450636568 0 0.069145732207940722 0.017953894450636568 0 0.067820001363300783 0.018132490844885517 0 0.069550080347168211 0.017826917593134907 0 0.069145732207940722 0.017953894450636568 0 0.067820001363300783 0.018132490844885517 0 0.066966719393410215 0.018557193185067471 0 0.067820001363300783 0.018132490844885517 0 0.066636634520117394 0.018188841799227959 0 0.066966719393410215 0.018557193185067471 0 0.067820001363300783 0.018132490844885517 0 0.067569670216651195 0.018479589234680877 0 0.069550080347168211 0.017826917593134907 0 0.067820001363300783 0.018132490844885517 0 0.067569670216651195 0.018479589234680877 0 0.066636634520117394 0.018188841799227959 0 0.071056227551087731 0.017365519134851213 0 0.069145732207940722 0.017953894450636568 0 0.069550080347168211 0.017826917593134907 0 0.067569670216651195 0.018479589234680877 0 0.069550080347168211 0.017826917593134907 0 0.069837470459352777 0.018509297058472103 0 0.068655420652690285 0.015230652407857299 0 0.069379951005836549 0.014304803665176965 0 0.067204884175786878 0.014066386865435291 0 0.067445606145724646 0.013364736478970714 0 0.067834797483229917 0.012976690809272138 0 0.067204884175786878 0.014066386865435291 0 0.067834797483229917 0.012976690809272138 0 0.067583902973981938 0.013686954589962212 0 0.067813034327737942 0.012112474902287434 0 0.067376022080750983 0.01282847268692454 0 0.067834797483229917 0.012976690809272138 0 0.067376022080750983 0.01282847268692454 0 0.067445606145724646 0.013364736478970714 0 0.067834797483229917 0.012976690809272138 0 0.068182673698248847 0.012754226094004549 0 0.068186990994653293 0.012533519554527818 0 0.067583902973981938 0.013686954589962212 0 0.067834797483229917 0.012976690809272138 0 0.068186990994653293 0.012533519554527818 0 0.067583902973981938 0.013686954589962212 0 0.068748605330011495 0.01393183967985636 0 0.068182673698248847 0.012754226094004549 0 0.067583902973981938 0.013686954589962212 0 0.068748605330011495 0.01393183967985636 0 0.067583902973981938 0.013686954589962212 0 0.066990777785325306 0.016457526866043605 0 0.064974938834282625 0.016809756921330951 0 0.065514712918716855 0.016458326603229451 0 0.066815014694627528 0.016774728319884889 0 0.06647733352867119 0.01511151377605824 0 0.066535715087799402 0.015491066318219287 0 0.068748605330011495 0.01393183967985636 0 0.066990777785325306 0.016457526866043605 0 0.066815014694627528 0.016774728319884889 0 0.068655420652690285 0.015230652407857299 0 0.068543492323426852 0.015596252542672436 0 0.067204884175786878 0.014066386865435291 0 0.067583902973981938 0.013686954589962212 0 0.066990777785325306 0.016457526866043605 0 0.067569670216651195 0.018479589234680877 0 0.066990777785325306 0.016457526866043605 0 0.066636634520117394 0.018188841799227959 0 0.066636634520117394 0.018188841799227959 0 0.065190202428274807 0.018973136481866628 0 0.066966719393410215 0.018557193185067471 0 0.066990777785325306 0.016457526866043605 0 0.066636634520117394 0.018188841799227959 0 0.066815014694627528 0.016774728319884889 0 0.066636634520117394 0.018188841799227959 0 0.063222679969619819 0.02042914256252356 0 0.065190202428274807 0.018973136481866628 0 0.066636634520117394 0.018188841799227959 0 0.066815014694627528 0.016774728319884889 0 0.06646533741835399 0.01599817926469161 0 0.065514712918716855 0.016458326603229451 0 0.066815014694627528 0.016774728319884889 0 0.06646533741835399 0.01599817926469161 0 0.064142642077660142 0.017840206538328924 0 0.06357033962701121 0.017722900554441093 0 0.061880141879271426 0.019022065166655083 0 0.06309322674205238 0.019426204913171694 0 0.064640617753446664 0.018667615245934171 0 0.06309322674205238 0.019426204913171694 0 0.064640617753446664 0.018667615245934171 0 0.065190202428274807 0.018973136481866628 0 0.063222679969619819 0.02042914256252356 0 0.06309322674205238 0.019426204913171694 0 0.065190202428274807 0.018973136481866628 0 0.061880141879271426 0.019022065166655083 0 0.064640617753446664 0.018667615245934171 0 0.062458789242178181 0.018350004217303588 0 0.064640617753446664 0.018667615245934171 0 0.065190202428274807 0.018973136481866628 0 0.066966719393410215 0.018557193185067471 0 0.064640617753446664 0.018667615245934171 0 0.066966719393410215 0.018557193185067471 0 0.067886225047806739 0.018300138327321212 0 0.066966719393410215 0.018557193185067471 0 0.068654692662066738 0.018221638372412943 0 0.067886225047806739 0.018300138327321212 0 0.069145732207940722 0.017953894450636568 0 0.066966719393410215 0.018557193185067471 0 0.068654692662066738 0.018221638372412943 0 0.07042652404636697 0.017830265184989889 0 0.069145732207940722 0.017953894450636568 0 0.068654692662066738 0.018221638372412943 0 0.070146678351341946 0.018068951907972093 0 0.067886225047806739 0.018300138327321212 0 0.069679999010797494 0.017673920197950839 0 0.070146678351341946 0.018068951907972093 0 0.068654692662066738 0.018221638372412943 0 0.067886225047806739 0.018300138327321212 0 0.064640617753446664 0.018667615245934171 0 0.067886225047806739 0.018300138327321212 0 0.064054246023112313 0.017602444887252291 0 0.067886225047806739 0.018300138327321212 0 0.069679999010797494 0.017673920197950839 0 0.064054246023112313 0.017602444887252291 0 0.069679999010797494 0.017673920197950839 0 0.064054246023112313 0.017602444887252291 0 0.068514882109814282 0.016715133064617752 0 0.063835829422747084 0.018795031714613039 0 0.064113814876075453 0.018614619915391217 0 0.061094532319263012 0.017951705618884813 0 0.064054246023112313 0.017602444887252291 0 0.0605036014713244 0.017759514424784795 0 0.059270521368236295 0.018006930489488461 0 0.061094532319263012 0.017951705618884813 0 0.0605036014713244 0.017759514424784795 0 0.060828154902211606 0.01856653044050539 0 0.061094532319263012 0.017951705618884813 0 0.062458789242178181 0.018350004217303588 0 0.061094532319263012 0.017951705618884813 0 0.062458789242178181 0.018350004217303588 0 0.064054246023112313 0.017602444887252291 0 0.064640617753446664 0.018667615245934171 0 0.062458789242178181 0.018350004217303588 0 0.064054246023112313 0.017602444887252291 0 0.0605036014713244 0.017759514424784795 0 0.059425017783049587 0.018042587898246656 0 0.05877642815567858 0.01809150236709221 0 0.058302843367622696 0.018068198220460754 0 0.0605036014713244 0.017759514424784795 0 0.05877642815567858 0.01809150236709221 0 0.058302843367622696 0.018068198220460754 0 0.059270521368236295 0.018006930489488461 0 0.0605036014713244 0.017759514424784795 0 0.064054246023112313 0.017602444887252291 0 0.0605036014713244 0.017759514424784795 0 0.060176793374868302 0.017737971178820058 0 0.069679999010797494 0.017673920197950839 0 0.068514882109814282 0.016715133064617752 0 0.070989180170400124 0.017781110519727437 0 0.068514882109814282 0.016715133064617752 0 0.071003283750702667 0.017857595467274348 0 0.070989180170400124 0.017781110519727437 0 0.064113814876075453 0.018614619915391217 0 0.064421831989340192 0.018982238355411126 0 0.060176793374868302 0.017737971178820058 0 0.059425017783049587 0.018042587898246656 0 0.058762043520801971 0.017864476801723379 0 0.0605036014713244 0.017759514424784795 0 0.060176793374868302 0.017737971178820058 0 0.059425017783049587 0.018042587898246656 0 0.059425017783049587 0.018042587898246656 0 0.059064616529137151 0.018298322570535912 0 0.058762043520801971 0.017864476801723379 0 0.059425017783049587 0.018042587898246656 0 0.059064616529137151 0.018298322570535912 0 0.058782243839250799 0.018168918502607344 0 0.059064616529137151 0.018298322570535912 0 0.058762043520801971 0.017864476801723379 0 0.058788345942201781 0.018693100596158946 0 0.058762043520801971 0.017864476801723379 0 0.058788345942201781 0.018693100596158946 0 0.05813319059264898 0.019868299710859839 0 0.058788345942201781 0.018693100596158946 0 0.058497048961056661 0.019106397276675235 0 0.058568129985794734 0.018627257772259358 0 0.058788345942201781 0.018693100596158946 0 0.058497048961056661 0.019106397276675235 0 0.05813319059264898 0.019868299710859839 0 0.059064616529137151 0.018298322570535912 0 0.058806955966110006 0.018372770155072229 0 0.058782243839250799 0.018168918502607344 0 0.059064616529137151 0.018298322570535912 0 0.058788345942201781 0.018693100596158946 0 0.058806955966110006 0.018372770155072229 0 0.058788345942201781 0.018693100596158946 0 0.058806955966110006 0.018372770155072229 0 0.058568129985794734 0.018627257772259358 0 0.058806955966110006 0.018372770155072229 0 0.058512066010101879 0.018046023788398095 0 0.058568129985794734 0.018627257772259358 0 0.058380898209396084 0.017907709218275249 0 0.058782243839250799 0.018168918502607344 0 0.058512066010101879 0.018046023788398095 0 0.058806955966110006 0.018372770155072229 0 0.058782243839250799 0.018168918502607344 0 0.058512066010101879 0.018046023788398095 0 0.058380898209396084 0.017907709218275249 0 0.058782243839250799 0.018168918502607344 0 0.057806748846123253 0.01800202162034267 0 0.058782243839250799 0.018168918502607344 0 0.05877642815567858 0.01809150236709221 0 0.057806748846123253 0.01800202162034267 0 0.059425017783049587 0.018042587898246656 0 0.058782243839250799 0.018168918502607344 0 0.05877642815567858 0.01809150236709221 0 0.05685479614846594 0.018011995823771318 0 0.05877642815567858 0.01809150236709221 0 0.057806748846123253 0.01800202162034267 0 0.058302843367622696 0.018068198220460754 0 0.05685479614846594 0.018011995823771318 0 0.05877642815567858 0.01809150236709221 0 0.05542767034473331 0.017407339861502207 0 0.05685479614846594 0.018011995823771318 0 0.057806748846123253 0.01800202162034267 0 0.05542767034473331 0.017407339861502207 0 0.057806748846123253 0.01800202162034267 0 0.058255336054949848 0.017442096254804366 0 0.058380898209396084 0.017907709218275249 0 0.057806748846123253 0.01800202162034267 0 0.058255336054949848 0.017442096254804366 0 0.05542767034473331 0.017407339861502207 0 0.058255336054949848 0.017442096254804366 0 0.057212076789224943 0.016049952218687151 0 0.052864295606331491 0.019393094823215894 0 0.051572136678729993 0.020846258852062326 0 0.058255336054949848 0.017442096254804366 0 0.058643433938471108 0.017963217267757712 0 0.058346587398561002 0.018012398332414418 0 0.051989967425161925 0.020804722501639509 0 0.051572136678729993 0.020846258852062326 0 0.058255336054949848 0.017442096254804366 0 0.058512066010101879 0.018046023788398095 0 0.058346587398561002 0.018012398332414418 0 0.058380898209396084 0.017907709218275249 0 0.058255336054949848 0.017442096254804366 0 0.058512066010101879 0.018046023788398095 0 0.058512066010101879 0.018046023788398095 0 0.058346587398561002 0.018012398332414418 0 0.058366799522998364 0.0183116318755496 0 0.058346587398561002 0.018012398332414418 0 0.058375828773337614 0.01839410173931454 0 0.058366799522998364 0.0183116318755496 0 0.058375828773337614 0.01839410173931454 0 0.058366799522998364 0.0183116318755496 0 0.058366586652675807 0.018445220911612038 0 0.047275714610261373 0.027548014569518602 0 0.046814101341636771 0.026951548712968159 0 0.04627238241208035 0.027638716183544219 0 0.051572136678729993 0.020846258852062326 0 0.052384625428940824 0.023250295616007065 0 0.058643433938471108 0.017963217267757712 0 0.058346587398561002 0.018012398332414418 0 0.058375828773337614 0.01839410173931454 0 0.049219962076697127 0.022241994184682572 0 0.051572136678729993 0.020846258852062326 0 0.047275714610261373 0.027548014569518602 0 0.04627238241208035 0.027638716183544219 0 0.046835900374082431 0.028393010463476556 0 0.04627238241208035 0.027638716183544219 0 0.046835900374082431 0.028393010463476556 0 0.045737596276049536 0.028326037267430017 0 0.058375828773337614 0.01839410173931454 0 0.058372937691563362 0.018425976633983269 0 0.058366586652675807 0.018445220911612038 0 0.052384625428940824 0.023250295616007065 0 0.053043132621747417 0.025969448488999538 0 0.046835900374082431 0.028393010463476556 0 0.045737596276049536 0.028326037267430017 0 0.046335119002934168 0.028996217621553758 0 0.045737596276049536 0.028326037267430017 0 0.045761376068028818 0.029349426707043949 0 0.046335119002934168 0.028996217621553758 0 0.046835900374082431 0.028393010463476556 0 0.046335119002934168 0.028996217621553758 0 0.047137146248163848 0.029436827847373885 0 0.055069341212610028 0.026658962559211019 0 0.052721227428145383 0.031407880869991404 0 0.057149599419062239 0.03549376546671594 0 0.059274352794727626 0.032130925115668361 0 0.05595856527132953 0.03348313133588602 0 0.057149599419062239 0.03549376546671594 0 0.059274352794727626 0.032130925115668361 0 0.059664521466013636 0.036013656311711613 0 0.058372937691563362 0.018425976633983269 0 0.058438546462628367 0.018416258103821963 0 0.058396369568639472 0.018428074169379891 0 0.053043132621747417 0.025969448488999538 0 0.052721227428145383 0.031407880869991404 0 0.045737596276049536 0.028326037267430017 0 0.045761376068028818 0.029349426707043949 0 0.045203188986070314 0.029014065908621992 0 0.058372937691563362 0.018425976633983269 0 0.058438546462628367 0.018416258103821963 0 0.058366586652675807 0.018445220911612038 0 0.055069341212610028 0.026658962559211019 0 0.056125645298406988 0.023785995194281425 0 0.059274352794727626 0.032130925115668361 0 0.059625791367839229 0.027421055329385501 0 0.056572096229074449 0.030396453232607121 0 0.058588421347220448 0.018597443931687198 0 0.058366586652675807 0.018445220911612038 0 0.058410991446317728 0.018622794004898208 0 0.058438546462628367 0.018416258103821963 0 0.058588421347220448 0.018597443931687198 0 0.058366586652675807 0.018445220911612038 0 0.058366799522998364 0.0183116318755496 0 0.058366586652675807 0.018445220911612038 0 0.058410991446317728 0.018622794004898208 0 0.058366799522998364 0.0183116318755496 0 0.058410991446317728 0.018622794004898208 0 0.058568129985794734 0.018627257772259358 0 0.058410991446317728 0.018622794004898208 0 0.058568129985794734 0.018627257772259358 0 0.058417553678066197 0.01902553636069455 0 0.058512066010101879 0.018046023788398095 0 0.058366799522998364 0.0183116318755496 0 0.058568129985794734 0.018627257772259358 0 0.056125645298406988 0.023785995194281425 0 0.056297327330053146 0.022390391049719675 0 0.058588421347220448 0.018597443931687198 0 0.058417553678066197 0.01902553636069455 0 0.05813319059264898 0.019868299710859839 0 0.058588421347220448 0.018597443931687198 0 0.058410991446317728 0.018622794004898208 0 0.058417553678066197 0.01902553636069455 0 0.058497048961056661 0.019106397276675235 0 0.058568129985794734 0.018627257772259358 0 0.058417553678066197 0.01902553636069455 0 0.058497048961056661 0.019106397276675235 0 0.058417553678066197 0.01902553636069455 0 0.05813319059264898 0.019868299710859839 0 0.05690904263531163 0.025164760297183078 0 0.05813319059264898 0.019868299710859839 0 0.056519468673960377 0.019858604953710956 0 0.059625791367839229 0.027421055329385501 0 0.05690904263531163 0.025164760297183078 0 0.05813319059264898 0.019868299710859839 0 0.05690904263531163 0.025164760297183078 0 0.052725333229563923 0.029416060612980317 0 0.056519468673960377 0.019858604953710956 0 0.063493344887796774 0.023623912208215355 0 0.064168276543342326 0.020696900969226412 0 0.072169726278461577 0.019848404812015892 0 0.072239180693455654 0.020345587341314576 0 0.072187694569684949 0.019334580007012533 0 0.059625791367839229 0.027421055329385501 0 0.05690904263531163 0.025164760297183078 0 0.056572096229074449 0.030396453232607121 0 0.05690904263531163 0.025164760297183078 0 0.052725333229563923 0.029416060612980317 0 0.056572096229074449 0.030396453232607121 0 0.056572096229074449 0.030396453232607121 0 0.054714097623208745 0.032197328433257955 0 0.05595856527132953 0.03348313133588602 0 0.059274352794727626 0.032130925115668361 0 0.056572096229074449 0.030396453232607121 0 0.05595856527132953 0.03348313133588602 0 0.052725333229563923 0.029416060612980317 0 0.056572096229074449 0.030396453232607121 0 0.054714097623208745 0.032197328433257955 0 0.052725333229563923 0.029416060612980317 0 0.054434437973744705 0.032502748232206773 0 0.054714097623208745 0.032197328433257955 0 0.052725333229563923 0.029416060612980317 0 0.054434437973744705 0.032502748232206773 0 0.056499634982167798 0.03379129776839529 0 0.054434437973744705 0.032502748232206773 0 0.054714097623208745 0.032197328433257955 0 0.053494644033752967 0.033729103207181269 0 0.054434437973744705 0.032502748232206773 0 0.053494644033752967 0.033729103207181269 0 0.056499634982167798 0.03379129776839529 0 0.057149599419062239 0.03549376546671594 0 0.05595856527132953 0.03348313133588602 0 0.054898061401958284 0.036727495282317037 0 0.053494644033752967 0.033729103207181269 0 0.05595856527132953 0.03348313133588602 0 0.054898061401958284 0.036727495282317037 0 0.054714097623208745 0.032197328433257955 0 0.053494644033752967 0.033729103207181269 0 0.05595856527132953 0.03348313133588602 0 0.070229532339646475 0.02349799783290139 0 0.069944334001245181 0.024133263324261946 0 0.067886257365133221 0.022862960802005047 0 0.070428424569486045 0.020761620844977569 0 0.063251039917777974 0.022695628645991086 0 0.065499835100802831 0.024427189008529818 0 0.067886257365133221 0.022862960802005047 0 0.063251039917777974 0.022695628645991086 0 0.065499835100802831 0.024427189008529818 0 0.063251039917777974 0.022695628645991086 0 0.063309740869960149 0.0253615835068117 0 0.067886257365133221 0.022862960802005047 0 0.071044793262169406 0.021362872413807223 0 0.062946111014943573 0.027426858483676368 0 0.053494644033752967 0.033729103207181269 0 0.056499634982167798 0.03379129776839529 0 0.060739637913453604 0.027753561073832898 0 0.067886257365133221 0.022862960802005047 0 0.071044793262169406 0.021362872413807223 0 0.070428424569486045 0.020761620844977569 0 0.072239180693455654 0.020345587341314576 0 0.071044793262169406 0.021362872413807223 0 0.071551384465617471 0.02056582763191072 0 0.071044793262169406 0.021362872413807223 0 0.070428424569486045 0.020761620844977569 0 0.071551384465617471 0.02056582763191072 0 0.063493344887796774 0.023623912208215355 0 0.063483287307477196 0.025401473886158321 0 0.070428424569486045 0.020761620844977569 0 0.072131214974535687 0.020668364446043589 0 0.07302725975543195 0.019253242968655212 0 0.070428424569486045 0.020761620844977569 0 0.072131214974535687 0.020668364446043589 0 0.071551384465617471 0.02056582763191072 0 0.072131214974535687 0.020668364446043589 0 0.072636178178890148 0.020944059378703962 0 0.073518074233850622 0.021073173163525014 0 0.072131214974535687 0.020668364446043589 0 0.072636178178890148 0.020944059378703962 0 0.071551384465617471 0.02056582763191072 0 0.072636178178890148 0.020944059378703962 0 0.071551384465617471 0.02056582763191072 0 0.072144278688821853 0.020387606966412515 0 0.072239180693455654 0.020345587341314576 0 0.071551384465617471 0.02056582763191072 0 0.072144278688821853 0.020387606966412515 0 0.072169726278461577 0.019848404812015892 0 0.072144278688821853 0.020387606966412515 0 0.072529073235827329 0.020020225786653124 0 0.072169726278461577 0.019848404812015892 0 0.072239180693455654 0.020345587341314576 0 0.072144278688821853 0.020387606966412515 0 0.072636178178890148 0.020944059378703962 0 0.072144278688821853 0.020387606966412515 0 0.07305237988017832 0.020751633213992725 0 0.072636178178890148 0.020944059378703962 0 0.07305237988017832 0.020751633213992725 0 0.073961246564072214 0.021592603136983378 0 0.072144278688821853 0.020387606966412515 0 0.07305237988017832 0.020751633213992725 0 0.072529073235827329 0.020020225786653124 0 0.07305237988017832 0.020751633213992725 0 0.073123235258493222 0.020035030033538122 0 0.072529073235827329 0.020020225786653124 0 0.073123235258493222 0.020035030033538122 0 0.072371302361303499 0.019395126613046272 0 0.072529073235827329 0.020020225786653124 0 0.073123235258493222 0.020035030033538122 0 0.072371302361303499 0.019395126613046272 0 0.072398546525495017 0.018959612967793523 0 0.073123235258493222 0.020035030033538122 0 0.072398546525495017 0.018959612967793523 0 0.073263133225239252 0.019403900444380697 0 0.072371302361303499 0.019395126613046272 0 0.071880401024798882 0.018673898008744007 0 0.072398546525495017 0.018959612967793523 0 0.072371302361303499 0.019395126613046272 0 0.072529073235827329 0.020020225786653124 0 0.072076408171559442 0.019340402404616566 0 0.072169726278461577 0.019848404812015892 0 0.072529073235827329 0.020020225786653124 0 0.072076408171559442 0.019340402404616566 0 0.072076408171559442 0.019340402404616566 0 0.072187694569684949 0.019334580007012533 0 0.07167203416389839 0.018577832549055425 0 0.072169726278461577 0.019848404812015892 0 0.072076408171559442 0.019340402404616566 0 0.072187694569684949 0.019334580007012533 0 0.064421831989340192 0.018982238355411126 0 0.064168276543342326 0.020696900969226412 0 0.058762043520801971 0.017864476801723379 0 0.05813319059264898 0.019868299710859839 0 0.056519468673960377 0.019858604953710956 0 0.071003283750702667 0.017857595467274348 0 0.072187694569684949 0.019334580007012533 0 0.07167203416389839 0.018577832549055425 0 0.072076408171559442 0.019340402404616566 0 0.07167203416389839 0.018577832549055425 0 0.071880401024798882 0.018673898008744007 0 0.072371302361303499 0.019395126613046272 0 0.072076408171559442 0.019340402404616566 0 0.071880401024798882 0.018673898008744007 0 0.07167203416389839 0.018577832549055425 0 0.071880401024798882 0.018673898008744007 0 0.070989180170400124 0.017781110519727437 0 0.071880401024798882 0.018673898008744007 0 0.070989180170400124 0.017781110519727437 0 0.071817099506188461 0.018383943249282112 0 0.071003283750702667 0.017857595467274348 0 0.07167203416389839 0.018577832549055425 0 0.070989180170400124 0.017781110519727437 0 0.071438385111834091 0.018143505740517329 0 0.070989180170400124 0.017781110519727437 0 0.071817099506188461 0.018383943249282112 0 0.071438385111834091 0.018143505740517329 0 0.071817099506188461 0.018383943249282112 0 0.072442411109300719 0.01865316099268554 0 0.072442411109300719 0.01865316099268554 0 0.072398546525495017 0.018959612967793523 0 0.073263133225239252 0.019403900444380697 0 0.071817099506188461 0.018383943249282112 0 0.072442411109300719 0.01865316099268554 0 0.072398546525495017 0.018959612967793523 0 0.071880401024798882 0.018673898008744007 0 0.071817099506188461 0.018383943249282112 0 0.072398546525495017 0.018959612967793523 0 0.074259236629813097 0.01977523363118085 0 0.073516101690246152 0.01901666140557353 0 0.074285649182022809 0.019145933987695932 0 0.074259236629813097 0.01977523363118085 0 0.073263133225239252 0.019403900444380697 0 0.073516101690246152 0.01901666140557353 0 0.072442411109300719 0.01865316099268554 0 0.073263133225239252 0.019403900444380697 0 0.073516101690246152 0.01901666140557353 0 0.072890428458093695 0.018575493699844379 0 0.072442411109300719 0.01865316099268554 0 0.073516101690246152 0.01901666140557353 0 0.07371883189965682 0.018453423472378775 0 0.073516101690246152 0.01901666140557353 0 0.074285649182022809 0.019145933987695932 0 0.074623754272294951 0.01831139421096627 0 0.074285649182022809 0.019145933987695932 0 0.074746666828787417 0.019240607059265873 0 0.074623754272294951 0.01831139421096627 0 0.07371883189965682 0.018453423472378775 0 0.074285649182022809 0.019145933987695932 0 0.074623754272294951 0.01831139421096627 0 0.074746666828787417 0.019240607059265873 0 0.074704907708920534 0.018698962231639825 0 0.074746666828787417 0.019240607059265873 0 0.075175530020291037 0.020695210080498933 0 0.074795038429009628 0.019538549888612679 0 0.074746666828787417 0.019240607059265873 0 0.074752014936246836 0.019968373087983202 0 0.075175530020291037 0.020695210080498933 0 0.074746666828787417 0.019240607059265873 0 0.074795038429009628 0.019538549888612679 0 0.074704907708920534 0.018698962231639825 0 0.074285649182022809 0.019145933987695932 0 0.074746666828787417 0.019240607059265873 0 0.074752014936246836 0.019968373087983202 0 0.074259236629813097 0.01977523363118085 0 0.074285649182022809 0.019145933987695932 0 0.074752014936246836 0.019968373087983202 0 0.074752014936246836 0.019968373087983202 0 0.075001883140944997 0.020939880121951405 0 0.075175530020291037 0.020695210080498933 0 0.074259236629813097 0.01977523363118085 0 0.074752014936246836 0.019968373087983202 0 0.075001883140944997 0.020939880121951405 0 0.075175530020291037 0.020695210080498933 0 0.075533120862071645 0.022292961034504798 0 0.07504773307568767 0.02076221417052803 0 0.075175530020291037 0.020695210080498933 0 0.075625871436686115 0.022222052572526671 0 0.075533120862071645 0.022292961034504798 0 0.075001883140944997 0.020939880121951405 0 0.075175530020291037 0.020695210080498933 0 0.075625871436686115 0.022222052572526671 0 0.075001883140944997 0.020939880121951405 0 0.075625871436686115 0.022222052572526671 0 0.074936658096311212 0.021550818720415844 0 0.075001883140944997 0.020939880121951405 0 0.074936658096311212 0.021550818720415844 0 0.074165266703979729 0.020471367937338787 0 0.074936658096311212 0.021550818720415844 0 0.074165266703979729 0.020471367937338787 0 0.074082049721809373 0.021134219120562812 0 0.074259236629813097 0.01977523363118085 0 0.075001883140944997 0.020939880121951405 0 0.074165266703979729 0.020471367937338787 0 0.074259236629813097 0.01977523363118085 0 0.073263133225239252 0.019403900444380697 0 0.074165266703979729 0.020471367937338787 0 0.073123235258493222 0.020035030033538122 0 0.073263133225239252 0.019403900444380697 0 0.074165266703979729 0.020471367937338787 0 0.073123235258493222 0.020035030033538122 0 0.074165266703979729 0.020471367937338787 0 0.074082049721809373 0.021134219120562812 0 0.07305237988017832 0.020751633213992725 0 0.073123235258493222 0.020035030033538122 0 0.074082049721809373 0.021134219120562812 0 0.074082049721809373 0.021134219120562812 0 0.073961246564072214 0.021592603136983378 0 0.074881834162892888 0.02198224276873811 0 0.07305237988017832 0.020751633213992725 0 0.074082049721809373 0.021134219120562812 0 0.073961246564072214 0.021592603136983378 0 0.074881834162892888 0.02198224276873811 0 0.075442623405839335 0.022408408435088414 0 0.075720062624231768 0.022848792897730195 0 0.074936658096311212 0.021550818720415844 0 0.074881834162892888 0.02198224276873811 0 0.075720062624231768 0.022848792897730195 0 0.074936658096311212 0.021550818720415844 0 0.074082049721809373 0.021134219120562812 0 0.074881834162892888 0.02198224276873811 0 0.073961246564072214 0.021592603136983378 0 0.074881834162892888 0.02198224276873811 0 0.075442623405839335 0.022408408435088414 0 0.072636178178890148 0.020944059378703962 0 0.073961246564072214 0.021592603136983378 0 0.073518074233850622 0.021073173163525014 0 0.073961246564072214 0.021592603136983378 0 0.075442623405839335 0.022408408435088414 0 0.073518074233850622 0.021073173163525014 0 0.072131214974535687 0.020668364446043589 0 0.073518074233850622 0.021073173163525014 0 0.07302725975543195 0.019253242968655212 0 0.073518074233850622 0.021073173163525014 0 0.074865638332345552 0.02029542974816529 0 0.07302725975543195 0.019253242968655212 0 0.075442623405839335 0.022408408435088414 0 0.073518074233850622 0.021073173163525014 0 0.074865638332345552 0.02029542974816529 0 0.075442623405839335 0.022408408435088414 0 0.074865638332345552 0.02029542974816529 0 0.076836396734972473 0.020180143605475782 0 0.076186569769523024 0.024750438339255103 0 0.076014144374094594 0.025478040322698254 0 0.074865638332345552 0.02029542974816529 0 0.07555930518653213 0.018635065129175076 0 0.076836396734972473 0.020180143605475782 0 0.070623010206257039 0.025991748562609215 0 0.069944334001245181 0.024133263324261946 0 0.074865638332345552 0.02029542974816529 0 0.07555930518653213 0.018635065129175076 0 0.07302725975543195 0.019253242968655212 0 0.06159952513572952 0.02414631954535696 0 0.063251039917777974 0.022695628645991086 0 0.062357602405020467 0.025170157275248017 0 0.063251039917777974 0.022695628645991086 0 0.063309740869960149 0.0253615835068117 0 0.062357602405020467 0.025170157275248017 0 0.073867272187770644 0.029706921903638932 0 0.075873033748553934 0.030153921792151189 0 0.081564851969793781 0.034390030726625533 0 0.084959347516517611 0.033395998909585591 0 0.077827415941367356 0.028246810432236941 0 0.076588733174873302 0.025285267407168958 0 0.076694217478042712 0.026175374063642138 0 0.077827415941367356 0.028246810432236941 0 0.075059881036483159 0.02967024173410068 0 0.073867272187770644 0.029706921903638932 0 0.070623010206257039 0.025991748562609215 0 0.073867272187770644 0.029706921903638932 0 0.076588733174873302 0.025285267407168958 0 0.076343722382987519 0.02533996606858481 0 0.076694217478042712 0.026175374063642138 0 0.073867272187770644 0.029706921903638932 0 0.076014144374094594 0.025478040322698254 0 0.07555930518653213 0.018635065129175076 0 0.078246988121350489 0.018248096776039429 0 0.076836396734972473 0.020180143605475782 0 0.075442623405839335 0.022408408435088414 0 0.076343722382987519 0.02533996606858481 0 0.076247214464330082 0.024450911140564368 0 0.076343722382987519 0.02533996606858481 0 0.076694217478042712 0.026175374063642138 0 0.076247214464330082 0.024450911140564368 0 0.076694217478042712 0.026175374063642138 0 0.076762156754586905 0.025995345629249943 0 0.077827415941367356 0.028246810432236941 0 0.076694217478042712 0.026175374063642138 0 0.076762156754586905 0.025995345629249943 0 0.076247214464330082 0.024450911140564368 0 0.076762156754586905 0.025995345629249943 0 0.076201355710714944 0.024097837749557923 0 0.076481161757065971 0.026145315211849315 0 0.076762156754586905 0.025995345629249943 0 0.076247214464330082 0.024450911140564368 0 0.076201355710714944 0.024097837749557923 0 0.076247214464330082 0.024450911140564368 0 0.075720062624231768 0.022848792897730195 0 0.076201355710714944 0.024097837749557923 0 0.075442623405839335 0.022408408435088414 0 0.076247214464330082 0.024450911140564368 0 0.075720062624231768 0.022848792897730195 0 0.075625871436686115 0.022222052572526671 0 0.075720062624231768 0.022848792897730195 0 0.076201355710714944 0.024097837749557923 0 0.075625871436686115 0.022222052572526671 0 0.074936658096311212 0.021550818720415844 0 0.075720062624231768 0.022848792897730195 0 0.075625871436686115 0.022222052572526671 0 0.076201355710714944 0.024097837749557923 0 0.075533120862071645 0.022292961034504798 0 0.076201355710714944 0.024097837749557923 0 0.075479789063413918 0.024461524066939518 0 0.076481161757065971 0.026145315211849315 0 0.076201355710714944 0.024097837749557923 0 0.075479789063413918 0.024461524066939518 0 0.075533120862071645 0.022292961034504798 0 0.075479789063413918 0.024461524066939518 0 0.0755985348814565 0.027709029977385013 0 0.07318043644105976 0.024822000886010036 0 0.075479789063413918 0.024461524066939518 0 0.07318043644105976 0.024822000886010036 0 0.074428562837178885 0.023206066642234013 0 0.0755985348814565 0.027709029977385013 0 0.076481161757065971 0.026145315211849315 0 0.077827415941367356 0.028246810432236941 0 0.075479789063413918 0.024461524066939518 0 0.0755985348814565 0.027709029977385013 0 0.076481161757065971 0.026145315211849315 0 0.076762156754586905 0.025995345629249943 0 0.076481161757065971 0.026145315211849315 0 0.077827415941367356 0.028246810432236941 0 0.077827415941367356 0.028246810432236941 0 0.075702346004849555 0.030638969966850661 0 0.076583793074160286 0.032745655580664362 0 0.0755985348814565 0.027709029977385013 0 0.075702346004849555 0.030638969966850661 0 0.07447371484622603 0.030424784488934657 0 0.0755985348814565 0.027709029977385013 0 0.077827415941367356 0.028246810432236941 0 0.075702346004849555 0.030638969966850661 0 0.076583793074160286 0.032745655580664362 0 0.075022213780229691 0.03327237964547447 0 0.075637035476331577 0.035523526899407534 0 0.075702346004849555 0.030638969966850661 0 0.076583793074160286 0.032745655580664362 0 0.075022213780229691 0.03327237964547447 0 0.076583793074160286 0.032745655580664362 0 0.075637035476331577 0.035523526899407534 0 0.076698610685511745 0.035818696590545367 0 0.076583793074160286 0.032745655580664362 0 0.07794788587976044 0.035146328045296361 0 0.076698610685511745 0.035818696590545367 0 0.077827415941367356 0.028246810432236941 0 0.076583793074160286 0.032745655580664362 0 0.078504466395800179 0.033328725893075548 0 0.081564851969793781 0.034390030726625533 0 0.077827415941367356 0.028246810432236941 0 0.078504466395800179 0.033328725893075548 0 0.076583793074160286 0.032745655580664362 0 0.078504466395800179 0.033328725893075548 0 0.07794788587976044 0.035146328045296361 0 0.075078313774444516 0.03627066806154236 0 0.075022213780229691 0.03327237964547447 0 0.074992333836673336 0.035024699766693798 0 0.075078313774444516 0.03627066806154236 0 0.074992333836673336 0.035024699766693798 0 0.075000570027830213 0.037772870488490026 0 0.075078313774444516 0.03627066806154236 0 0.075022213780229691 0.03327237964547447 0 0.075637035476331577 0.035523526899407534 0 0.075022213780229691 0.03327237964547447 0 0.07447371484622603 0.030424784488934657 0 0.074992333836673336 0.035024699766693798 0 0.075702346004849555 0.030638969966850661 0 0.075022213780229691 0.03327237964547447 0 0.07447371484622603 0.030424784488934657 0 0.075000009654284494 0.035029254082067619 0 0.076641293333541083 0.031912911002749074 0 0.074999977701893525 0.032554322716706677 0 0.07499963995138359 0.035022861144187289 0 0.075653538193964573 0.030596028443973584 0 0.07447371484622603 0.030424784488934657 0 0.074992333836673336 0.035024699766693798 0 0.073003802509489735 0.029331682072865229 0 0.076641293333541083 0.031912911002749074 0 0.074999977701893525 0.032554322716706677 0 0.075000010453399601 0.030079520641208383 0 0.0755985348814565 0.027709029977385013 0 0.07447371484622603 0.030424784488934657 0 0.07318043644105976 0.024822000886010036 0 0.07447371484622603 0.030424784488934657 0 0.073003802509489735 0.029331682072865229 0 0.07318043644105976 0.024822000886010036 0 0.075653538193964573 0.030596028443973584 0 0.076026863645320006 0.027217593392801352 0 0.076641293333541083 0.031912911002749074 0 0.075000010453399601 0.030079520641208383 0 0.076393699053338343 0.028966017053566474 0 0.076641293333541083 0.031912911002749074 0 0.078238185933880308 0.028838187063861046 0 0.076393699053338343 0.028966017053566474 0 0.07499917934271183 0.030095452682540814 0 0.076142041451081 0.027540355361800408 0 0.075000010453399601 0.030079520641208383 0 0.076393699053338343 0.028966017053566474 0 0.075215369708573898 0.027644726646905832 0 0.078238185933880308 0.028838187063861046 0 0.076393699053338343 0.028966017053566474 0 0.077097353650890654 0.027213508989107092 0 0.075215369708573898 0.027644726646905832 0 0.077097353650890654 0.027213508989107092 0 0.075419824939171945 0.025228235117298554 0 0.076142041451081 0.027540355361800408 0 0.075108422653360804 0.024834848039100497 0 0.074792430957014808 0.027588392229010692 0 0.074999799098742839 0.025041428467633468 0 0.075394603160591087 0.025097766167976873 0 0.076393699053338343 0.028966017053566474 0 0.075215369708573898 0.027644726646905832 0 0.077097353650890654 0.027213508989107092 0 0.077097353650890654 0.027213508989107092 0 0.075419824939171945 0.025228235117298554 0 0.077625635120825265 0.025527208108177935 0 0.073819737469915589 0.019683090086539751 0 0.07417347956855741 0.019383272916798304 0 0.074054961092500371 0.018880795969068644 0 0.075108422653360804 0.024834848039100497 0 0.075161930478352901 0.021784027574830049 0 0.075000425384016689 0.02504189954541184 0 0.075415956121973229 0.025097817898952209 0 0.075740474205050076 0.021928961292486959 0 0.075001226643949398 0.025037694213116003 0 0.075108422653360804 0.024834848039100497 0 0.075108422653360804 0.024834848039100497 0 0.075605562803014559 0.02468842048279218 0 0.073819737469915589 0.019683090086539751 0 0.07417347956855741 0.019383272916798304 0 0.074215298407436042 0.01974764374350756 0 0.074255847309298503 0.01975738937757715 0 0.074273804350016098 0.019676635193315015 0 0.074304030039633415 0.019314365474845597 0 0.07417347956855741 0.019383272916798304 0 0.074255847309298503 0.01975738937757715 0 0.074304030039633415 0.019314365474845597 0 0.07417347956855741 0.019383272916798304 0 0.074255847309298503 0.01975738937757715 0 0.074215298407436042 0.01974764374350756 0 0.075605562803014559 0.02468842048279218 0 0.076015008820963209 0.024933705481477671 0 0.074255847309298503 0.01975738937757715 0 0.074215298407436042 0.01974764374350756 0 0.074228455657625037 0.019901178034127529 0 0.077097353650890654 0.027213508989107092 0 0.077625635120825265 0.025527208108177935 0 0.079827382771798433 0.02582200755563396 0 0.078238185933880308 0.028838187063861046 0 0.077097353650890654 0.027213508989107092 0 0.079827382771798433 0.02582200755563396 0 0.076026863645320006 0.027217593392801352 0 0.076015008820963209 0.024933705481477671 0 0.075479789063413918 0.024461524066939518 0 0.074428562837178885 0.023206066642234013 0 0.074867216907511511 0.021602325468161643 0 0.07318043644105976 0.024822000886010036 0 0.074428562837178885 0.023206066642234013 0 0.073786807497614931 0.021861384262316066 0 0.074428562837178885 0.023206066642234013 0 0.074867216907511511 0.021602325468161643 0 0.073786807497614931 0.021861384262316066 0 0.07560882897715672 0.024603155795785401 0 0.076015008820963209 0.024933705481477671 0 0.075479789063413918 0.024461524066939518 0 0.075533120862071645 0.022292961034504798 0 0.074867216907511511 0.021602325468161643 0 0.075533120862071645 0.022292961034504798 0 0.074867216907511511 0.021602325468161643 0 0.07504773307568767 0.02076221417052803 0 0.074867216907511511 0.021602325468161643 0 0.07504773307568767 0.02076221417052803 0 0.074703737101739956 0.020054284143981877 0 0.07504773307568767 0.02076221417052803 0 0.074703737101739956 0.020054284143981877 0 0.074795038429009628 0.019538549888612679 0 0.075175530020291037 0.020695210080498933 0 0.07504773307568767 0.02076221417052803 0 0.074795038429009628 0.019538549888612679 0 0.074255847309298503 0.01975738937757715 0 0.074139849633594712 0.020152979282183993 0 0.074228455657625037 0.019901178034127529 0 0.076064150901457128 0.024678144473179866 0 0.076015008820963209 0.024933705481477671 0 0.074867216907511511 0.021602325468161643 0 0.074139849633594712 0.020152979282183993 0 0.073779403509588712 0.020820653044174131 0 0.074867216907511511 0.021602325468161643 0 0.074703737101739956 0.020054284143981877 0 0.074139849633594712 0.020152979282183993 0 0.074703737101739956 0.020054284143981877 0 0.074139849633594712 0.020152979282183993 0 0.074402326632779417 0.01981140920020745 0 0.074255847309298503 0.01975738937757715 0 0.074139849633594712 0.020152979282183993 0 0.074273804350016098 0.019676635193315015 0 0.074139849633594712 0.020152979282183993 0 0.074402326632779417 0.01981140920020745 0 0.074273804350016098 0.019676635193315015 0 0.074434725126806434 0.019265788424645821 0 0.074795038429009628 0.019538549888612679 0 0.074599471574188114 0.018595299552616736 0 0.074402326632779417 0.01981140920020745 0 0.074273804350016098 0.019676635193315015 0 0.074434725126806434 0.019265788424645821 0 0.074273804350016098 0.019676635193315015 0 0.074434725126806434 0.019265788424645821 0 0.074304030039633415 0.019314365474845597 0 0.074703737101739956 0.020054284143981877 0 0.074402326632779417 0.01981140920020745 0 0.074434725126806434 0.019265788424645821 0 0.074434725126806434 0.019265788424645821 0 0.074599471574188114 0.018595299552616736 0 0.074541399184934021 0.018521337464897786 0 0.074703737101739956 0.020054284143981877 0 0.074434725126806434 0.019265788424645821 0 0.074795038429009628 0.019538549888612679 0 0.074795038429009628 0.019538549888612679 0 0.074704907708920534 0.018698962231639825 0 0.074599471574188114 0.018595299552616736 0 0.074591541533919128 0.0178575111323328 0 0.074623754272294951 0.01831139421096627 0 0.074704907708920534 0.018698962231639825 0 0.074591541533919128 0.0178575111323328 0 0.074704907708920534 0.018698962231639825 0 0.074599471574188114 0.018595299552616736 0 0.074599471574188114 0.018595299552616736 0 0.074650758256165753 0.018003320602929054 0 0.074541399184934021 0.018521337464897786 0 0.074591541533919128 0.0178575111323328 0 0.074599471574188114 0.018595299552616736 0 0.074650758256165753 0.018003320602929054 0 0.074650758256165753 0.018003320602929054 0 0.074729475277293331 0.017942106041503633 0 0.074541399184934021 0.018521337464897786 0 0.074729475277293331 0.017942106041503633 0 0.074541399184934021 0.018521337464897786 0 0.074533955992240775 0.018516677843902613 0 0.074541399184934021 0.018521337464897786 0 0.074533955992240775 0.018516677843902613 0 0.074419871050281569 0.018849246641398771 0 0.075143615749517473 0.018414910968395579 0 0.074533955992240775 0.018516677843902613 0 0.074054961092500371 0.018880795969068644 0 0.07519569677018878 0.020747985816237723 0 0.075161930478352901 0.021784027574830049 0 0.075143615749517473 0.018414910968395579 0 0.074729475277293331 0.017942106041503633 0 0.074533955992240775 0.018516677843902613 0 0.075143615749517473 0.018414910968395579 0 0.074999334843315432 0.020606839568927091 0 0.075740474205050076 0.021928961292486959 0 0.074533955992240775 0.018516677843902613 0 0.074054961092500371 0.018880795969068644 0 0.074313627650706773 0.018981548409262899 0 0.075000425384016689 0.02504189954541184 0 0.074999334843315432 0.020606839568927091 0 0.075740474205050076 0.021928961292486959 0 0.07417347956855741 0.019383272916798304 0 0.074054961092500371 0.018880795969068644 0 0.074313627650706773 0.018981548409262899 0 0.07417347956855741 0.019383272916798304 0 0.074304030039633415 0.019314365474845597 0 0.074313627650706773 0.018981548409262899 0 0.074434725126806434 0.019265788424645821 0 0.074304030039633415 0.019314365474845597 0 0.074419871050281569 0.018849246641398771 0 0.074434725126806434 0.019265788424645821 0 0.074541399184934021 0.018521337464897786 0 0.074419871050281569 0.018849246641398771 0 0.074533955992240775 0.018516677843902613 0 0.074419871050281569 0.018849246641398771 0 0.074313627650706773 0.018981548409262899 0 0.074304030039633415 0.019314365474845597 0 0.074419871050281569 0.018849246641398771 0 0.074313627650706773 0.018981548409262899 0 0.077789121526657512 0.054146890194635658 0 0.079886101523322747 0.05223457373511739 0 0.077394771053569025 0.050783271310796907 0 0.077789121526657512 0.054146890194635658 0 0.074999663750953321 0.053776493534259243 0 0.077394771053569025 0.050783271310796907 0 0.074999663750953321 0.053776493534259243 0 0.077600235948692919 0.057032213087528039 0 0.074999981774966015 0.058196158968334209 0 0.077789121526657512 0.054146890194635658 0 0.074999663750953321 0.053776493534259243 0 0.077600235948692919 0.057032213087528039 0 0.077789121526657512 0.054146890194635658 0 0.080010644608825857 0.056525880810252831 0 0.077600235948692919 0.057032213087528039 0 0.080010644608825857 0.056525880810252831 0 0.080683138156240286 0.055787958657511356 0 0.081256235147656466 0.057033140075159354 0 0.077789121526657512 0.054146890194635658 0 0.080010644608825857 0.056525880810252831 0 0.079886101523322747 0.05223457373511739 0 0.080010644608825857 0.056525880810252831 0 0.080683138156240286 0.055787958657511356 0 0.079854212596859736 0.055781867245674251 0 0.079694622143842472 0.054627204598362719 0 0.079416942310167674 0.053442699633539967 0 0.079854212596859736 0.055781867245674251 0 0.080238088540568617 0.055183280020507895 0 0.079553158727184339 0.054759833454646099 0 0.080683138156240286 0.055787958657511356 0 0.079854212596859736 0.055781867245674251 0 0.080238088540568617 0.055183280020507895 0 0.079416942310167674 0.053442699633539967 0 0.0786925718658011 0.050894197494877176 0 0.080683138156240286 0.055787958657511356 0 0.080238088540568617 0.055183280020507895 0 0.080830419579470764 0.054876004996412424 0 0.080683138156240286 0.055787958657511356 0 0.080830419579470764 0.054876004996412424 0 0.081288017532933424 0.055388140475074274 0 0.077887793631708016 0.046354141356174584 0 0.075279239624817348 0.045021218301609489 0 0.080238088540568617 0.055183280020507895 0 0.080830419579470764 0.054876004996412424 0 0.080429933447689686 0.054237152863765035 0 0.080830419579470764 0.054876004996412424 0 0.080429933447689686 0.054237152863765035 0 0.081516878712507582 0.054771591399345038 0 0.080238088540568617 0.055183280020507895 0 0.079553158727184339 0.054759833454646099 0 0.080429933447689686 0.054237152863765035 0 0.079225305708260571 0.048443337855139455 0 0.077394771053569025 0.050783271310796907 0 0.07677665501245437 0.047087458851428239 0 0.079886101523322747 0.05223457373511739 0 0.079225305708260571 0.048443337855139455 0 0.077394771053569025 0.050783271310796907 0 0.074999663750953321 0.053776493534259243 0 0.077394771053569025 0.050783271310796907 0 0.074999931132613759 0.0493560595915149 0 0.074999931132613759 0.0493560595915149 0 0.07677665501245437 0.047087458851428239 0 0.074999855088433431 0.044935713783683516 0 0.077394771053569025 0.050783271310796907 0 0.074999931132613759 0.0493560595915149 0 0.07677665501245437 0.047087458851428239 0 0.07677665501245437 0.047087458851428239 0 0.076647403162700536 0.045197018506980803 0 0.074999855088433431 0.044935713783683516 0 0.07677665501245437 0.047087458851428239 0 0.076647403162700536 0.045197018506980803 0 0.078478726684583458 0.044817009581995464 0 0.076647403162700536 0.045197018506980803 0 0.074999855088433431 0.044935713783683516 0 0.075671340166920162 0.043376789025880554 0 0.0786925718658011 0.050894197494877176 0 0.077214484030233926 0.046236792982863525 0 0.079225305708260571 0.048443337855139455 0 0.07677665501245437 0.047087458851428239 0 0.078478726684583458 0.044817009581995464 0 0.078890589055839525 0.044628496242283024 0 0.07827182035451237 0.041943415193554608 0 0.075671340166920162 0.043376789025880554 0 0.078416414678781729 0.040382212960342369 0 0.078035995237169364 0.041019256988330081 0 0.07768951898155016 0.040266636343925341 0 0.078416414678781729 0.040382212960342369 0 0.078035995237169364 0.041019256988330081 0 0.07827182035451237 0.041943415193554608 0 0.077214484030233926 0.046236792982863525 0 0.077130241886068679 0.045066769626141437 0 0.078035995237169364 0.041019256988330081 0 0.07827182035451237 0.041943415193554608 0 0.078406025018621733 0.041591655152849107 0 0.07827182035451237 0.041943415193554608 0 0.075671340166920162 0.043376789025880554 0 0.075000366572089722 0.040515262607622331 0 0.074999855088433431 0.044935713783683516 0 0.075671340166920162 0.043376789025880554 0 0.075000366572089722 0.040515262607622331 0 0.076647403162700536 0.045197018506980803 0 0.078478726684583458 0.044817009581995464 0 0.075671340166920162 0.043376789025880554 0 0.077214484030233926 0.046236792982863525 0 0.076648331503116215 0.045633021760437383 0 0.07827182035451237 0.041943415193554608 0 0.075000366572089722 0.040515262607622331 0 0.078406025018621733 0.041591655152849107 0 0.074997703794844356 0.040510517617569318 0 0.075301553905163132 0.038972350142715807 0 0.075136880028302475 0.038527147029380489 0 0.074997703794844356 0.040510517617569318 0 0.075338432223618773 0.039138476950764708 0 0.075301553905163132 0.038972350142715807 0 0.075001348814714597 0.040515700660085828 0 0.076256175114973887 0.040710401161234443 0 0.075338432223618773 0.039138476950764708 0 0.075469976808227285 0.038862258572421163 0 0.075301553905163132 0.038972350142715807 0 0.075338432223618773 0.039138476950764708 0 0.075469976808227285 0.038862258572421163 0 0.076171284565272682 0.039192988058335057 0 0.07564817106256011 0.038359945600831863 0 0.075469976808227285 0.038862258572421163 0 0.076171284565272682 0.039192988058335057 0 0.07564817106256011 0.038359945600831863 0 0.075301553905163132 0.038972350142715807 0 0.075376544632979395 0.037552745317848094 0 0.07564817106256011 0.038359945600831863 0 0.075469976808227285 0.038862258572421163 0 0.075301553905163132 0.038972350142715807 0 0.075078313774444516 0.03627066806154236 0 0.075376544632979395 0.037552745317848094 0 0.075637035476331577 0.035523526899407534 0 0.07564817106256011 0.038359945600831863 0 0.075376544632979395 0.037552745317848094 0 0.076080727380782004 0.037261297368005826 0 0.075376544632979395 0.037552745317848094 0 0.075637035476331577 0.035523526899407534 0 0.076080727380782004 0.037261297368005826 0 0.074997703794844356 0.040510517617569318 0 0.075000570027830213 0.037772870488490026 0 0.075136880028302475 0.038527147029380489 0 0.075078313774444516 0.03627066806154236 0 0.075376544632979395 0.037552745317848094 0 0.075136880028302475 0.038527147029380489 0 0.075078313774444516 0.03627066806154236 0 0.075000570027830213 0.037772870488490026 0 0.075136880028302475 0.038527147029380489 0 0.075301553905163132 0.038972350142715807 0 0.075376544632979395 0.037552745317848094 0 0.075136880028302475 0.038527147029380489 0 0.077545354808266215 0.037737207807362241 0 0.079578820689863036 0.035742292832184087 0 0.080895821457629483 0.037415178099701685 0 0.081564851969793781 0.034390030726625533 0 0.078504466395800179 0.033328725893075548 0 0.079578820689863036 0.035742292832184087 0 0.078504466395800179 0.033328725893075548 0 0.079578820689863036 0.035742292832184087 0 0.07794788587976044 0.035146328045296361 0 0.077545354808266215 0.037737207807362241 0 0.079578820689863036 0.035742292832184087 0 0.07794788587976044 0.035146328045296361 0 0.077545354808266215 0.037737207807362241 0 0.07794788587976044 0.035146328045296361 0 0.076698610685511745 0.035818696590545367 0 0.075637035476331577 0.035523526899407534 0 0.076698610685511745 0.035818696590545367 0 0.076080727380782004 0.037261297368005826 0 0.077545354808266215 0.037737207807362241 0 0.076698610685511745 0.035818696590545367 0 0.076080727380782004 0.037261297368005826 0 0.077545354808266215 0.037737207807362241 0 0.076454617342088388 0.038729155713517864 0 0.077068280712097814 0.039627398301430784 0 0.077545354808266215 0.037737207807362241 0 0.076080727380782004 0.037261297368005826 0 0.076454617342088388 0.038729155713517864 0 0.07564817106256011 0.038359945600831863 0 0.076454617342088388 0.038729155713517864 0 0.076171284565272682 0.039192988058335057 0 0.07564817106256011 0.038359945600831863 0 0.076080727380782004 0.037261297368005826 0 0.076454617342088388 0.038729155713517864 0 0.076454617342088388 0.038729155713517864 0 0.076171284565272682 0.039192988058335057 0 0.077068280712097814 0.039627398301430784 0 0.076171284565272682 0.039192988058335057 0 0.077068280712097814 0.039627398301430784 0 0.077332583186711421 0.040604852779990486 0 0.074447847442826162 0.036029630221794388 0 0.07429225053042092 0.034743595009224054 0 0.077545354808266215 0.037737207807362241 0 0.077829031601356707 0.040554019669536041 0 0.080895821457629483 0.037415178099701685 0 0.077545354808266215 0.037737207807362241 0 0.077068280712097814 0.039627398301430784 0 0.077829031601356707 0.040554019669536041 0 0.077829031601356707 0.040554019669536041 0 0.077146858590413189 0.040276822559066672 0 0.075876746623862831 0.040999322690494687 0 0.077068280712097814 0.039627398301430784 0 0.077829031601356707 0.040554019669536041 0 0.077332583186711421 0.040604852779990486 0 0.077829031601356707 0.040554019669536041 0 0.077146858590413189 0.040276822559066672 0 0.077332583186711421 0.040604852779990486 0 0.077146858590413189 0.040276822559066672 0 0.077332583186711421 0.040604852779990486 0 0.077317277262165321 0.040067082190095422 0 0.075338432223618773 0.039138476950764708 0 0.076171284565272682 0.039192988058335057 0 0.077332583186711421 0.040604852779990486 0 0.078035995237169364 0.041019256988330081 0 0.078406025018621733 0.041591655152849107 0 0.077332583186711421 0.040604852779990486 0 0.076256175114973887 0.040710401161234443 0 0.07685201135878926 0.040845948491663883 0 0.077332583186711421 0.040604852779990486 0 0.07768951898155016 0.040266636343925341 0 0.077317277262165321 0.040067082190095422 0 0.078035995237169364 0.041019256988330081 0 0.077332583186711421 0.040604852779990486 0 0.07768951898155016 0.040266636343925341 0 0.078416414678781729 0.040382212960342369 0 0.07768951898155016 0.040266636343925341 0 0.077472552134147749 0.03924987773712664 0 0.077214484030233926 0.046236792982863525 0 0.077887793631708016 0.046354141356174584 0 0.079553158727184339 0.054759833454646099 0 0.079293673700888523 0.05366350145678532 0 0.080429933447689686 0.054237152863765035 0 0.07768951898155016 0.040266636343925341 0 0.077317277262165321 0.040067082190095422 0 0.077472552134147749 0.03924987773712664 0 0.076912008821887118 0.039725409368235418 0 0.077472552134147749 0.03924987773712664 0 0.076282119245422608 0.039003231536704916 0 0.077146858590413189 0.040276822559066672 0 0.076912008821887118 0.039725409368235418 0 0.076027215085745198 0.039915489243977836 0 0.077146858590413189 0.040276822559066672 0 0.076912008821887118 0.039725409368235418 0 0.077317277262165321 0.040067082190095422 0 0.076912008821887118 0.039725409368235418 0 0.077317277262165321 0.040067082190095422 0 0.077472552134147749 0.03924987773712664 0 0.076282119245422608 0.039003231536704916 0 0.076027215085745198 0.039915489243977836 0 0.074891402889992839 0.039070402723949411 0 0.076027215085745198 0.039915489243977836 0 0.074891402889992839 0.039070402723949411 0 0.074594298058505232 0.04037393562528848 0 0.076912008821887118 0.039725409368235418 0 0.076282119245422608 0.039003231536704916 0 0.076027215085745198 0.039915489243977836 0 0.074891402889992839 0.039070402723949411 0 0.07314325051541061 0.040274949275757865 0 0.071820714976981309 0.036552436213724733 0 0.074891402889992839 0.039070402723949411 0 0.07314325051541061 0.040274949275757865 0 0.074594298058505232 0.04037393562528848 0 0.07314325051541061 0.040274949275757865 0 0.073508580447947322 0.040779249368630477 0 0.074594298058505232 0.04037393562528848 0 0.073508580447947322 0.040779249368630477 0 0.074594298058505232 0.04037393562528848 0 0.074307301501160938 0.04121892777507534 0 0.074594298058505232 0.04037393562528848 0 0.074307301501160938 0.04121892777507534 0 0.075876746623862831 0.040999322690494687 0 0.073508580447947322 0.040779249368630477 0 0.074307301501160938 0.04121892777507534 0 0.073235410565681405 0.041492240916558606 0 0.076027215085745198 0.039915489243977836 0 0.074594298058505232 0.04037393562528848 0 0.075876746623862831 0.040999322690494687 0 0.077146858590413189 0.040276822559066672 0 0.076027215085745198 0.039915489243977836 0 0.075876746623862831 0.040999322690494687 0 0.075876746623862831 0.040999322690494687 0 0.074574490518824019 0.042236467871689498 0 0.076329089101568409 0.042873887142508789 0 0.077829031601356707 0.040554019669536041 0 0.075876746623862831 0.040999322690494687 0 0.076329089101568409 0.042873887142508789 0 0.074574490518824019 0.042236467871689498 0 0.073099831341589705 0.042796932685103858 0 0.073235410565681405 0.041492240916558606 0 0.074307301501160938 0.04121892777507534 0 0.075876746623862831 0.040999322690494687 0 0.074574490518824019 0.042236467871689498 0 0.074307301501160938 0.04121892777507534 0 0.074574490518824019 0.042236467871689498 0 0.073235410565681405 0.041492240916558606 0 0.075046937181105292 0.04446734190251847 0 0.074908891049905127 0.043668909446733788 0 0.073099831341589705 0.042796932685103858 0 0.074574490518824019 0.042236467871689498 0 0.074908891049905127 0.043668909446733788 0 0.073099831341589705 0.042796932685103858 0 0.073867272187770644 0.029706921903638932 0 0.068015604756934064 0.033729391973738088 0 0.06159952513572952 0.02414631954535696 0 0.059628650096379396 0.024505445637540566 0 0.061758886377369981 0.026134339795270974 0 0.081564851969793781 0.034390030726625533 0 0.083880528322534412 0.033738881115561586 0 0.080895821457629483 0.037415178099701685 0 0.075046937181105292 0.04446734190251847 0 0.074908891049905127 0.043668909446733788 0 0.076329089101568409 0.042873887142508789 0 0.073867272187770644 0.029706921903638932 0 0.07429225053042092 0.034743595009224054 0 0.074574490518824019 0.042236467871689498 0 0.074908891049905127 0.043668909446733788 0 0.076329089101568409 0.042873887142508789 0 0.081564851969793781 0.034390030726625533 0 0.079578820689863036 0.035742292832184087 0 0.080895821457629483 0.037415178099701685 0 0.06339297375725654 0.026283234536777965 0 0.062357602405020467 0.025170157275248017 0 0.061758886377369981 0.026134339795270974 0 0.06339297375725654 0.026283234536777965 0 0.063309740869960149 0.0253615835068117 0 0.0636849377854391 0.026042975751648947 0 0.06339297375725654 0.026283234536777965 0 0.063309740869960149 0.0253615835068117 0 0.062357602405020467 0.025170157275248017 0 0.06159952513572952 0.02414631954535696 0 0.062357602405020467 0.025170157275248017 0 0.061758886377369981 0.026134339795270974 0 0.073099831341589705 0.042796932685103858 0 0.073235410565681405 0.041492240916558606 0 0.071605609698441111 0.041478384194213902 0 0.06339297375725654 0.026283234536777965 0 0.064299032379609711 0.025944200529440808 0 0.062946111014943573 0.027426858483676368 0 0.068015604756934064 0.033729391973738088 0 0.063422237229530137 0.037675545999390152 0 0.06339297375725654 0.026283234536777965 0 0.061758886377369981 0.026134339795270974 0 0.064299032379609711 0.025944200529440808 0 0.06396398633270349 0.049308103244778113 0 0.068772038432097782 0.045146644858388645 0 0.063776124640327184 0.042945829141056019 0 0.063422237229530137 0.037675545999390152 0 0.066147353735350578 0.038483495816153415 0 0.073235410565681405 0.041492240916558606 0 0.071605609698441111 0.041478384194213902 0 0.072679108423403846 0.040693995682401819 0 0.073508580447947322 0.040779249368630477 0 0.073235410565681405 0.041492240916558606 0 0.072679108423403846 0.040693995682401819 0 0.07314325051541061 0.040274949275757865 0 0.073508580447947322 0.040779249368630477 0 0.072679108423403846 0.040693995682401819 0 0.07314325051541061 0.040274949275757865 0 0.068361406410209727 0.040099089074415187 0 0.071820714976981309 0.036552436213724733 0 0.067394224005754691 0.038363633312280904 0 0.066147353735350578 0.038483495816153415 0 0.07314325051541061 0.040274949275757865 0 0.068772038432097782 0.045146644858388645 0 0.068361406410209727 0.040099089074415187 0 0.068361406410209727 0.040099089074415187 0 0.063776124640327184 0.042945829141056019 0 0.063774151477235003 0.036831346943835816 0 0.068772038432097782 0.045146644858388645 0 0.068361406410209727 0.040099089074415187 0 0.063776124640327184 0.042945829141056019 0 0.059569843167907512 0.038656942348507597 0 0.061216497144378261 0.036532859080421781 0 0.063785450995552218 0.038231408317009288 0 0.059569843167907512 0.038656942348507597 0 0.061216497144378261 0.036532859080421781 0 0.057342150066857514 0.035685813464675482 0 0.061216497144378261 0.036532859080421781 0 0.060510732316888215 0.034187045117664169 0 0.057342150066857514 0.035685813464675482 0 0.061216497144378261 0.036532859080421781 0 0.060510732316888215 0.034187045117664169 0 0.064259610820273733 0.035876153498821346 0 0.072090377896912389 0.045794117414164164 0 0.073582189790072819 0.045422833618367096 0 0.083557384420834532 0.055882895104842234 0 0.082540076859924774 0.055330349715827253 0 0.082400565015065499 0.056040395011950898 0 0.062995162795782114 0.040543419670052032 0 0.068323476040967654 0.041798989958540068 0 0.061216497144378261 0.036532859080421781 0 0.064259610820273733 0.035876153498821346 0 0.063785450995552218 0.038231408317009288 0 0.068361406410209727 0.040099089074415187 0 0.063774151477235003 0.036831346943835816 0 0.071820714976981309 0.036552436213724733 0 0.068323476040967654 0.041798989958540068 0 0.075279239624817348 0.045021218301609489 0 0.074891402889992839 0.039070402723949411 0 0.071820714976981309 0.036552436213724733 0 0.075691693435860199 0.037233845347252367 0 0.064259610820273733 0.035876153498821346 0 0.063785450995552218 0.038231408317009288 0 0.068138930352912699 0.037707551528535721 0 0.073582189790072819 0.045422833618367096 0 0.075279239624817348 0.045021218301609489 0 0.076842902892104117 0.045841001930493286 0 0.075279239624817348 0.045021218301609489 0 0.077472552134147749 0.03924987773712664 0 0.076282119245422608 0.039003231536704916 0 0.075691693435860199 0.037233845347252367 0 0.080830419579470764 0.054876004996412424 0 0.081557997856122125 0.054805674324938256 0 0.081288017532933424 0.055388140475074274 0 0.076282119245422608 0.039003231536704916 0 0.074891402889992839 0.039070402723949411 0 0.075691693435860199 0.037233845347252367 0 0.080683138156240286 0.055787958657511356 0 0.081288017532933424 0.055388140475074274 0 0.081601425216319967 0.05604314223852247 0 0.081557997856122125 0.054805674324938256 0 0.081288017532933424 0.055388140475074274 0 0.081848761669101641 0.05549495488058883 0 0.081288017532933424 0.055388140475074274 0 0.081848761669101641 0.05549495488058883 0 0.081601425216319967 0.05604314223852247 0 0.082540076859924774 0.055330349715827253 0 0.081557997856122125 0.054805674324938256 0 0.081848761669101641 0.05549495488058883 0 0.082540076859924774 0.055330349715827253 0 0.081848761669101641 0.05549495488058883 0 0.082400565015065499 0.056040395011950898 0 0.081848761669101641 0.05549495488058883 0 0.082400565015065499 0.056040395011950898 0 0.081601425216319967 0.05604314223852247 0 0.082400565015065499 0.056040395011950898 0 0.081601425216319967 0.05604314223852247 0 0.082103406593033737 0.056869475784419823 0 0.082400565015065499 0.056040395011950898 0 0.082103406593033737 0.056869475784419823 0 0.082837198407474749 0.056600396219939009 0 0.080683138156240286 0.055787958657511356 0 0.081601425216319967 0.05604314223852247 0 0.081256235147656466 0.057033140075159354 0 0.081601425216319967 0.05604314223852247 0 0.081256235147656466 0.057033140075159354 0 0.082103406593033737 0.056869475784419823 0 0.081256235147656466 0.057033140075159354 0 0.082103406593033737 0.056869475784419823 0 0.082225104508662675 0.058047939471643335 0 0.082103406593033737 0.056869475784419823 0 0.083063144789201931 0.057520376687515883 0 0.082225104508662675 0.058047939471643335 0 0.083063144789201931 0.057520376687515883 0 0.083717205829652613 0.056834432279923575 0 0.082837198407474749 0.056600396219939009 0 0.082103406593033737 0.056869475784419823 0 0.083063144789201931 0.057520376687515883 0 0.082837198407474749 0.056600396219939009 0 0.083063144789201931 0.057520376687515883 0 0.083717205829652613 0.056834432279923575 0 0.084366885937686723 0.057671294767678426 0 0.083557384420834532 0.055882895104842234 0 0.083717205829652613 0.056834432279923575 0 0.082837198407474749 0.056600396219939009 0 0.083557384420834532 0.055882895104842234 0 0.083717205829652613 0.056834432279923575 0 0.084655118330026757 0.056482844537249874 0 0.083557384420834532 0.055882895104842234 0 0.082400565015065499 0.056040395011950898 0 0.082837198407474749 0.056600396219939009 0 0.071224022924220046 0.046804927654546184 0 0.072967683302306754 0.050040861213978931 0 0.055124598120856148 0.032940712229404041 0 0.057024119012334278 0.032585846258881036 0 0.053794261288410562 0.03073890586812732 0 0.055124598120856148 0.032940712229404041 0 0.053994425968779423 0.032706071083005793 0 0.053794261288410562 0.03073890586812732 0 0.055124598120856148 0.032940712229404041 0 0.053994425968779423 0.032706071083005793 0 0.0540442669213912 0.034273539526743307 0 0.055124598120856148 0.032940712229404041 0 0.057024119012334278 0.032585846258881036 0 0.057342150066857514 0.035685813464675482 0 0.072090377896912389 0.045794117414164164 0 0.071224022924220046 0.046804927654546184 0 0.083717205829652613 0.056834432279923575 0 0.084655118330026757 0.056482844537249874 0 0.084366885937686723 0.057671294767678426 0 0.084655118330026757 0.056482844537249874 0 0.084366885937686723 0.057671294767678426 0 0.085048500362638571 0.057104546287096845 0 0.084366885937686723 0.057671294767678426 0 0.085124746788888164 0.057631952042722749 0 0.085048500362638571 0.057104546287096845 0 0.084655118330026757 0.056482844537249874 0 0.085048500362638571 0.057104546287096845 0 0.08578055126686715 0.05716026090968352 0 0.085124746788888164 0.057631952042722749 0 0.085048500362638571 0.057104546287096845 0 0.085545588732575215 0.057450475343893005 0 0.085048500362638571 0.057104546287096845 0 0.085545588732575215 0.057450475343893005 0 0.08578055126686715 0.05716026090968352 0 0.085545588732575215 0.057450475343893005 0 0.08578055126686715 0.05716026090968352 0 0.085747363624576342 0.057328469173546642 0 0.085124746788888164 0.057631952042722749 0 0.085545588732575215 0.057450475343893005 0 0.085531074896026751 0.057806030239143817 0 0.085531074896026751 0.057806030239143817 0 0.085727627831558267 0.057690362341463908 0 0.085791389641779028 0.057923522515867819 0 0.085545588732575215 0.057450475343893005 0 0.085531074896026751 0.057806030239143817 0 0.085727627831558267 0.057690362341463908 0 0.052526483515820947 0.030819652917914296 0 0.053794261288410562 0.03073890586812732 0 0.050901178148278652 0.030016696301057643 0 0.085727627831558267 0.057690362341463908 0 0.085807946470764521 0.057508790836524236 0 0.08595543696271897 0.057763411887027764 0 0.085727627831558267 0.057690362341463908 0 0.08595543696271897 0.057763411887027764 0 0.085791389641779028 0.057923522515867819 0 0.072967683302306754 0.050040861213978931 0 0.06495962660505411 0.050864770117835606 0 0.086047126614564332 0.057444567394843993 0 0.08578055126686715 0.05716026090968352 0 0.08681260512713071 0.057815923665554346 0 0.086047126614564332 0.057444567394843993 0 0.086194843944127866 0.057568293786956479 0 0.08681260512713071 0.057815923665554346 0 0.072967683302306754 0.050040861213978931 0 0.081296601756235126 0.054256614236994856 0 0.053794261288410562 0.03073890586812732 0 0.049082822087668961 0.028509869225963561 0 0.050901178148278652 0.030016696301057643 0 0.085545588732575215 0.057450475343893005 0 0.085807946470764521 0.057508790836524236 0 0.085747363624576342 0.057328469173546642 0 0.085545588732575215 0.057450475343893005 0 0.085727627831558267 0.057690362341463908 0 0.085807946470764521 0.057508790836524236 0 0.085807946470764521 0.057508790836524236 0 0.085747363624576342 0.057328469173546642 0 0.085882082178440067 0.057401213335478284 0 0.085807946470764521 0.057508790836524236 0 0.086000299787510295 0.057570245447368627 0 0.085882082178440067 0.057401213335478284 0 0.085807946470764521 0.057508790836524236 0 0.086000299787510295 0.057570245447368627 0 0.08595543696271897 0.057763411887027764 0 0.086047126614564332 0.057444567394843993 0 0.086000299787510295 0.057570245447368627 0 0.085882082178440067 0.057401213335478284 0 0.086000299787510295 0.057570245447368627 0 0.08595543696271897 0.057763411887027764 0 0.086146770941363721 0.057695346108966261 0 0.086146770941363721 0.057695346108966261 0 0.08637297176908236 0.057716948102381087 0 0.086202971517596427 0.057860312618976922 0 0.08595543696271897 0.057763411887027764 0 0.086146770941363721 0.057695346108966261 0 0.086202971517596427 0.057860312618976922 0 0.086146770941363721 0.057695346108966261 0 0.08637297176908236 0.057716948102381087 0 0.086194843944127866 0.057568293786956479 0 0.08637297176908236 0.057716948102381087 0 0.086444692094753806 0.057896384125549573 0 0.086202971517596427 0.057860312618976922 0 0.086000299787510295 0.057570245447368627 0 0.086146770941363721 0.057695346108966261 0 0.086194843944127866 0.057568293786956479 0 0.086047126614564332 0.057444567394843993 0 0.086000299787510295 0.057570245447368627 0 0.086194843944127866 0.057568293786956479 0 0.051788870209413487 0.030710852684980795 0 0.052526483515820947 0.030819652917914296 0 0.050901178148278652 0.030016696301057643 0 0.051398413183727676 0.030615509764261289 0 0.051788870209413487 0.030710852684980795 0 0.050901178148278652 0.030016696301057643 0 0.051398413183727676 0.030615509764261289 0 0.050914632686986379 0.030879979841503844 0 0.051649661587487593 0.031275264930237766 0 0.051788870209413487 0.030710852684980795 0 0.052345123224244811 0.031227508160069792 0 0.051649661587487593 0.031275264930237766 0 0.051398413183727676 0.030615509764261289 0 0.051788870209413487 0.030710852684980795 0 0.051649661587487593 0.031275264930237766 0 0.051788870209413487 0.030710852684980795 0 0.052526483515820947 0.030819652917914296 0 0.052345123224244811 0.031227508160069792 0 0.052526483515820947 0.030819652917914296 0 0.052971381163500648 0.03111067161162074 0 0.052345123224244811 0.031227508160069792 0 0.052526483515820947 0.030819652917914296 0 0.052971381163500648 0.03111067161162074 0 0.053794261288410562 0.03073890586812732 0 0.052971381163500648 0.03111067161162074 0 0.053794261288410562 0.03073890586812732 0 0.053150247972176892 0.031457767534590265 0 0.08578055126686715 0.05716026090968352 0 0.085747363624576342 0.057328469173546642 0 0.085882082178440067 0.057401213335478284 0 0.086047126614564332 0.057444567394843993 0 0.08578055126686715 0.05716026090968352 0 0.085882082178440067 0.057401213335478284 0 0.083801384233743254 0.056224102581778249 0 0.08681260512713071 0.057815923665554346 0 0.087089677573279428 0.057439520140008117 0 0.049082822087668961 0.028509869225963561 0 0.048690909303514683 0.029375289686479213 0 0.047782729537734304 0.029241965673529685 0 0.08706819773750725 0.057838570209822915 0 0.087089677573279428 0.057439520140008117 0 0.087356576327934518 0.057935328616591238 0 0.08706819773750725 0.057838570209822915 0 0.08681260512713071 0.057815923665554346 0 0.087089677573279428 0.057439520140008117 0 0.049082822087668961 0.028509869225963561 0 0.049725668665290483 0.029378247201120943 0 0.049254490012821284 0.029448673669586842 0 0.049082822087668961 0.028509869225963561 0 0.049254490012821284 0.029448673669586842 0 0.048690909303514683 0.029375289686479213 0 0.08637297176908236 0.057716948102381087 0 0.086194843944127866 0.057568293786956479 0 0.08681260512713071 0.057815923665554346 0 0.08637297176908236 0.057716948102381087 0 0.08681260512713071 0.057815923665554346 0 0.086583441698501212 0.057866170486932718 0 0.08637297176908236 0.057716948102381087 0 0.086444692094753806 0.057896384125549573 0 0.086583441698501212 0.057866170486932718 0 0.049082822087668961 0.028509869225963561 0 0.050901178148278652 0.030016696301057643 0 0.049725668665290483 0.029378247201120943 0 0.050901178148278652 0.030016696301057643 0 0.050914632686986379 0.030879979841503844 0 0.050271485790756 0.030528517645829294 0 0.051398413183727676 0.030615509764261289 0 0.050901178148278652 0.030016696301057643 0 0.050914632686986379 0.030879979841503844 0 0.050271485790756 0.030528517645829294 0 0.04978994795940183 0.030023220092941092 0 0.049484582797407722 0.030816033315629595 0 0.050901178148278652 0.030016696301057643 0 0.050271485790756 0.030528517645829294 0 0.04978994795940183 0.030023220092941092 0 0.050901178148278652 0.030016696301057643 0 0.04978994795940183 0.030023220092941092 0 0.049725668665290483 0.029378247201120943 0 0.04978994795940183 0.030023220092941092 0 0.049725668665290483 0.029378247201120943 0 0.049254490012821284 0.029448673669586842 0 0.049254490012821284 0.029448673669586842 0 0.049031159454698776 0.029964630715819809 0 0.048690909303514683 0.029375289686479213 0 0.04978994795940183 0.030023220092941092 0 0.049254490012821284 0.029448673669586842 0 0.049031159454698776 0.029964630715819809 0 0.04978994795940183 0.030023220092941092 0 0.049031159454698776 0.029964630715819809 0 0.049484582797407722 0.030816033315629595 0 0.049031159454698776 0.029964630715819809 0 0.049484582797407722 0.030816033315629595 0 0.048281200540318238 0.030905062347559947 0 0.049031159454698776 0.029964630715819809 0 0.048219501595933592 0.029927200614474212 0 0.048281200540318238 0.030905062347559947 0 0.048219501595933592 0.029927200614474212 0 0.048690909303514683 0.029375289686479213 0 0.047782729537734304 0.029241965673529685 0 0.049031159454698776 0.029964630715819809 0 0.048219501595933592 0.029927200614474212 0 0.048690909303514683 0.029375289686479213 0 0.048281200540318238 0.030905062347559947 0 0.04914784736376028 0.031745116413097435 0 0.04803036205183172 0.032583197993403479 0 0.04914784736376028 0.031745116413097435 0 0.049624426161884311 0.032875748306373027 0 0.04803036205183172 0.032583197993403479 0 0.049484582797407722 0.030816033315629595 0 0.048281200540318238 0.030905062347559947 0 0.04914784736376028 0.031745116413097435 0 0.049484582797407722 0.030816033315629595 0 0.04914784736376028 0.031745116413097435 0 0.050142500522217796 0.031474486221478463 0 0.04914784736376028 0.031745116413097435 0 0.050142500522217796 0.031474486221478463 0 0.049624426161884311 0.032875748306373027 0 0.050142500522217796 0.031474486221478463 0 0.050829188836890603 0.032764281689645909 0 0.049624426161884311 0.032875748306373027 0 0.050914632686986379 0.030879979841503844 0 0.050271485790756 0.030528517645829294 0 0.050142500522217796 0.031474486221478463 0 0.050271485790756 0.030528517645829294 0 0.049484582797407722 0.030816033315629595 0 0.050142500522217796 0.031474486221478463 0 0.050914632686986379 0.030879979841503844 0 0.050142500522217796 0.031474486221478463 0 0.051032088749107418 0.031635726042935436 0 0.050914632686986379 0.030879979841503844 0 0.051032088749107418 0.031635726042935436 0 0.051649661587487593 0.031275264930237766 0 0.051032088749107418 0.031635726042935436 0 0.050829188836890603 0.032764281689645909 0 0.051743769664273458 0.03214196914292515 0 0.050142500522217796 0.031474486221478463 0 0.051032088749107418 0.031635726042935436 0 0.050829188836890603 0.032764281689645909 0 0.050829188836890603 0.032764281689645909 0 0.051429497007600834 0.03385645441734076 0 0.050456101715975192 0.034311757758851785 0 0.050829188836890603 0.032764281689645909 0 0.049624426161884311 0.032875748306373027 0 0.050456101715975192 0.034311757758851785 0 0.049624426161884311 0.032875748306373027 0 0.049009370299598669 0.033908769445751566 0 0.04803036205183172 0.032583197993403479 0 0.049624426161884311 0.032875748306373027 0 0.049009370299598669 0.033908769445751566 0 0.050456101715975192 0.034311757758851785 0 0.053994425968779423 0.032706071083005793 0 0.053794261288410562 0.03073890586812732 0 0.053389049736625782 0.031942846931471459 0 0.052636692783830798 0.032377757782597584 0 0.053389049736625782 0.031942846931471459 0 0.052794910053749762 0.031700011720634684 0 0.053250113417127737 0.032587136980785275 0 0.052636692783830798 0.032377757782597584 0 0.053389049736625782 0.031942846931471459 0 0.053994425968779423 0.032706071083005793 0 0.053250113417127737 0.032587136980785275 0 0.053389049736625782 0.031942846931471459 0 0.053794261288410562 0.03073890586812732 0 0.053389049736625782 0.031942846931471459 0 0.053150247972176892 0.031457767534590265 0 0.053389049736625782 0.031942846931471459 0 0.053150247972176892 0.031457767534590265 0 0.052794910053749762 0.031700011720634684 0 0.052971381163500648 0.03111067161162074 0 0.053150247972176892 0.031457767534590265 0 0.052794910053749762 0.031700011720634684 0 0.052971381163500648 0.03111067161162074 0 0.052794910053749762 0.031700011720634684 0 0.052345123224244811 0.031227508160069792 0 0.052345123224244811 0.031227508160069792 0 0.052256876771350755 0.03171257872702677 0 0.051649661587487593 0.031275264930237766 0 0.052794910053749762 0.031700011720634684 0 0.052345123224244811 0.031227508160069792 0 0.052256876771350755 0.03171257872702677 0 0.051032088749107418 0.031635726042935436 0 0.051649661587487593 0.031275264930237766 0 0.051743769664273458 0.03214196914292515 0 0.052256876771350755 0.03171257872702677 0 0.051649661587487593 0.031275264930237766 0 0.051743769664273458 0.03214196914292515 0 0.052636692783830798 0.032377757782597584 0 0.052256876771350755 0.03171257872702677 0 0.051743769664273458 0.03214196914292515 0 0.052636692783830798 0.032377757782597584 0 0.051743769664273458 0.03214196914292515 0 0.052013890362313832 0.033070974228094963 0 0.052636692783830798 0.032377757782597584 0 0.052794910053749762 0.031700011720634684 0 0.052256876771350755 0.03171257872702677 0 0.052636692783830798 0.032377757782597584 0 0.052013890362313832 0.033070974228094963 0 0.053087508814591504 0.033345888807972894 0 0.050829188836890603 0.032764281689645909 0 0.052013890362313832 0.033070974228094963 0 0.051429497007600834 0.03385645441734076 0 0.050829188836890603 0.032764281689645909 0 0.051743769664273458 0.03214196914292515 0 0.052013890362313832 0.033070974228094963 0 0.052013890362313832 0.033070974228094963 0 0.051429497007600834 0.03385645441734076 0 0.052315468923576344 0.03393114865394755 0 0.052013890362313832 0.033070974228094963 0 0.052315468923576344 0.03393114865394755 0 0.053087508814591504 0.033345888807972894 0 0.052315468923576344 0.03393114865394755 0 0.053087508814591504 0.033345888807972894 0 0.052919725677000276 0.034692497416015933 0 0.053994425968779423 0.032706071083005793 0 0.053087508814591504 0.033345888807972894 0 0.0540442669213912 0.034273539526743307 0 0.053250113417127737 0.032587136980785275 0 0.052636692783830798 0.032377757782597584 0 0.053087508814591504 0.033345888807972894 0 0.053994425968779423 0.032706071083005793 0 0.053250113417127737 0.032587136980785275 0 0.053087508814591504 0.033345888807972894 0 0.052919725677000276 0.034692497416015933 0 0.053729081258601728 0.03596733788817269 0 0.0540442669213912 0.034273539526743307 0 0.053087508814591504 0.033345888807972894 0 0.052919725677000276 0.034692497416015933 0 0.0540442669213912 0.034273539526743307 0 0.052315468923576344 0.03393114865394755 0 0.052919725677000276 0.034692497416015933 0 0.051736156994585537 0.034940140758530309 0 0.051429497007600834 0.03385645441734076 0 0.052315468923576344 0.03393114865394755 0 0.051736156994585537 0.034940140758530309 0 0.052919725677000276 0.034692497416015933 0 0.051736156994585537 0.034940140758530309 0 0.052327188870148228 0.036133943461594674 0 0.051736156994585537 0.034940140758530309 0 0.052327188870148228 0.036133943461594674 0 0.050960539851066883 0.035888893838666808 0 0.052327188870148228 0.036133943461594674 0 0.050960539851066883 0.035888893838666808 0 0.05156759562305397 0.037589690649650988 0 0.052919725677000276 0.034692497416015933 0 0.052327188870148228 0.036133943461594674 0 0.053729081258601728 0.03596733788817269 0 0.052327188870148228 0.036133943461594674 0 0.053729081258601728 0.03596733788817269 0 0.05303808382829981 0.037239251097707572 0 0.049009370299598669 0.033908769445751566 0 0.04949636100720764 0.035361648222642893 0 0.047321999536720581 0.034539155554172023 0 0.049009370299598669 0.033908769445751566 0 0.04949636100720764 0.035361648222642893 0 0.050456101715975192 0.034311757758851785 0 0.051736156994585537 0.034940140758530309 0 0.050456101715975192 0.034311757758851785 0 0.050960539851066883 0.035888893838666808 0 0.04949636100720764 0.035361648222642893 0 0.050456101715975192 0.034311757758851785 0 0.050960539851066883 0.035888893838666808 0 0.051429497007600834 0.03385645441734076 0 0.051736156994585537 0.034940140758530309 0 0.050456101715975192 0.034311757758851785 0 0.04949636100720764 0.035361648222642893 0 0.050960539851066883 0.035888893838666808 0 0.050023295512133116 0.036841339022425368 0 0.050960539851066883 0.035888893838666808 0 0.050023295512133116 0.036841339022425368 0 0.05156759562305397 0.037589690649650988 0 0.04949636100720764 0.035361648222642893 0 0.050023295512133116 0.036841339022425368 0 0.048155235125882427 0.037289730573856636 0 0.050063543657517875 0.038293915696157338 0 0.049012297117401349 0.039621085725943368 0 0.048155235125882427 0.037289730573856636 0 0.050023295512133116 0.036841339022425368 0 0.050063543657517875 0.038293915696157338 0 0.048155235125882427 0.037289730573856636 0 0.050063543657517875 0.038293915696157338 0 0.051410390361019041 0.039294194740105766 0 0.05156759562305397 0.037589690649650988 0 0.050023295512133116 0.036841339022425368 0 0.050063543657517875 0.038293915696157338 0 0.05156759562305397 0.037589690649650988 0 0.050063543657517875 0.038293915696157338 0 0.051410390361019041 0.039294194740105766 0 0.049012297117401349 0.039621085725943368 0 0.05303808382829981 0.037239251097707572 0 0.05156759562305397 0.037589690649650988 0 0.052738290157795673 0.038716197664735275 0 0.05303808382829981 0.037239251097707572 0 0.052738290157795673 0.038716197664735275 0 0.054352675835452474 0.037546294007036969 0 0.052327188870148228 0.036133943461594674 0 0.05303808382829981 0.037239251097707572 0 0.05156759562305397 0.037589690649650988 0 0.051410390361019041 0.039294194740105766 0 0.052738290157795673 0.038716197664735275 0 0.052780448959831305 0.040467175565703832 0 0.051410390361019041 0.039294194740105766 0 0.05156759562305397 0.037589690649650988 0 0.052738290157795673 0.038716197664735275 0 0.052738290157795673 0.038716197664735275 0 0.053638416165472318 0.039317429735396613 0 0.054352675835452474 0.037546294007036969 0 0.053638416165472318 0.039317429735396613 0 0.05537103893881138 0.038826743677333242 0 0.054352675835452474 0.037546294007036969 0 0.054352675835452474 0.037546294007036969 0 0.055115426547264687 0.03566576751326405 0 0.056300476339126507 0.037261179682226454 0 0.05537103893881138 0.038826743677333242 0 0.054352675835452474 0.037546294007036969 0 0.056300476339126507 0.037261179682226454 0 0.053729081258601728 0.03596733788817269 0 0.05303808382829981 0.037239251097707572 0 0.054352675835452474 0.037546294007036969 0 0.055124598120856148 0.032940712229404041 0 0.055115426547264687 0.03566576751326405 0 0.057342150066857514 0.035685813464675482 0 0.053729081258601728 0.03596733788817269 0 0.054352675835452474 0.037546294007036969 0 0.055115426547264687 0.03566576751326405 0 0.055124598120856148 0.032940712229404041 0 0.055115426547264687 0.03566576751326405 0 0.0540442669213912 0.034273539526743307 0 0.053729081258601728 0.03596733788817269 0 0.055115426547264687 0.03566576751326405 0 0.0540442669213912 0.034273539526743307 0 0.060510732316888215 0.034187045117664169 0 0.057024119012334278 0.032585846258881036 0 0.057342150066857514 0.035685813464675482 0 0.055115426547264687 0.03566576751326405 0 0.057342150066857514 0.035685813464675482 0 0.056300476339126507 0.037261179682226454 0 0.059569843167907512 0.038656942348507597 0 0.057342150066857514 0.035685813464675482 0 0.056300476339126507 0.037261179682226454 0 0.059569843167907512 0.038656942348507597 0 0.05537103893881138 0.038826743677333242 0 0.056300476339126507 0.037261179682226454 0 0.062995162795782114 0.040543419670052032 0 0.060193794958204122 0.040357265949095417 0 0.063774151477235003 0.036831346943835816 0 0.05537103893881138 0.038826743677333242 0 0.058951809726959299 0.040915484805883473 0 0.063776124640327184 0.042945829141056019 0 0.063774151477235003 0.036831346943835816 0 0.058951809726959299 0.040915484805883473 0 0.058951809726959299 0.040915484805883473 0 0.053589157422605477 0.041273660087252813 0 0.058857662312393359 0.045375941945152098 0 0.063776124640327184 0.042945829141056019 0 0.058951809726959299 0.040915484805883473 0 0.058857662312393359 0.045375941945152098 0 0.053638416165472318 0.039317429735396613 0 0.053589157422605477 0.041273660087252813 0 0.052780448959831305 0.040467175565703832 0 0.053638416165472318 0.039317429735396613 0 0.05537103893881138 0.038826743677333242 0 0.053589157422605477 0.041273660087252813 0 0.05537103893881138 0.038826743677333242 0 0.058951809726959299 0.040915484805883473 0 0.053589157422605477 0.041273660087252813 0 0.058398172307161086 0.038259138127313894 0 0.059783155796390389 0.03832942452715702 0 0.053589157422605477 0.041273660087252813 0 0.052858826464052752 0.041281988977416952 0 0.052286893731765531 0.041103952234288144 0 0.053589157422605477 0.041273660087252813 0 0.052858826464052752 0.041281988977416952 0 0.052780448959831305 0.040467175565703832 0 0.052858826464052752 0.041281988977416952 0 0.052286893731765531 0.041103952234288144 0 0.052568530038508345 0.04129245312822237 0 0.053589157422605477 0.041273660087252813 0 0.052286893731765531 0.041103952234288144 0 0.051004138396049677 0.041223719284746864 0 0.052286893731765531 0.041103952234288144 0 0.051004138396049677 0.041223719284746864 0 0.05126706846334652 0.040300343762277591 0 0.052286893731765531 0.041103952234288144 0 0.05126706846334652 0.040300343762277591 0 0.052309233993660283 0.040792438563940235 0 0.052286893731765531 0.041103952234288144 0 0.052309233993660283 0.040792438563940235 0 0.052568530038508345 0.04129245312822237 0 0.049753818425639001 0.04039770556836219 0 0.051004138396049677 0.041223719284746864 0 0.05126706846334652 0.040300343762277591 0 0.06396398633270349 0.049308103244778113 0 0.063776124640327184 0.042945829141056019 0 0.058857662312393359 0.045375941945152098 0 0.063422237229530137 0.037675545999390152 0 0.059783155796390389 0.03832942452715702 0 0.049753818425639001 0.04039770556836219 0 0.05126706846334652 0.040300343762277591 0 0.050545699055837945 0.038695386386053576 0 0.063422237229530137 0.037675545999390152 0 0.058501613934570054 0.036036848189364389 0 0.064299032379609711 0.025944200529440808 0 0.060739637913453604 0.027753561073832898 0 0.062946111014943573 0.027426858483676368 0 0.05126706846334652 0.040300343762277591 0 0.051669561956151383 0.039617416933867375 0 0.050545699055837945 0.038695386386053576 0 0.05126706846334652 0.040300343762277591 0 0.051669561956151383 0.039617416933867375 0 0.052309233993660283 0.040792438563940235 0 0.056950644932700092 0.035639204058567416 0 0.058501613934570054 0.036036848189364389 0 0.051669561956151383 0.039617416933867375 0 0.050545699055837945 0.038695386386053576 0 0.052741744032636442 0.038307906180487933 0 0.056499634982167798 0.03379129776839529 0 0.060739637913453604 0.027753561073832898 0 0.062946111014943573 0.027426858483676368 0 0.063483287307477196 0.025401473886158321 0 0.063476524574434298 0.025880160597167183 0 0.065499835100802831 0.024427189008529818 0 0.067886257365133221 0.022862960802005047 0 0.062946111014943573 0.027426858483676368 0 0.065499835100802831 0.024427189008529818 0 0.0636849377854391 0.026042975751648947 0 0.062946111014943573 0.027426858483676368 0 0.065499835100802831 0.024427189008529818 0 0.063309740869960149 0.0253615835068117 0 0.0636849377854391 0.026042975751648947 0 0.06339297375725654 0.026283234536777965 0 0.0636849377854391 0.026042975751648947 0 0.062946111014943573 0.027426858483676368 0 0.057149599419062239 0.03549376546671594 0 0.054898061401958284 0.036727495282317037 0 0.055818441498255732 0.039244801857366618 0 0.054898061401958284 0.036727495282317037 0 0.052741744032636442 0.038307906180487933 0 0.05405402425839833 0.039123524555330629 0 0.054898061401958284 0.036727495282317037 0 0.05405402425839833 0.039123524555330629 0 0.055818441498255732 0.039244801857366618 0 0.053494644033752967 0.033729103207181269 0 0.054898061401958284 0.036727495282317037 0 0.052741744032636442 0.038307906180487933 0 0.053494644033752967 0.033729103207181269 0 0.050545699055837945 0.038695386386053576 0 0.052741744032636442 0.038307906180487933 0 0.052741744032636442 0.038307906180487933 0 0.052426297762587615 0.039912306619567899 0 0.052882898319473438 0.040526566995759669 0 0.052741744032636442 0.038307906180487933 0 0.052882898319473438 0.040526566995759669 0 0.05405402425839833 0.039123524555330629 0 0.051669561956151383 0.039617416933867375 0 0.052741744032636442 0.038307906180487933 0 0.052426297762587615 0.039912306619567899 0 0.051669561956151383 0.039617416933867375 0 0.052426297762587615 0.039912306619567899 0 0.052309233993660283 0.040792438563940235 0 0.052426297762587615 0.039912306619567899 0 0.052309233993660283 0.040792438563940235 0 0.052882898319473438 0.040526566995759669 0 0.052309233993660283 0.040792438563940235 0 0.052882898319473438 0.040526566995759669 0 0.052556950413323651 0.041568114328585683 0 0.052882898319473438 0.040526566995759669 0 0.05405402425839833 0.039123524555330629 0 0.052694382341339031 0.042924886845098438 0 0.052882898319473438 0.040526566995759669 0 0.052694382341339031 0.042924886845098438 0 0.052556950413323651 0.041568114328585683 0 0.05405402425839833 0.039123524555330629 0 0.052694382341339031 0.042924886845098438 0 0.055818441498255732 0.039244801857366618 0 0.052694382341339031 0.042924886845098438 0 0.052098651083934154 0.041771585444011314 0 0.049355175461634322 0.041631960402991955 0 0.052694382341339031 0.042924886845098438 0 0.052098651083934154 0.041771585444011314 0 0.052556950413323651 0.041568114328585683 0 0.052309233993660283 0.040792438563940235 0 0.052556950413323651 0.041568114328585683 0 0.052568530038508345 0.04129245312822237 0 0.052098651083934154 0.041771585444011314 0 0.052556950413323651 0.041568114328585683 0 0.052485171475891698 0.041352638579856313 0 0.052858826464052752 0.041281988977416952 0 0.052485171475891698 0.041352638579856313 0 0.052568530038508345 0.04129245312822237 0 0.052556950413323651 0.041568114328585683 0 0.052485171475891698 0.041352638579856313 0 0.052568530038508345 0.04129245312822237 0 0.052858826464052752 0.041281988977416952 0 0.052485171475891698 0.041352638579856313 0 0.052780448959831305 0.040467175565703832 0 0.052485171475891698 0.041352638579856313 0 0.052780448959831305 0.040467175565703832 0 0.051474542469147282 0.040650129776798945 0 0.052098651083934154 0.041771585444011314 0 0.052485171475891698 0.041352638579856313 0 0.051474542469147282 0.040650129776798945 0 0.051410390361019041 0.039294194740105766 0 0.052780448959831305 0.040467175565703832 0 0.051474542469147282 0.040650129776798945 0 0.052738290157795673 0.038716197664735275 0 0.053638416165472318 0.039317429735396613 0 0.052780448959831305 0.040467175565703832 0 0.051474542469147282 0.040650129776798945 0 0.049355175461634322 0.041631960402991955 0 0.049012297117401349 0.039621085725943368 0 0.052098651083934154 0.041771585444011314 0 0.051474542469147282 0.040650129776798945 0 0.049355175461634322 0.041631960402991955 0 0.051410390361019041 0.039294194740105766 0 0.051474542469147282 0.040650129776798945 0 0.049012297117401349 0.039621085725943368 0 0.046916957027885675 0.040609598446632922 0 0.049355175461634322 0.041631960402991955 0 0.049012297117401349 0.039621085725943368 0 0.046916957027885675 0.040609598446632922 0 0.044108895080968581 0.041922275774903026 0 0.049355175461634322 0.041631960402991955 0 0.046916957027885675 0.040609598446632922 0 0.044108895080968581 0.041922275774903026 0 0.045133131227371566 0.039324096566329604 0 0.044108895080968581 0.041922275774903026 0 0.049355175461634322 0.041631960402991955 0 0.046212589361483897 0.045867215296288288 0 0.038678559346295639 0.050150048176170331 0 0.039168171563932153 0.05541057891624139 0 0.035065807242111238 0.053304696049997616 0 0.04391833549206059 0.042790599364747467 0 0.046322715108189534 0.039758452536915206 0 0.052694382341339031 0.042924886845098438 0 0.049355175461634322 0.041631960402991955 0 0.046212589361483897 0.045867215296288288 0 0.052694382341339031 0.042924886845098438 0 0.055818441498255732 0.039244801857366618 0 0.062142467892289367 0.041163473800024802 0 0.050209464301672536 0.039931950943339428 0 0.046322715108189534 0.039758452536915206 0 0.046322715108189534 0.039758452536915206 0 0.052721227428145383 0.031407880869991404 0 0.045440235748302325 0.029958480751937206 0 0.045761376068028818 0.029349426707043949 0 0.045203188986070314 0.029014065908621992 0 0.055818441498255732 0.039244801857366618 0 0.062142467892289367 0.041163473800024802 0 0.060196311392597811 0.033749100286860102 0 0.053112959315194795 0.032965812943643549 0 0.052721227428145383 0.031407880869991404 0 0.057149599419062239 0.03549376546671594 0 0.055818441498255732 0.039244801857366618 0 0.059664521466013636 0.036013656311711613 0 0.046335119002934168 0.028996217621553758 0 0.046314510059067497 0.029684316362619766 0 0.047137146248163848 0.029436827847373885 0 0.040674117783180752 0.038609831688039269 0 0.037860165001453075 0.035114847951631036 0 0.045761376068028818 0.029349426707043949 0 0.046335119002934168 0.028996217621553758 0 0.046314510059067497 0.029684316362619766 0 0.039168171563932153 0.05541057891624139 0 0.034386960169066567 0.056399578053324094 0 0.035065807242111238 0.053304696049997616 0 0.045440235748302325 0.029958480751937206 0 0.045761376068028818 0.029349426707043949 0 0.046314510059067497 0.029684316362619766 0 0.046322715108189534 0.039758452536915206 0 0.040674117783180752 0.038609831688039269 0 0.034386960169066567 0.056399578053324094 0 0.031151428833562821 0.053345758803921367 0 0.030034363756848686 0.057067094907438713 0 0.034386960169066567 0.056399578053324094 0 0.031151428833562821 0.053345758803921367 0 0.035065807242111238 0.053304696049997616 0 0.031151428833562821 0.053345758803921367 0 0.035065807242111238 0.053304696049997616 0 0.032155116282670329 0.050375475297955899 0 0.031151428833562821 0.053345758803921367 0 0.032155116282670329 0.050375475297955899 0 0.029021361819898533 0.04926226258093698 0 0.038678559346295639 0.050150048176170331 0 0.035065807242111238 0.053304696049997616 0 0.032155116282670329 0.050375475297955899 0 0.038678559346295639 0.050150048176170331 0 0.032155116282670329 0.050375475297955899 0 0.029720209293366287 0.045902777698876192 0 0.032155116282670329 0.050375475297955899 0 0.029720209293366287 0.045902777698876192 0 0.029021361819898533 0.04926226258093698 0 0.029720209293366287 0.045902777698876192 0 0.028067561608169381 0.049182817237105027 0 0.028778382527881553 0.047900145521879309 0 0.029720209293366287 0.045902777698876192 0 0.026642187122128829 0.050000760422262057 0 0.023190137460672007 0.051021176990841022 0 0.034973588573050891 0.047797471388886396 0 0.036549641258073529 0.047489619770930483 0 0.029720209293366287 0.045902777698876192 0 0.026642187122128829 0.050000760422262057 0 0.028067561608169381 0.049182817237105027 0 0.026642187122128829 0.050000760422262057 0 0.023190137460672007 0.051021176990841022 0 0.02497450557937585 0.052405777596817429 0 0.026642187122128829 0.050000760422262057 0 0.026718815280399918 0.051853552094310792 0 0.028067561608169381 0.049182817237105027 0 0.026642187122128829 0.050000760422262057 0 0.026718815280399918 0.051853552094310792 0 0.02497450557937585 0.052405777596817429 0 0.029720209293366287 0.045902777698876192 0 0.035241065306085707 0.034869970926590707 0 0.039187055816204623 0.040060167763526645 0 0.035241065306085707 0.034869970926590707 0 0.039187055816204623 0.040060167763526645 0 0.04076888745102001 0.034883040507869931 0 0.04391833549206059 0.042790599364747467 0 0.042475192501919806 0.040842087662708658 0 0.038678559346295639 0.050150048176170331 0 0.029720209293366287 0.045902777698876192 0 0.039187055816204623 0.040060167763526645 0 0.039187055816204623 0.040060167763526645 0 0.045133131227371566 0.039324096566329604 0 0.042942858388547264 0.037226603520266029 0 0.044108895080968581 0.041922275774903026 0 0.039187055816204623 0.040060167763526645 0 0.045133131227371566 0.039324096566329604 0 0.045133131227371566 0.039324096566329604 0 0.049012297117401349 0.039621085725943368 0 0.048155235125882427 0.037289730573856636 0 0.046916957027885675 0.040609598446632922 0 0.045133131227371566 0.039324096566329604 0 0.049012297117401349 0.039621085725943368 0 0.048155235125882427 0.037289730573856636 0 0.045295006668264526 0.036337288037049741 0 0.047321999536720581 0.034539155554172023 0 0.045133131227371566 0.039324096566329604 0 0.048155235125882427 0.037289730573856636 0 0.045295006668264526 0.036337288037049741 0 0.045295006668264526 0.036337288037049741 0 0.045519395785600297 0.034336384177026516 0 0.047321999536720581 0.034539155554172023 0 0.04949636100720764 0.035361648222642893 0 0.048155235125882427 0.037289730573856636 0 0.047321999536720581 0.034539155554172023 0 0.039187055816204623 0.040060167763526645 0 0.042942858388547264 0.037226603520266029 0 0.04076888745102001 0.034883040507869931 0 0.045133131227371566 0.039324096566329604 0 0.045295006668264526 0.036337288037049741 0 0.042942858388547264 0.037226603520266029 0 0.045295006668264526 0.036337288037049741 0 0.042942858388547264 0.037226603520266029 0 0.04381404151872046 0.033949686898527023 0 0.045295006668264526 0.036337288037049741 0 0.045519395785600297 0.034336384177026516 0 0.04381404151872046 0.033949686898527023 0 0.042942858388547264 0.037226603520266029 0 0.04076888745102001 0.034883040507869931 0 0.04381404151872046 0.033949686898527023 0 0.04076888745102001 0.034883040507869931 0 0.042258842841983724 0.032406322558230442 0 0.04381404151872046 0.033949686898527023 0 0.04076888745102001 0.034883040507869931 0 0.042258842841983724 0.032406322558230442 0 0.040118701687149476 0.031586014106709727 0 0.04381404151872046 0.033949686898527023 0 0.04399036352644943 0.031755295982799338 0 0.045891639804567112 0.03273393103782949 0 0.042258842841983724 0.032406322558230442 0 0.04381404151872046 0.033949686898527023 0 0.04399036352644943 0.031755295982799338 0 0.042258842841983724 0.032406322558230442 0 0.04399036352644943 0.031755295982799338 0 0.042497090304705581 0.030748961651309872 0 0.04399036352644943 0.031755295982799338 0 0.045434664116038817 0.03078763835196888 0 0.043979001931131564 0.030083375053689673 0 0.04399036352644943 0.031755295982799338 0 0.042497090304705581 0.030748961651309872 0 0.043979001931131564 0.030083375053689673 0 0.042258842841983724 0.032406322558230442 0 0.042497090304705581 0.030748961651309872 0 0.040118701687149476 0.031586014106709727 0 0.042497090304705581 0.030748961651309872 0 0.041368918852491152 0.029805158008912133 0 0.040118701687149476 0.031586014106709727 0 0.049009370299598669 0.033908769445751566 0 0.047321999536720581 0.034539155554172023 0 0.04803036205183172 0.032583197993403479 0 0.047321999536720581 0.034539155554172023 0 0.04803036205183172 0.032583197993403479 0 0.045891639804567112 0.03273393103782949 0 0.045519395785600297 0.034336384177026516 0 0.04381404151872046 0.033949686898527023 0 0.045891639804567112 0.03273393103782949 0 0.045519395785600297 0.034336384177026516 0 0.047321999536720581 0.034539155554172023 0 0.045891639804567112 0.03273393103782949 0 0.045891639804567112 0.03273393103782949 0 0.045434664116038817 0.03078763835196888 0 0.046880396727207292 0.031139061146126721 0 0.04399036352644943 0.031755295982799338 0 0.045891639804567112 0.03273393103782949 0 0.045434664116038817 0.03078763835196888 0 0.04803036205183172 0.032583197993403479 0 0.045891639804567112 0.03273393103782949 0 0.046880396727207292 0.031139061146126721 0 0.048281200540318238 0.030905062347559947 0 0.04803036205183172 0.032583197993403479 0 0.046880396727207292 0.031139061146126721 0 0.06495962660505411 0.050864770117835606 0 0.05426274322749098 0.056488410657235026 0 0.049082822087668961 0.028509869225963561 0 0.04531162463174291 0.027966953711436992 0 0.046658378787071617 0.028667229440398189 0 0.087089677573279428 0.057439520140008117 0 0.088442512893599098 0.058031874292372367 0 0.087356576327934518 0.057935328616591238 0 0.049082822087668961 0.028509869225963561 0 0.04531162463174291 0.027966953711436992 0 0.043147115255482364 0.026309631730413053 0 0.047782729537734304 0.029241965673529685 0 0.047372395083266447 0.030078103673378591 0 0.046791866403202605 0.029341975856593348 0 0.048219501595933592 0.029927200614474212 0 0.047782729537734304 0.029241965673529685 0 0.047372395083266447 0.030078103673378591 0 0.048219501595933592 0.029927200614474212 0 0.048281200540318238 0.030905062347559947 0 0.047372395083266447 0.030078103673378591 0 0.048281200540318238 0.030905062347559947 0 0.046880396727207292 0.031139061146126721 0 0.047372395083266447 0.030078103673378591 0 0.046880396727207292 0.031139061146126721 0 0.047372395083266447 0.030078103673378591 0 0.046242863941548057 0.029892580857800364 0 0.047782729537734304 0.029241965673529685 0 0.046791866403202605 0.029341975856593348 0 0.046658378787071617 0.028667229440398189 0 0.047372395083266447 0.030078103673378591 0 0.046791866403202605 0.029341975856593348 0 0.046242863941548057 0.029892580857800364 0 0.046791866403202605 0.029341975856593348 0 0.046106148138652658 0.029138096829271997 0 0.046658378787071617 0.028667229440398189 0 0.046106148138652658 0.029138096829271997 0 0.046242863941548057 0.029892580857800364 0 0.045229961915002947 0.029169554053974537 0 0.046106148138652658 0.029138096829271997 0 0.045229961915002947 0.029169554053974537 0 0.045598631289857715 0.028620276391527363 0 0.046791866403202605 0.029341975856593348 0 0.046106148138652658 0.029138096829271997 0 0.046242863941548057 0.029892580857800364 0 0.045434664116038817 0.03078763835196888 0 0.046880396727207292 0.031139061146126721 0 0.046242863941548057 0.029892580857800364 0 0.045434664116038817 0.03078763835196888 0 0.046242863941548057 0.029892580857800364 0 0.045229961915002947 0.029169554053974537 0 0.045434664116038817 0.03078763835196888 0 0.045229961915002947 0.029169554053974537 0 0.043979001931131564 0.030083375053689673 0 0.044862298331961203 0.028456496598085662 0 0.04531162463174291 0.027966953711436992 0 0.044294748609229002 0.028098006226222789 0 0.045229961915002947 0.029169554053974537 0 0.044862298331961203 0.028456496598085662 0 0.04391017009323931 0.028689096589873227 0 0.045229961915002947 0.029169554053974537 0 0.044862298331961203 0.028456496598085662 0 0.045598631289857715 0.028620276391527363 0 0.044862298331961203 0.028456496598085662 0 0.04531162463174291 0.027966953711436992 0 0.045598631289857715 0.028620276391527363 0 0.04531162463174291 0.027966953711436992 0 0.045598631289857715 0.028620276391527363 0 0.046658378787071617 0.028667229440398189 0 0.046106148138652658 0.029138096829271997 0 0.045598631289857715 0.028620276391527363 0 0.046658378787071617 0.028667229440398189 0 0.049082822087668961 0.028509869225963561 0 0.047782729537734304 0.029241965673529685 0 0.046658378787071617 0.028667229440398189 0 0.041579972841373235 0.028415972132233885 0 0.039762518931491082 0.029954023113565383 0 0.041520416374715673 0.025915293653072841 0 0.041368918852491152 0.029805158008912133 0 0.041579972841373235 0.028415972132233885 0 0.039762518931491082 0.029954023113565383 0 0.04278269697496466 0.029312773192049002 0 0.042905273375649894 0.028249311273932331 0 0.041579972841373235 0.028415972132233885 0 0.041368918852491152 0.029805158008912133 0 0.04278269697496466 0.029312773192049002 0 0.041579972841373235 0.028415972132233885 0 0.042497090304705581 0.030748961651309872 0 0.041368918852491152 0.029805158008912133 0 0.04278269697496466 0.029312773192049002 0 0.042497090304705581 0.030748961651309872 0 0.043979001931131564 0.030083375053689673 0 0.04278269697496466 0.029312773192049002 0 0.045229961915002947 0.029169554053974537 0 0.043979001931131564 0.030083375053689673 0 0.04391017009323931 0.028689096589873227 0 0.043979001931131564 0.030083375053689673 0 0.04278269697496466 0.029312773192049002 0 0.04391017009323931 0.028689096589873227 0 0.04278269697496466 0.029312773192049002 0 0.042905273375649894 0.028249311273932331 0 0.04391017009323931 0.028689096589873227 0 0.042905273375649894 0.028249311273932331 0 0.0435985618788041 0.028030004837755074 0 0.04391017009323931 0.028689096589873227 0 0.04531162463174291 0.027966953711436992 0 0.043751073796914529 0.02740511892916412 0 0.043147115255482364 0.026309631730413053 0 0.042905273375649894 0.028249311273932331 0 0.0435985618788041 0.028030004837755074 0 0.04307594849483691 0.027534300251538409 0 0.044862298331961203 0.028456496598085662 0 0.04391017009323931 0.028689096589873227 0 0.044294748609229002 0.028098006226222789 0 0.0435985618788041 0.028030004837755074 0 0.04391017009323931 0.028689096589873227 0 0.044294748609229002 0.028098006226222789 0 0.04531162463174291 0.027966953711436992 0 0.044294748609229002 0.028098006226222789 0 0.043751073796914529 0.02740511892916412 0 0.0435985618788041 0.028030004837755074 0 0.044294748609229002 0.028098006226222789 0 0.043751073796914529 0.02740511892916412 0 0.042905273375649894 0.028249311273932331 0 0.04307594849483691 0.027534300251538409 0 0.042443256988776532 0.027299638037417275 0 0.043751073796914529 0.02740511892916412 0 0.04307594849483691 0.027534300251538409 0 0.043147115255482364 0.026309631730413053 0 0.04307594849483691 0.027534300251538409 0 0.042443256988776532 0.027299638037417275 0 0.043147115255482364 0.026309631730413053 0 0.0435985618788041 0.028030004837755074 0 0.043751073796914529 0.02740511892916412 0 0.04307594849483691 0.027534300251538409 0 0.042443256988776532 0.027299638037417275 0 0.041579972841373235 0.028415972132233885 0 0.041520416374715673 0.025915293653072841 0 0.042905273375649894 0.028249311273932331 0 0.042443256988776532 0.027299638037417275 0 0.041579972841373235 0.028415972132233885 0 0.041255465168017806 0.049048417105591442 0 0.048240067398047752 0.05589859787403275 0 0.020807128053686945 0.056016938889683128 0 0.023592365340198318 0.058551189877314704 0 0.023366469608794085 0.054294995708011974 0 0.041255465168017806 0.049048417105591442 0 0.040644886884306959 0.057529934740950625 0 0.020807128053686945 0.056016938889683128 0 0.023592365340198318 0.058551189877314704 0 0.023552589178625443 0.062441150529574961 0 0.023366469608794085 0.054294995708011974 0 0.022992315397659818 0.060501778777770528 0 0.024726788266479522 0.058323142051430979 0 0.023592365340198318 0.058551189877314704 0 0.023366469608794085 0.054294995708011974 0 0.026648613292332094 0.061531860650034 0 0.023366469608794085 0.054294995708011974 0 0.024726788266479522 0.058323142051430979 0 0.025494147914468402 0.056135814417722002 0 0.024142651492261913 0.058638970706416139 0 0.025154232646016943 0.061962723104069709 0 0.023366469608794085 0.054294995708011974 0 0.02551495542777394 0.053806973152286386 0 0.025494147914468402 0.056135814417722002 0 0.026718815280399918 0.051853552094310792 0 0.02551495542777394 0.053806973152286386 0 0.02497450557937585 0.052405777596817429 0 0.023190137460672007 0.051021176990841022 0 0.023366469608794085 0.054294995708011974 0 0.02497450557937585 0.052405777596817429 0 0.023366469608794085 0.054294995708011974 0 0.02551495542777394 0.053806973152286386 0 0.02497450557937585 0.052405777596817429 0 0.036549641258073529 0.047489619770930483 0 0.041255465168017806 0.049048417105591442 0 0.023190137460672007 0.051021176990841022 0 0.020807128053686945 0.056016938889683128 0 0.023366469608794085 0.054294995708011974 0 0.035241065306085707 0.034869970926590707 0 0.039110574627450025 0.028736965204048968 0 0.040118701687149476 0.031586014106709727 0 0.035241065306085707 0.034869970926590707 0 0.04076888745102001 0.034883040507869931 0 0.040118701687149476 0.031586014106709727 0 0.041368918852491152 0.029805158008912133 0 0.039762518931491082 0.029954023113565383 0 0.040118701687149476 0.031586014106709727 0 0.041255465168017806 0.049048417105591442 0 0.040574038196735385 0.046772606843384711 0 0.049250934409153721 0.061756734765392576 0 0.049299059715250046 0.061618866696160048 0 0.049376346682887109 0.061843134243917935 0 0.049250934409153721 0.061756734765392576 0 0.049295689695222293 0.061854996016959991 0 0.049376346682887109 0.061843134243917935 0 0.049250934409153721 0.061756734765392576 0 0.049299059715250046 0.061618866696160048 0 0.049233036279503664 0.061671933730976722 0 0.049250934409153721 0.061756734765392576 0 0.049233036279503664 0.061671933730976722 0 0.049185339639243833 0.06170722166882197 0 0.049250934409153721 0.061756734765392576 0 0.049180454433515895 0.061788014680786443 0 0.049211604456253499 0.061852269818754892 0 0.049250934409153721 0.061756734765392576 0 0.049295689695222293 0.061854996016959991 0 0.049211604456253499 0.061852269818754892 0 0.049250934409153721 0.061756734765392576 0 0.049185339639243833 0.06170722166882197 0 0.049180454433515895 0.061788014680786443 0 0.026734684757343721 0.063134482081621437 0 0.026648613292332094 0.061531860650034 0 0.029233640393475611 0.068147068548551182 0 0.040644886884306959 0.057529934740950625 0 0.040923448052800349 0.065331808505891861 0 0.026734684757343721 0.063134482081621437 0 0.026522818697581288 0.067845969697139977 0 0.029233640393475611 0.068147068548551182 0 0.026734684757343721 0.063134482081621437 0 0.024124151720526062 0.062366661466658938 0 0.026522818697581288 0.067845969697139977 0 0.025154232646016943 0.061962723104069709 0 0.026904065540071798 0.067460197505482572 0 0.026734684757343721 0.063134482081621437 0 0.026648613292332094 0.061531860650034 0 0.023552589178625443 0.062441150529574961 0 0.038184005879469185 0.057315968825612511 0 0.040644886884306959 0.057529934740950625 0 0.022992315397659818 0.060501778777770528 0 0.024726788266479522 0.058323142051430979 0 0.025042109247610078 0.060598048505190932 0 0.023592365340198318 0.058551189877314704 0 0.026648613292332094 0.061531860650034 0 0.023552589178625443 0.062441150529574961 0 0.041553490135224927 0.054061213324862946 0 0.04293654170692731 0.057611246822735669 0 0.040428434554970451 0.056875745136847275 0 0.049299059715250046 0.061618866696160048 0 0.049233036279503664 0.061671933730976722 0 0.049164744301075189 0.061580367632915203 0 0.040644886884306959 0.057529934740950625 0 0.048240067398047752 0.05589859787403275 0 0.049233036279503664 0.061671933730976722 0 0.049164744301075189 0.061580367632915203 0 0.049185339639243833 0.06170722166882197 0 0.049348956017440979 0.061183881417616111 0 0.049173398694729566 0.061137207307079805 0 0.049108719169871161 0.061760043435990557 0 0.05426274322749098 0.056488410657235026 0 0.059934918825686377 0.059564848764091918 0 0.048240067398047752 0.05589859787403275 0 0.05426274322749098 0.056488410657235026 0 0.042443256988776532 0.027299638037417275 0 0.041520416374715673 0.025915293653072841 0 0.043147115255482364 0.026309631730413053 0 0.088442512893599098 0.058031874292372367 0 0.087356576327934518 0.057935328616591238 0 0.087734139029635089 0.058486687481964901 0 0.088442512893599098 0.058031874292372367 0 0.087734139029635089 0.058486687481964901 0 0.087871199207628356 0.059431869809900839 0 0.087356576327934518 0.057935328616591238 0 0.087734139029635089 0.058486687481964901 0 0.087265437816055835 0.058576624518692347 0 0.087734139029635089 0.058486687481964901 0 0.087871199207628356 0.059431869809900839 0 0.087265437816055835 0.058576624518692347 0 0.087871199207628356 0.059431869809900839 0 0.086772825329814257 0.059033592665169436 0 0.087265437816055835 0.058576624518692347 0 0.048240067398047752 0.05589859787403275 0 0.047725148054417868 0.058858453453767424 0 0.049164744301075189 0.061580367632915203 0 0.049185339639243833 0.06170722166882197 0 0.049108719169871161 0.061760043435990557 0 0.049173398694729566 0.061137207307079805 0 0.048959927327402147 0.061764837404545719 0 0.049108719169871161 0.061760043435990557 0 0.048959927327402147 0.061764837404545719 0 0.049108719169871161 0.061760043435990557 0 0.049097716593388609 0.061876447590875565 0 0.049108719169871161 0.061760043435990557 0 0.049180454433515895 0.061788014680786443 0 0.049097716593388609 0.061876447590875565 0 0.049185339639243833 0.06170722166882197 0 0.049108719169871161 0.061760043435990557 0 0.049180454433515895 0.061788014680786443 0 0.049180454433515895 0.061788014680786443 0 0.049097716593388609 0.061876447590875565 0 0.049211604456253499 0.061852269818754892 0 0.049097716593388609 0.061876447590875565 0 0.048886615231540052 0.062094865121207543 0 0.049179613280158178 0.061989123981852731 0 0.049097716593388609 0.061876447590875565 0 0.049179613280158178 0.061989123981852731 0 0.049211604456253499 0.061852269818754892 0 0.048959927327402147 0.061764837404545719 0 0.049097716593388609 0.061876447590875565 0 0.048886615231540052 0.062094865121207543 0 0.087871199207628356 0.059431869809900839 0 0.087287868443918185 0.060825694669992152 0 0.086762144867722157 0.060054556732690584 0 0.059934918825686377 0.059564848764091918 0 0.056902578280154131 0.069252164171357919 0 0.056902578280154131 0.069252164171357919 0 0.046429951055898332 0.070781701453973223 0 0.046816220119513037 0.085584568956637339 0 0.042529514878206734 0.086387969151546035 0 0.04314613880334163 0.08362676547060155 0 0.042529514878206734 0.086387969151546035 0 0.040617066499432516 0.08521343053648546 0 0.04314613880334163 0.08362676547060155 0 0.042529514878206734 0.086387969151546035 0 0.040617066499432516 0.08521343053648546 0 0.038220109120623791 0.087190373761087916 0 0.040617066499432516 0.08521343053648546 0 0.039714940262105973 0.084236119682512461 0 0.040626625567562871 0.083249681175363202 0 0.049179613280158178 0.061989123981852731 0 0.049295689695222293 0.061854996016959991 0 0.049400564004238957 0.061922878835898663 0 0.046429951055898332 0.070781701453973223 0 0.041582325351955551 0.068613994826704855 0 0.049179613280158178 0.061989123981852731 0 0.049295689695222293 0.061854996016959991 0 0.049211604456253499 0.061852269818754892 0 0.026522818697581288 0.067845969697139977 0 0.027575604630463497 0.069679024581990462 0 0.029233640393475611 0.068147068548551182 0 0.040923448052800349 0.065331808505891861 0 0.041582325351955551 0.068613994826704855 0 0.049295689695222293 0.061854996016959991 0 0.049376346682887109 0.061843134243917935 0 0.049400564004238957 0.061922878835898663 0 0.038626194680717228 0.085595444116381508 0 0.037668061177211144 0.082005266076948358 0 0.037365845105387187 0.085103195968568579 0 0.038220109120623791 0.087190373761087916 0 0.038626194680717228 0.085595444116381508 0 0.037365845105387187 0.085103195968568579 0 0.040617066499432516 0.08521343053648546 0 0.038220109120623791 0.087190373761087916 0 0.038626194680717228 0.085595444116381508 0 0.041582325351955551 0.068613994826704855 0 0.039160235056798831 0.073344219650648343 0 0.038626194680717228 0.085595444116381508 0 0.039714940262105973 0.084236119682512461 0 0.039139068295606871 0.083127360864805863 0 0.040617066499432516 0.08521343053648546 0 0.038626194680717228 0.085595444116381508 0 0.039714940262105973 0.084236119682512461 0 0.037997711194596474 0.083290091235724159 0 0.037566069693682064 0.081585203876121434 0 0.038626194680717228 0.085595444116381508 0 0.039139068295606871 0.083127360864805863 0 0.037769316579294068 0.082100831312622913 0 0.039714940262105973 0.084236119682512461 0 0.039139068295606871 0.083127360864805863 0 0.040626625567562871 0.083249681175363202 0 0.039139068295606871 0.083127360864805863 0 0.040626625567562871 0.083249681175363202 0 0.039663713728119741 0.081600960827155775 0 0.039139068295606871 0.083127360864805863 0 0.037769316579294068 0.082100831312622913 0 0.039663713728119741 0.081600960827155775 0 0.040626625567562871 0.083249681175363202 0 0.041417882724878646 0.081652187589742187 0 0.04314613880334163 0.08362676547060155 0 0.040617066499432516 0.08521343053648546 0 0.040626625567562871 0.083249681175363202 0 0.04314613880334163 0.08362676547060155 0 0.040626625567562871 0.083249681175363202 0 0.041417882724878646 0.081652187589742187 0 0.039663713728119741 0.081600960827155775 0 0.041417882724878646 0.081652187589742187 0 0.040728175710197469 0.079911081295906211 0 0.043244878623503256 0.080604557889420281 0 0.041417882724878646 0.081652187589742187 0 0.040728175710197469 0.079911081295906211 0 0.039663713728119741 0.081600960827155775 0 0.037769316579294068 0.082100831312622913 0 0.038806031158556117 0.079930638942481119 0 0.036839042748379257 0.078570782817648385 0 0.037769316579294068 0.082100831312622913 0 0.039663713728119741 0.081600960827155775 0 0.038806031158556117 0.079930638942481119 0 0.040728175710197469 0.079911081295906211 0 0.039663713728119741 0.081600960827155775 0 0.038806031158556117 0.079930638942481119 0 0.040728175710197469 0.079911081295906211 0 0.038806031158556117 0.079930638942481119 0 0.039034613054508137 0.077452467233376884 0 0.038806031158556117 0.079930638942481119 0 0.039034613054508137 0.077452467233376884 0 0.036839042748379257 0.078570782817648385 0 0.040728175710197469 0.079911081295906211 0 0.039034613054508137 0.077452467233376884 0 0.04220999668042931 0.077748048095686986 0 0.040728175710197469 0.079911081295906211 0 0.04220999668042931 0.077748048095686986 0 0.043244878623503256 0.080604557889420281 0 0.04000706324948429 0.07499997013946455 0 0.044131725464622774 0.074999977728660946 0 0.04220999668042931 0.077748048095686986 0 0.039034613054508137 0.077452467233376884 0 0.04000706324948429 0.07499997013946455 0 0.04220999668042931 0.077748048095686986 0 0.039034613054508137 0.077452467233376884 0 0.04000706324948429 0.07499997013946455 0 0.035882436807809052 0.07499998876707524 0 0.044131725464622774 0.074999977728660946 0 0.046102342956059673 0.078607254595043169 0 0.048256463841393982 0.074999944233422725 0 0.044131725464622774 0.074999977728660946 0 0.04220999668042931 0.077748048095686986 0 0.046102342956059673 0.078607254595043169 0 0.04220999668042931 0.077748048095686986 0 0.046102342956059673 0.078607254595043169 0 0.043244878623503256 0.080604557889420281 0 0.046102342956059673 0.078607254595043169 0 0.045560067363427471 0.082040002547308033 0 0.048490732296586542 0.081750391686564797 0 0.046102342956059673 0.078607254595043169 0 0.043244878623503256 0.080604557889420281 0 0.045560067363427471 0.082040002547308033 0 0.043244878623503256 0.080604557889420281 0 0.04314613880334163 0.08362676547060155 0 0.045560067363427471 0.082040002547308033 0 0.041417882724878646 0.081652187589742187 0 0.043244878623503256 0.080604557889420281 0 0.04314613880334163 0.08362676547060155 0 0.046816220119513037 0.085584568956637339 0 0.04314613880334163 0.08362676547060155 0 0.045560067363427471 0.082040002547308033 0 0.047288463003179175 0.085298407357279823 0 0.048800194154645378 0.081648598609987716 0 0.051041104755139857 0.084647635002897015 0 0.046816220119513037 0.085584568956637339 0 0.045560067363427471 0.082040002547308033 0 0.048490732296586542 0.081750391686564797 0 0.056902578280154131 0.069252164171357919 0 0.050921812985071535 0.079798008034010104 0 0.048800194154645378 0.081648598609987716 0 0.052130506763801751 0.0808810985746901 0 0.051041104755139857 0.084647635002897015 0 0.050921812985071535 0.079798008034010104 0 0.050631542731248258 0.079534856733448636 0 0.048800194154645378 0.081648598609987716 0 0.050244668202512714 0.077863007874942811 0 0.052130506763801751 0.0808810985746901 0 0.046102342956059673 0.078607254595043169 0 0.048490732296586542 0.081750391686564797 0 0.050244668202512714 0.077863007874942811 0 0.050244668202512714 0.077863007874942811 0 0.048256463841393982 0.074999944233422725 0 0.052381199327960704 0.074999973199261549 0 0.046102342956059673 0.078607254595043169 0 0.050244668202512714 0.077863007874942811 0 0.048256463841393982 0.074999944233422725 0 0.052381199327960704 0.074999973199261549 0 0.05286762303251074 0.077568478797225213 0 0.056505833579569745 0.074999961635434681 0 0.050244668202512714 0.077863007874942811 0 0.052381199327960704 0.074999973199261549 0 0.05286762303251074 0.077568478797225213 0 0.05286762303251074 0.077568478797225213 0 0.05497869330314898 0.079436768233880309 0 0.052130506763801751 0.0808810985746901 0 0.050244668202512714 0.077863007874942811 0 0.05286762303251074 0.077568478797225213 0 0.052130506763801751 0.0808810985746901 0 0.05286762303251074 0.077568478797225213 0 0.05497869330314898 0.079436768233880309 0 0.056505833579569745 0.074999961635434681 0 0.05497869330314898 0.079436768233880309 0 0.054944385309446425 0.084003185262551155 0 0.057436859194163192 0.0810743591474576 0 0.05497869330314898 0.079436768233880309 0 0.052130506763801751 0.0808810985746901 0 0.054944385309446425 0.084003185262551155 0 0.052130506763801751 0.0808810985746901 0 0.054944385309446425 0.084003185262551155 0 0.051041104755139857 0.084647635002897015 0 0.084787516916845412 0.061499783115853038 0 0.084981260173645004 0.060414730062131126 0 0.084197570519837325 0.060955012336532659 0 0.084467616757374339 0.059841532741207348 0 0.083790843609394414 0.0593424918367755 0 0.084981260173645004 0.060414730062131126 0 0.084935345855685351 0.059385369311412042 0 0.083448527887652335 0.059162894855986796 0 0.084981260173645004 0.060414730062131126 0 0.085981012891154007 0.059815517034122731 0 0.084935345855685351 0.059385369311412042 0 0.084981260173645004 0.060414730062131126 0 0.085933725006543102 0.061139752490901471 0 0.085981012891154007 0.059815517034122731 0 0.084787516916845412 0.061499783115853038 0 0.084981260173645004 0.060414730062131126 0 0.085933725006543102 0.061139752490901471 0 0.069373043450748254 0.071177808289823008 0 0.0664342849283487 0.070509907634420596 0 0.056902578280154131 0.069252164171357919 0 0.0664342849283487 0.070509907634420596 0 0.087287868443918185 0.060825694669992152 0 0.085933725006543102 0.061139752490901471 0 0.086762144867722157 0.060054556732690584 0 0.085933725006543102 0.061139752490901471 0 0.086762144867722157 0.060054556732690584 0 0.085981012891154007 0.059815517034122731 0 0.085981012891154007 0.059815517034122731 0 0.086115192726953949 0.05891401149531602 0 0.085492159423988051 0.058805194502652133 0 0.085981012891154007 0.059815517034122731 0 0.086115192726953949 0.05891401149531602 0 0.086772825329814257 0.059033592665169436 0 0.086115192726953949 0.05891401149531602 0 0.086772825329814257 0.059033592665169436 0 0.086405833505977719 0.058332136948893859 0 0.086115192726953949 0.05891401149531602 0 0.085946033195897734 0.058480400752915315 0 0.085492159423988051 0.058805194502652133 0 0.086762144867722157 0.060054556732690584 0 0.085981012891154007 0.059815517034122731 0 0.086772825329814257 0.059033592665169436 0 0.087871199207628356 0.059431869809900839 0 0.086762144867722157 0.060054556732690584 0 0.086772825329814257 0.059033592665169436 0 0.086772825329814257 0.059033592665169436 0 0.087265437816055835 0.058576624518692347 0 0.086830999547350407 0.058409227275775556 0 0.087265437816055835 0.058576624518692347 0 0.086830999547350407 0.058409227275775556 0 0.087014103921167249 0.058086665496070354 0 0.086772825329814257 0.059033592665169436 0 0.086830999547350407 0.058409227275775556 0 0.086405833505977719 0.058332136948893859 0 0.086830999547350407 0.058409227275775556 0 0.086700663238273273 0.058039415283581156 0 0.086405833505977719 0.058332136948893859 0 0.086444692094753806 0.057896384125549573 0 0.086700663238273273 0.058039415283581156 0 0.086405833505977719 0.058332136948893859 0 0.086444692094753806 0.057896384125549573 0 0.086583441698501212 0.057866170486932718 0 0.086700663238273273 0.058039415283581156 0 0.08681260512713071 0.057815923665554346 0 0.086583441698501212 0.057866170486932718 0 0.086700663238273273 0.058039415283581156 0 0.087356576327934518 0.057935328616591238 0 0.087265437816055835 0.058576624518692347 0 0.087014103921167249 0.058086665496070354 0 0.086830999547350407 0.058409227275775556 0 0.086700663238273273 0.058039415283581156 0 0.087014103921167249 0.058086665496070354 0 0.08681260512713071 0.057815923665554346 0 0.086700663238273273 0.058039415283581156 0 0.087014103921167249 0.058086665496070354 0 0.08706819773750725 0.057838570209822915 0 0.08681260512713071 0.057815923665554346 0 0.087014103921167249 0.058086665496070354 0 0.08706819773750725 0.057838570209822915 0 0.087356576327934518 0.057935328616591238 0 0.087014103921167249 0.058086665496070354 0 0.085946033195897734 0.058480400752915315 0 0.086055883761984073 0.058094908531863179 0 0.085650138042359908 0.058262657386563999 0 0.086115192726953949 0.05891401149531602 0 0.085946033195897734 0.058480400752915315 0 0.086405833505977719 0.058332136948893859 0 0.085946033195897734 0.058480400752915315 0 0.086405833505977719 0.058332136948893859 0 0.086055883761984073 0.058094908531863179 0 0.086444692094753806 0.057896384125549573 0 0.086405833505977719 0.058332136948893859 0 0.086282382185193518 0.058052262756934224 0 0.086405833505977719 0.058332136948893859 0 0.086282382185193518 0.058052262756934224 0 0.086055883761984073 0.058094908531863179 0 0.086444692094753806 0.057896384125549573 0 0.086282382185193518 0.058052262756934224 0 0.086202971517596427 0.057860312618976922 0 0.086282382185193518 0.058052262756934224 0 0.086202971517596427 0.057860312618976922 0 0.086055883761984073 0.058094908531863179 0 0.08595543696271897 0.057763411887027764 0 0.086055883761984073 0.058094908531863179 0 0.085791389641779028 0.057923522515867819 0 0.086055883761984073 0.058094908531863179 0 0.085791389641779028 0.057923522515867819 0 0.085650138042359908 0.058262657386563999 0 0.08595543696271897 0.057763411887027764 0 0.086202971517596427 0.057860312618976922 0 0.086055883761984073 0.058094908531863179 0 0.085121589023099686 0.058127688453394472 0 0.084567412238892456 0.058650037609977404 0 0.085492159423988051 0.058805194502652133 0 0.085531074896026751 0.057806030239143817 0 0.085791389641779028 0.057923522515867819 0 0.085650138042359908 0.058262657386563999 0 0.085531074896026751 0.057806030239143817 0 0.085650138042359908 0.058262657386563999 0 0.085121589023099686 0.058127688453394472 0 0.085650138042359908 0.058262657386563999 0 0.085121589023099686 0.058127688453394472 0 0.085492159423988051 0.058805194502652133 0 0.085946033195897734 0.058480400752915315 0 0.085650138042359908 0.058262657386563999 0 0.085492159423988051 0.058805194502652133 0 0.085124746788888164 0.057631952042722749 0 0.085531074896026751 0.057806030239143817 0 0.085121589023099686 0.058127688453394472 0 0.084366885937686723 0.057671294767678426 0 0.085121589023099686 0.058127688453394472 0 0.084567412238892456 0.058650037609977404 0 0.084366885937686723 0.057671294767678426 0 0.084567412238892456 0.058650037609977404 0 0.083448527887652335 0.059162894855986796 0 0.084366885937686723 0.057671294767678426 0 0.085124746788888164 0.057631952042722749 0 0.085121589023099686 0.058127688453394472 0 0.084567412238892456 0.058650037609977404 0 0.084935345855685351 0.059385369311412042 0 0.083448527887652335 0.059162894855986796 0 0.084567412238892456 0.058650037609977404 0 0.084935345855685351 0.059385369311412042 0 0.085492159423988051 0.058805194502652133 0 0.085981012891154007 0.059815517034122731 0 0.084935345855685351 0.059385369311412042 0 0.085492159423988051 0.058805194502652133 0 0.083790843609394414 0.0593424918367755 0 0.082626296067563429 0.058439770694360196 0 0.084205923915388559 0.059906631085819569 0 0.083050302617243638 0.058695639186086043 0 0.083300380830241244 0.06067052978870173 0 0.083063144789201931 0.057520376687515883 0 0.084366885937686723 0.057671294767678426 0 0.083448527887652335 0.059162894855986796 0 0.083063144789201931 0.057520376687515883 0 0.083448527887652335 0.059162894855986796 0 0.082225104508662675 0.058047939471643335 0 0.081865458138958583 0.057854916933347454 0 0.082626296067563429 0.058439770694360196 0 0.081256235147656466 0.057033140075159354 0 0.083050302617243638 0.058695639186086043 0 0.081657702997154136 0.058734947182732367 0 0.081657702997154136 0.058734947182732367 0 0.082209482526717517 0.059914376894174719 0 0.081193223095175321 0.059564460253763739 0 0.082209482526717517 0.059914376894174719 0 0.081525818985249479 0.060615144953962648 0 0.081193223095175321 0.059564460253763739 0 0.083050302617243638 0.058695639186086043 0 0.081657702997154136 0.058734947182732367 0 0.082209482526717517 0.059914376894174719 0 0.083050302617243638 0.058695639186086043 0 0.082209482526717517 0.059914376894174719 0 0.083300380830241244 0.06067052978870173 0 0.082209482526717517 0.059914376894174719 0 0.082145875305236274 0.061248099157626176 0 0.083300380830241244 0.06067052978870173 0 0.082209482526717517 0.059914376894174719 0 0.081525818985249479 0.060615144953962648 0 0.082145875305236274 0.061248099157626176 0 0.081525818985249479 0.060615144953962648 0 0.082145875305236274 0.061248099157626176 0 0.081028670682354489 0.061508158038251132 0 0.082145875305236274 0.061248099157626176 0 0.081254984819378373 0.062437776003404881 0 0.081028670682354489 0.061508158038251132 0 0.082145875305236274 0.061248099157626176 0 0.081254984819378373 0.062437776003404881 0 0.082279233803966539 0.062203199580822779 0 0.082145875305236274 0.061248099157626176 0 0.08291366384209331 0.061513680173944839 0 0.083300380830241244 0.06067052978870173 0 0.082145875305236274 0.061248099157626176 0 0.08291366384209331 0.061513680173944839 0 0.082279233803966539 0.062203199580822779 0 0.08291366384209331 0.061513680173944839 0 0.082279233803966539 0.062203199580822779 0 0.0831239749215541 0.062132934190369166 0 0.08348446595993371 0.061467782374389476 0 0.084197570519837325 0.060955012336532659 0 0.083746503093389588 0.062109229579949292 0 0.08348446595993371 0.061467782374389476 0 0.083300380830241244 0.06067052978870173 0 0.084197570519837325 0.060955012336532659 0 0.08291366384209331 0.061513680173944839 0 0.08348446595993371 0.061467782374389476 0 0.0831239749215541 0.062132934190369166 0 0.08291366384209331 0.061513680173944839 0 0.08348446595993371 0.061467782374389476 0 0.083300380830241244 0.06067052978870173 0 0.084981260173645004 0.060414730062131126 0 0.084205923915388559 0.059906631085819569 0 0.084197570519837325 0.060955012336532659 0 0.084205923915388559 0.059906631085819569 0 0.083300380830241244 0.06067052978870173 0 0.084197570519837325 0.060955012336532659 0 0.084787516916845412 0.061499783115853038 0 0.084197570519837325 0.060955012336532659 0 0.083746503093389588 0.062109229579949292 0 0.069373043450748254 0.071177808289823008 0 0.07148002026974308 0.070881282173012608 0 0.054944385309446425 0.084003185262551155 0 0.058947413645304286 0.08330412612989084 0 0.057436859194163192 0.0810743591474576 0 0.058947413645304286 0.08330412612989084 0 0.060578041499388113 0.081047517947744757 0 0.062958933608784892 0.082553972410161172 0 0.07148002026974308 0.070881282173012608 0 0.07557562772952571 0.06901038320998916 0 0.08348446595993371 0.061467782374389476 0 0.083746503093389588 0.062109229579949292 0 0.0831239749215541 0.062132934190369166 0 0.058947413645304286 0.08330412612989084 0 0.060578041499388113 0.081047517947744757 0 0.057436859194163192 0.0810743591474576 0 0.060578041499388113 0.081047517947744757 0 0.057436859194163192 0.0810743591474576 0 0.058593744597832099 0.078341158366614205 0 0.05497869330314898 0.079436768233880309 0 0.057436859194163192 0.0810743591474576 0 0.058593744597832099 0.078341158366614205 0 0.05497869330314898 0.079436768233880309 0 0.058593744597832099 0.078341158366614205 0 0.056505833579569745 0.074999961635434681 0 0.058593744597832099 0.078341158366614205 0 0.060630551885545385 0.074999956540948112 0 0.062234764703116743 0.078912691749971647 0 0.060578041499388113 0.081047517947744757 0 0.058593744597832099 0.078341158366614205 0 0.062234764703116743 0.078912691749971647 0 0.058593744597832099 0.078341158366614205 0 0.060630551885545385 0.074999956540948112 0 0.056505833579569745 0.074999961635434681 0 0.063849872536346094 0.077128968156826266 0 0.064755109844251924 0.074999949792075429 0 0.066224922332497438 0.077185196613855922 0 0.06476467661965439 0.074996943436142063 0 0.068797414483762115 0.074520425215432798 0 0.060630551885545385 0.074999956540948112 0 0.063849872536346094 0.077128968156826266 0 0.062234764703116743 0.078912691749971647 0 0.060630551885545385 0.074999956540948112 0 0.063849872536346094 0.077128968156826266 0 0.064755109844251924 0.074999949792075429 0 0.063849872536346094 0.077128968156826266 0 0.065079156554210635 0.078712920604981265 0 0.066224922332497438 0.077185196613855922 0 0.062234764703116743 0.078912691749971647 0 0.065079156554210635 0.078712920604981265 0 0.065347853278528573 0.080967843514077251 0 0.063849872536346094 0.077128968156826266 0 0.062234764703116743 0.078912691749971647 0 0.065079156554210635 0.078712920604981265 0 0.073724396706006459 0.07137494643216645 0 0.07557562772952571 0.06901038320998916 0 0.062234764703116743 0.078912691749971647 0 0.065347853278528573 0.080967843514077251 0 0.062958933608784892 0.082553972410161172 0 0.081126819895181265 0.064148801591725021 0 0.082223771272012469 0.063384164548764887 0 0.081117284262661196 0.063594029954055012 0 0.060578041499388113 0.081047517947744757 0 0.062234764703116743 0.078912691749971647 0 0.062958933608784892 0.082553972410161172 0 0.083746503093389588 0.062109229579949292 0 0.082500233548836274 0.06268398255008166 0 0.0831239749215541 0.062132934190369166 0 0.082279233803966539 0.062203199580822779 0 0.082329589335955106 0.063108377605480576 0 0.0831239749215541 0.062132934190369166 0 0.07557562772952571 0.06901038320998916 0 0.078070618350345594 0.067177060508112826 0 0.082329589335955106 0.063108377605480576 0 0.081117284262661196 0.063594029954055012 0 0.081620548012171362 0.062887261326643851 0 0.07557562772952571 0.06901038320998916 0 0.077784484868729534 0.068128019118852468 0 0.081117284262661196 0.063594029954055012 0 0.081620548012171362 0.062887261326643851 0 0.081011251968231418 0.063097658510416044 0 0.082279233803966539 0.062203199580822779 0 0.082329589335955106 0.063108377605480576 0 0.081620548012171362 0.062887261326643851 0 0.081254984819378373 0.062437776003404881 0 0.082279233803966539 0.062203199580822779 0 0.081620548012171362 0.062887261326643851 0 0.081254984819378373 0.062437776003404881 0 0.081620548012171362 0.062887261326643851 0 0.081011251968231418 0.063097658510416044 0 0.081254984819378373 0.062437776003404881 0 0.081011251968231418 0.063097658510416044 0 0.080447557243664841 0.063066872611857366 0 0.081254984819378373 0.062437776003404881 0 0.080447557243664841 0.063066872611857366 0 0.080275673761208283 0.062391781462018063 0 0.080447557243664841 0.063066872611857366 0 0.079731090763697873 0.062993585433188712 0 0.080275673761208283 0.062391781462018063 0 0.080447557243664841 0.063066872611857366 0 0.079977853690683817 0.063731751220216251 0 0.080596370005747986 0.063663342688788913 0 0.080447557243664841 0.063066872611857366 0 0.079977853690683817 0.063731751220216251 0 0.079731090763697873 0.062993585433188712 0 0.081011251968231418 0.063097658510416044 0 0.080447557243664841 0.063066872611857366 0 0.080596370005747986 0.063663342688788913 0 0.081117284262661196 0.063594029954055012 0 0.081011251968231418 0.063097658510416044 0 0.080596370005747986 0.063663342688788913 0 0.079977853690683817 0.063731751220216251 0 0.078865877773031584 0.063309730683040633 0 0.079731090763697873 0.062993585433188712 0 0.078865877773031584 0.063309730683040633 0 0.079731090763697873 0.062993585433188712 0 0.079190214347973492 0.062473324924031105 0 0.073802921992820916 0.072472253963647204 0 0.074769902108527075 0.070949557760420376 0 0.079977853690683817 0.063731751220216251 0 0.078865877773031584 0.063309730683040633 0 0.079989634477719243 0.064898314340631258 0 0.082450390091000275 0.070764799417951024 0 0.08178309113459642 0.071208851105643636 0 0.079146257601081224 0.069634624950237853 0 0.079813110250495339 0.066752250567344004 0 0.082450390091000275 0.070764799417951024 0 0.079146257601081224 0.069634624950237853 0 0.075611066389354067 0.067628012480076383 0 0.073083845626353561 0.072659835768592487 0 0.073724396706006459 0.07137494643216645 0 0.073083845626353561 0.072659835768592487 0 0.081126819895181265 0.064148801591725021 0 0.080394923554787126 0.064166628280197258 0 0.079989634477719243 0.064898314340631258 0 0.065079156554210635 0.078712920604981265 0 0.065347853278528573 0.080967843514077251 0 0.067724452487526149 0.079377070140267347 0 0.079977853690683817 0.063731751220216251 0 0.080394923554787126 0.064166628280197258 0 0.079989634477719243 0.064898314340631258 0 0.081126819895181265 0.064148801591725021 0 0.080596370005747986 0.063663342688788913 0 0.080394923554787126 0.064166628280197258 0 0.081126819895181265 0.064148801591725021 0 0.081117284262661196 0.063594029954055012 0 0.080596370005747986 0.063663342688788913 0 0.079977853690683817 0.063731751220216251 0 0.080596370005747986 0.063663342688788913 0 0.080394923554787126 0.064166628280197258 0 0.065079156554210635 0.078712920604981265 0 0.067724452487526149 0.079377070140267347 0 0.066224922332497438 0.077185196613855922 0 0.067670626431726943 0.077682148635554255 0 0.068012131412119689 0.078772270167619882 0 0.066287907339312294 0.077222528351578432 0 0.073083845626353561 0.072659835768592487 0 0.068797414483762115 0.074520425215432798 0 0.067810808849418022 0.079428247037936606 0 0.068012131412119689 0.078772270167619882 0 0.066287907339312294 0.077222528351578432 0 0.073483989514531875 0.071617442831124659 0 0.074123309302259577 0.071190467126155718 0 0.074412764278641658 0.072163922811345302 0 0.073083845626353561 0.072659835768592487 0 0.073802921992820916 0.072472253963647204 0 0.067810808849418022 0.079428247037936606 0 0.068012131412119689 0.078772270167619882 0 0.068427730504681178 0.079013952492143269 0 0.068012131412119689 0.078772270167619882 0 0.068426947301413743 0.079016662189015444 0 0.068488089718988121 0.078033220987428251 0 0.073761716702060859 0.072488907896280569 0 0.073802921992820916 0.072472253963647204 0 0.073802921992820916 0.072472253963647204 0 0.072650774865094664 0.073373708330175633 0 0.068426947301413743 0.079016662189015444 0 0.070123470128981735 0.077885241502810315 0 0.068488089718988121 0.078033220987428251 0 0.067670626431726943 0.077682148635554255 0 0.068488089718988121 0.078033220987428251 0 0.068206525239849103 0.076808146971538177 0 0.070123470128981735 0.077885241502810315 0 0.068488089718988121 0.078033220987428251 0 0.068206525239849103 0.076808146971538177 0 0.067670626431726943 0.077682148635554255 0 0.068012131412119689 0.078772270167619882 0 0.068488089718988121 0.078033220987428251 0 0.070123470128981735 0.077885241502810315 0 0.068206525239849103 0.076808146971538177 0 0.069274309667951076 0.074999971004088006 0 0.072650774865094664 0.073373708330175633 0 0.069282640942438675 0.074997782782648861 0 0.064755290765160484 0.074999991569348265 0 0.068206525239849103 0.076808146971538177 0 0.069274309667951076 0.074999971004088006 0 0.064755290765160484 0.074999991569348265 0 0.068206525239849103 0.076808146971538177 0 0.066287907339312294 0.077222528351578432 0 0.067670626431726943 0.077682148635554255 0 0.068206525239849103 0.076808146971538177 0 0.066287907339312294 0.077222528351578432 0 0.06927655661172083 0.07499900558330086 0 0.074999485417987385 0.074999709323990013 0 0.074338067608768682 0.074972034411322039 0 0.074999485417987385 0.074999709323990013 0 0.076246428914929942 0.071463656336235443 0 0.074998793051979734 0.067037318410980637 0 0.074999485417987385 0.074999709323990013 0 0.074338067608768682 0.074972034411322039 0 0.076246428914929942 0.071463656336235443 0 0.074338067608768682 0.074972034411322039 0 0.077077861139180553 0.073684632748198059 0 0.076246428914929942 0.071463656336235443 0 0.073446310977429846 0.073691525876126249 0 0.073281351292769831 0.073608087295675168 0 0.070242196964815831 0.077925962414191585 0 0.06927655661172083 0.07499900558330086 0 0.07225404657290331 0.0765593163375001 0 0.06927655661172083 0.07499900558330086 0 0.074338067608768682 0.074972034411322039 0 0.07225404657290331 0.0765593163375001 0 0.072650774865094664 0.073373708330175633 0 0.073281351292769831 0.073608087295675168 0 0.072650774865094664 0.073373708330175633 0 0.074769902108527075 0.070949557760420376 0 0.077077861139180553 0.073684632748198059 0 0.077747626714082377 0.071761882587808162 0 0.076246428914929942 0.071463656336235443 0 0.079207140226233819 0.072331667207963302 0 0.077747626714082377 0.071761882587808162 0 0.078451363009553715 0.069628613568369718 0 0.079207140226233819 0.072331667207963302 0 0.077077861139180553 0.073684632748198059 0 0.077747626714082377 0.071761882587808162 0 0.077747626714082377 0.071761882587808162 0 0.076246428914929942 0.071463656336235443 0 0.078451363009553715 0.069628613568369718 0 0.076246428914929942 0.071463656336235443 0 0.076587855081296452 0.06839626480773385 0 0.074998793051979734 0.067037318410980637 0 0.076246428914929942 0.071463656336235443 0 0.076587855081296452 0.06839626480773385 0 0.078451363009553715 0.069628613568369718 0 0.07529952648395824 0.069066055478924082 0 0.074769902108527075 0.070949557760420376 0 0.074769902108527075 0.070949557760420376 0 0.075328605257756129 0.068610255938689552 0 0.079813110250495339 0.066752250567344004 0 0.079146257601081224 0.069634624950237853 0 0.077922969065941719 0.065255892312475347 0 0.07705160307573572 0.068214785122910154 0 0.07918873525438469 0.069485191394573931 0 0.077922969065941719 0.065255892312475347 0 0.07705160307573572 0.068214785122910154 0 0.074999965635315802 0.067036042555485356 0 0.077922969065941719 0.065255892312475347 0 0.07529952648395824 0.069066055478924082 0 0.074999355718613742 0.067041023560317395 0 0.077211859182553272 0.062567153700619521 0 0.074999935950377031 0.062614425339704488 0 0.077922969065941719 0.065255892312475347 0 0.074999965635315802 0.067036042555485356 0 0.074999935950377031 0.062614425339704488 0 0.077922969065941719 0.065255892312475347 0 0.077211859182553272 0.062567153700619521 0 0.074999935950377031 0.062614425339704488 0 0.077057600497330472 0.060041335836390139 0 0.077211859182553272 0.062567153700619521 0 0.078140202831802313 0.060976559069467071 0 0.077057600497330472 0.060041335836390139 0 0.077211859182553272 0.062567153700619521 0 0.078140202831802313 0.060976559069467071 0 0.078905816356011432 0.061600698730700613 0 0.078865877773031584 0.063309730683040633 0 0.077211859182553272 0.062567153700619521 0 0.079190214347973492 0.062473324924031105 0 0.079813110250495339 0.066752250567344004 0 0.077211859182553272 0.062567153700619521 0 0.077922969065941719 0.065255892312475347 0 0.075611066389354067 0.067628012480076383 0 0.075631808708959247 0.065434222680401014 0 0.077211859182553272 0.062567153700619521 0 0.079190214347973492 0.062473324924031105 0 0.078905816356011432 0.061600698730700613 0 0.079731090763697873 0.062993585433188712 0 0.079190214347973492 0.062473324924031105 0 0.080275673761208283 0.062391781462018063 0 0.079190214347973492 0.062473324924031105 0 0.080275673761208283 0.062391781462018063 0 0.079987090086634668 0.061524649792582542 0 0.079190214347973492 0.062473324924031105 0 0.078905816356011432 0.061600698730700613 0 0.079987090086634668 0.061524649792582542 0 0.081254984819378373 0.062437776003404881 0 0.080275673761208283 0.062391781462018063 0 0.081028670682354489 0.061508158038251132 0 0.080275673761208283 0.062391781462018063 0 0.081028670682354489 0.061508158038251132 0 0.079987090086634668 0.061524649792582542 0 0.081525818985249479 0.060615144953962648 0 0.081028670682354489 0.061508158038251132 0 0.080719684048407708 0.060690790164344886 0 0.081028670682354489 0.061508158038251132 0 0.080719684048407708 0.060690790164344886 0 0.079987090086634668 0.061524649792582542 0 0.080719684048407708 0.060690790164344886 0 0.079987090086634668 0.061524649792582542 0 0.079709071592788797 0.060273347337307097 0 0.081525818985249479 0.060615144953962648 0 0.080719684048407708 0.060690790164344886 0 0.081193223095175321 0.059564460253763739 0 0.078140202831802313 0.060976559069467071 0 0.078905816356011432 0.061600698730700613 0 0.079709071592788797 0.060273347337307097 0 0.078905816356011432 0.061600698730700613 0 0.079987090086634668 0.061524649792582542 0 0.079709071592788797 0.060273347337307097 0 0.078140202831802313 0.060976559069467071 0 0.079709071592788797 0.060273347337307097 0 0.078832183757881508 0.059155360745524417 0 0.079709071592788797 0.060273347337307097 0 0.080562403478863662 0.058426501540041233 0 0.078832183757881508 0.059155360745524417 0 0.079709071592788797 0.060273347337307097 0 0.081193223095175321 0.059564460253763739 0 0.080562403478863662 0.058426501540041233 0 0.081657702997154136 0.058734947182732367 0 0.081193223095175321 0.059564460253763739 0 0.080562403478863662 0.058426501540041233 0 0.080719684048407708 0.060690790164344886 0 0.079709071592788797 0.060273347337307097 0 0.081193223095175321 0.059564460253763739 0 0.080010644608825857 0.056525880810252831 0 0.081256235147656466 0.057033140075159354 0 0.080562403478863662 0.058426501540041233 0 0.081256235147656466 0.057033140075159354 0 0.081657702997154136 0.058734947182732367 0 0.080562403478863662 0.058426501540041233 0 0.080010644608825857 0.056525880810252831 0 0.080562403478863662 0.058426501540041233 0 0.078832183757881508 0.059155360745524417 0 0.080010644608825857 0.056525880810252831 0 0.077600235948692919 0.057032213087528039 0 0.078832183757881508 0.059155360745524417 0 0.077600235948692919 0.057032213087528039 0 0.074999981774966015 0.058196158968334209 0 0.077057600497330472 0.060041335836390139 0 0.074999935950377031 0.062614425339704488 0 0.074999981774966015 0.058196158968334209 0 0.077057600497330472 0.060041335836390139 0 0.078140202831802313 0.060976559069467071 0 0.077057600497330472 0.060041335836390139 0 0.078832183757881508 0.059155360745524417 0 0.077600235948692919 0.057032213087528039 0 0.077057600497330472 0.060041335836390139 0 0.078832183757881508 0.059155360745524417 0 0.019221497634124222 0.082418111711041117 0 0.019727379770153493 0.081553060091574439 0 0.01983937674891139 0.082075510644507146 0 0.027839011733735909 0.070027219959173825 0 0.035047974476797174 0.067654523174086739 0 0.019221497634124222 0.082418111711041117 0 0.01983937674891139 0.082075510644507146 0 0.019263900677913268 0.081904274411443725 0 0.019221497634124222 0.082418111711041117 0 0.01653429841064593 0.082772881542368601 0 0.018299711034654231 0.081912055103095932 0 0.019221497634124222 0.082418111711041117 0 0.01653429841064593 0.082772881542368601 0 0.016472853192982223 0.084145490207765017 0 0.019221497634124222 0.082418111711041117 0 0.016472853192982223 0.084145490207765017 0 0.017174937903005963 0.084696137149329678 0 0.015726391564875628 0.084103599102182125 0 0.016472853192982223 0.084145490207765017 0 0.017174937903005963 0.084696137149329678 0 0.06056918520399196 0.04628718260372091 0 0.057789234478581364 0.045051704557500287 0 0.056701185342864398 0.052389954118081075 0 0.06056918520399196 0.04628718260372091 0 0.057789234478581364 0.045051704557500287 0 0.058497239704716382 0.041342365718012267 0 0.026564434001805911 0.07370772452452197 0 0.027839011733735909 0.070027219959173825 0 0.057789234478581364 0.045051704557500287 0 0.05512635706602486 0.045786661594588648 0 0.056701185342864398 0.052389954118081075 0 0.057789234478581364 0.045051704557500287 0 0.05512635706602486 0.045786661594588648 0 0.055640738499421534 0.042013561182849504 0 0.05512635706602486 0.045786661594588648 0 0.052141928738728277 0.042697826574906624 0 0.055640738499421534 0.042013561182849504 0 0.05228862763836728 0.047213665362666406 0 0.052141928738728277 0.042697826574906624 0 0.047785973653021431 0.044543950263006497 0 0.05512635706602486 0.045786661594588648 0 0.05228862763836728 0.047213665362666406 0 0.052141928738728277 0.042697826574906624 0 0.051308696249711107 0.051017249590629588 0 0.056701185342864398 0.052389954118081075 0 0.049791841440795022 0.055306058939340985 0 0.05228862763836728 0.047213665362666406 0 0.051308696249711107 0.051017249590629588 0 0.056701185342864398 0.052389954118081075 0 0.05228862763836728 0.047213665362666406 0 0.051308696249711107 0.051017249590629588 0 0.047512342425228699 0.049581906549459841 0 0.051308696249711107 0.051017249590629588 0 0.049791841440795022 0.055306058939340985 0 0.047512342425228699 0.049581906549459841 0 0.05512635706602486 0.045786661594588648 0 0.05228862763836728 0.047213665362666406 0 0.056701185342864398 0.052389954118081075 0 0.01983937674891139 0.082075510644507146 0 0.019908067204357806 0.082108276847222939 0 0.020440030067440506 0.082897249339312945 0 0.035047974476797174 0.067654523174086739 0 0.034678153307872765 0.07145616602788879 0 0.01983937674891139 0.082075510644507146 0 0.019908067204357806 0.082108276847222939 0 0.019263900677913268 0.081904274411443725 0 0.056701185342864398 0.052389954118081075 0 0.049791841440795022 0.055306058939340985 0 0.05183643121710927 0.060839825764124597 0 0.020440030067440506 0.082897249339312945 0 0.020065068229400154 0.08195928872086955 0 0.020990774553487943 0.083740757230890528 0 0.019908067204357806 0.082108276847222939 0 0.020440030067440506 0.082897249339312945 0 0.020065068229400154 0.08195928872086955 0 0.019908067204357806 0.082108276847222939 0 0.020065068229400154 0.08195928872086955 0 0.019323163520583355 0.081663180083122525 0 0.017219802718834269 0.084944239402259064 0 0.014057190605098737 0.083861917521598259 0 0.014885527444536726 0.083733066445662932 0 0.020065068229400154 0.08195928872086955 0 0.019323163520583355 0.081663180083122525 0 0.017899681483108595 0.080585445991839075 0 0.017219802718834269 0.084944239402259064 0 0.013481773990735392 0.083851629324368765 0 0.014057190605098737 0.083861917521598259 0 0.017990573425593674 0.082837803119776884 0 0.016317452883280258 0.082683463932486642 0 0.019908067204357806 0.082108276847222939 0 0.019323163520583355 0.081663180083122525 0 0.019263900677913268 0.081904274411443725 0 0.019323163520583355 0.081663180083122525 0 0.018788346247109823 0.081507990732672758 0 0.017899681483108595 0.080585445991839075 0 0.019221497634124222 0.082418111711041117 0 0.019263900677913268 0.081904274411443725 0 0.018299711034654231 0.081912055103095932 0 0.019323163520583355 0.081663180083122525 0 0.018788346247109823 0.081507990732672758 0 0.019263900677913268 0.081904274411443725 0 0.018788346247109823 0.081507990732672758 0 0.019263900677913268 0.081904274411443725 0 0.018299711034654231 0.081912055103095932 0 0.01653429841064593 0.082772881542368601 0 0.018299711034654231 0.081912055103095932 0 0.017899681483108595 0.080585445991839075 0 0.013403752647449935 0.083503142486994558 0 0.013481773990735392 0.083851629324368765 0 0.013207744051520948 0.081461199578270693 0 0.018788346247109823 0.081507990732672758 0 0.018299711034654231 0.081912055103095932 0 0.017899681483108595 0.080585445991839075 0 0.013403752647449935 0.083503142486994558 0 0.013481773990735392 0.083851629324368765 0 0.014057190605098737 0.083861917521598259 0 0.014057190605098737 0.083861917521598259 0 0.013348525817490731 0.083674221491641887 0 0.014885527444536726 0.083733066445662932 0 0.013403752647449935 0.083503142486994558 0 0.014057190605098737 0.083861917521598259 0 0.013338552459912801 0.08369132195584969 0 0.014057190605098737 0.083861917521598259 0 0.013338552459912801 0.08369132195584969 0 0.013348525817490731 0.083674221491641887 0 0.013403752647449935 0.083503142486994558 0 0.013338552459912801 0.08369132195584969 0 0.012663785204469038 0.083716059399310733 0 0.013338552459912801 0.08369132195584969 0 0.012663785204469038 0.083716059399310733 0 0.013348525817490731 0.083674221491641887 0 0.013403752647449935 0.083503142486994558 0 0.012663785204469038 0.083716059399310733 0 0.011740798514075477 0.083927975478269051 0 0.013403752647449935 0.083503142486994558 0 0.012016723575692861 0.078794634693550747 0 0.013207744051520948 0.081461199578270693 0 0.011345542944625725 0.081990001510657495 0 0.0099973864973131495 0.081499619361867073 0 0.012016723575692861 0.078794634693550747 0 0.010308477195598161 0.080729057797445394 0 0.00817853992609055 0.07925923319047963 0 0.012016723575692861 0.078794634693550747 0 0.010308477195598161 0.080729057797445394 0 0.013207744051520948 0.081461199578270693 0 0.010308477195598161 0.080729057797445394 0 0.013207744051520948 0.081461199578270693 0 0.0093392726591940752 0.084703288016861875 0 0.016317452883280258 0.082683463932486642 0 0.015314192087704133 0.082637010691228988 0 0.01653429841064593 0.082772881542368601 0 0.017899681483108595 0.080585445991839075 0 0.013207744051520948 0.081461199578270693 0 0.00817853992609055 0.07925923319047963 0 0.0048020366617230869 0.07974018411410233 0 0.0057224827567623144 0.075468326831177254 0 0.0048020366617230869 0.07974018411410233 0 0.0057224827567623144 0.075468326831177254 0 0.0020859051509598756 0.078018176604332024 0 0.0048020366617230869 0.07974018411410233 0 0.0020859051509598756 0.078018176604332024 0 0.0016787599245533162 0.08051460793745191 0 0.012016723575692861 0.078794634693550747 0 0.00817853992609055 0.07925923319047963 0 0.0057224827567623144 0.075468326831177254 0 0.0099973864973131495 0.081499619361867073 0 0.0051350708079926418 0.080472839105813765 0 0.010308477195598161 0.080729057797445394 0 0.0073859417848525181 0.081493280075002936 0 0.0093392726591940752 0.084703288016861875 0 0.010308477195598161 0.080729057797445394 0 0.00817853992609055 0.07925923319047963 0 0.0073859417848525181 0.081493280075002936 0 0.00817853992609055 0.07925923319047963 0 0.0073859417848525181 0.081493280075002936 0 0.0048020366617230869 0.07974018411410233 0 0.0048020366617230869 0.07974018411410233 0 0.0033681552203583638 0.084157272373701714 0 0.0016787599245533162 0.08051460793745191 0 0.0073859417848525181 0.081493280075002936 0 0.0048020366617230869 0.07974018411410233 0 0.0033681552203583638 0.084157272373701714 0 0.0033681552203583638 0.084157272373701714 0 0.0093392726591940752 0.084703288016861875 0 0.0030348941743217465 0.091299563138151685 0 0.0073859417848525181 0.081493280075002936 0 0.0033681552203583638 0.084157272373701714 0 0.0093392726591940752 0.084703288016861875 0 0.0093392726591940752 0.084703288016861875 0 0.015346876363993423 0.085616591506789783 0 0.01109542829492534 0.092037588711721019 0 0.01653429841064593 0.082772881542368601 0 0.016472853192982223 0.084145490207765017 0 0.015346876363993423 0.085616591506789783 0 0.01653429841064593 0.082772881542368601 0 0.013207744051520948 0.081461199578270693 0 0.015346876363993423 0.085616591506789783 0 0.013207744051520948 0.081461199578270693 0 0.0093392726591940752 0.084703288016861875 0 0.015346876363993423 0.085616591506789783 0 0.015726391564875628 0.084103599102182125 0 0.016472853192982223 0.084145490207765017 0 0.015346876363993423 0.085616591506789783 0 0.015726391564875628 0.084103599102182125 0 0.015346876363993423 0.085616591506789783 0 0.014904666244881935 0.082290612465710983 0 0.015346876363993423 0.085616591506789783 0 0.014904666244881935 0.082290612465710983 0 0.019603104771652956 0.082218183969351141 0 0.012193102069928415 0.083882675007000543 0 0.010723503843027104 0.083584672513743977 0 0.019603104771652956 0.082218183969351141 0 0.018251415620149133 0.078610402163995924 0 0.023606706682845716 0.077264581411027891 0 0.014904666244881935 0.082290612465710983 0 0.019603104771652956 0.082218183969351141 0 0.018251415620149133 0.078610402163995924 0 0.014904666244881935 0.082290612465710983 0 0.018251415620149133 0.078610402163995924 0 0.014910061604150343 0.078455285604673033 0 0.0093392726591940752 0.084703288016861875 0 0.01109542829492534 0.092037588711721019 0 0.0030348941743217465 0.091299563138151685 0 0.010723503843027104 0.083584672513743977 0 0.005812088965136018 0.081079879220972997 0 0.01109542829492534 0.092037588711721019 0 0.0030348941743217465 0.091299563138151685 0 0.0071292489032268825 0.098151362955943205 0 0.0030348941743217465 0.091299563138151685 0 0.0071292489032268825 0.098151362955943205 0 0.0012846908306350742 0.09832980231817133 0 0.005812088965136018 0.081079879220972997 0 -0.0056628575485421712 0.073530479929509007 0 0.0071292489032268825 0.098151362955943205 0 0.0013878914256587375 0.10337078526684922 0 0.0012846908306350742 0.09832980231817133 0 0.023606706682845716 0.077264581411027891 0 0.023550772025068386 0.073322540737722583 0 0.019522658214774193 0.07436700090022326 0 0.023550772025068386 0.073322540737722583 0 0.019522658214774193 0.07436700090022326 0 0.020689914334434518 0.071130455532465456 0 0.023606706682845716 0.077264581411027891 0 0.023550772025068386 0.073322540737722583 0 0.027230421340436343 0.072060249966667003 0 0.0071292489032268825 0.098151362955943205 0 0.0027751596609663087 0.10505892767728139 0 0.0013878914256587375 0.10337078526684922 0 -0.0056628575485421712 0.073530479929509007 0 -0.0043109856570735603 0.075692627456182174 0 0.014910061604150343 0.078455285604673033 0 0.016053018186167931 0.075597909336599073 0 0.012740693201281858 0.074492353084298621 0 0.018251415620149133 0.078610402163995924 0 0.014910061604150343 0.078455285604673033 0 0.016053018186167931 0.075597909336599073 0 0.018251415620149133 0.078610402163995924 0 0.023606706682845716 0.077264581411027891 0 0.019522658214774193 0.07436700090022326 0 0.018251415620149133 0.078610402163995924 0 0.016053018186167931 0.075597909336599073 0 0.019522658214774193 0.07436700090022326 0 0.019522658214774193 0.07436700090022326 0 0.018201084553185226 0.071398928326259492 0 0.016501569845952725 0.073021073204557127 0 0.019522658214774193 0.07436700090022326 0 0.020689914334434518 0.071130455532465456 0 0.018201084553185226 0.071398928326259492 0 0.018201084553185226 0.071398928326259492 0 0.016315815836607017 0.071200882050534181 0 0.016501569845952725 0.073021073204557127 0 0.016053018186167931 0.075597909336599073 0 0.019522658214774193 0.07436700090022326 0 0.016501569845952725 0.073021073204557127 0 0.016053018186167931 0.075597909336599073 0 0.016501569845952725 0.073021073204557127 0 0.014600731109105603 0.073372432055458625 0 0.016053018186167931 0.075597909336599073 0 0.014600731109105603 0.073372432055458625 0 0.012740693201281858 0.074492353084298621 0 0.016501569845952725 0.073021073204557127 0 0.014600731109105603 0.073372432055458625 0 0.014705634765597152 0.071898313859959831 0 0.016315815836607017 0.071200882050534181 0 0.016501569845952725 0.073021073204557127 0 0.014705634765597152 0.071898313859959831 0 0.014896980550985661 0.070069157725805103 0 0.016315815836607017 0.071200882050534181 0 0.014705634765597152 0.071898313859959831 0 0.01297043510638045 0.070274337486802035 0 0.014705634765597152 0.071898313859959831 0 0.011212938108435067 0.072283859016082586 0 0.024867587893040118 0.053162421748408524 0 0.025838338702208224 0.052780446335014448 0 0.014600731109105603 0.073372432055458625 0 0.014705634765597152 0.071898313859959831 0 0.013232997011061013 0.071828337101138465 0 0.025838338702208224 0.052780446335014448 0 0.031061425920250116 0.049098711216245657 0 0.010335144770847033 0.070170550526312547 0 0.011212938108435067 0.072283859016082586 0 0.0067893728773541096 0.072231630762119567 0 0.030877953985984214 0.048006644017737819 0 0.027863188844054105 0.047892508414634265 0 0.029992121182668714 0.052433564861707145 0 0.061244282272693844 0.030197905856002297 0 0.062556995246421762 0.033038792522226572 0 0.059247034026479649 0.032693350722403841 0 0.031061425920250116 0.049098711216245657 0 0.027892561310645665 0.055195570197812314 0 0.014600731109105603 0.073372432055458625 0 0.013232997011061013 0.071828337101138465 0 0.012740693201281858 0.074492353084298621 0 0.025838338702208224 0.052780446335014448 0 0.027892561310645665 0.055195570197812314 0 0.061244282272693844 0.030197905856002297 0 0.059247034026479649 0.032693350722403841 0 0.0563289956285314 0.029947853621524426 0 0.031061425920250116 0.049098711216245657 0 0.041898049156404632 0.038076156750771493 0 0.059247034026479649 0.032693350722403841 0 0.058005872274937441 0.035085035054286069 0 0.05633929500554323 0.032990459139510112 0 0.059247034026479649 0.032693350722403841 0 0.060194297330987648 0.03541563716649334 0 0.058005872274937441 0.035085035054286069 0 0.062556995246421762 0.033038792522226572 0 0.059247034026479649 0.032693350722403841 0 0.060194297330987648 0.03541563716649334 0 0.060194297330987648 0.03541563716649334 0 0.058005872274937441 0.035085035054286069 0 0.058954788632810909 0.037726975942405365 0 0.014910061604150343 0.078455285604673033 0 0.012876061215632785 0.073464562967964678 0 0.011772455252248386 0.080633860413579742 0 0.062556995246421762 0.033038792522226572 0 0.060194297330987648 0.03541563716649334 0 0.06173097675781599 0.039054375643193355 0 0.027664518175576625 0.062171491883489235 0 0.027892561310645665 0.055195570197812314 0 0.027892561310645665 0.055195570197812314 0 0.03053275692369338 0.060058081273663452 0 0.014904666244881935 0.082290612465710983 0 0.014910061604150343 0.078455285604673033 0 0.011772455252248386 0.080633860413579742 0 0.060194297330987648 0.03541563716649334 0 0.06173097675781599 0.039054375643193355 0 0.058954788632810909 0.037726975942405365 0 0.058005872274937441 0.035085035054286069 0 0.058954788632810909 0.037726975942405365 0 0.056343070152994772 0.038082275776154126 0 0.058954788632810909 0.037726975942405365 0 0.058497239704716382 0.041342365718012267 0 0.056343070152994772 0.038082275776154126 0 0.06173097675781599 0.039054375643193355 0 0.058954788632810909 0.037726975942405365 0 0.058497239704716382 0.041342365718012267 0 0.06056918520399196 0.04628718260372091 0 0.06173097675781599 0.039054375643193355 0 0.058497239704716382 0.041342365718012267 0 0.027839011733735909 0.070027219959173825 0 0.03053275692369338 0.060058081273663452 0 0.010761425136279678 0.086687512945048187 0 0.014904666244881935 0.082290612465710983 0 0.011772455252248386 0.080633860413579742 0 0.027839011733735909 0.070027219959173825 0 0.019490605090360165 0.079148538451830674 0 0.015726391564875628 0.084103599102182125 0 0.017174937903005963 0.084696137149329678 0 0.014904666244881935 0.082290612465710983 0 0.053813389193916171 0.039636703826423057 0 0.052141928738728277 0.042697826574906624 0 0.051348223419268223 0.038136259549130011 0 0.052141928738728277 0.042697826574906624 0 0.051348223419268223 0.038136259549130011 0 0.048954650532918295 0.039898793675447068 0 0.053813389193916171 0.039636703826423057 0 0.052141928738728277 0.042697826574906624 0 0.055640738499421534 0.042013561182849504 0 0.058497239704716382 0.041342365718012267 0 0.055640738499421534 0.042013561182849504 0 0.056343070152994772 0.038082275776154126 0 0.053813389193916171 0.039636703826423057 0 0.055640738499421534 0.042013561182849504 0 0.056343070152994772 0.038082275776154126 0 0.057789234478581364 0.045051704557500287 0 0.058497239704716382 0.041342365718012267 0 0.055640738499421534 0.042013561182849504 0 0.053813389193916171 0.039636703826423057 0 0.056343070152994772 0.038082275776154126 0 0.053385021643455328 0.037067376491439617 0 0.056343070152994772 0.038082275776154126 0 0.053385021643455328 0.037067376491439617 0 0.054514105219118043 0.034856262053038933 0 0.053813389193916171 0.039636703826423057 0 0.053385021643455328 0.037067376491439617 0 0.051348223419268223 0.038136259549130011 0 0.053385021643455328 0.037067376491439617 0 0.051348223419268223 0.038136259549130011 0 0.051589723152519792 0.035390328476880575 0 0.051589723152519792 0.035390328476880575 0 0.05208159322295277 0.033532002223522525 0 0.054514105219118043 0.034856262053038933 0 0.053385021643455328 0.037067376491439617 0 0.051589723152519792 0.035390328476880575 0 0.054514105219118043 0.034856262053038933 0 0.05208159322295277 0.033532002223522525 0 0.054514105219118043 0.034856262053038933 0 0.053711145517504291 0.03230972932865956 0 0.058005872274937441 0.035085035054286069 0 0.054514105219118043 0.034856262053038933 0 0.05633929500554323 0.032990459139510112 0 0.058005872274937441 0.035085035054286069 0 0.056343070152994772 0.038082275776154126 0 0.054514105219118043 0.034856262053038933 0 0.054514105219118043 0.034856262053038933 0 0.05633929500554323 0.032990459139510112 0 0.053711145517504291 0.03230972932865956 0 0.041898049156404632 0.038076156750771493 0 0.044249873218950207 0.032955418876447047 0 0.055681232415556885 0.030490478678733991 0 0.053711145517504291 0.03230972932865956 0 0.052843746180670725 0.030361705210811326 0 0.059247034026479649 0.032693350722403841 0 0.05633929500554323 0.032990459139510112 0 0.0563289956285314 0.029947853621524426 0 0.05633929500554323 0.032990459139510112 0 0.0563289956285314 0.029947853621524426 0 0.053711145517504291 0.03230972932865956 0 0.041898049156404632 0.038076156750771493 0 0.045598382144500127 0.035235734799943554 0 0.044249873218950207 0.032955418876447047 0 0.046296463879769531 0.028616418502161876 0 0.051554966255008938 0.031939233475420506 0 0.052843746180670725 0.030361705210811326 0 0.049939654894575622 0.030293510314852029 0 0.05208159322295277 0.033532002223522525 0 0.051554966255008938 0.031939233475420506 0 0.053711145517504291 0.03230972932865956 0 0.051554966255008938 0.031939233475420506 0 0.053711145517504291 0.03230972932865956 0 0.052843746180670725 0.030361705210811326 0 0.05208159322295277 0.033532002223522525 0 0.051554966255008938 0.031939233475420506 0 0.049187674873268993 0.033013052389505089 0 0.051554966255008938 0.031939233475420506 0 0.049939654894575622 0.030293510314852029 0 0.049187674873268993 0.033013052389505089 0 0.046296463879769531 0.028616418502161876 0 0.047273304105086393 0.029551681577630461 0 0.053611222978606807 0.022857388711279999 0 0.052167273018612098 0.028149520634300325 0 0.050792569329694746 0.024763643048959966 0 0.051291979936913978 0.022728113861941637 0 0.053611222978606807 0.022857388711279999 0 0.050792569329694746 0.024763643048959966 0 0.046690484483279879 0.028510336180418656 0 0.046296463879769531 0.028616418502161876 0 0.047273304105086393 0.029551681577630461 0 0.047367511917433207 0.030469783767888843 0 0.049187674873268993 0.033013052389505089 0 0.049883462392536979 0.035927291969815867 0 0.048970926659952146 0.034603730805713988 0 0.051589723152519792 0.035390328476880575 0 0.05208159322295277 0.033532002223522525 0 0.049187674873268993 0.033013052389505089 0 0.051589723152519792 0.035390328476880575 0 0.049187674873268993 0.033013052389505089 0 0.049883462392536979 0.035927291969815867 0 0.052167273018612098 0.028149520634300325 0 0.047158929801673445 0.030827552817177622 0 0.048472566265545344 0.025866653456499869 0 0.052167273018612098 0.028149520634300325 0 0.047158929801673445 0.030827552817177622 0 0.048970926659952146 0.034603730805713988 0 0.052167273018612098 0.028149520634300325 0 0.048472566265545344 0.025866653456499869 0 0.050792569329694746 0.024763643048959966 0 0.049299097399594004 0.022804437163496949 0 0.051291979936913978 0.022728113861941637 0 0.050792569329694746 0.024763643048959966 0 0.047496024968061323 0.021798285862337216 0 0.049299097399594004 0.022804437163496949 0 0.048472566265545344 0.025866653456499869 0 0.049299097399594004 0.022804437163496949 0 0.048472566265545344 0.025866653456499869 0 0.050792569329694746 0.024763643048959966 0 0.047496024968061323 0.021798285862337216 0 0.044962676668698263 0.022911479933867034 0 0.045112094954036536 0.027640847398863109 0 0.047496024968061323 0.021798285862337216 0 0.048472566265545344 0.025866653456499869 0 0.045112094954036536 0.027640847398863109 0 0.043773437721450197 0.019080623885325363 0 0.044962676668698263 0.022911479933867034 0 0.041650926257601646 0.027470818318549608 0 0.044962676668698263 0.022911479933867034 0 0.041650926257601646 0.027470818318549608 0 0.045112094954036536 0.027640847398863109 0 0.04166699086671373 0.031140599868377611 0 0.045112094954036536 0.027640847398863109 0 0.043386733828057453 0.033437111150017067 0 0.041650926257601646 0.027470818318549608 0 0.04166699086671373 0.031140599868377611 0 0.045112094954036536 0.027640847398863109 0 0.047158929801673445 0.030827552817177622 0 0.048472566265545344 0.025866653456499869 0 0.045112094954036536 0.027640847398863109 0 0.047158929801673445 0.030827552817177622 0 0.045112094954036536 0.027640847398863109 0 0.043386733828057453 0.033437111150017067 0 0.047158929801673445 0.030827552817177622 0 0.043386733828057453 0.033437111150017067 0 0.045331601094739847 0.03595052664275411 0 0.043386733828057453 0.033437111150017067 0 0.043121756462638154 0.036209019425975993 0 0.045331601094739847 0.03595052664275411 0 0.043121756462638154 0.036209019425975993 0 0.045331601094739847 0.03595052664275411 0 0.04325792768637305 0.038195198911658894 0 0.043386733828057453 0.033437111150017067 0 0.039391054286563573 0.034338447945361963 0 0.040992792356222281 0.037303825668674601 0 0.04166699086671373 0.031140599868377611 0 0.043386733828057453 0.033437111150017067 0 0.039391054286563573 0.034338447945361963 0 0.043386733828057453 0.033437111150017067 0 0.043121756462638154 0.036209019425975993 0 0.040992792356222281 0.037303825668674601 0 0.039391054286563573 0.034338447945361963 0 0.040992792356222281 0.037303825668674601 0 0.037382382349591702 0.037878610894573221 0 0.040992792356222281 0.037303825668674601 0 0.038921878727029915 0.040499045280957019 0 0.037382382349591702 0.037878610894573221 0 0.040992792356222281 0.037303825668674601 0 0.041353394147916112 0.040724878237772918 0 0.04325792768637305 0.038195198911658894 0 0.040992792356222281 0.037303825668674601 0 0.041353394147916112 0.040724878237772918 0 0.038921878727029915 0.040499045280957019 0 0.04325792768637305 0.038195198911658894 0 0.044654763790175141 0.039352290839313749 0 0.039437039127122299 0.045889881643767602 0 0.045331601094739847 0.03595052664275411 0 0.04325792768637305 0.038195198911658894 0 0.044654763790175141 0.039352290839313749 0 0.043121756462638154 0.036209019425975993 0 0.040992792356222281 0.037303825668674601 0 0.04325792768637305 0.038195198911658894 0 0.045331601094739847 0.03595052664275411 0 0.044654763790175141 0.039352290839313749 0 0.047393607587566132 0.037710109016489919 0 0.044654763790175141 0.039352290839313749 0 0.046333296173728993 0.041011739554041492 0 0.047393607587566132 0.037710109016489919 0 0.044654763790175141 0.039352290839313749 0 0.046333296173728993 0.041011739554041492 0 0.043887482847205131 0.044388019304229955 0 0.046333296173728993 0.041011739554041492 0 0.048954650532918295 0.039898793675447068 0 0.047785973653021431 0.044543950263006497 0 0.052141928738728277 0.042697826574906624 0 0.048954650532918295 0.039898793675447068 0 0.047785973653021431 0.044543950263006497 0 0.046333296173728993 0.041011739554041492 0 0.048954650532918295 0.039898793675447068 0 0.047393607587566132 0.037710109016489919 0 0.051348223419268223 0.038136259549130011 0 0.048954650532918295 0.039898793675447068 0 0.049883462392536979 0.035927291969815867 0 0.048954650532918295 0.039898793675447068 0 0.049883462392536979 0.035927291969815867 0 0.047393607587566132 0.037710109016489919 0 0.051348223419268223 0.038136259549130011 0 0.051589723152519792 0.035390328476880575 0 0.049883462392536979 0.035927291969815867 0 0.049883462392536979 0.035927291969815867 0 0.048970926659952146 0.034603730805713988 0 0.047393607587566132 0.037710109016489919 0 0.047158929801673445 0.030827552817177622 0 0.045331601094739847 0.03595052664275411 0 0.048970926659952146 0.034603730805713988 0 0.045331601094739847 0.03595052664275411 0 0.048970926659952146 0.034603730805713988 0 0.047393607587566132 0.037710109016489919 0 0.031151428833562821 0.053345758803921367 0 0.030034363756848686 0.057067094907438713 0 0.027948022301290922 0.052089985171479038 0 0.023840050997564789 0.02949048999935882 0 0.026986338572293905 0.030918536522567631 0 0.026847059133785142 0.034553144989755848 0 0.037860165001453075 0.035114847951631036 0 0.033408084373286726 0.040482633325827341 0 0.047451072605554701 0.028769477016360061 0 0.047137146248163848 0.029436827847373885 0 0.048052408340383983 0.029138331722957659 0 0.023840050997564789 0.02949048999935882 0 0.029113703396533516 0.027876837652351185 0 0.026986338572293905 0.030918536522567631 0 0.037860165001453075 0.035114847951631036 0 0.039799304084365647 0.02735835995970767 0 0.039799304084365647 0.02735835995970767 0 0.04139384712782064 0.024954602655119774 0 0.039799304084365647 0.02735835995970767 0 0.036409991909323321 0.031067842554251927 0 0.029113703396533516 0.027876837652351185 0 0.026986338572293905 0.030918536522567631 0 0.031062443051610142 0.033364132640763537 0 0.026986338572293905 0.030918536522567631 0 0.031062443051610142 0.033364132640763537 0 0.026847059133785142 0.034553144989755848 0 0.028834952352434291 0.024193549277335094 0 0.031456383006783682 0.031996050564979887 0 0.035524842094896231 0.02788482401503075 0 0.031456383006783682 0.031996050564979887 0 0.035524842094896231 0.02788482401503075 0 0.037391412914341678 0.031264931633327421 0 0.043773437721450197 0.019080623885325363 0 0.035524842094896231 0.02788482401503075 0 0.030640460313921852 0.021546870461926364 0 0.028834952352434291 0.024193549277335094 0 0.035524842094896231 0.02788482401503075 0 0.031855491919049052 0.023322970824250874 0 0.039915499089870618 0.024335698581275763 0 0.04139384712782064 0.024954602655119774 0 0.043773437721450197 0.019080623885325363 0 0.041650926257601646 0.027470818318549608 0 0.035524842094896231 0.02788482401503075 0 0.041650926257601646 0.027470818318549608 0 0.035524842094896231 0.02788482401503075 0 0.037391412914341678 0.031264931633327421 0 0.04166699086671373 0.031140599868377611 0 0.039391054286563573 0.034338447945361963 0 0.037391412914341678 0.031264931633327421 0 0.041650926257601646 0.027470818318549608 0 0.04166699086671373 0.031140599868377611 0 0.037391412914341678 0.031264931633327421 0 0.039391054286563573 0.034338447945361963 0 0.037391412914341678 0.031264931633327421 0 0.035701057749728239 0.034913782012054667 0 0.039391054286563573 0.034338447945361963 0 0.035701057749728239 0.034913782012054667 0 0.037382382349591702 0.037878610894573221 0 0.038921878727029915 0.040499045280957019 0 0.037382382349591702 0.037878610894573221 0 0.035777242200796852 0.041221600861846022 0 0.037382382349591702 0.037878610894573221 0 0.035777242200796852 0.041221600861846022 0 0.033180279730699418 0.039090435032224501 0 0.035701057749728239 0.034913782012054667 0 0.037382382349591702 0.037878610894573221 0 0.033180279730699418 0.039090435032224501 0 0.036409991909323321 0.031067842554251927 0 0.036138718494986455 0.03410930401771551 0 0.031062443051610142 0.033364132640763537 0 0.033180279730699418 0.039090435032224501 0 0.029860569025157383 0.039829524468427357 0 0.031456383006783682 0.031996050564979887 0 0.037391412914341678 0.031264931633327421 0 0.035701057749728239 0.034913782012054667 0 0.031456383006783682 0.031996050564979887 0 0.035701057749728239 0.034913782012054667 0 0.033180279730699418 0.039090435032224501 0 0.032394475476396539 0.044055746784777125 0 0.033408084373286726 0.040482633325827341 0 0.031062443051610142 0.033364132640763537 0 0.029860569025157383 0.039829524468427357 0 0.026847059133785142 0.034553144989755848 0 0.028501448671869992 0.04858100871151301 0 0.029021361819898533 0.04926226258093698 0 0.027948022301290922 0.052089985171479038 0 0.028501448671869992 0.04858100871151301 0 0.029021361819898533 0.04926226258093698 0 0.02875165796273401 0.048528687931623744 0 0.031151428833562821 0.053345758803921367 0 0.029021361819898533 0.04926226258093698 0 0.027948022301290922 0.052089985171479038 0 0.026718815280399918 0.051853552094310792 0 0.028202280249613795 0.051672034598931549 0 0.028067561608169381 0.049182817237105027 0 0.028202280249613795 0.051672034598931549 0 0.02874747575084214 0.049466897761041809 0 0.028067561608169381 0.049182817237105027 0 0.02874747575084214 0.049466897761041809 0 0.028067561608169381 0.049182817237105027 0 0.028778382527881553 0.047900145521879309 0 0.029720209293366287 0.045902777698876192 0 0.029021361819898533 0.04926226258093698 0 0.028778382527881553 0.047900145521879309 0 0.029021361819898533 0.04926226258093698 0 0.028778382527881553 0.047900145521879309 0 0.02875165796273401 0.048528687931623744 0 0.02874747575084214 0.049466897761041809 0 0.028778382527881553 0.047900145521879309 0 0.02875165796273401 0.048528687931623744 0 0.02874747575084214 0.049466897761041809 0 0.02875165796273401 0.048528687931623744 0 0.029442935483020384 0.049222656808515453 0 0.028501448671869992 0.04858100871151301 0 0.02875165796273401 0.048528687931623744 0 0.029442935483020384 0.049222656808515453 0 0.02874747575084214 0.049466897761041809 0 0.029442935483020384 0.049222656808515453 0 0.029717533579785013 0.051252192703347944 0 0.028202280249613795 0.051672034598931549 0 0.02874747575084214 0.049466897761041809 0 0.029717533579785013 0.051252192703347944 0 0.029442935483020384 0.049222656808515453 0 0.029717533579785013 0.051252192703347944 0 0.031870434102565709 0.049639159161873656 0 0.029717533579785013 0.051252192703347944 0 0.031870434102565709 0.049639159161873656 0 0.031411715247060525 0.053774528861437285 0 0.031870434102565709 0.049639159161873656 0 0.035407997404824698 0.053456956723740005 0 0.031411715247060525 0.053774528861437285 0 0.028501448671869992 0.04858100871151301 0 0.029442935483020384 0.049222656808515453 0 0.031870434102565709 0.049639159161873656 0 0.035777242200796852 0.041221600861846022 0 0.033180279730699418 0.039090435032224501 0 0.032615785812621569 0.045975337916470349 0 0.033180279730699418 0.039090435032224501 0 0.029860569025157383 0.039829524468427357 0 0.032615785812621569 0.045975337916470349 0 0.032394475476396539 0.044055746784777125 0 0.033502496727128635 0.047813896253912719 0 0.032615785812621569 0.045975337916470349 0 0.037387230362764999 0.043436979321433873 0 0.037450183410630493 0.047612620422904921 0 0.035777242200796852 0.041221600861846022 0 0.032615785812621569 0.045975337916470349 0 0.037387230362764999 0.043436979321433873 0 0.038921878727029915 0.040499045280957019 0 0.035777242200796852 0.041221600861846022 0 0.037387230362764999 0.043436979321433873 0 0.032615785812621569 0.045975337916470349 0 0.037450183410630493 0.047612620422904921 0 0.035407997404824698 0.053456956723740005 0 0.033502496727128635 0.047813896253912719 0 0.034661942384254449 0.050249313344551731 0 0.037450183410630493 0.047612620422904921 0 0.035407997404824698 0.053456956723740005 0 0.039369073862838964 0.05511495945756538 0 0.035407997404824698 0.053456956723740005 0 0.033026658113757275 0.055734160466636692 0 0.031411715247060525 0.053774528861437285 0 0.035407997404824698 0.053456956723740005 0 0.03479075286957143 0.057138521459274318 0 0.033026658113757275 0.055734160466636692 0 0.035407997404824698 0.053456956723740005 0 0.03479075286957143 0.057138521459274318 0 0.039369073862838964 0.05511495945756538 0 0.03479075286957143 0.057138521459274318 0 0.039369073862838964 0.05511495945756538 0 0.034972584471161805 0.062524554428979001 0 0.03479075286957143 0.057138521459274318 0 0.031687752042919216 0.058312110798688234 0 0.034972584471161805 0.062524554428979001 0 0.03479075286957143 0.057138521459274318 0 0.031687752042919216 0.058312110798688234 0 0.033026658113757275 0.055734160466636692 0 0.031687752042919216 0.058312110798688234 0 0.030320786755518844 0.056205595344694617 0 0.033026658113757275 0.055734160466636692 0 0.031687752042919216 0.058312110798688234 0 0.030320786755518844 0.056205595344694617 0 0.02854572940140513 0.058911261581074521 0 0.030320786755518844 0.056205595344694617 0 0.033026658113757275 0.055734160466636692 0 0.031411715247060525 0.053774528861437285 0 0.028202280249613795 0.051672034598931549 0 0.029717533579785013 0.051252192703347944 0 0.02882907488397992 0.054649277503858687 0 0.030320786755518844 0.056205595344694617 0 0.031411715247060525 0.053774528861437285 0 0.02882907488397992 0.054649277503858687 0 0.029717533579785013 0.051252192703347944 0 0.031411715247060525 0.053774528861437285 0 0.02882907488397992 0.054649277503858687 0 0.030320786755518844 0.056205595344694617 0 0.02882907488397992 0.054649277503858687 0 0.02854572940140513 0.058911261581074521 0 0.02882907488397992 0.054649277503858687 0 0.02854572940140513 0.058911261581074521 0 0.027013667537615447 0.057063246175701077 0 0.02854572940140513 0.058911261581074521 0 0.027013667537615447 0.057063246175701077 0 0.026195881442955898 0.059408440969861476 0 0.027013667537615447 0.057063246175701077 0 0.024726788266479522 0.058323142051430979 0 0.026195881442955898 0.059408440969861476 0 0.027013667537615447 0.057063246175701077 0 0.024726788266479522 0.058323142051430979 0 0.025494147914468402 0.056135814417722002 0 0.027013667537615447 0.057063246175701077 0 0.025494147914468402 0.056135814417722002 0 0.027025448088630416 0.054191567430059491 0 0.02551495542777394 0.053806973152286386 0 0.025494147914468402 0.056135814417722002 0 0.027025448088630416 0.054191567430059491 0 0.02882907488397992 0.054649277503858687 0 0.027013667537615447 0.057063246175701077 0 0.027025448088630416 0.054191567430059491 0 0.028202280249613795 0.051672034598931549 0 0.02882907488397992 0.054649277503858687 0 0.027025448088630416 0.054191567430059491 0 0.026718815280399918 0.051853552094310792 0 0.028202280249613795 0.051672034598931549 0 0.027025448088630416 0.054191567430059491 0 0.026718815280399918 0.051853552094310792 0 0.02551495542777394 0.053806973152286386 0 0.027025448088630416 0.054191567430059491 0 0.043217109309791335 0.049146909009626844 0 0.043887482847205131 0.044388019304229955 0 0.037674918458192944 0.04888873663577304 0 0.043217109309791335 0.049146909009626844 0 0.037674918458192944 0.04888873663577304 0 0.0397870044489489 0.054676016955055196 0 0.043217109309791335 0.049146909009626844 0 0.0397870044489489 0.054676016955055196 0 0.044951949441005196 0.053885311232001722 0 0.043217109309791335 0.049146909009626844 0 0.047512342425228699 0.049581906549459841 0 0.044951949441005196 0.053885311232001722 0 0.049791841440795022 0.055306058939340985 0 0.047512342425228699 0.049581906549459841 0 0.044951949441005196 0.053885311232001722 0 0.043217109309791335 0.049146909009626844 0 0.047512342425228699 0.049581906549459841 0 0.047785973653021431 0.044543950263006497 0 0.05228862763836728 0.047213665362666406 0 0.047512342425228699 0.049581906549459841 0 0.047785973653021431 0.044543950263006497 0 0.046333296173728993 0.041011739554041492 0 0.047785973653021431 0.044543950263006497 0 0.043887482847205131 0.044388019304229955 0 0.044654763790175141 0.039352290839313749 0 0.043887482847205131 0.044388019304229955 0 0.037674918458192944 0.04888873663577304 0 0.043217109309791335 0.049146909009626844 0 0.047785973653021431 0.044543950263006497 0 0.043887482847205131 0.044388019304229955 0 0.040925123186790813 0.045335190863784784 0 0.039599035857925492 0.050302510275417565 0 0.044654763790175141 0.039352290839313749 0 0.039437039127122299 0.045889881643767602 0 0.043721397750822101 0.047526046692970399 0 0.041612887442499927 0.042920089557705328 0 0.04040661796909182 0.046947322200992764 0 0.041353394147916112 0.040724878237772918 0 0.04325792768637305 0.038195198911658894 0 0.04248244352650362 0.045811787067021693 0 0.041353394147916112 0.040724878237772918 0 0.039849125738122056 0.043380992928945906 0 0.04248244352650362 0.045811787067021693 0 0.037450183410630493 0.047612620422904921 0 0.039849125738122056 0.043380992928945906 0 0.04248244352650362 0.045811787067021693 0 0.041353394147916112 0.040724878237772918 0 0.038921878727029915 0.040499045280957019 0 0.039849125738122056 0.043380992928945906 0 0.038921878727029915 0.040499045280957019 0 0.037387230362764999 0.043436979321433873 0 0.039849125738122056 0.043380992928945906 0 0.037387230362764999 0.043436979321433873 0 0.037450183410630493 0.047612620422904921 0 0.039849125738122056 0.043380992928945906 0 0.039437039127122299 0.045889881643767602 0 0.040281235028900388 0.051180095719229449 0 0.036420914323137391 0.054918457514744327 0 0.037450183410630493 0.047612620422904921 0 0.04248244352650362 0.045811787067021693 0 0.039369073862838964 0.05511495945756538 0 0.04040661796909182 0.046947322200992764 0 0.038261926731022945 0.053873114147994179 0 0.039437039127122299 0.045889881643767602 0 0.043721397750822101 0.047526046692970399 0 0.040281235028900388 0.051180095719229449 0 0.043721397750822101 0.047526046692970399 0 0.040281235028900388 0.051180095719229449 0 0.042139861070273482 0.056738354414714545 0 0.040281235028900388 0.051180095719229449 0 0.036420914323137391 0.054918457514744327 0 0.042139861070273482 0.056738354414714545 0 0.039599035857925492 0.050302510275417565 0 0.037059501116992938 0.059629287200902492 0 0.036420914323137391 0.054918457514744327 0 0.038155931758288082 0.059668953171990669 0 0.034972584471161805 0.062524554428979001 0 0.038261926731022945 0.053873114147994179 0 0.036990006154407569 0.057893876768057621 0 0.036420914323137391 0.054918457514744327 0 0.038155931758288082 0.059668953171990669 0 0.042139861070273482 0.056738354414714545 0 0.032177728984246971 0.061156267995315372 0 0.043004454872219669 0.062333653107153941 0 0.035705352103481386 0.068344153581169964 0 0.032177728984246971 0.061156267995315372 0 0.0397870044489489 0.054676016955055196 0 0.043004454872219669 0.062333653107153941 0 0.0397870044489489 0.054676016955055196 0 0.044951949441005196 0.053885311232001722 0 0.043004454872219669 0.062333653107153941 0 0.037674918458192944 0.04888873663577304 0 0.032177728984246971 0.061156267995315372 0 0.0397870044489489 0.054676016955055196 0 0.049791841440795022 0.055306058939340985 0 0.044951949441005196 0.053885311232001722 0 0.043004454872219669 0.062333653107153941 0 0.049791841440795022 0.055306058939340985 0 0.05183643121710927 0.060839825764124597 0 0.043004454872219669 0.062333653107153941 0 0.05183643121710927 0.060839825764124597 0 0.043004454872219669 0.062333653107153941 0 0.042400278843106973 0.072453200241373153 0 0.034678153307872765 0.07145616602788879 0 0.032415107019735975 0.075874615640326243 0 0.020440030067440506 0.082897249339312945 0 0.022536248974854362 0.084456993798228366 0 0.020990774553487943 0.083740757230890528 0 0.022536248974854362 0.084456993798228366 0 0.021408933548646886 0.083130591134998683 0 0.020990774553487943 0.083740757230890528 0 0.022536248974854362 0.084456993798228366 0 0.021408933548646886 0.083130591134998683 0 0.023436879745524768 0.082132878490394065 0 0.021408933548646886 0.083130591134998683 0 0.023436879745524768 0.082132878490394065 0 0.021268557036202517 0.081961271426048449 0 0.032415107019735975 0.075874615640326243 0 0.030944190866459231 0.077951554488675023 0 0.022536248974854362 0.084456993798228366 0 0.023436879745524768 0.082132878490394065 0 0.028359908660865529 0.081367367822849229 0 0.042400278843106973 0.072453200241373153 0 0.027143325148796027 0.076688484074848393 0 0.028359908660865529 0.081367367822849229 0 0.043004454872219669 0.062333653107153941 0 0.042400278843106973 0.072453200241373153 0 0.035705352103481386 0.068344153581169964 0 0.042400278843106973 0.072453200241373153 0 0.035705352103481386 0.068344153581169964 0 0.027143325148796027 0.076688484074848393 0 0.037059501116992938 0.059629287200902492 0 0.034522533701516964 0.068766189324154209 0 0.032177728984246971 0.061156267995315372 0 0.035705352103481386 0.068344153581169964 0 0.027143325148796027 0.076688484074848393 0 0.038155931758288082 0.059668953171990669 0 0.042139861070273482 0.056738354414714545 0 0.039843725831866475 0.064351351515466157 0 0.038155931758288082 0.059668953171990669 0 0.039843725831866475 0.064351351515466157 0 0.034972584471161805 0.062524554428979001 0 0.03529748530825666 0.067704172605592916 0 0.039843725831866475 0.064351351515466157 0 0.034972584471161805 0.062524554428979001 0 0.027143325148796027 0.076688484074848393 0 0.027548140115137492 0.082442459992664877 0 0.028359908660865529 0.081367367822849229 0 0.03529748530825666 0.067704172605592916 0 0.039843725831866475 0.064351351515466157 0 0.036666059102591443 0.071369588249928825 0 0.027548140115137492 0.082442459992664877 0 0.028359908660865529 0.081367367822849229 0 0.025821700815366749 0.081174164691189002 0 0.034522533701516964 0.068766189324154209 0 0.032822806578900195 0.073982859668911369 0 0.03529748530825666 0.067704172605592916 0 0.036666059102591443 0.071369588249928825 0 0.033115358909134952 0.072824998081761946 0 0.03529748530825666 0.067704172605592916 0 0.033115358909134952 0.072824998081761946 0 0.032197132789069181 0.070968900945178451 0 0.036666059102591443 0.071369588249928825 0 0.033115358909134952 0.072824998081761946 0 0.029462393870476875 0.077373654936293876 0 0.033115358909134952 0.072824998081761946 0 0.032197132789069181 0.070968900945178451 0 0.031201397007489334 0.074585783445495754 0 0.032822806578900195 0.073982859668911369 0 0.032099436425117006 0.075190351544733219 0 0.027548140115137492 0.082442459992664877 0 0.026536724207003811 0.079918306557892838 0 0.024745951628462885 0.080584548472527176 0 0.027548140115137492 0.082442459992664877 0 0.026536724207003811 0.079918306557892838 0 0.029462393870476875 0.077373654936293876 0 0.026536724207003811 0.079918306557892838 0 0.024745951628462885 0.080584548472527176 0 0.023593672351284716 0.079327476969775018 0 0.024745951628462885 0.080584548472527176 0 0.021310272180349813 0.080129990844144322 0 0.022943967818348194 0.081056206090902735 0 0.024745951628462885 0.080584548472527176 0 0.021310272180349813 0.080129990844144322 0 0.023593672351284716 0.079327476969775018 0 0.021310272180349813 0.080129990844144322 0 0.022943967818348194 0.081056206090902735 0 0.020854893628329492 0.081049613265211665 0 0.022943967818348194 0.081056206090902735 0 0.020854893628329492 0.081049613265211665 0 0.021268557036202517 0.081961271426048449 0 0.023436879745524768 0.082132878490394065 0 0.022943967818348194 0.081056206090902735 0 0.021268557036202517 0.081961271426048449 0 0.023436879745524768 0.082132878490394065 0 0.022943967818348194 0.081056206090902735 0 0.025821700815366749 0.081174164691189002 0 0.027548140115137492 0.082442459992664877 0 0.024745951628462885 0.080584548472527176 0 0.025821700815366749 0.081174164691189002 0 0.023436879745524768 0.082132878490394065 0 0.028359908660865529 0.081367367822849229 0 0.025821700815366749 0.081174164691189002 0 0.024745951628462885 0.080584548472527176 0 0.022943967818348194 0.081056206090902735 0 0.025821700815366749 0.081174164691189002 0 0.025175109305610184 0.063312494641342032 0 0.027133491514829869 0.066254378239851669 0 0.023885802752022237 0.067397228980740576 0 0.022992315397659818 0.060501778777770528 0 0.025175109305610184 0.063312494641342032 0 0.023885802752022237 0.067397228980740576 0 0.022992315397659818 0.060501778777770528 0 0.025175109305610184 0.063312494641342032 0 0.025042109247610078 0.060598048505190932 0 0.024726788266479522 0.058323142051430979 0 0.025042109247610078 0.060598048505190932 0 0.026195881442955898 0.059408440969861476 0 0.02854572940140513 0.058911261581074521 0 0.026195881442955898 0.059408440969861476 0 0.02610581916751728 0.061567896347271583 0 0.025042109247610078 0.060598048505190932 0 0.026195881442955898 0.059408440969861476 0 0.02610581916751728 0.061567896347271583 0 0.025175109305610184 0.063312494641342032 0 0.025042109247610078 0.060598048505190932 0 0.02610581916751728 0.061567896347271583 0 0.025175109305610184 0.063312494641342032 0 0.02610581916751728 0.061567896347271583 0 0.027798583325915994 0.062693706338822985 0 0.02854572940140513 0.058911261581074521 0 0.02610581916751728 0.061567896347271583 0 0.027798583325915994 0.062693706338822985 0 0.02854572940140513 0.058911261581074521 0 0.027798583325915994 0.062693706338822985 0 0.030576325697015679 0.061831646048075048 0 0.027798583325915994 0.062693706338822985 0 0.029125992262090263 0.064903457492193298 0 0.030576325697015679 0.061831646048075048 0 0.027798583325915994 0.062693706338822985 0 0.029125992262090263 0.064903457492193298 0 0.027133491514829869 0.066254378239851669 0 0.025175109305610184 0.063312494641342032 0 0.027798583325915994 0.062693706338822985 0 0.027133491514829869 0.066254378239851669 0 0.029125992262090263 0.064903457492193298 0 0.027133491514829869 0.066254378239851669 0 0.029317922152728004 0.068256289601100334 0 0.031295824297425556 0.064987253873205142 0 0.032697636074781405 0.067361261989488469 0 0.029317922152728004 0.068256289601100334 0 0.029125992262090263 0.064903457492193298 0 0.031295824297425556 0.064987253873205142 0 0.029317922152728004 0.068256289601100334 0 0.029125992262090263 0.064903457492193298 0 0.031295824297425556 0.064987253873205142 0 0.030576325697015679 0.061831646048075048 0 0.031687752042919216 0.058312110798688234 0 0.02854572940140513 0.058911261581074521 0 0.030576325697015679 0.061831646048075048 0 0.031687752042919216 0.058312110798688234 0 0.030576325697015679 0.061831646048075048 0 0.034972584471161805 0.062524554428979001 0 0.031295824297425556 0.064987253873205142 0 0.030576325697015679 0.061831646048075048 0 0.034972584471161805 0.062524554428979001 0 0.031295824297425556 0.064987253873205142 0 0.034972584471161805 0.062524554428979001 0 0.032697636074781405 0.067361261989488469 0 0.03529748530825666 0.067704172605592916 0 0.034972584471161805 0.062524554428979001 0 0.032697636074781405 0.067361261989488469 0 0.032697636074781405 0.067361261989488469 0 0.032197132789069181 0.070968900945178451 0 0.030232623043629652 0.071495101600200867 0 0.03529748530825666 0.067704172605592916 0 0.032697636074781405 0.067361261989488469 0 0.032197132789069181 0.070968900945178451 0 0.032197132789069181 0.070968900945178451 0 0.030232623043629652 0.071495101600200867 0 0.031201397007489334 0.074585783445495754 0 0.030232623043629652 0.071495101600200867 0 0.029830340470710957 0.074486578330100139 0 0.031201397007489334 0.074585783445495754 0 0.030232623043629652 0.071495101600200867 0 0.028447206549774423 0.072298295816141986 0 0.029830340470710957 0.074486578330100139 0 0.030232623043629652 0.071495101600200867 0 0.029317922152728004 0.068256289601100334 0 0.028447206549774423 0.072298295816141986 0 0.032697636074781405 0.067361261989488469 0 0.030232623043629652 0.071495101600200867 0 0.029317922152728004 0.068256289601100334 0 0.029317922152728004 0.068256289601100334 0 0.027013897743022253 0.069565728079856864 0 0.028447206549774423 0.072298295816141986 0 0.027133491514829869 0.066254378239851669 0 0.029317922152728004 0.068256289601100334 0 0.027013897743022253 0.069565728079856864 0 0.028447206549774423 0.072298295816141986 0 0.025993465771217972 0.073326818043668002 0 0.028671293874165317 0.074729336800535423 0 0.027013897743022253 0.069565728079856864 0 0.028447206549774423 0.072298295816141986 0 0.025993465771217972 0.073326818043668002 0 0.030952223293680487 0.07310362817891411 0 0.028856268044624399 0.072263431662922775 0 0.029233640393475611 0.068147068548551182 0 0.028626532998507401 0.07213767692381641 0 0.026904065540071798 0.067460197505482572 0 0.027013897743022253 0.069565728079856864 0 0.025993465771217972 0.073326818043668002 0 0.023885802752022237 0.067397228980740576 0 0.027575604630463497 0.069679024581990462 0 0.028856268044624399 0.072263431662922775 0 0.029233640393475611 0.068147068548551182 0 0.027133491514829869 0.066254378239851669 0 0.027013897743022253 0.069565728079856864 0 0.023885802752022237 0.067397228980740576 0 0.037668061177211144 0.082005266076948358 0 0.03597707236545785 0.081686793215615755 0 0.03674985621857995 0.078514799672487687 0 0.037566069693682064 0.081585203876121434 0 0.036761737659313697 0.078434941623916579 0 0.036342444883279479 0.076077870714773205 0 0.034531430088202461 0.076028871231785519 0 0.037668061177211144 0.082005266076948358 0 0.037365845105387187 0.085103195968568579 0 0.03597707236545785 0.081686793215615755 0 0.030952223293680487 0.07310362817891411 0 0.028856268044624399 0.072263431662922775 0 0.030700858438373922 0.075199639672951096 0 0.039160235056798831 0.073344219650648343 0 0.036342444883279479 0.076077870714773205 0 0.028626532998507401 0.07213767692381641 0 0.029935156123592002 0.074817536574203383 0 0.025993465771217972 0.073326818043668002 0 0.028671293874165317 0.074729336800535423 0 0.028859028952745936 0.076576040255976988 0 0.030952223293680487 0.07310362817891411 0 0.030700858438373922 0.075199639672951096 0 0.031955253350477025 0.075978273839943808 0 0.028671293874165317 0.074729336800535423 0 0.028859028952745936 0.076576040255976988 0 0.029790937421256637 0.076049978710063915 0 0.030700858438373922 0.075199639672951096 0 0.031955253350477025 0.075978273839943808 0 0.031979944049721466 0.076286076823802132 0 0.028859028952745936 0.076576040255976988 0 0.029790937421256637 0.076049978710063915 0 0.030196125930941977 0.07652776127722935 0 0.029790937421256637 0.076049978710063915 0 0.029869227630637662 0.076526287785529612 0 0.030196125930941977 0.07652776127722935 0 0.028671293874165317 0.074729336800535423 0 0.029790937421256637 0.076049978710063915 0 0.029830340470710957 0.074486578330100139 0 0.028447206549774423 0.072298295816141986 0 0.028671293874165317 0.074729336800535423 0 0.029830340470710957 0.074486578330100139 0 0.029790937421256637 0.076049978710063915 0 0.029830340470710957 0.074486578330100139 0 0.03033989797786784 0.075958171123019114 0 0.029830340470710957 0.074486578330100139 0 0.031201397007489334 0.074585783445495754 0 0.03033989797786784 0.075958171123019114 0 0.029790937421256637 0.076049978710063915 0 0.03033989797786784 0.075958171123019114 0 0.029869227630637662 0.076526287785529612 0 0.03033989797786784 0.075958171123019114 0 0.029869227630637662 0.076526287785529612 0 0.029462393870476875 0.077373654936293876 0 0.029869227630637662 0.076526287785529612 0 0.029878956687054609 0.076168976016794607 0 0.027863468128480576 0.076391905804486349 0 0.029869227630637662 0.076526287785529612 0 0.029878956687054609 0.076168976016794607 0 0.030196125930941977 0.07652776127722935 0 0.029878956687054609 0.076168976016794607 0 0.029164193087590228 0.074999355620283994 0 0.027863468128480576 0.076391905804486349 0 0.029878956687054609 0.076168976016794607 0 0.029164193087590228 0.074999355620283994 0 0.03191948479344682 0.075916851486407561 0 0.029164193087590228 0.074999355620283994 0 0.03191948479344682 0.075916851486407561 0 0.033221714718670636 0.075000245415755798 0 0.029878956687054609 0.076168976016794607 0 0.03191948479344682 0.075916851486407561 0 0.030196125930941977 0.07652776127722935 0 0.028859028952745936 0.076576040255976988 0 0.03191948479344682 0.075916851486407561 0 0.030196125930941977 0.07652776127722935 0 0.029935156123592002 0.074817536574203383 0 0.030423671497213995 0.075379305548458439 0 0.031955253350477025 0.075978273839943808 0 0.03191948479344682 0.075916851486407561 0 0.031979944049721466 0.076286076823802132 0 0.034623751394485078 0.078364376570062136 0 0.033226914378641649 0.074999979655031204 0 0.035882194448951181 0.07499998026022188 0 0.03191948479344682 0.075916851486407561 0 0.031979944049721466 0.076286076823802132 0 0.033221714718670636 0.075000245415755798 0 0.034531430088202461 0.076028871231785519 0 0.033228535954377164 0.075000661224957979 0 0.035883251373276664 0.075003454712579368 0 0.036761737659313697 0.078434941623916579 0 0.039034613054508137 0.077452467233376884 0 0.035882436807809052 0.07499998876707524 0 0.036839042748379257 0.078570782817648385 0 0.034623751394485078 0.078364376570062136 0 0.035882194448951181 0.07499998026022188 0 0.03674985621857995 0.078514799672487687 0 0.03597707236545785 0.081686793215615755 0 0.034623751394485078 0.078364376570062136 0 0.03674985621857995 0.078514799672487687 0 0.022955057135325915 0.077704242190867967 0 0.029462393870476875 0.077373654936293876 0 0.02436179602882443 0.076385050995251308 0 0.022955057135325915 0.077704242190867967 0 0.019646168304494439 0.07690482164575678 0 0.020235743344481069 0.078961250154889751 0 0.022955057135325915 0.077704242190867967 0 0.023593672351284716 0.079327476969775018 0 0.020235743344481069 0.078961250154889751 0 0.021310272180349813 0.080129990844144322 0 0.023593672351284716 0.079327476969775018 0 0.020235743344481069 0.078961250154889751 0 0.022955057135325915 0.077704242190867967 0 0.023593672351284716 0.079327476969775018 0 0.029462393870476875 0.077373654936293876 0 0.026536724207003811 0.079918306557892838 0 0.023593672351284716 0.079327476969775018 0 0.029462393870476875 0.077373654936293876 0 0.033115358909134952 0.072824998081761946 0 0.031201397007489334 0.074585783445495754 0 0.029462393870476875 0.077373654936293876 0 0.031201397007489334 0.074585783445495754 0 0.03033989797786784 0.075958171123019114 0 0.029462393870476875 0.077373654936293876 0 0.029869227630637662 0.076526287785529612 0 0.029462393870476875 0.077373654936293876 0 0.027863468128480576 0.076391905804486349 0 0.029462393870476875 0.077373654936293876 0 0.027863468128480576 0.076391905804486349 0 0.02436179602882443 0.076385050995251308 0 0.029164193087590228 0.074999355620283994 0 0.027863468128480576 0.076391905804486349 0 0.02510140961831437 0.074998789581085204 0 0.027863468128480576 0.076391905804486349 0 0.02510140961831437 0.074998789581085204 0 0.02436179602882443 0.076385050995251308 0 0.02510140961831437 0.074998789581085204 0 0.02436179602882443 0.076385050995251308 0 0.021037957933967691 0.074998744033299786 0 0.022955057135325915 0.077704242190867967 0 0.02436179602882443 0.076385050995251308 0 0.019646168304494439 0.07690482164575678 0 0.021037957933967691 0.074998744033299786 0 0.016973963353691061 0.074999122901755325 0 0.019646168304494439 0.07690482164575678 0 0.02436179602882443 0.076385050995251308 0 0.021037957933967691 0.074998744033299786 0 0.019646168304494439 0.07690482164575678 0 0.016973963353691061 0.074999122901755325 0 0.015345902509188164 0.076678717527995086 0 0.019646168304494439 0.07690482164575678 0 0.016973963353691061 0.074999122901755325 0 0.015345902509188164 0.076678717527995086 0 0.012910208959675573 0.074999216038819622 0 0.015345902509188164 0.076678717527995086 0 0.01326487849595586 0.078387302929555966 0 0.017416285753265908 0.078719117484252407 0 0.015345902509188164 0.076678717527995086 0 0.019646168304494439 0.07690482164575678 0 0.017416285753265908 0.078719117484252407 0 0.012910208959675573 0.074999216038819622 0 0.011090408881399455 0.076827846031622571 0 0.008846506030435226 0.074999469654247017 0 0.015345902509188164 0.076678717527995086 0 0.012910208959675573 0.074999216038819622 0 0.011090408881399455 0.076827846031622571 0 0.015345902509188164 0.076678717527995086 0 0.011090408881399455 0.076827846031622571 0 0.01326487849595586 0.078387302929555966 0 0.011090408881399455 0.076827846031622571 0 0.010137917697371388 0.079102007474684696 0 0.01326487849595586 0.078387302929555966 0 0.0091281664328914831 0.078646706720946841 0 0.010222585522378674 0.079678220255362184 0 0.010137917697371388 0.079102007474684696 0 0.01326487849595586 0.078387302929555966 0 0.012333153783578004 0.080947231481827545 0 0.01326487849595586 0.078387302929555966 0 0.012333153783578004 0.080947231481827545 0 0.017416285753265908 0.078719117484252407 0 0.012333153783578004 0.080947231481827545 0 0.017416285753265908 0.078719117484252407 0 0.013817437824061404 0.082311713380134113 0 0.012333153783578004 0.080947231481827545 0 0.013817437824061404 0.082311713380134113 0 0.01108088934820688 0.082599801360022707 0 0.012333153783578004 0.080947231481827545 0 0.01108088934820688 0.082599801360022707 0 0.00932244365758228 0.080666631967585944 0 0.0095311869802399644 0.078068995591442883 0 0.012333153783578004 0.080947231481827545 0 0.00932244365758228 0.080666631967585944 0 0.019646168304494439 0.07690482164575678 0 0.017416285753265908 0.078719117484252407 0 0.020235743344481069 0.078961250154889751 0 0.016190233191297278 0.079291497551186127 0 0.0149929123040772 0.080468018957010279 0 0.017416285753265908 0.078719117484252407 0 0.019136752178753512 0.079817996665453791 0 0.018412900294396538 0.080074863581390723 0 0.017416285753265908 0.078719117484252407 0 0.018412900294396538 0.080074863581390723 0 0.017791549439002494 0.079897447312727868 0 0.021310272180349813 0.080129990844144322 0 0.020235743344481069 0.078961250154889751 0 0.019136752178753512 0.079817996665453791 0 0.017416285753265908 0.078719117484252407 0 0.020235743344481069 0.078961250154889751 0 0.019136752178753512 0.079817996665453791 0 0.021310272180349813 0.080129990844144322 0 0.019136752178753512 0.079817996665453791 0 0.01950425750726676 0.080600887595688536 0 0.021310272180349813 0.080129990844144322 0 0.01950425750726676 0.080600887595688536 0 0.020854893628329492 0.081049613265211665 0 0.01950425750726676 0.080600887595688536 0 0.020854893628329492 0.081049613265211665 0 0.019543903263656799 0.081497847167607093 0 0.020854893628329492 0.081049613265211665 0 0.019543903263656799 0.081497847167607093 0 0.021268557036202517 0.081961271426048449 0 0.019543903263656799 0.081497847167607093 0 0.018447142343977905 0.081053512769925118 0 0.018289640545981051 0.082061296217117732 0 0.018447142343977905 0.081053512769925118 0 0.01768929874972602 0.081468611108052591 0 0.018289640545981051 0.082061296217117732 0 0.01950425750726676 0.080600887595688536 0 0.019543903263656799 0.081497847167607093 0 0.018447142343977905 0.081053512769925118 0 0.018447142343977905 0.081053512769925118 0 0.018412900294396538 0.080074863581390723 0 0.017762501574833663 0.080780814778145887 0 0.01950425750726676 0.080600887595688536 0 0.018447142343977905 0.081053512769925118 0 0.018412900294396538 0.080074863581390723 0 0.019136752178753512 0.079817996665453791 0 0.01950425750726676 0.080600887595688536 0 0.018412900294396538 0.080074863581390723 0 0.017791549439002494 0.079897447312727868 0 0.017762501574833663 0.080780814778145887 0 0.016563718486040428 0.081393486602223064 0 0.0149929123040772 0.080468018957010279 0 0.01274233092041803 0.081737733260194595 0 0.018412900294396538 0.080074863581390723 0 0.017791549439002494 0.079897447312727868 0 0.017762501574833663 0.080780814778145887 0 0.01108088934820688 0.082599801360022707 0 0.011007356739943698 0.085646483619389563 0 0.0086672126957095582 0.083202456655112403 0 0.013817437824061404 0.082311713380134113 0 0.01108088934820688 0.082599801360022707 0 0.011007356739943698 0.085646483619389563 0 0.017762501574833663 0.080780814778145887 0 0.016563718486040428 0.081393486602223064 0 0.01768929874972602 0.081468611108052591 0 0.016563718486040428 0.081393486602223064 0 0.01768929874972602 0.081468611108052591 0 0.017316737222554061 0.08217679353527603 0 0.018447142343977905 0.081053512769925118 0 0.017762501574833663 0.080780814778145887 0 0.01768929874972602 0.081468611108052591 0 0.01768929874972602 0.081468611108052591 0 0.017316737222554061 0.08217679353527603 0 0.018289640545981051 0.082061296217117732 0 0.017316737222554061 0.08217679353527603 0 0.017496058157894144 0.082856017446487906 0 0.018289640545981051 0.082061296217117732 0 0.014435886337531966 0.082422153471737328 0 0.015150512830529858 0.082825358181303058 0 0.012984551947914178 0.078798512792833314 0 0.013162797115299356 0.081585476909446578 0 0.010795786862312853 0.08193421245870805 0 0.01274233092041803 0.081737733260194595 0 0.012401213510869216 0.081857504584691501 0 0.01274233092041803 0.081737733260194595 0 0.014435886337531966 0.082422153471737328 0 0.012984551947914178 0.078798512792833314 0 0.015123967167799075 0.080956146212855684 0 0.013162797115299356 0.081585476909446578 0 0.015123967167799075 0.080956146212855684 0 0.013162797115299356 0.081585476909446578 0 0.013979231836702355 0.082944745323928495 0 0.013162797115299356 0.081585476909446578 0 0.012069575711145218 0.083592161285721417 0 0.010795786862312853 0.08193421245870805 0 0.013162797115299356 0.081585476909446578 0 0.013979231836702355 0.082944745323928495 0 0.012069575711145218 0.083592161285721417 0 0.013979231836702355 0.082944745323928495 0 0.013348525817490731 0.083674221491641887 0 0.014885527444536726 0.083733066445662932 0 0.012663785204469038 0.083716059399310733 0 0.013348525817490731 0.083674221491641887 0 0.012069575711145218 0.083592161285721417 0 0.013979231836702355 0.082944745323928495 0 0.013348525817490731 0.083674221491641887 0 0.012069575711145218 0.083592161285721417 0 0.015123967167799075 0.080956146212855684 0 0.015756311479701753 0.08316197073978783 0 0.017496058157894144 0.082856017446487906 0 0.015123967167799075 0.080956146212855684 0 0.013979231836702355 0.082944745323928495 0 0.015756311479701753 0.08316197073978783 0 0.017219802718834269 0.084944239402259064 0 0.015756311479701753 0.08316197073978783 0 0.017496058157894144 0.082856017446487906 0 0.013979231836702355 0.082944745323928495 0 0.015756311479701753 0.08316197073978783 0 0.014885527444536726 0.083733066445662932 0 0.017219802718834269 0.084944239402259064 0 0.015756311479701753 0.08316197073978783 0 0.014885527444536726 0.083733066445662932 0 0.017990573425593674 0.082837803119776884 0 0.018934600321635343 0.082863015452741634 0 0.017219802718834269 0.084944239402259064 0 0.017496058157894144 0.082856017446487906 0 0.019290448067389481 0.08297230023508162 0 0.017219802718834269 0.084944239402259064 0 0.019290448067389481 0.08297230023508162 0 0.020990774553487943 0.083740757230890528 0 0.021408933548646886 0.083130591134998683 0 0.019290448067389481 0.08297230023508162 0 0.020990774553487943 0.083740757230890528 0 0.021408933548646886 0.083130591134998683 0 0.019290448067389481 0.08297230023508162 0 0.019886451306835095 0.082402451704326543 0 0.021408933548646886 0.083130591134998683 0 0.021268557036202517 0.081961271426048449 0 0.019886451306835095 0.082402451704326543 0 0.019543903263656799 0.081497847167607093 0 0.021268557036202517 0.081961271426048449 0 0.019886451306835095 0.082402451704326543 0 0.019543903263656799 0.081497847167607093 0 0.019886451306835095 0.082402451704326543 0 0.018289640545981051 0.082061296217117732 0 0.017496058157894144 0.082856017446487906 0 0.019290448067389481 0.08297230023508162 0 0.018289640545981051 0.082061296217117732 0 0.019290448067389481 0.08297230023508162 0 0.019886451306835095 0.082402451704326543 0 0.018289640545981051 0.082061296217117732 0 0.0063864632763946929 0.083420168384029811 0 0.0061890943221638304 0.082258101356514027 0 0.0051028127389945608 0.083095420100987305 0 0.0063864632763946929 0.083420168384029811 0 0.0061890943221638304 0.082258101356514027 0 0.0072004574678408229 0.0826094424224601 0 0.0061890943221638304 0.082258101356514027 0 0.0072004574678408229 0.0826094424224601 0 0.0074501507282875596 0.081815921322535595 0 0.0061890943221638304 0.082258101356514027 0 0.0051028127389945608 0.083095420100987305 0 0.0050650347457276311 0.082021587661870107 0 0.004164974772084622 0.08266537153212998 0 0.0051028127389945608 0.083095420100987305 0 0.0050650347457276311 0.082021587661870107 0 0.004164974772084622 0.08266537153212998 0 0.0040907116088940597 0.081771727149648865 0 0.0032992823119320984 0.082336644333060399 0 0.004164974772084622 0.08266537153212998 0 0.0040907116088940597 0.081771727149648865 0 0.0050650347457276311 0.082021587661870107 0 0.004164974772084622 0.08266537153212998 0 0.0041045067523674331 0.08363963514871757 0 0.003369469618649455 0.083185057801678966 0 0.004164974772084622 0.08266537153212998 0 0.0051028127389945608 0.083095420100987305 0 0.0041045067523674331 0.08363963514871757 0 0.0051350708079926418 0.080472839105813765 0 0.001002325121520599 0.080380170794571035 0 0.0049591054092661749 0.084806397922448123 0 0.0041045067523674331 0.08363963514871757 0 0.0030269007185458308 0.084274735778448059 0 0.0051028127389945608 0.083095420100987305 0 0.0049591054092661749 0.084806397922448123 0 0.0041045067523674331 0.08363963514871757 0 0.0063864632763946929 0.083420168384029811 0 0.0049591054092661749 0.084806397922448123 0 0.0076050934085375495 0.084696808646867794 0 0.0051350708079926418 0.080472839105813765 0 0.0086746349273174161 0.081803806921731906 0 0.011740798514075477 0.083927975478269051 0 0.010943271545002282 0.08374881591773245 0 0.011631485831413631 0.083697743246252468 0 0.0063864632763946929 0.083420168384029811 0 0.0051028127389945608 0.083095420100987305 0 0.0049591054092661749 0.084806397922448123 0 0.011740798514075477 0.083927975478269051 0 0.011631485831413631 0.083697743246252468 0 0.012069575711145218 0.083592161285721417 0 0.0063864632763946929 0.083420168384029811 0 0.0076050934085375495 0.084696808646867794 0 0.0076389862727255162 0.083301971496203345 0 0.0076050934085375495 0.084696808646867794 0 0.0089498563915726397 0.083403384414977827 0 0.0076389862727255162 0.083301971496203345 0 0.0089498563915726397 0.083403384414977827 0 0.012069575711145218 0.083592161285721417 0 0.009992461209757289 0.082839238764727444 0 0.012663785204469038 0.083716059399310733 0 0.011740798514075477 0.083927975478269051 0 0.012069575711145218 0.083592161285721417 0 0.0076050934085375495 0.084696808646867794 0 0.0089498563915726397 0.083403384414977827 0 0.012069575711145218 0.083592161285721417 0 0.0086746349273174161 0.081803806921731906 0 0.0099833033578079731 0.082131008907241967 0 0.012069575711145218 0.083592161285721417 0 0.010795786862312853 0.08193421245870805 0 0.009992461209757289 0.082839238764727444 0 0.01073552223236298 0.081126525565250823 0 0.010795786862312853 0.08193421245870805 0 0.0092091727860784522 0.081361183821656649 0 0.010795786862312853 0.08193421245870805 0 0.009992461209757289 0.082839238764727444 0 0.0086669168474449512 0.082457546888894034 0 0.010795786862312853 0.08193421245870805 0 0.0086669168474449512 0.082457546888894034 0 0.0092091727860784522 0.081361183821656649 0 0.0076389862727255162 0.083301971496203345 0 0.0072004574678408229 0.0826094424224601 0 0.0086669168474449512 0.082457546888894034 0 0.0063864632763946929 0.083420168384029811 0 0.0076389862727255162 0.083301971496203345 0 0.0072004574678408229 0.0826094424224601 0 0.0089498563915726397 0.083403384414977827 0 0.0076389862727255162 0.083301971496203345 0 0.0086669168474449512 0.082457546888894034 0 0.0089498563915726397 0.083403384414977827 0 0.009992461209757289 0.082839238764727444 0 0.0086669168474449512 0.082457546888894034 0 0.0086669168474449512 0.082457546888894034 0 0.0074501507282875596 0.081815921322535595 0 0.0092091727860784522 0.081361183821656649 0 0.0072004574678408229 0.0826094424224601 0 0.0086669168474449512 0.082457546888894034 0 0.0074501507282875596 0.081815921322535595 0 0.0074501507282875596 0.081815921322535595 0 0.0078228390271171209 0.080991481380818145 0 0.0060341181167217857 0.08127271264147426 0 0.0078228390271171209 0.080991481380818145 0 0.006690728514093522 0.080471407374468173 0 0.0060341181167217857 0.08127271264147426 0 0.0074501507282875596 0.081815921322535595 0 0.0078228390271171209 0.080991481380818145 0 0.0092091727860784522 0.081361183821656649 0 0.01073552223236298 0.081126525565250823 0 0.0092091727860784522 0.081361183821656649 0 0.0089500250182439709 0.080225062112022544 0 0.0078228390271171209 0.080991481380818145 0 0.0092091727860784522 0.081361183821656649 0 0.0089500250182439709 0.080225062112022544 0 0.01274233092041803 0.081737733260194595 0 0.010664853356283498 0.081114943391244046 0 0.01108088934820688 0.082599801360022707 0 0.0086672126957095582 0.083202456655112403 0 0.00932244365758228 0.080666631967585944 0 0.0078228390271171209 0.080991481380818145 0 0.0089500250182439709 0.080225062112022544 0 0.006690728514093522 0.080471407374468173 0 0.0089500250182439709 0.080225062112022544 0 0.006690728514093522 0.080471407374468173 0 0.0067494871744906886 0.080069274939348886 0 0.010664853356283498 0.081114943391244046 0 0.0097346631289013889 0.080648103397282497 0 0.006690728514093522 0.080471407374468173 0 0.0056841121911859532 0.080063319481236628 0 0.0067494871744906886 0.080069274939348886 0 0.006690728514093522 0.080471407374468173 0 0.0060341181167217857 0.08127271264147426 0 0.004956146349728555 0.080580730389382682 0 0.0056841121911859532 0.080063319481236628 0 0.004956146349728555 0.080580730389382682 0 0.0047290452103877648 0.079387831746294213 0 0.006690728514093522 0.080471407374468173 0 0.0056841121911859532 0.080063319481236628 0 0.004956146349728555 0.080580730389382682 0 0.0060341181167217857 0.08127271264147426 0 0.0047857555479029002 0.081287201521505148 0 0.004956146349728555 0.080580730389382682 0 0.0060341181167217857 0.08127271264147426 0 0.0050650347457276311 0.082021587661870107 0 0.0047857555479029002 0.081287201521505148 0 0.0061890943221638304 0.082258101356514027 0 0.0060341181167217857 0.08127271264147426 0 0.0050650347457276311 0.082021587661870107 0 0.0061890943221638304 0.082258101356514027 0 0.0074501507282875596 0.081815921322535595 0 0.0060341181167217857 0.08127271264147426 0 0.0040907116088940597 0.081771727149648865 0 0.0050650347457276311 0.082021587661870107 0 0.0047857555479029002 0.081287201521505148 0 0.0047857555479029002 0.081287201521505148 0 0.0038386777907789267 0.080854089228792864 0 0.004956146349728555 0.080580730389382682 0 0.0040907116088940597 0.081771727149648865 0 0.0047857555479029002 0.081287201521505148 0 0.0038386777907789267 0.080854089228792864 0 0.0038386777907789267 0.080854089228792864 0 0.004956146349728555 0.080580730389382682 0 0.0034058164694551907 0.079750375992644507 0 0.004956146349728555 0.080580730389382682 0 0.0047290452103877648 0.079387831746294213 0 0.0034058164694551907 0.079750375992644507 0 0.0036488598783278943 0.078928683591755741 0 0.0047290452103877648 0.079387831746294213 0 0.0034058164694551907 0.079750375992644507 0 0.0036488598783278943 0.078928683591755741 0 0.0047290452103877648 0.079387831746294213 0 0.0045655982888885569 0.078560379659169746 0 0.0056841121911859532 0.080063319481236628 0 0.0055670572298532296 0.079167914986504065 0 0.0047290452103877648 0.079387831746294213 0 0.0056841121911859532 0.080063319481236628 0 0.0055670572298532296 0.079167914986504065 0 0.0067494871744906886 0.080069274939348886 0 0.0055670572298532296 0.079167914986504065 0 0.0047290452103877648 0.079387831746294213 0 0.0045655982888885569 0.078560379659169746 0 0.0055670572298532296 0.079167914986504065 0 0.0045655982888885569 0.078560379659169746 0 0.005147676810823773 0.078012624810020401 0 0.0045655982888885569 0.078560379659169746 0 0.005147676810823773 0.078012624810020401 0 0.0039748484540165791 0.07757765158144235 0 0.0045655982888885569 0.078560379659169746 0 0.0036005473243710426 0.078201737342418129 0 0.0039748484540165791 0.07757765158144235 0 0.0036005473243710426 0.078201737342418129 0 0.0032439288080565198 0.07748445170245849 0 0.0028087403709132928 0.078617825766782903 0 0.0036005473243710426 0.078201737342418129 0 0.0032439288080565198 0.07748445170245849 0 0.0039748484540165791 0.07757765158144235 0 0.0036488598783278943 0.078928683591755741 0 0.0036005473243710426 0.078201737342418129 0 0.0028087403709132928 0.078617825766782903 0 0.0036488598783278943 0.078928683591755741 0 0.0045655982888885569 0.078560379659169746 0 0.0036005473243710426 0.078201737342418129 0 0.0086672126957095582 0.083202456655112403 0 0.00932244365758228 0.080666631967585944 0 0.0067494871744906886 0.080069274939348886 0 0.00932244365758228 0.080666631967585944 0 0.0067494871744906886 0.080069274939348886 0 0.0069298009490473406 0.078441925041168203 0 0.0055670572298532296 0.079167914986504065 0 0.0067494871744906886 0.080069274939348886 0 0.0069298009490473406 0.078441925041168203 0 0.0055670572298532296 0.079167914986504065 0 0.005147676810823773 0.078012624810020401 0 0.0069298009490473406 0.078441925041168203 0 0.005147676810823773 0.078012624810020401 0 0.0069298009490473406 0.078441925041168203 0 0.0057406294190367503 0.077038325906530009 0 0.0095311869802399644 0.078068995591442883 0 0.00932244365758228 0.080666631967585944 0 0.0069298009490473406 0.078441925041168203 0 0.011090408881399455 0.076827846031622571 0 0.010137917697371388 0.079102007474684696 0 0.0074810291714546145 0.077233502789295513 0 0.0095311869802399644 0.078068995591442883 0 0.0069298009490473406 0.078441925041168203 0 0.0071095863737399515 0.076379811296435993 0 0.0091281664328914831 0.078646706720946841 0 0.0070840203967623373 0.076889398645077878 0 0.0069298009490473406 0.078441925041168203 0 0.0071095863737399515 0.076379811296435993 0 0.0057406294190367503 0.077038325906530009 0 0.0070840203967623373 0.076889398645077878 0 0.0047852797533999968 0.075001667433094096 0 0.0074810291714546145 0.077233502789295513 0 0.0047827748039589351 0.075000026940614403 0 0.008846506030435226 0.074999469654247017 0 0.0071095863737399515 0.076379811296435993 0 0.0057406294190367503 0.077038325906530009 0 0.0047815641992976369 0.074999093073678691 0 0.011090408881399455 0.076827846031622571 0 0.0074810291714546145 0.077233502789295513 0 0.008846506030435226 0.074999469654247017 0 0.0027097349915865721 0.076859659646726974 0 0.0032439288080565198 0.07748445170245849 0 0.0028087403709132928 0.078617825766782903 0 0.0033525042600296611 0.076847243132540502 0 0.0027933578526797525 0.076906077804186679 0 0.0032439288080565198 0.07748445170245849 0 0.0027933578526797525 0.076906077804186679 0 0.0024038315954329962 0.076857720904755442 0 0.0028492273012170281 0.076112504389653168 0 0.0033525042600296611 0.076847243132540502 0 0.0027933578526797525 0.076906077804186679 0 0.0028492273012170281 0.076112504389653168 0 0.0027933578526797525 0.076906077804186679 0 0.0027097349915865721 0.076859659646726974 0 0.0032439288080565198 0.07748445170245849 0 0.00020345411831039183 0.076810792582699836 0 0.00013329849347395865 0.076799757871854432 0 0.0033525042600296611 0.076847243132540502 0 0.0032439288080565198 0.07748445170245849 0 0.0039748484540165791 0.07757765158144235 0 0.005147676810823773 0.078012624810020401 0 0.0039748484540165791 0.07757765158144235 0 0.0042817157558687176 0.076778511250217216 0 0.005147676810823773 0.078012624810020401 0 0.0057406294190367503 0.077038325906530009 0 0.0042817157558687176 0.076778511250217216 0 0.0033525042600296611 0.076847243132540502 0 0.0039748484540165791 0.07757765158144235 0 0.0042817157558687176 0.076778511250217216 0 0.0033525042600296611 0.076847243132540502 0 0.0042817157558687176 0.076778511250217216 0 0.0028492273012170281 0.076112504389653168 0 0.0047815641992976369 0.074999093073678691 0 0.0014433723585946135 0.075000019382552865 0 0.0028492273012170281 0.076112504389653168 0 0.0057406294190367503 0.077038325906530009 0 0.0047815641992976369 0.074999093073678691 0 0.0042817157558687176 0.076778511250217216 0 0.0047815641992976369 0.074999093073678691 0 0.0042817157558687176 0.076778511250217216 0 0.0028492273012170281 0.076112504389653168 0 0.0024038315954329962 0.076857720904755442 0 0.0014433723585946135 0.075000019382552865 0 0.0028492273012170281 0.076112504389653168 0 0.00013329849347395865 0.076799757871854432 0 0.0014374112427905971 0.075001727591790773 0 0.00036385696455646396 0.077731909846533345 0 0.0014394149597908377 0.074999995801578845 0 -0.0023307729255003387 0.074999993897076095 0 0.00036385696455646396 0.077731909846533345 0 -0.0023307729255003387 0.074999993897076095 0 -0.0037096647322808715 0.076910041071705168 0 0.00013329849347395865 0.076799757871854432 0 -0.0039047012655716497 0.076476355069388005 0 -0.00091331223274042958 0.077568361095429597 0 -0.0040551896082036123 0.079158214435498156 0 -0.002252505037973895 0.080955533644867378 0 -0.00091331223274042958 0.077568361095429597 0 -0.0040551896082036123 0.079158214435498156 0 -0.0044081054202817294 0.07684862043627759 0 -0.0040551896082036123 0.079158214435498156 0 -0.0044081054202817294 0.07684862043627759 0 -0.0064047222810529212 0.078702736579295871 0 -0.0023307729255003387 0.074999993897076095 0 -0.0037096647322808715 0.076910041071705168 0 -0.006100961405734435 0.075000005172056988 0 -0.0044081054202817294 0.07684862043627759 0 -0.0080194806602744313 0.076066378846248645 0 -0.0077878445855090401 0.077749637456031334 0 -0.0039047012655716497 0.076476355069388005 0 -0.0075177149906437936 0.075943421893097246 0 -0.0037096647322808715 0.076910041071705168 0 -0.006100961405734435 0.075000005172056988 0 -0.0077867413144968797 0.076089760204398393 0 -0.006100961405734435 0.075000005172056988 0 -0.0077867413144968797 0.076089760204398393 0 -0.0098712059451078246 0.074999971714347399 0 -0.0080194806602744313 0.076066378846248645 0 -0.0094571559132062 0.077289441876612991 0 -0.0077878445855090401 0.077749637456031334 0 -0.0077878445855090401 0.077749637456031334 0 -0.0092100689664005465 0.079141987270736527 0 -0.0064047222810529212 0.078702736579295871 0 -0.0075968586986270414 0.078675599252826314 0 -0.0074772465615221993 0.07868999337849468 0 -0.0094571559132062 0.077289441876612991 0 -0.0077878445855090401 0.077749637456031334 0 -0.0092100689664005465 0.079141987270736527 0 -0.0044081054202817294 0.07684862043627759 0 -0.0077878445855090401 0.077749637456031334 0 -0.0064047222810529212 0.078702736579295871 0 -0.0040551896082036123 0.079158214435498156 0 -0.0064047222810529212 0.078702736579295871 0 -0.0063054255816247977 0.081687914508907583 0 -0.0090131172116653339 0.079052620095120665 0 -0.0064047222810529212 0.078702736579295871 0 -0.0063054255816247977 0.081687914508907583 0 -0.0075968586986270414 0.078675599252826314 0 -0.0038310758898482131 0.08015519010922921 0 -0.0019824144579581285 0.07610553961493903 0 -0.001459347821641335 0.079068732136163472 0 7.9982349639822812e-05 0.078096683163667566 0 -0.001459347821641335 0.079068732136163472 0 7.9982349639822812e-05 0.078096683163667566 0 -0.0002216345592868593 0.080553164323267826 0 -0.0040551896082036123 0.079158214435498156 0 -0.0063054255816247977 0.081687914508907583 0 -0.002252505037973895 0.080955533644867378 0 -0.0038310758898482131 0.08015519010922921 0 -0.001699117445752147 0.080805436850498708 0 -0.0063054255816247977 0.081687914508907583 0 -0.002252505037973895 0.080955533644867378 0 -0.003578071961984574 0.08432636648116805 0 -0.00057734807775391018 0.079215413178030783 0 -0.001699117445752147 0.080805436850498708 0 0.0036488598783278943 0.078928683591755741 0 0.0034058164694551907 0.079750375992644507 0 0.0028087403709132928 0.078617825766782903 0 0.0034058164694551907 0.079750375992644507 0 0.0028087403709132928 0.078617825766782903 0 0.0022679623715153303 0.080351970354314836 0 0.00013329849347395865 0.076799757871854432 0 -0.00057734807775391018 0.079215413178030783 0 -0.018384598730959625 0.079212297081528188 0 -0.017319125511466159 0.079175904543998976 0 -0.018278683961723014 0.077821036894343318 0 -0.017319125511466159 0.079175904543998976 0 -0.018278683961723014 0.077821036894343318 0 -0.016048594454734329 0.078172101539477498 0 -0.018278683961723014 0.077821036894343318 0 -0.01714239012350682 0.076585397131597732 0 -0.016048594454734329 0.078172101539477498 0 -0.016833083790764938 0.074999966307939245 0 -0.01714239012350682 0.076585397131597732 0 -0.020024752001516134 0.074999998051112279 0 -0.018278683961723014 0.077821036894343318 0 -0.01714239012350682 0.076585397131597732 0 -0.020024752001516134 0.074999998051112279 0 -0.016833083790764938 0.074999966307939245 0 -0.01714239012350682 0.076585397131597732 0 -0.014687567922650819 0.076723993104468424 0 -0.01714239012350682 0.076585397131597732 0 -0.014687567922650819 0.076723993104468424 0 -0.016048594454734329 0.078172101539477498 0 -0.016833083790764938 0.074999966307939245 0 -0.014687567922650819 0.076723993104468424 0 -0.013641533723148332 0.074999968189396124 0 -0.013786295749651666 0.078451787682759455 0 -0.013035363726741953 0.079898885958458205 0 -0.015584229034593857 0.080229948271892504 0 -0.014687567922650819 0.076723993104468424 0 -0.016048594454734329 0.078172101539477498 0 -0.013786295749651666 0.078451787682759455 0 -0.017319125511466159 0.079175904543998976 0 -0.016048594454734329 0.078172101539477498 0 -0.015584229034593857 0.080229948271892504 0 -0.016048594454734329 0.078172101539477498 0 -0.013786295749651666 0.078451787682759455 0 -0.015584229034593857 0.080229948271892504 0 -0.014687567922650819 0.076723993104468424 0 -0.013786295749651666 0.078451787682759455 0 -0.011431271782724127 0.077178665129328056 0 -0.013786295749651666 0.078451787682759455 0 -0.011431271782724127 0.077178665129328056 0 -0.01303954500997485 0.079882796445929202 0 -0.011166723641487351 0.07831944997418562 0 -0.01101285422252361 0.078365443895196049 0 -0.013641275427753289 0.075000009179050184 0 -0.01186467082583832 0.075259619055905586 0 -0.0098712059451078246 0.074999971714347399 0 -0.014687567922650819 0.076723993104468424 0 -0.013641533723148332 0.074999968189396124 0 -0.011431271782724127 0.077178665129328056 0 -0.013637638080632718 0.075001569231939638 0 -0.010834161196188465 0.076799664702480508 0 -0.013641275427753289 0.075000009179050184 0 -0.01186467082583832 0.075259619055905586 0 -0.011367352668932297 0.07711786906199436 0 -0.0075177149906437936 0.075943421893097246 0 -0.0095503278989313416 0.075583660408958753 0 -0.0094571559132062 0.077289441876612991 0 -0.01186467082583832 0.075259619055905586 0 -0.011367352668932297 0.07711786906199436 0 -0.0080194806602744313 0.076066378846248645 0 -0.0094571559132062 0.077289441876612991 0 -0.01186467082583832 0.075259619055905586 0 -0.0077867413144968797 0.076089760204398393 0 -0.01186467082583832 0.075259619055905586 0 -0.0098712059451078246 0.074999971714347399 0 -0.0075968586986270414 0.078675599252826314 0 -0.010834161196188465 0.076799664702480508 0 -0.0091852143888542601 0.079364037716492392 0 -0.011431271782724127 0.077178665129328056 0 -0.01303954500997485 0.079882796445929202 0 -0.0094571559132062 0.077289441876612991 0 -0.0092100689664005465 0.079141987270736527 0 -0.011367352668932297 0.07711786906199436 0 -0.0075968586986270414 0.078675599252826314 0 -0.01101285422252361 0.078365443895196049 0 -0.0019824144579581285 0.07610553961493903 0 -0.0032752017181367785 0.078796050325915079 0 -0.0045159467310343258 0.076446123514736411 0 -0.0019824144579581285 0.07610553961493903 0 -0.001459347821641335 0.079068732136163472 0 -0.0032752017181367785 0.078796050325915079 0 -0.01328258053424046 0.082531959877329961 0 -0.014724344684749528 0.079862814461159115 0 -0.015545007311398037 0.081792870973119727 0 -0.01328258053424046 0.082531959877329961 0 -0.015545007311398037 0.081792870973119727 0 -0.016120790711406138 0.084132179621502684 0 -0.0088693494856422524 0.080737039108976449 0 -0.01101285422252361 0.078365443895196049 0 -0.014724344684749528 0.079862814461159115 0 -0.016566100310057525 0.080157069068324177 0 -0.015545007311398037 0.081792870973119727 0 -0.01101285422252361 0.078365443895196049 0 -0.014234670200053342 0.079093495290288099 0 -0.016566100310057525 0.080157069068324177 0 -0.015545007311398037 0.081792870973119727 0 -0.017376610512675774 0.082309351859916099 0 -0.015545007311398037 0.081792870973119727 0 -0.017376610512675774 0.082309351859916099 0 -0.016120790711406138 0.084132179621502684 0 -0.017376610512675774 0.082309351859916099 0 -0.019288313640314785 0.079846547166879236 0 -0.019301861650380035 0.081168226010726804 0 -0.017376610512675774 0.082309351859916099 0 -0.018669546341648535 0.084058644800728832 0 -0.019291093531933964 0.082297644131285652 0 -0.017376610512675774 0.082309351859916099 0 -0.019301861650380035 0.081168226010726804 0 -0.019291093531933964 0.082297644131285652 0 -0.017376610512675774 0.082309351859916099 0 -0.018226071098109125 0.080458554752604106 0 -0.018760635866371913 0.080435558598060383 0 -0.014234670200053342 0.079093495290288099 0 -0.015397308662952722 0.079340103600319872 0 -0.016566100310057525 0.080157069068324177 0 -0.017376610512675774 0.082309351859916099 0 -0.018226071098109125 0.080458554752604106 0 -0.018595281946432302 0.080768592856080818 0 -0.019461256811450341 0.07967718619569851 0 -0.017319125511466159 0.079175904543998976 0 -0.015584229034593857 0.080229948271892504 0 -0.018226071098109125 0.080458554752604106 0 -0.018384598730959625 0.079212297081528188 0 -0.018226071098109125 0.080458554752604106 0 -0.018760635866371913 0.080435558598060383 0 -0.018384598730959625 0.079212297081528188 0 -0.017319125511466159 0.079175904543998976 0 -0.018226071098109125 0.080458554752604106 0 -0.017376610512675774 0.082309351859916099 0 -0.018669546341648535 0.084058644800728832 0 -0.016120790711406138 0.084132179621502684 0 -0.018528517274018757 0.086175345119354346 0 -0.018669546341648535 0.084058644800728832 0 -0.016120790711406138 0.084132179621502684 0 -0.020924875867490103 0.079318792625772669 0 -0.017359564029251533 0.079664135272975542 0 -0.018528517274018757 0.086175345119354346 0 -0.016120790711406138 0.084132179621502684 0 -0.015745432051002602 0.086761464967739912 0 -0.016120790711406138 0.084132179621502684 0 -0.014004959679659749 0.085215345750079413 0 -0.015745432051002602 0.086761464967739912 0 -0.014004959679659749 0.085215345750079413 0 -0.013067123923268654 0.087368043731845424 0 -0.015745432051002602 0.086761464967739912 0 -0.01328258053424046 0.082531959877329961 0 -0.016120790711406138 0.084132179621502684 0 -0.014004959679659749 0.085215345750079413 0 -0.0088693494856422524 0.080737039108976449 0 -0.0074503917270816863 0.082518024531795464 0 -0.001459347821641335 0.079068732136163472 0 -0.0032752017181367785 0.078796050325915079 0 -0.0020237012729578696 0.081130610741063203 0 -0.01328258053424046 0.082531959877329961 0 -0.014004959679659749 0.085215345750079413 0 -0.011838121690962201 0.085288038796316176 0 -0.014004959679659749 0.085215345750079413 0 -0.013067123923268654 0.087368043731845424 0 -0.011838121690962201 0.085288038796316176 0 -0.014707379383938898 0.072199225462781846 0 -0.011262234843607359 0.07457593729341247 0 -0.013636146437160603 0.07759598340419234 0 -0.014707379383938898 0.072199225462781846 0 -0.018352889994452202 0.076780033668436679 0 -0.013636146437160603 0.07759598340419234 0 -0.014707379383938898 0.072199225462781846 0 -0.018352889994452202 0.076780033668436679 0 -0.019950384709779407 0.071800030933682035 0 -0.013238735173454683 0.080257565699559399 0 -0.017359564029251533 0.079664135272975542 0 -0.019950384709779407 0.071800030933682035 0 -0.022306657415614529 0.074977683568778999 0 -0.024055931590395017 0.074004786332870581 0 -0.018352889994452202 0.076780033668436679 0 -0.019950384709779407 0.071800030933682035 0 -0.022306657415614529 0.074977683568778999 0 -0.018352889994452202 0.076780033668436679 0 -0.022306657415614529 0.074977683568778999 0 -0.021860415138693797 0.077115276189334392 0 -0.022306657415614529 0.074977683568778999 0 -0.021860415138693797 0.077115276189334392 0 -0.025485027527386937 0.076674239386182064 0 -0.022306657415614529 0.074977683568778999 0 -0.025485027527386937 0.076674239386182064 0 -0.025792402851150358 0.075832003493894004 0 -0.022306657415614529 0.074977683568778999 0 -0.024055931590395017 0.074004786332870581 0 -0.025792402851150358 0.075832003493894004 0 -0.024330997629041298 0.072137029368866762 0 -0.024055931590395017 0.074004786332870581 0 -0.026447727992498098 0.073965683077083649 0 -0.024330997629041298 0.072137029368866762 0 -0.019950384709779407 0.071800030933682035 0 -0.024055931590395017 0.074004786332870581 0 0.0018126122888945911 0.080977490627227811 0 0.0011534710865366401 0.081527498236891358 0 0.0021054480378834709 0.081581603686651905 0 0.0018126122888945911 0.080977490627227811 0 0.0021054480378834709 0.081581603686651905 0 0.0023844360513483234 0.081077497278563185 0 0.0018126122888945911 0.080977490627227811 0 0.0023844360513483234 0.081077497278563185 0 0.0025050060790735374 0.080585560235019379 0 0.0018126122888945911 0.080977490627227811 0 0.0011534710865366401 0.081527498236891358 0 0.00099160277841734107 0.080250798146877952 0 0.0011534710865366401 0.081527498236891358 0 0.0019416877260275678 0.082321179995081012 0 0.0010813444443580175 0.0827675092585681 0 0.0011534710865366401 0.081527498236891358 0 0.0021054480378834709 0.081581603686651905 0 0.0019416877260275678 0.082321179995081012 0 0.0021054480378834709 0.081581603686651905 0 0.0026247866026724424 0.082051018986719779 0 0.0019416877260275678 0.082321179995081012 0 0.0026247866026724424 0.082051018986719779 0 0.0032598746407916908 0.081565807818363409 0 0.002685048495141033 0.081445846197779864 0 0.0021054480378834709 0.081581603686651905 0 0.0026247866026724424 0.082051018986719779 0 0.002685048495141033 0.081445846197779864 0 0.0040907116088940597 0.081771727149648865 0 0.0032598746407916908 0.081565807818363409 0 0.0032992823119320984 0.082336644333060399 0 0.0026247866026724424 0.082051018986719779 0 0.0032598746407916908 0.081565807818363409 0 0.0032992823119320984 0.082336644333060399 0 0.0040907116088940597 0.081771727149648865 0 0.0038386777907789267 0.080854089228792864 0 0.0032598746407916908 0.081565807818363409 0 0.0038386777907789267 0.080854089228792864 0 0.0032598746407916908 0.081565807818363409 0 0.0029934026473246883 0.080939547042053972 0 0.0021054480378834709 0.081581603686651905 0 0.002685048495141033 0.081445846197779864 0 0.0023844360513483234 0.081077497278563185 0 0.0032598746407916908 0.081565807818363409 0 0.002685048495141033 0.081445846197779864 0 0.0029934026473246883 0.080939547042053972 0 0.002685048495141033 0.081445846197779864 0 0.0029934026473246883 0.080939547042053972 0 0.0023844360513483234 0.081077497278563185 0 0.0025050060790735374 0.080585560235019379 0 0.0030104845156111656 0.080419138245782437 0 0.0022679623715153303 0.080351970354314836 0 0.0034058164694551907 0.079750375992644507 0 0.0030104845156111656 0.080419138245782437 0 0.0022679623715153303 0.080351970354314836 0 0.0029934026473246883 0.080939547042053972 0 0.0023844360513483234 0.081077497278563185 0 0.0025050060790735374 0.080585560235019379 0 0.0038386777907789267 0.080854089228792864 0 0.0034058164694551907 0.079750375992644507 0 0.0030104845156111656 0.080419138245782437 0 0.0029934026473246883 0.080939547042053972 0 0.0025050060790735374 0.080585560235019379 0 0.0030104845156111656 0.080419138245782437 0 0.0038386777907789267 0.080854089228792864 0 0.0029934026473246883 0.080939547042053972 0 0.0030104845156111656 0.080419138245782437 0 7.9982349639822812e-05 0.078096683163667566 0 0.002146564833439057 0.080092276108776742 0 0.00099160277841734107 0.080250798146877952 0 0.0018126122888945911 0.080977490627227811 0 0.002146564833439057 0.080092276108776742 0 0.00099160277841734107 0.080250798146877952 0 0.0018126122888945911 0.080977490627227811 0 0.0025050060790735374 0.080585560235019379 0 0.0021682819013559176 0.080257022112914675 0 -0.0015196476948546389 0.080678714151583827 0 -0.001699117445752147 0.080805436850498708 0 -0.0015926304476278448 0.080862305127471293 0 -0.001699117445752147 0.080805436850498708 0 7.9982349639822812e-05 0.078096683163667566 0 0.00099160277841734107 0.080250798146877952 0 -0.0002216345592868593 0.080553164323267826 0 0.0011534710865366401 0.081527498236891358 0 0.00099160277841734107 0.080250798146877952 0 -0.0002216345592868593 0.080553164323267826 0 -0.001459347821641335 0.079068732136163472 0 -0.0002216345592868593 0.080553164323267826 0 -0.0020237012729578696 0.081130610741063203 0 -0.0020237012729578696 0.081130610741063203 0 -0.00068882740693640518 0.081791305247969084 0 -0.00078758586891468526 0.083409211827619387 0 -0.0002216345592868593 0.080553164323267826 0 -0.0020237012729578696 0.081130610741063203 0 -0.00068882740693640518 0.081791305247969084 0 0.0011534710865366401 0.081527498236891358 0 -0.0002216345592868593 0.080553164323267826 0 0.00027975448306090427 0.082065821608614045 0 -0.0002216345592868593 0.080553164323267826 0 -0.00068882740693640518 0.081791305247969084 0 0.00027975448306090427 0.082065821608614045 0 0.0011534710865366401 0.081527498236891358 0 0.00027975448306090427 0.082065821608614045 0 0.0010813444443580175 0.0827675092585681 0 -0.00068882740693640518 0.081791305247969084 0 0.00027975448306090427 0.082065821608614045 0 -0.00078758586891468526 0.083409211827619387 0 0.00027975448306090427 0.082065821608614045 0 -0.00078758586891468526 0.083409211827619387 0 0.0010813444443580175 0.0827675092585681 0 -0.007663839969185628 0.081356678924843384 0 -0.0028626825740519961 0.080623907508476408 0 -0.00078758586891468526 0.083409211827619387 0 0.0011497220993465142 0.08384543208609721 0 0.0010813444443580175 0.0827675092585681 0 -0.014707379383938898 0.072199225462781846 0 -0.0093795481857275684 0.072982369956621468 0 -0.011262234843607359 0.07457593729341247 0 -0.0074503917270816863 0.082518024531795464 0 -0.007663839969185628 0.081356678924843384 0 -0.013238735173454683 0.080257565699559399 0 -0.007663839969185628 0.081356678924843384 0 -0.013067123923268654 0.087368043731845424 0 -0.011838121690962201 0.085288038796316176 0 -0.010416519716890806 0.088003930333837979 0 -0.007663839969185628 0.081356678924843384 0 -0.0077952885111540193 0.081042178067720877 0 -0.011262234843607359 0.07457593729341247 0 -0.0097075851372239279 0.076149448899919508 0 -0.013636146437160603 0.07759598340419234 0 -0.011262234843607359 0.07457593729341247 0 -0.0097075851372239279 0.076149448899919508 0 -0.0087972718918591843 0.07399099949428295 0 -0.0093795481857275684 0.072982369956621468 0 -0.011262234843607359 0.07457593729341247 0 -0.0087972718918591843 0.07399099949428295 0 -0.0093108913184344628 0.073010685635409397 0 -0.0087972718918591843 0.07399099949428295 0 -0.005106259411425184 0.074011706016887863 0 -0.0069211867872432985 0.075050080679774145 0 -0.0087972718918591843 0.07399099949428295 0 -0.005106259411425184 0.074011706016887863 0 -0.0097075851372239279 0.076149448899919508 0 -0.0069211867872432985 0.075050080679774145 0 -0.0087972718918591843 0.07399099949428295 0 -0.0097075851372239279 0.076149448899919508 0 -0.0069211867872432985 0.075050080679774145 0 -0.0075408766046529867 0.07692435195483921 0 -0.0028626825740519961 0.080623907508476408 0 0.001002325121520599 0.080380170794571035 0 -0.0069211867872432985 0.075050080679774145 0 -0.0022982579056131922 0.076534687132626497 0 -0.0075408766046529867 0.07692435195483921 0 -0.0069211867872432985 0.075050080679774145 0 -0.005106259411425184 0.074011706016887863 0 -0.0022982579056131922 0.076534687132626497 0 -0.005106259411425184 0.074011706016887863 0 -0.0022982579056131922 0.076534687132626497 0 -0.0010521005082063581 0.075037968575889985 0 0.0011497220993465142 0.08384543208609721 0 0.0024341922187253286 0.083093878435669025 0 0.0030269007185458308 0.084274735778448059 0 0.0011497220993465142 0.08384543208609721 0 0.0010813444443580175 0.0827675092585681 0 0.0024341922187253286 0.083093878435669025 0 0.0019416877260275678 0.082321179995081012 0 0.0010813444443580175 0.0827675092585681 0 0.0024341922187253286 0.083093878435669025 0 0.0026247866026724424 0.082051018986719779 0 0.0019416877260275678 0.082321179995081012 0 0.0024341922187253286 0.083093878435669025 0 0.004164974772084622 0.08266537153212998 0 0.0032992823119320984 0.082336644333060399 0 0.003369469618649455 0.083185057801678966 0 0.0026247866026724424 0.082051018986719779 0 0.0032992823119320984 0.082336644333060399 0 0.0024341922187253286 0.083093878435669025 0 0.0032992823119320984 0.082336644333060399 0 0.0024341922187253286 0.083093878435669025 0 0.003369469618649455 0.083185057801678966 0 0.0024341922187253286 0.083093878435669025 0 0.003369469618649455 0.083185057801678966 0 0.0030269007185458308 0.084274735778448059 0 0.0041045067523674331 0.08363963514871757 0 0.003369469618649455 0.083185057801678966 0 0.0030269007185458308 0.084274735778448059 0 0.0051350708079926418 0.080472839105813765 0 -0.00063469800323950583 0.078734071897773303 0 0.0030517158735362446 0.07608582838325513 0 -0.0022982579056131922 0.076534687132626497 0 -0.0010521005082063581 0.075037968575889985 0 -0.00095767068647303953 0.075761844178264079 0 0.0020859051509598756 0.078018176604332024 0 -0.00094785383690901206 0.079869942015055151 0 0.0057224827567623144 0.075468326831177254 0 -0.00095767068647303953 0.075761844178264079 0 0.0020859051509598756 0.078018176604332024 0 0.0020859051509598756 0.078018176604332024 0 0.0016787599245533162 0.08051460793745191 0 -0.00094785383690901206 0.079869942015055151 0 -0.00063469800323950583 0.078734071897773303 0 -0.0036556042658260823 0.078402225966326344 0 -0.00095767068647303953 0.075761844178264079 0 -0.0040838197976280927 0.078752394220433453 0 -0.00094785383690901206 0.079869942015055151 0 -0.00095767068647303953 0.075761844178264079 0 -0.0040838197976280927 0.078752394220433453 0 -0.0075408766046529867 0.07692435195483921 0 -0.0042343225983629915 0.082308691662734815 0 -0.00094785383690901206 0.079869942015055151 0 -0.00044610483193610546 0.082916693439119768 0 -0.0040838197976280927 0.078752394220433453 0 -0.0042343225983629915 0.082308691662734815 0 -0.00094785383690901206 0.079869942015055151 0 -0.0040838197976280927 0.078752394220433453 0 -0.0042343225983629915 0.082308691662734815 0 -0.0070755492864792721 0.079752481269421596 0 0.0033681552203583638 0.084157272373701714 0 0.0016787599245533162 0.08051460793745191 0 -0.00044610483193610546 0.082916693439119768 0 0.0016787599245533162 0.08051460793745191 0 -0.00094785383690901206 0.079869942015055151 0 -0.00044610483193610546 0.082916693439119768 0 0.0033681552203583638 0.084157272373701714 0 -0.00044610483193610546 0.082916693439119768 0 -0.0026496213452948687 0.086861374309276984 0 0.0033681552203583638 0.084157272373701714 0 0.0030348941743217465 0.091299563138151685 0 -0.0026496213452948687 0.086861374309276984 0 -0.0042343225983629915 0.082308691662734815 0 -0.00044610483193610546 0.082916693439119768 0 -0.0026496213452948687 0.086861374309276984 0 -0.0042343225983629915 0.082308691662734815 0 -0.0026496213452948687 0.086861374309276984 0 -0.0079586976134630606 0.085090491445945146 0 -0.01281333726924232 0.082746912354658947 0 -0.02289202784649922 0.075446324205902762 0 -0.020663883069957749 0.083822821127370481 0 -0.01166450562634141 0.085927869568067708 0 -0.016820080805601635 0.082246113179765518 0 -0.0078315192905018 0.089273986827117333 0 -0.0079586976134630606 0.085090491445945146 0 -0.012254051639805792 0.086349170669403688 0 -0.0026496213452948687 0.086861374309276984 0 -0.0078315192905018 0.089273986827117333 0 -0.0079586976134630606 0.085090491445945146 0 -0.0079586976134630606 0.085090491445945146 0 -0.011834523474036986 0.083491182385669993 0 -0.0090934714734175297 0.08189999024658158 0 -0.0079586976134630606 0.085090491445945146 0 -0.011834523474036986 0.083491182385669993 0 -0.012254051639805792 0.086349170669403688 0 -0.0090934714734175297 0.08189999024658158 0 -0.010303137747663654 0.078855696885086035 0 -0.01308250222614271 0.080839590154833649 0 -0.011834523474036986 0.083491182385669993 0 -0.0090934714734175297 0.08189999024658158 0 -0.01308250222614271 0.080839590154833649 0 -0.0090934714734175297 0.08189999024658158 0 -0.0070755492864792721 0.079752481269421596 0 -0.010303137747663654 0.078855696885086035 0 -0.0042343225983629915 0.082308691662734815 0 -0.0079586976134630606 0.085090491445945146 0 -0.0090934714734175297 0.08189999024658158 0 -0.0042343225983629915 0.082308691662734815 0 -0.0090934714734175297 0.08189999024658158 0 -0.0070755492864792721 0.079752481269421596 0 -0.0040838197976280927 0.078752394220433453 0 -0.0070755492864792721 0.079752481269421596 0 -0.0075408766046529867 0.07692435195483921 0 -0.0070755492864792721 0.079752481269421596 0 -0.0075408766046529867 0.07692435195483921 0 -0.010303137747663654 0.078855696885086035 0 -0.0097075851372239279 0.076149448899919508 0 -0.010303137747663654 0.078855696885086035 0 -0.013636146437160603 0.07759598340419234 0 -0.0097075851372239279 0.076149448899919508 0 -0.0075408766046529867 0.07692435195483921 0 -0.010303137747663654 0.078855696885086035 0 -0.010303137747663654 0.078855696885086035 0 -0.013636146437160603 0.07759598340419234 0 -0.01308250222614271 0.080839590154833649 0 -0.013636146437160603 0.07759598340419234 0 -0.016640304804372754 0.079730309060987867 0 -0.01308250222614271 0.080839590154833649 0 -0.018352889994452202 0.076780033668436679 0 -0.013636146437160603 0.07759598340419234 0 -0.016640304804372754 0.079730309060987867 0 -0.018352889994452202 0.076780033668436679 0 -0.016640304804372754 0.079730309060987867 0 -0.021231321332572311 0.080175316656349416 0 -0.020981313608502784 0.079644559034079632 0 -0.023425784257892407 0.078154761623621782 0 -0.016640304804372754 0.079730309060987867 0 -0.016802644711923317 0.083269232057997869 0 -0.021231321332572311 0.080175316656349416 0 -0.011834523474036986 0.083491182385669993 0 -0.016802644711923317 0.083269232057997869 0 -0.01308250222614271 0.080839590154833649 0 -0.016640304804372754 0.079730309060987867 0 -0.016802644711923317 0.083269232057997869 0 -0.01308250222614271 0.080839590154833649 0 -0.025485027527386937 0.076674239386182064 0 -0.025721427433043776 0.077095446092047187 0 -0.026971808605696576 0.076865350920429815 0 -0.021860415138693797 0.077115276189334392 0 -0.025485027527386937 0.076674239386182064 0 -0.021231321332572311 0.080175316656349416 0 -0.024445508319713937 0.077426472343202588 0 -0.023425784257892407 0.078154761623621782 0 -0.018352889994452202 0.076780033668436679 0 -0.021860415138693797 0.077115276189334392 0 -0.021231321332572311 0.080175316656349416 0 -0.028314505852124392 0.074964147265907485 0 -0.026971808605696576 0.076865350920429815 0 -0.027582313737706355 0.075481409473551198 0 -0.026971808605696576 0.076865350920429815 0 -0.026528840721334525 0.076231441066956757 0 -0.027582313737706355 0.075481409473551198 0 -0.02637009013107466 0.07574054728807883 0 -0.026563986886509586 0.074118159877643641 0 -0.025721427433043776 0.077095446092047187 0 -0.026528840721334525 0.076231441066956757 0 -0.02587044104145025 0.075410628221434822 0 -0.025721427433043776 0.077095446092047187 0 -0.026971808605696576 0.076865350920429815 0 -0.026528840721334525 0.076231441066956757 0 -0.026528840721334525 0.076231441066956757 0 -0.02587044104145025 0.075410628221434822 0 -0.027582313737706355 0.075481409473551198 0 -0.02587044104145025 0.075410628221434822 0 -0.027582313737706355 0.075481409473551198 0 -0.027536935900815868 0.074500182853985561 0 -0.027582313737706355 0.075481409473551198 0 -0.027536935900815868 0.074500182853985561 0 -0.028712815344805145 0.07629648942057228 0 -0.02587044104145025 0.075410628221434822 0 -0.027536935900815868 0.074500182853985561 0 -0.025608774138754436 0.073116828326031655 0 -0.026563986886509586 0.074118159877643641 0 -0.026683792531508991 0.071969766489211801 0 -0.028314505852124392 0.074964147265907485 0 -0.02289202784649922 0.075446324205902762 0 -0.028712815344805145 0.07629648942057228 0 -0.020981313608502784 0.079644559034079632 0 -0.016820080805601635 0.082246113179765518 0 -0.011834523474036986 0.083491182385669993 0 -0.016802644711923317 0.083269232057997869 0 -0.012254051639805792 0.086349170669403688 0 -0.028314505852124392 0.074964147265907485 0 -0.027582313737706355 0.075481409473551198 0 -0.028712815344805145 0.07629648942057228 0 -0.027536935900815868 0.074500182853985561 0 -0.028712815344805145 0.07629648942057228 0 -0.02885594252682995 0.073745243084432185 0 -0.028657618717517163 0.077750611889696758 0 -0.028476529566297627 0.078397602414066403 0 -0.028712815344805145 0.07629648942057228 0 -0.031320892257940137 0.072155706812787407 0 -0.02885594252682995 0.073745243084432185 0 -0.02289202784649922 0.075446324205902762 0 -0.028712815344805145 0.07629648942057228 0 -0.020663883069957749 0.083822821127370481 0 -0.028712815344805145 0.07629648942057228 0 -0.027107063383385793 0.087389693772746441 0 -0.020663883069957749 0.083822821127370481 0 -0.027107063383385793 0.087389693772746441 0 -0.020663883069957749 0.083822821127370481 0 -0.020261559133407849 0.09199388070770495 0 -0.02885594252682995 0.073745243084432185 0 -0.029368736752995599 0.070884527523558796 0 -0.02783244399137454 0.072239641965516146 0 -0.031320892257940137 0.072155706812787407 0 -0.02885594252682995 0.073745243084432185 0 -0.029368736752995599 0.070884527523558796 0 -0.029368736752995599 0.070884527523558796 0 -0.031057692785086868 0.069809656804011105 0 -0.029605229487694493 0.068320501449951457 0 -0.031320892257940137 0.072155706812787407 0 -0.029368736752995599 0.070884527523558796 0 -0.031057692785086868 0.069809656804011105 0 -0.027107063383385793 0.087389693772746441 0 -0.024316358629001972 0.097549843500665104 0 -0.020261559133407849 0.09199388070770495 0 -0.028476529566297627 0.078397602414066403 0 -0.02846277534023978 0.076593634238700331 0 -0.031320892257940137 0.072155706812787407 0 -0.031057692785086868 0.069809656804011105 0 -0.032394139914525936 0.068643735923903396 0 -0.031057692785086868 0.069809656804011105 0 -0.032684071237135182 0.068619827170225647 0 -0.031214708546807728 0.068386806956209883 0 -0.029313950560072976 0.075599025457343511 0 -0.02846277534023978 0.076593634238700331 0 -0.024316358629001972 0.097549843500665104 0 -0.017753461190367612 0.097677814703785795 0 -0.020261559133407849 0.09199388070770495 0 -0.027536935900815868 0.074500182853985561 0 -0.025608774138754436 0.073116828326031655 0 -0.02783244399137454 0.072239641965516146 0 -0.025608774138754436 0.073116828326031655 0 -0.02783244399137454 0.072239641965516146 0 -0.027771850250943246 0.069791475426860455 0 -0.027536935900815868 0.074500182853985561 0 -0.02885594252682995 0.073745243084432185 0 -0.02783244399137454 0.072239641965516146 0 -0.027771850250943246 0.069791475426860455 0 -0.026571680000201499 0.068454247068510304 0 -0.027645926877378858 0.067563152912204091 0 -0.029368736752995599 0.070884527523558796 0 -0.027771850250943246 0.069791475426860455 0 -0.029605229487694493 0.068320501449951457 0 -0.029368736752995599 0.070884527523558796 0 -0.02783244399137454 0.072239641965516146 0 -0.027771850250943246 0.069791475426860455 0 -0.026683792531508991 0.071969766489211801 0 -0.026734985253570848 0.07066733525711863 0 -0.025608774138754436 0.073116828326031655 0 -0.027771850250943246 0.069791475426860455 0 -0.026571680000201499 0.068454247068510304 0 -0.027809573477979271 0.070098575406719751 0 -0.026571680000201499 0.068454247068510304 0 -0.026837509082612072 0.068247538132378216 0 -0.026571680000201499 0.068454247068510304 0 -0.026024772661150337 0.067253600948574868 0 -0.026837509082612072 0.068247538132378216 0 -0.026571680000201499 0.068454247068510304 0 -0.026024772661150337 0.067253600948574868 0 -0.027645926877378858 0.067563152912204091 0 -0.026024772661150337 0.067253600948574868 0 -0.027645926877378858 0.067563152912204091 0 -0.02689580142872525 0.065843743539161503 0 -0.027771850250943246 0.069791475426860455 0 -0.027645926877378858 0.067563152912204091 0 -0.029605229487694493 0.068320501449951457 0 -0.027645926877378858 0.067563152912204091 0 -0.029605229487694493 0.068320501449951457 0 -0.02940647997163004 0.065973703961976923 0 -0.028384618804206174 0.065245139141366926 0 -0.02689580142872525 0.065843743539161503 0 -0.025432696587439317 0.062845770452798475 0 -0.027645926877378858 0.067563152912204091 0 -0.028384618804206174 0.065245139141366926 0 -0.02940647997163004 0.065973703961976923 0 -0.028384618804206174 0.065245139141366926 0 -0.029791569544144521 0.064303029203679793 0 -0.028661883502172868 0.062345519704041424 0 -0.028384618804206174 0.065245139141366926 0 -0.02940647997163004 0.065973703961976923 0 -0.029791569544144521 0.064303029203679793 0 -0.027645926877378858 0.067563152912204091 0 -0.028384618804206174 0.065245139141366926 0 -0.02689580142872525 0.065843743539161503 0 -0.026024772661150337 0.067253600948574868 0 -0.026933050189123273 0.06786178561033325 0 -0.025583112081613173 0.069145471972515402 0 -0.028031043186328129 0.06405596050106914 0 -0.029346715700720661 0.060212508613003882 0 -0.026024772661150337 0.067253600948574868 0 -0.02689580142872525 0.065843743539161503 0 -0.025432696587439317 0.062845770452798475 0 -0.032192689411869119 0.072604852762118879 0 -0.033536974884090943 0.066599126525902608 0 -0.037101294886440074 0.068054968813692787 0 -0.02846277534023978 0.076593634238700331 0 -0.031792134926070928 0.067231036132753136 0 -0.031637492929006049 0.066755268279546975 0 -0.032684071237135182 0.068619827170225647 0 -0.033780332403702006 0.06480359585293706 0 -0.031637492929006049 0.066755268279546975 0 -0.032684071237135182 0.068619827170225647 0 -0.031214708546807728 0.068386806956209883 0 -0.031637492929006049 0.066755268279546975 0 -0.031214708546807728 0.068386806956209883 0 -0.029605229487694493 0.068320501449951457 0 -0.031637492929006049 0.066755268279546975 0 -0.029605229487694493 0.068320501449951457 0 -0.031255694666122477 0.06359535620467982 0 -0.031057692785086868 0.069809656804011105 0 -0.031214708546807728 0.068386806956209883 0 -0.029605229487694493 0.068320501449951457 0 -0.029605229487694493 0.068320501449951457 0 -0.02940647997163004 0.065973703961976923 0 -0.032132516575481031 0.064183777687207996 0 -0.030906149717507565 0.065448552715961242 0 -0.031997909310164843 0.062994964652559229 0 -0.02940647997163004 0.065973703961976923 0 -0.029791569544144521 0.064303029203679793 0 -0.032132516575481031 0.064183777687207996 0 -0.029791569544144521 0.064303029203679793 0 -0.032132516575481031 0.064183777687207996 0 -0.030477228049071117 0.0629317834290192 0 -0.031637492929006049 0.066755268279546975 0 -0.031255694666122477 0.06359535620467982 0 -0.033780332403702006 0.06480359585293706 0 -0.033536974884090943 0.066599126525902608 0 -0.037101294886440074 0.068054968813692787 0 -0.037247297878562582 0.06396296944921219 0 -0.037101294886440074 0.068054968813692787 0 -0.037247297878562582 0.06396296944921219 0 -0.041864005914204944 0.063548681564211548 0 -0.024316358629001972 0.097549843500665104 0 -0.01634230850451825 0.10351387706130527 0 -0.017753461190367612 0.097677814703785795 0 -0.02846277534023978 0.076593634238700331 0 -0.024284702973761764 0.080011112061748296 0 -0.01634230850451825 0.10351387706130527 0 -0.017753461190367612 0.097677814703785795 0 -0.012748639557016392 0.099705709087559505 0 -0.017753461190367612 0.097677814703785795 0 -0.012748639557016392 0.099705709087559505 0 -0.015400769067716806 0.095112075972386967 0 -0.01634230850451825 0.10351387706130527 0 -0.012748639557016392 0.099705709087559505 0 -0.010018024680258789 0.10315837152254692 0 -0.012748639557016392 0.099705709087559505 0 -0.0067031616748617394 0.099983605489998531 0 -0.0088644417045234958 0.095633947832081345 0 -0.012748639557016392 0.099705709087559505 0 -0.010018024680258789 0.10315837152254692 0 -0.0067031616748617394 0.099983605489998531 0 -0.012748639557016392 0.099705709087559505 0 -0.015400769067716806 0.095112075972386967 0 -0.0088644417045234958 0.095633947832081345 0 -0.010018024680258789 0.10315837152254692 0 -0.0049493243739690941 0.10410104054026401 0 -0.009712680030897437 0.10832372803967195 0 -0.024284702973761764 0.080011112061748296 0 -0.021438725229126168 0.078334106828632316 0 -0.01634230850451825 0.10351387706130527 0 -0.010018024680258789 0.10315837152254692 0 -0.009712680030897437 0.10832372803967195 0 -0.0049493243739690941 0.10410104054026401 0 -0.009712680030897437 0.10832372803967195 0 -0.0048141616956649145 0.10777837611647123 0 -0.0049493243739690941 0.10410104054026401 0 -0.00087172665228931769 0.10522119920909324 0 -0.0048141616956649145 0.10777837611647123 0 -0.010018024680258789 0.10315837152254692 0 -0.0049493243739690941 0.10410104054026401 0 -0.0067031616748617394 0.099983605489998531 0 0.00082037344743684983 0.10527323659374348 0 -0.00087172665228931769 0.10522119920909324 0 4.3198304980014078e-05 0.10811971658532495 0 0.00082037344743684983 0.10527323659374348 0 -0.00087172665228931769 0.10522119920909324 0 0.0013878914256587375 0.10337078526684922 0 0.0024876867300651991 0.10517614225971962 0 0.00082037344743684983 0.10527323659374348 0 0.0013878914256587375 0.10337078526684922 0 -0.0049493243739690941 0.10410104054026401 0 -0.00087172665228931769 0.10522119920909324 0 -0.00097388728941517032 0.10216934457038324 0 -0.0049493243739690941 0.10410104054026401 0 -0.00097388728941517032 0.10216934457038324 0 -0.0021727012727313119 0.10003555129048335 0 -0.00087172665228931769 0.10522119920909324 0 -0.00097388728941517032 0.10216934457038324 0 0.0013878914256587375 0.10337078526684922 0 -0.00097388728941517032 0.10216934457038324 0 0.0013878914256587375 0.10337078526684922 0 0.0012846908306350742 0.09832980231817133 0 -0.00097388728941517032 0.10216934457038324 0 -0.0021727012727313119 0.10003555129048335 0 0.0012846908306350742 0.09832980231817133 0 -0.0021727012727313119 0.10003555129048335 0 0.0012846908306350742 0.09832980231817133 0 -0.0022181312491726937 0.095910381786471668 0 -0.0067031616748617394 0.099983605489998531 0 -0.0022181312491726937 0.095910381786471668 0 -0.0088644417045234958 0.095633947832081345 0 -0.0049493243739690941 0.10410104054026401 0 -0.0021727012727313119 0.10003555129048335 0 -0.0067031616748617394 0.099983605489998531 0 -0.0021727012727313119 0.10003555129048335 0 -0.0067031616748617394 0.099983605489998531 0 -0.0022181312491726937 0.095910381786471668 0 -0.0022181312491726937 0.095910381786471668 0 -0.0043014036968700526 0.091879592254633768 0 -0.0088644417045234958 0.095633947832081345 0 0.0030348941743217465 0.091299563138151685 0 -0.0022181312491726937 0.095910381786471668 0 -0.0043014036968700526 0.091879592254633768 0 0.0030348941743217465 0.091299563138151685 0 0.0012846908306350742 0.09832980231817133 0 -0.0022181312491726937 0.095910381786471668 0 0.0030348941743217465 0.091299563138151685 0 -0.0026496213452948687 0.086861374309276984 0 -0.0043014036968700526 0.091879592254633768 0 -0.0026496213452948687 0.086861374309276984 0 -0.0078315192905018 0.089273986827117333 0 -0.0043014036968700526 0.091879592254633768 0 -0.01281333726924232 0.082746912354658947 0 -0.0043014036968700526 0.091879592254633768 0 -0.013678900694735699 0.090436578284253805 0 -0.01166450562634141 0.085927869568067708 0 -0.0086687708562322684 0.0882711934443111 0 -0.01281333726924232 0.082746912354658947 0 -0.013678900694735699 0.090436578284253805 0 -0.020663883069957749 0.083822821127370481 0 -0.013678900694735699 0.090436578284253805 0 -0.020663883069957749 0.083822821127370481 0 -0.020261559133407849 0.09199388070770495 0 -0.013678900694735699 0.090436578284253805 0 -0.020261559133407849 0.09199388070770495 0 -0.015400769067716806 0.095112075972386967 0 -0.017753461190367612 0.097677814703785795 0 -0.020261559133407849 0.09199388070770495 0 -0.015400769067716806 0.095112075972386967 0 -0.013678900694735699 0.090436578284253805 0 -0.015400769067716806 0.095112075972386967 0 -0.0088644417045234958 0.095633947832081345 0 -0.0043014036968700526 0.091879592254633768 0 -0.013678900694735699 0.090436578284253805 0 -0.0088644417045234958 0.095633947832081345 0 -0.023377873752351144 0.067828306272159494 0 -0.018493331923770895 0.069430016258733879 0 -0.019284490714778658 0.064583598728689823 0 -0.023377873752351144 0.067828306272159494 0 -0.019284490714778658 0.064583598728689823 0 -0.022993208919979573 0.064325621955918122 0 -0.023377873752351144 0.067828306272159494 0 -0.022993208919979573 0.064325621955918122 0 -0.02594429813256658 0.064767868179130952 0 -0.021024810149173664 0.069381682780618473 0 -0.020342737322308645 0.070732687953869944 0 -0.022496043088391128 0.070659648100825867 0 -0.022387883210636415 0.068250746360948175 0 -0.020081712881782631 0.068779280529573911 0 -0.020342737322308645 0.070732687953869944 0 -0.018661480015434436 0.070412883696110234 0 -0.019421639955504343 0.071636470733276045 0 -0.021024810149173664 0.069381682780618473 0 -0.020342737322308645 0.070732687953869944 0 -0.018661480015434436 0.070412883696110234 0 -0.026652270924332828 0.049993001729565327 0 -0.027119729921751101 0.049333067240431086 0 -0.027206378701137908 0.049812314755205957 0 -0.018493331923770895 0.069430016258733879 0 -0.01658152741214141 0.067900901068263131 0 -0.013944091147655376 0.07099949308812252 0 -0.020081712881782631 0.068779280529573911 0 -0.026582185689597429 0.065665527398499082 0 -0.024688067141114493 0.061471108973927803 0 -0.026582185689597429 0.065665527398499082 0 -0.026652270924332828 0.049993001729565327 0 -0.027206378701137908 0.049812314755205957 0 -0.027181086051851249 0.050258717939934125 0 -0.026652270924332828 0.049993001729565327 0 -0.026740984947737551 0.050433939093559532 0 -0.027181086051851249 0.050258717939934125 0 -0.018493331923770895 0.069430016258733879 0 -0.01658152741214141 0.067900901068263131 0 -0.019284490714778658 0.064583598728689823 0 -0.026652270924332828 0.049993001729565327 0 -0.026740984947737551 0.050433939093559532 0 -0.026393229283104048 0.0505977577792108 0 -0.024688067141114493 0.061471108973927803 0 -0.024517823399292246 0.058699187239166756 0 -0.02664375847419179 0.050655338931282497 0 -0.026740984947737551 0.050433939093559532 0 -0.026393229283104048 0.0505977577792108 0 -0.02664375847419179 0.050655338931282497 0 -0.026443381517169684 0.050897679119528465 0 -0.026393229283104048 0.0505977577792108 0 -0.026740984947737551 0.050433939093559532 0 -0.027181086051851249 0.050258717939934125 0 -0.026991736785277221 0.050512070767556538 0 -0.02664375847419179 0.050655338931282497 0 -0.026740984947737551 0.050433939093559532 0 -0.026991736785277221 0.050512070767556538 0 -0.02664375847419179 0.050655338931282497 0 -0.026650502103425299 0.050729049780721035 0 -0.026991736785277221 0.050512070767556538 0 -0.026650502103425299 0.050729049780721035 0 -0.026443381517169684 0.050897679119528465 0 -0.02639548398406634 0.050874817719366625 0 -0.02664375847419179 0.050655338931282497 0 -0.026650502103425299 0.050729049780721035 0 -0.026443381517169684 0.050897679119528465 0 -0.026443381517169684 0.050897679119528465 0 -0.026393229283104048 0.0505977577792108 0 -0.026579708242416573 0.051232895586420052 0 -0.026443381517169684 0.050897679119528465 0 -0.026579708242416573 0.051232895586420052 0 -0.026330447540727657 0.051038894299254428 0 -0.024517823399292246 0.058699187239166756 0 -0.025369711410778234 0.056444294569457071 0 -0.019284490714778658 0.064583598728689823 0 -0.022993208919979573 0.064325621955918122 0 -0.021982619186484025 0.061092050210519569 0 -0.022993208919979573 0.064325621955918122 0 -0.021982619186484025 0.061092050210519569 0 -0.025689075808436289 0.062521633994064102 0 -0.021982619186484025 0.061092050210519569 0 -0.025689075808436289 0.062521633994064102 0 -0.02482461165822681 0.056950690711808118 0 -0.025689075808436289 0.062521633994064102 0 -0.028989000609147386 0.060405751241697662 0 -0.02482461165822681 0.056950690711808118 0 -0.025689075808436289 0.062521633994064102 0 -0.028989000609147386 0.060405751241697662 0 -0.028458734232736514 0.063955762262754123 0 -0.028989000609147386 0.060405751241697662 0 -0.028458734232736514 0.063955762262754123 0 -0.030602021617227963 0.062502695718310033 0 -0.028458734232736514 0.063955762262754123 0 -0.02594429813256658 0.064767868179130952 0 -0.029022023241148772 0.065624515879843873 0 -0.028458734232736514 0.063955762262754123 0 -0.028347443081830119 0.066325427288063316 0 -0.029022023241148772 0.065624515879843873 0 -0.025689075808436289 0.062521633994064102 0 -0.028458734232736514 0.063955762262754123 0 -0.02594429813256658 0.064767868179130952 0 -0.022993208919979573 0.064325621955918122 0 -0.025689075808436289 0.062521633994064102 0 -0.02594429813256658 0.064767868179130952 0 -0.035725706914720289 0.062047736777934452 0 -0.040192561109430112 0.057503741005074084 0 -0.033422845137277647 0.058967708115808426 0 -0.029530401680230911 0.06272214997264583 0 -0.029346715700720661 0.060212508613003882 0 -0.028989000609147386 0.060405751241697662 0 -0.030602021617227963 0.062502695718310033 0 -0.033422845137277647 0.058967708115808426 0 -0.035725706914720289 0.062047736777934452 0 -0.030602021617227963 0.062502695718310033 0 -0.033422845137277647 0.058967708115808426 0 -0.028458734232736514 0.063955762262754123 0 -0.030602021617227963 0.062502695718310033 0 -0.028347443081830119 0.066325427288063316 0 -0.026559101974597332 0.066915228316207095 0 -0.025444778961384591 0.067252589665780807 0 -0.026933050189123273 0.06786178561033325 0 -0.028347443081830119 0.066325427288063316 0 -0.02722321627189048 0.066968937188376529 0 -0.028347443081830119 0.066325427288063316 0 -0.02722321627189048 0.066968937188376529 0 -0.029022023241148772 0.065624515879843873 0 -0.035725706914720289 0.062047736777934452 0 -0.030602021617227963 0.062502695718310033 0 -0.028347443081830119 0.066325427288063316 0 -0.029530401680230911 0.06272214997264583 0 -0.029073091473239224 0.063818303412852648 0 -0.026024772661150337 0.067253600948574868 0 -0.02722321627189048 0.066968937188376529 0 -0.026837509082612072 0.068247538132378216 0 -0.026024772661150337 0.067253600948574868 0 -0.026933050189123273 0.06786178561033325 0 -0.02722321627189048 0.066968937188376529 0 -0.02722321627189048 0.066968937188376529 0 -0.026837509082612072 0.068247538132378216 0 -0.025812355504482715 0.068444163216986625 0 -0.026837509082612072 0.068247538132378216 0 -0.025812355504482715 0.068444163216986625 0 -0.02624359141730313 0.069338599816723578 0 -0.025812355504482715 0.068444163216986625 0 -0.02624359141730313 0.069338599816723578 0 -0.024283127754546253 0.069402916889311439 0 -0.02722321627189048 0.066968937188376529 0 -0.025812355504482715 0.068444163216986625 0 -0.023489040340778155 0.068150515996445948 0 -0.025164867498747547 0.070533384446325828 0 -0.02624359141730313 0.069338599816723578 0 -0.024283127754546253 0.069402916889311439 0 -0.025164867498747547 0.070533384446325828 0 -0.024283127754546253 0.069402916889311439 0 -0.023883745035781449 0.071009846349161784 0 -0.025164867498747547 0.070533384446325828 0 -0.02624359141730313 0.069338599816723578 0 -0.026511213611439641 0.071444347479790393 0 -0.027809573477979271 0.070098575406719751 0 -0.026837509082612072 0.068247538132378216 0 -0.02624359141730313 0.069338599816723578 0 -0.027809573477979271 0.070098575406719751 0 -0.02624359141730313 0.069338599816723578 0 -0.026511213611439641 0.071444347479790393 0 -0.023377873752351144 0.067828306272159494 0 -0.02594429813256658 0.064767868179130952 0 -0.029022023241148772 0.065624515879843873 0 -0.022387883210636415 0.068250746360948175 0 -0.025444778961384591 0.067252589665780807 0 -0.021024810149173664 0.069381682780618473 0 -0.023489040340778155 0.068150515996445948 0 -0.022953655424120197 0.069418465349037006 0 -0.025812355504482715 0.068444163216986625 0 -0.023489040340778155 0.068150515996445948 0 -0.024283127754546253 0.069402916889311439 0 -0.023489040340778155 0.068150515996445948 0 -0.024283127754546253 0.069402916889311439 0 -0.022953655424120197 0.069418465349037006 0 -0.024283127754546253 0.069402916889311439 0 -0.022234455359508153 0.070812948454224173 0 -0.023883745035781449 0.071009846349161784 0 -0.024283127754546253 0.069402916889311439 0 -0.022496043088391128 0.070659648100825867 0 -0.022953655424120197 0.069418465349037006 0 -0.022976509753928408 0.070398748987979043 0 -0.022178517580827058 0.07095827336113443 0 -0.021024810149173664 0.069381682780618473 0 -0.022496043088391128 0.070659648100825867 0 -0.022953655424120197 0.069418465349037006 0 -0.022234455359508153 0.070812948454224173 0 -0.023233817927655363 0.072846957978741897 0 -0.021187096099057719 0.073657428905620589 0 -0.022178517580827058 0.07095827336113443 0 -0.020774605125448094 0.071959788976078687 0 -0.023883745035781449 0.071009846349161784 0 -0.023233817927655363 0.072846957978741897 0 -0.024733730280644579 0.071930268419410096 0 -0.022234455359508153 0.070812948454224173 0 -0.023883745035781449 0.071009846349161784 0 -0.023233817927655363 0.072846957978741897 0 -0.023233817927655363 0.072846957978741897 0 -0.024876869713365373 0.074165310914199881 0 -0.022514494317792438 0.074812882995559479 0 -0.023233817927655363 0.072846957978741897 0 -0.022514494317792438 0.074812882995559479 0 -0.021187096099057719 0.073657428905620589 0 -0.027787098227444504 0.073321039169926674 0 -0.027809573477979271 0.070098575406719751 0 -0.026511213611439641 0.071444347479790393 0 -0.025164867498747547 0.070533384446325828 0 -0.026511213611439641 0.071444347479790393 0 -0.024733730280644579 0.071930268419410096 0 -0.025164867498747547 0.070533384446325828 0 -0.023883745035781449 0.071009846349161784 0 -0.024733730280644579 0.071930268419410096 0 -0.023233817927655363 0.072846957978741897 0 -0.024733730280644579 0.071930268419410096 0 -0.024876869713365373 0.074165310914199881 0 -0.026511213611439641 0.071444347479790393 0 -0.024733730280644579 0.071930268419410096 0 -0.024876869713365373 0.074165310914199881 0 -0.027787098227444504 0.073321039169926674 0 -0.026511213611439641 0.071444347479790393 0 -0.024876869713365373 0.074165310914199881 0 -0.027089173025847058 0.076853443148647158 0 -0.027787098227444504 0.073321039169926674 0 -0.026133327223584673 0.075717616460048529 0 -0.027787098227444504 0.073321039169926674 0 -0.024876869713365373 0.074165310914199881 0 -0.026133327223584673 0.075717616460048529 0 -0.024876869713365373 0.074165310914199881 0 -0.026133327223584673 0.075717616460048529 0 -0.024075728427296043 0.07661836821986158 0 -0.026133327223584673 0.075717616460048529 0 -0.026792183258944214 0.076912867946805588 0 -0.024075728427296043 0.07661836821986158 0 -0.027011944473533566 0.077008899865451272 0 -0.026775196524913888 0.077019428492556538 0 -0.026792183258944214 0.076912867946805588 0 -0.029114948600890499 0.078030820924071556 0 -0.027689745543888353 0.076805620162839344 0 -0.026792183258944214 0.076912867946805588 0 -0.026568878670771054 0.076471994418719699 0 -0.027689745543888353 0.076805620162839344 0 -0.027089173025847058 0.076853443148647158 0 -0.026792183258944214 0.076912867946805588 0 -0.026568878670771054 0.076471994418719699 0 -0.027089173025847058 0.076853443148647158 0 -0.026133327223584673 0.075717616460048529 0 -0.026792183258944214 0.076912867946805588 0 -0.022514494317792438 0.074812882995559479 0 -0.021552664935099584 0.076413980284365135 0 -0.020448480062943523 0.075038368366150771 0 -0.022514494317792438 0.074812882995559479 0 -0.020448480062943523 0.075038368366150771 0 -0.021187096099057719 0.073657428905620589 0 -0.024876869713365373 0.074165310914199881 0 -0.022514494317792438 0.074812882995559479 0 -0.024075728427296043 0.07661836821986158 0 -0.026775196524913888 0.077019428492556538 0 -0.026257245421167329 0.076886682120636832 0 -0.022514494317792438 0.074812882995559479 0 -0.024075728427296043 0.07661836821986158 0 -0.021552664935099584 0.076413980284365135 0 -0.029114948600890499 0.078030820924071556 0 -0.030783196928173658 0.078414036598725367 0 -0.03060675779042682 0.07781323836670502 0 -0.030783196928173658 0.078414036598725367 0 -0.031197195644037001 0.079040656562134201 0 -0.031062344857391701 0.078737454702388437 0 -0.026257245421167329 0.076886682120636832 0 -0.025748509882922651 0.076375231393647033 0 -0.021552664935099584 0.076413980284365135 0 -0.019273403833705748 0.076296577665326756 0 -0.020448480062943523 0.075038368366150771 0 -0.019273403833705748 0.076296577665326756 0 -0.018965786511719408 0.07494225388817119 0 -0.020448480062943523 0.075038368366150771 0 -0.018965786511719408 0.07494225388817119 0 -0.020448480062943523 0.075038368366150771 0 -0.019036092156508182 0.073330870268804138 0 -0.020448480062943523 0.075038368366150771 0 -0.021187096099057719 0.073657428905620589 0 -0.019036092156508182 0.073330870268804138 0 -0.021187096099057719 0.073657428905620589 0 -0.019036092156508182 0.073330870268804138 0 -0.020549229805423262 0.072140801827061632 0 -0.019430648268323816 0.072920645105658294 0 -0.020774605125448094 0.071959788976078687 0 -0.019309628960031466 0.073040628550725725 0 -0.019421639955504343 0.071636470733276045 0 -0.020890686143673117 0.071857004605963115 0 -0.020342737322308645 0.070732687953869944 0 -0.019421639955504343 0.071636470733276045 0 -0.020890686143673117 0.071857004605963115 0 -0.022234455359508153 0.070812948454224173 0 -0.021187096099057719 0.073657428905620589 0 -0.020549229805423262 0.072140801827061632 0 -0.020342737322308645 0.070732687953869944 0 -0.022496043088391128 0.070659648100825867 0 -0.020890686143673117 0.071857004605963115 0 -0.01791457274188395 0.072153453454322433 0 -0.016592560065191077 0.073043177771806939 0 -0.016307091301638859 0.071378052912408077 0 -0.018661480015434436 0.070412883696110234 0 -0.01791457274188395 0.072153453454322433 0 -0.016307091301638859 0.071378052912408077 0 -0.018661480015434436 0.070412883696110234 0 -0.019421639955504343 0.071636470733276045 0 -0.01791457274188395 0.072153453454322433 0 -0.019309628960031466 0.073040628550725725 0 -0.019421639955504343 0.071636470733276045 0 -0.01791457274188395 0.072153453454322433 0 -0.019309628960031466 0.073040628550725725 0 -0.01791457274188395 0.072153453454322433 0 -0.017675589432256368 0.074245806461106581 0 -0.019430648268323816 0.072920645105658294 0 -0.018730800997211725 0.073414461284301152 0 -0.01791457274188395 0.072153453454322433 0 -0.016592560065191077 0.073043177771806939 0 -0.017675589432256368 0.074245806461106581 0 -0.016592560065191077 0.073043177771806939 0 -0.017675589432256368 0.074245806461106581 0 -0.016063544834469479 0.074457059537109974 0 -0.017675589432256368 0.074245806461106581 0 -0.017001599584513531 0.075216696670008465 0 -0.016063544834469479 0.074457059537109974 0 -0.017675589432256368 0.074245806461106581 0 -0.018052026698451455 0.075437437663441728 0 -0.017001599584513531 0.075216696670008465 0 -0.018965786511719408 0.07494225388817119 0 -0.017675589432256368 0.074245806461106581 0 -0.018052026698451455 0.075437437663441728 0 -0.018965786511719408 0.07494225388817119 0 -0.019036092156508182 0.073330870268804138 0 -0.017675589432256368 0.074245806461106581 0 -0.019273403833705748 0.076296577665326756 0 -0.018965786511719408 0.07494225388817119 0 -0.018052026698451455 0.075437437663441728 0 -0.031197195644037001 0.079040656562134201 0 -0.032364523014150923 0.07906190923315938 0 -0.031585664911799448 0.078989959361090281 0 -0.025748509882922651 0.076375231393647033 0 -0.026875150243903943 0.07489015934439737 0 -0.019273403833705748 0.076296577665326756 0 -0.018052026698451455 0.075437437663441728 0 -0.017142157922789687 0.076321475513439443 0 -0.017001599584513531 0.075216696670008465 0 -0.017142157922789687 0.076321475513439443 0 -0.016059419806276291 0.075577584668467201 0 -0.018052026698451455 0.075437437663441728 0 -0.017001599584513531 0.075216696670008465 0 -0.017142157922789687 0.076321475513439443 0 -0.032364523014150923 0.07906190923315938 0 -0.03215839761335211 0.078130261615708199 0 -0.032978670456528962 0.078413079222519472 0 -0.031952068016194803 0.079148406164355478 0 -0.032822659726778704 0.079200927381636851 0 -0.032135536340818081 0.079083975906352855 0 -0.033821633990350514 0.079392370203980586 0 -0.03524477506073339 0.079345464411024441 0 -0.03215839761335211 0.078130261615708199 0 -0.032978670456528962 0.078413079222519472 0 -0.032975049004132291 0.077939476425088985 0 -0.03215839761335211 0.078130261615708199 0 -0.03287752549357971 0.077172864002314573 0 -0.032975049004132291 0.077939476425088985 0 -0.031734806483208033 0.078971693053494454 0 -0.031621586803942975 0.078986248563800682 0 -0.031370401405374761 0.078871741473411625 0 -0.031734806483208033 0.078971693053494454 0 -0.031621586803942975 0.078986248563800682 0 -0.032135536340818081 0.079083975906352855 0 -0.031952068016194803 0.079148406164355478 0 -0.031621586803942975 0.078986248563800682 0 -0.032135536340818081 0.079083975906352855 0 -0.032364523014150923 0.07906190923315938 0 -0.03215839761335211 0.078130261615708199 0 -0.031585664911799448 0.078989959361090281 0 -0.031621586803942975 0.078986248563800682 0 -0.031585664911799448 0.078989959361090281 0 -0.031353187459123466 0.078887774139524122 0 -0.033821633990350514 0.079392370203980586 0 -0.033328874078777784 0.079478581469868137 0 -0.031952068016194803 0.079148406164355478 0 -0.031621586803942975 0.078986248563800682 0 -0.031585664911799448 0.078989959361090281 0 -0.031197195644037001 0.079040656562134201 0 -0.031585664911799448 0.078989959361090281 0 -0.031353187459123466 0.078887774139524122 0 -0.031197195644037001 0.079040656562134201 0 -0.031062344857391701 0.078737454702388437 0 -0.031353187459123466 0.078887774139524122 0 -0.031062344857391701 0.078737454702388437 0 -0.030842953984027314 0.07842736043939455 0 -0.031281226762258682 0.078820751107695847 0 -0.031062344857391701 0.078737454702388437 0 -0.031353187459123466 0.078887774139524122 0 -0.031281226762258682 0.078820751107695847 0 -0.031621586803942975 0.078986248563800682 0 -0.031353187459123466 0.078887774139524122 0 -0.031281226762258682 0.078820751107695847 0 -0.030783196928173658 0.078414036598725367 0 -0.031062344857391701 0.078737454702388437 0 -0.030842953984027314 0.07842736043939455 0 -0.030842953984027314 0.07842736043939455 0 -0.030573229181640404 0.078491863183616284 0 -0.030543462029891104 0.078031947776851907 0 -0.030842953984027314 0.07842736043939455 0 -0.030877936797655565 0.07867929177110887 0 -0.031072766208682809 0.078715545226230199 0 -0.030842953984027314 0.07842736043939455 0 -0.030877936797655565 0.07867929177110887 0 -0.030573229181640404 0.078491863183616284 0 -0.030842953984027314 0.07842736043939455 0 -0.031281226762258682 0.078820751107695847 0 -0.031072766208682809 0.078715545226230199 0 -0.031281226762258682 0.078820751107695847 0 -0.031072766208682809 0.078715545226230199 0 -0.031370401405374761 0.078871741473411625 0 -0.031621586803942975 0.078986248563800682 0 -0.031281226762258682 0.078820751107695847 0 -0.031370401405374761 0.078871741473411625 0 -0.030877936797655565 0.07867929177110887 0 -0.031072766208682809 0.078715545226230199 0 -0.031370401405374761 0.078871741473411625 0 -0.031370401405374761 0.078871741473411625 0 -0.031163128047080983 0.078851833141918598 0 -0.03180601689608923 0.078945318496347366 0 -0.030877936797655565 0.07867929177110887 0 -0.031370401405374761 0.078871741473411625 0 -0.031163128047080983 0.078851833141918598 0 -0.031163128047080983 0.078851833141918598 0 -0.031573810271818339 0.078862764932961585 0 -0.03180601689608923 0.078945318496347366 0 -0.030573229181640404 0.078491863183616284 0 -0.030730538933927964 0.078768706410106776 0 -0.030382212894458725 0.078696583621354982 0 -0.030877936797655565 0.07867929177110887 0 -0.031163128047080983 0.078851833141918598 0 -0.030730538933927964 0.078768706410106776 0 -0.030877936797655565 0.07867929177110887 0 -0.030573229181640404 0.078491863183616284 0 -0.030730538933927964 0.078768706410106776 0 -0.031163128047080983 0.078851833141918598 0 -0.030730538933927964 0.078768706410106776 0 -0.030647887590952948 0.078837486185503541 0 -0.030730538933927964 0.078768706410106776 0 -0.030490436704552953 0.078802527365808339 0 -0.030647887590952948 0.078837486185503541 0 -0.030490436704552953 0.078802527365808339 0 -0.030382212894458725 0.078696583621354982 0 -0.030239762728993511 0.078871026742546355 0 -0.030730538933927964 0.078768706410106776 0 -0.030490436704552953 0.078802527365808339 0 -0.030382212894458725 0.078696583621354982 0 -0.030647887590952948 0.078837486185503541 0 -0.030017509944165532 0.078756066180158416 0 -0.030958721032273567 0.078614271965450788 0 -0.030490436704552953 0.078802527365808339 0 -0.030647887590952948 0.078837486185503541 0 -0.030239762728993511 0.078871026742546355 0 -0.030647887590952948 0.078837486185503541 0 -0.030239762728993511 0.078871026742546355 0 -0.030017509944165532 0.078756066180158416 0 -0.030647887590952948 0.078837486185503541 0 -0.0313371945947305 0.078802791249608414 0 -0.030958721032273567 0.078614271965450788 0 -0.031163128047080983 0.078851833141918598 0 -0.031573810271818339 0.078862764932961585 0 -0.0313371945947305 0.078802791249608414 0 -0.031573810271818339 0.078862764932961585 0 -0.0313371945947305 0.078802791249608414 0 -0.032034586630891475 0.078805603466182109 0 -0.031163128047080983 0.078851833141918598 0 -0.030647887590952948 0.078837486185503541 0 -0.0313371945947305 0.078802791249608414 0 -0.0313371945947305 0.078802791249608414 0 -0.032034586630891475 0.078805603466182109 0 -0.031745991598672876 0.078629976266172436 0 -0.031573810271818339 0.078862764932961585 0 -0.032034586630891475 0.078805603466182109 0 -0.03180601689608923 0.078945318496347366 0 -0.032034586630891475 0.078805603466182109 0 -0.032897871272811061 0.078705199941141418 0 -0.03245428943915437 0.078940207000605445 0 -0.032034586630891475 0.078805603466182109 0 -0.03245428943915437 0.078940207000605445 0 -0.03180601689608923 0.078945318496347366 0 -0.032034586630891475 0.078805603466182109 0 -0.032897871272811061 0.078705199941141418 0 -0.032573963266277824 0.078507372962354854 0 -0.032897871272811061 0.078705199941141418 0 -0.033105618175717416 0.078870208375290171 0 -0.033518252410354762 0.078619057072913751 0 -0.032897871272811061 0.078705199941141418 0 -0.033105618175717416 0.078870208375290171 0 -0.03245428943915437 0.078940207000605445 0 -0.033105618175717416 0.078870208375290171 0 -0.03245428943915437 0.078940207000605445 0 -0.032822659726778704 0.079200927381636851 0 -0.03245428943915437 0.078940207000605445 0 -0.032822659726778704 0.079200927381636851 0 -0.032135536340818081 0.079083975906352855 0 -0.031734806483208033 0.078971693053494454 0 -0.032135536340818081 0.079083975906352855 0 -0.03180601689608923 0.078945318496347366 0 -0.031734806483208033 0.078971693053494454 0 -0.031370401405374761 0.078871741473411625 0 -0.03180601689608923 0.078945318496347366 0 -0.03245428943915437 0.078940207000605445 0 -0.032135536340818081 0.079083975906352855 0 -0.03180601689608923 0.078945318496347366 0 -0.024055931590395017 0.074004786332870581 0 -0.026447727992498098 0.073965683077083649 0 -0.025792402851150358 0.075832003493894004 0 -0.026447727992498098 0.073965683077083649 0 -0.025792402851150358 0.075832003493894004 0 -0.027215196662276866 0.075781496222810954 0 -0.025792402851150358 0.075832003493894004 0 -0.026568878670771054 0.076471994418719699 0 -0.027215196662276866 0.075781496222810954 0 -0.025485027527386937 0.076674239386182064 0 -0.025721427433043776 0.077095446092047187 0 -0.025792402851150358 0.075832003493894004 0 -0.027089173025847058 0.076853443148647158 0 -0.025792402851150358 0.075832003493894004 0 -0.026568878670771054 0.076471994418719699 0 -0.02637009013107466 0.07574054728807883 0 -0.026279845844113876 0.075857928360224314 0 -0.026568878670771054 0.076471994418719699 0 -0.027215196662276866 0.075781496222810954 0 -0.027689745543888353 0.076805620162839344 0 -0.029114948600890499 0.078030820924071556 0 -0.027689745543888353 0.076805620162839344 0 -0.028694414554543659 0.076664587809779874 0 -0.027215196662276866 0.075781496222810954 0 -0.027689745543888353 0.076805620162839344 0 -0.028694414554543659 0.076664587809779874 0 -0.026447727992498098 0.073965683077083649 0 -0.028336582404382981 0.075040695097566099 0 -0.027490651332168718 0.07232185034586773 0 -0.026447727992498098 0.073965683077083649 0 -0.027215196662276866 0.075781496222810954 0 -0.028336582404382981 0.075040695097566099 0 -0.027215196662276866 0.075781496222810954 0 -0.028694414554543659 0.076664587809779874 0 -0.028336582404382981 0.075040695097566099 0 -0.028336582404382981 0.075040695097566099 0 -0.030403213190108577 0.076991934279694474 0 -0.030585754644558091 0.074002027778688945 0 -0.027478891730409655 0.077378728892536844 0 -0.027168336235430225 0.077646469741679797 0 -0.028694414554543659 0.076664587809779874 0 -0.028336582404382981 0.075040695097566099 0 -0.030403213190108577 0.076991934279694474 0 -0.030403213190108577 0.076991934279694474 0 -0.030400333709469655 0.078255429339559715 0 -0.030751353152274393 0.078301039625161509 0 -0.029114948600890499 0.078030820924071556 0 -0.028694414554543659 0.076664587809779874 0 -0.030403213190108577 0.076991934279694474 0 -0.029114948600890499 0.078030820924071556 0 -0.030403213190108577 0.076991934279694474 0 -0.03060675779042682 0.07781323836670502 0 -0.030403213190108577 0.076991934279694474 0 -0.03060675779042682 0.07781323836670502 0 -0.030543462029891104 0.078031947776851907 0 -0.030842953984027314 0.07842736043939455 0 -0.03060675779042682 0.07781323836670502 0 -0.030543462029891104 0.078031947776851907 0 -0.030783196928173658 0.078414036598725367 0 -0.030842953984027314 0.07842736043939455 0 -0.03060675779042682 0.07781323836670502 0 -0.030403213190108577 0.076991934279694474 0 -0.030543462029891104 0.078031947776851907 0 -0.030400333709469655 0.078255429339559715 0 -0.030573229181640404 0.078491863183616284 0 -0.030543462029891104 0.078031947776851907 0 -0.030400333709469655 0.078255429339559715 0 -0.030573229181640404 0.078491863183616284 0 -0.030400333709469655 0.078255429339559715 0 -0.030382212894458725 0.078696583621354982 0 -0.030400333709469655 0.078255429339559715 0 -0.030315680641227027 0.078643773582711338 0 -0.030382212894458725 0.078696583621354982 0 -0.030400333709469655 0.078255429339559715 0 -0.030315680641227027 0.078643773582711338 0 -0.030751353152274393 0.078301039625161509 0 -0.030315680641227027 0.078643773582711338 0 -0.029971617872952425 0.079033987522444032 0 -0.030522521690074189 0.078946848627206606 0 -0.030315680641227027 0.078643773582711338 0 -0.030183319434163112 0.078860070833450369 0 -0.029971617872952425 0.079033987522444032 0 -0.030315680641227027 0.078643773582711338 0 -0.030183319434163112 0.078860070833450369 0 -0.030382212894458725 0.078696583621354982 0 -0.030183319434163112 0.078860070833450369 0 -0.030382212894458725 0.078696583621354982 0 -0.030239762728993511 0.078871026742546355 0 -0.029917972712930691 0.078900707924278599 0 -0.029971617872952425 0.079033987522444032 0 -0.028489544093444608 0.078543722055296944 0 -0.030183319434163112 0.078860070833450369 0 -0.030239762728993511 0.078871026742546355 0 -0.029917972712930691 0.078900707924278599 0 -0.030239762728993511 0.078871026742546355 0 -0.029917972712930691 0.078900707924278599 0 -0.030017509944165532 0.078756066180158416 0 -0.030183319434163112 0.078860070833450369 0 -0.029917972712930691 0.078900707924278599 0 -0.029971617872952425 0.079033987522444032 0 -0.029971617872952425 0.079033987522444032 0 -0.029578995375420282 0.079141779063649081 0 -0.028489544093444608 0.078543722055296944 0 -0.024498393623510587 0.084814473645573818 0 -0.022597119927488123 0.083542433898324525 0 -0.024315714803775874 0.081598436862779469 0 -0.026188785981650767 0.079246693566145707 0 -0.025838210555402846 0.079133263881184218 0 -0.026589318798282621 0.079167751759471008 0 -0.026188785981650767 0.079246693566145707 0 -0.030473926519189353 0.071816386184677769 0 -0.030585754644558091 0.074002027778688945 0 -0.027490651332168718 0.07232185034586773 0 -0.030315680641227027 0.078643773582711338 0 -0.030522521690074189 0.078946848627206606 0 -0.030751353152274393 0.078301039625161509 0 -0.026188785981650767 0.079246693566145707 0 -0.027168336235430225 0.077646469741679797 0 -0.026188785981650767 0.079246693566145707 0 -0.024032184882830675 0.079126123241573004 0 -0.028336582404382981 0.075040695097566099 0 -0.030585754644558091 0.074002027778688945 0 -0.027490651332168718 0.07232185034586773 0 -0.021498369841861317 0.085538978887574862 0 -0.022597119927488123 0.083542433898324525 0 -0.020621183315992431 0.083013473583226721 0 -0.024498393623510587 0.084814473645573818 0 -0.021498369841861317 0.085538978887574862 0 -0.022597119927488123 0.083542433898324525 0 -0.018669546341648535 0.084058644800728832 0 -0.021498369841861317 0.085538978887574862 0 -0.020621183315992431 0.083013473583226721 0 -0.018669546341648535 0.084058644800728832 0 -0.019291093531933964 0.082297644131285652 0 -0.020621183315992431 0.083013473583226721 0 -0.018528517274018757 0.086175345119354346 0 -0.018669546341648535 0.084058644800728832 0 -0.021498369841861317 0.085538978887574862 0 -0.024330997629041298 0.072137029368866762 0 -0.026447727992498098 0.073965683077083649 0 -0.027490651332168718 0.07232185034586773 0 -0.020924875867490103 0.079318792625772669 0 -0.024032184882830675 0.079126123241573004 0 -0.019288313640314785 0.079846547166879236 0 -0.020721853417468843 0.07969456431767602 0 -0.020004383082793811 0.080367401174875591 0 -0.020721853417468843 0.07969456431767602 0 -0.020004383082793811 0.080367401174875591 0 -0.020484685162729898 0.081112721331993293 0 -0.020721853417468843 0.07969456431767602 0 -0.020484685162729898 0.081112721331993293 0 -0.022077429873532915 0.080012597027142696 0 -0.019288313640314785 0.079846547166879236 0 -0.020004383082793811 0.080367401174875591 0 -0.019301861650380035 0.081168226010726804 0 -0.020004383082793811 0.080367401174875591 0 -0.019301861650380035 0.081168226010726804 0 -0.020484685162729898 0.081112721331993293 0 -0.019301861650380035 0.081168226010726804 0 -0.019291093531933964 0.082297644131285652 0 -0.020484685162729898 0.081112721331993293 0 -0.019291093531933964 0.082297644131285652 0 -0.020621183315992431 0.083013473583226721 0 -0.020484685162729898 0.081112721331993293 0 -0.020621183315992431 0.083013473583226721 0 -0.020484685162729898 0.081112721331993293 0 -0.022021917940460763 0.081857078143211748 0 -0.022597119927488123 0.083542433898324525 0 -0.022021917940460763 0.081857078143211748 0 -0.024315714803775874 0.081598436862779469 0 -0.022021917940460763 0.081857078143211748 0 -0.022077429873532915 0.080012597027142696 0 -0.024315714803775874 0.081598436862779469 0 -0.022597119927488123 0.083542433898324525 0 -0.020621183315992431 0.083013473583226721 0 -0.022021917940460763 0.081857078143211748 0 -0.020484685162729898 0.081112721331993293 0 -0.022021917940460763 0.081857078143211748 0 -0.022077429873532915 0.080012597027142696 0 -0.022077429873532915 0.080012597027142696 0 -0.024315714803775874 0.081598436862779469 0 -0.024200107773750798 0.078363888590825645 0 -0.028489544093444608 0.078543722055296944 0 -0.028443321009223969 0.077690416450334573 0 -0.026737533270154549 0.077380399995440732 0 -0.025838210555402846 0.079133263881184218 0 -0.025102317833892072 0.07717696125859809 0 -0.029917972712930691 0.078900707924278599 0 -0.028489544093444608 0.078543722055296944 0 -0.030017509944165532 0.078756066180158416 0 -0.028489544093444608 0.078543722055296944 0 -0.030017509944165532 0.078756066180158416 0 -0.029848308732739526 0.078292550396623792 0 -0.028489544093444608 0.078543722055296944 0 -0.028443321009223969 0.077690416450334573 0 -0.029848308732739526 0.078292550396623792 0 -0.028443321009223969 0.077690416450334573 0 -0.027633758560760582 0.076593448800683347 0 -0.026737533270154549 0.077380399995440732 0 -0.028443321009223969 0.077690416450334573 0 -0.027633758560760582 0.076593448800683347 0 -0.030035437603265255 0.077062855922304122 0 -0.027633758560760582 0.076593448800683347 0 -0.02419735311559473 0.074999697548361915 0 -0.028589839915801198 0.074999388513585508 0 -0.024192901550837559 0.074999833297337504 0 -0.024200107773750798 0.078363888590825645 0 -0.023217114182095724 0.075000108533668022 0 -0.027633758560760582 0.076593448800683347 0 -0.02419735311559473 0.074999697548361915 0 -0.026737533270154549 0.077380399995440732 0 -0.024195356331115359 0.075001661835413208 0 -0.025102317833892072 0.07717696125859809 0 -0.022077429873532915 0.080012597027142696 0 -0.024200107773750798 0.078363888590825645 0 -0.021216494870185284 0.077452139697113093 0 -0.020721853417468843 0.07969456431767602 0 -0.022077429873532915 0.080012597027142696 0 -0.021216494870185284 0.077452139697113093 0 -0.023214296158069896 0.075002629456409731 0 -0.021215165453594878 0.077488439451918439 0 -0.023216419048417484 0.074999988905487508 0 -0.020024752001516134 0.074999998051112279 0 -0.020979685954139349 0.077773131038565327 0 -0.024200107773750798 0.078363888590825645 0 -0.023217114182095724 0.075000108533668022 0 -0.021216494870185284 0.077452139697113093 0 -0.018278683961723014 0.077821036894343318 0 -0.020024752001516134 0.074999998051112279 0 -0.020979685954139349 0.077773131038565327 0 -0.019461256811450341 0.07967718619569851 0 -0.021215165453594878 0.077488439451918439 0 -0.019288313640314785 0.079846547166879236 0 -0.020721853417468843 0.07969456431767602 0 -0.021216494870185284 0.077452139697113093 0 -0.018384598730959625 0.079212297081528188 0 -0.018278683961723014 0.077821036894343318 0 -0.020979685954139349 0.077773131038565327 0 -0.018384598730959625 0.079212297081528188 0 -0.018760635866371913 0.080435558598060383 0 -0.020979685954139349 0.077773131038565327 0 -0.033107956349131072 0.077917298194265266 0 -0.031985224625358306 0.07833920652384406 0 -0.031413174285707959 0.077990962225977525 0 -0.033107956349131072 0.077917298194265266 0 -0.031413174285707959 0.077990962225977525 0 -0.033268221758473618 0.076917110486069293 0 -0.033107956349131072 0.077917298194265266 0 -0.033530275762340918 0.078347552290452566 0 -0.035436073385716103 0.077218683293181101 0 -0.033107956349131072 0.077917298194265266 0 -0.033530275762340918 0.078347552290452566 0 -0.032573963266277824 0.078507372962354854 0 -0.032897871272811061 0.078705199941141418 0 -0.033530275762340918 0.078347552290452566 0 -0.033518252410354762 0.078619057072913751 0 -0.032897871272811061 0.078705199941141418 0 -0.033530275762340918 0.078347552290452566 0 -0.032573963266277824 0.078507372962354854 0 -0.033107956349131072 0.077917298194265266 0 -0.032573963266277824 0.078507372962354854 0 -0.031985224625358306 0.07833920652384406 0 -0.032573963266277824 0.078507372962354854 0 -0.031985224625358306 0.07833920652384406 0 -0.031745991598672876 0.078629976266172436 0 -0.032034586630891475 0.078805603466182109 0 -0.032573963266277824 0.078507372962354854 0 -0.031745991598672876 0.078629976266172436 0 -0.031985224625358306 0.07833920652384406 0 -0.030958721032273567 0.078614271965450788 0 -0.031413174285707959 0.077990962225977525 0 -0.0313371945947305 0.078802791249608414 0 -0.031745991598672876 0.078629976266172436 0 -0.030958721032273567 0.078614271965450788 0 -0.031985224625358306 0.07833920652384406 0 -0.031745991598672876 0.078629976266172436 0 -0.030958721032273567 0.078614271965450788 0 -0.030017509944165532 0.078756066180158416 0 -0.030958721032273567 0.078614271965450788 0 -0.029848308732739526 0.078292550396623792 0 -0.028443321009223969 0.077690416450334573 0 -0.029848308732739526 0.078292550396623792 0 -0.030035437603265255 0.077062855922304122 0 -0.030958721032273567 0.078614271965450788 0 -0.029848308732739526 0.078292550396623792 0 -0.031413174285707959 0.077990962225977525 0 -0.029848308732739526 0.078292550396623792 0 -0.031413174285707959 0.077990962225977525 0 -0.030035437603265255 0.077062855922304122 0 -0.031413174285707959 0.077990962225977525 0 -0.030035437603265255 0.077062855922304122 0 -0.033268221758473618 0.076917110486069293 0 -0.027633758560760582 0.076593448800683347 0 -0.030035437603265255 0.077062855922304122 0 -0.028589839915801198 0.074999388513585508 0 -0.030035437603265255 0.077062855922304122 0 -0.028589839915801198 0.074999388513585508 0 -0.032985417392971561 0.074999278967593452 0 -0.030035437603265255 0.077062855922304122 0 -0.032985417392971561 0.074999278967593452 0 -0.033268221758473618 0.076917110486069293 0 -0.032985417392971561 0.074999278967593452 0 -0.033268221758473618 0.076917110486069293 0 -0.03737523391771392 0.074999999889852217 0 -0.033107956349131072 0.077917298194265266 0 -0.033268221758473618 0.076917110486069293 0 -0.035436073385716103 0.077218683293181101 0 -0.033268221758473618 0.076917110486069293 0 -0.03737523391771392 0.074999999889852217 0 -0.035436073385716103 0.077218683293181101 0 -0.037381002268030789 0.074999976328648216 0 -0.038480873575627177 0.076224870085708968 0 -0.040756248517204392 0.074999929717293579 0 -0.037381002268030789 0.074999976328648216 0 -0.038480873575627177 0.076224870085708968 0 -0.038360068977717536 0.078790625602762024 0 -0.03738030904321598 0.075001829914821433 0 -0.037525698699798216 0.077309176062967805 0 -0.038480873575627177 0.076224870085708968 0 -0.040795398941981073 0.077463819731978939 0 -0.039613694830446688 0.07790308357946274 0 -0.038480873575627177 0.076224870085708968 0 -0.040756248517204392 0.074999929717293579 0 -0.040795398941981073 0.077463819731978939 0 -0.040756248517204392 0.074999929717293579 0 -0.040795398941981073 0.077463819731978939 0 -0.042705231195619385 0.076513550824118259 0 -0.040795398941981073 0.077463819731978939 0 -0.04294912305493985 0.078625472548759109 0 -0.042705231195619385 0.076513550824118259 0 -0.040795398941981073 0.077463819731978939 0 -0.0401116615758444 0.078649812217959802 0 -0.039613694830446688 0.07790308357946274 0 -0.040795398941981073 0.077463819731978939 0 -0.0401116615758444 0.078649812217959802 0 -0.041334176716135568 0.079151847555380114 0 -0.0401116615758444 0.078649812217959802 0 -0.041334176716135568 0.079151847555380114 0 -0.040502404097564886 0.080127989320023865 0 -0.040795398941981073 0.077463819731978939 0 -0.041334176716135568 0.079151847555380114 0 -0.04294912305493985 0.078625472548759109 0 -0.038350498240496939 0.078141658320794033 0 -0.038371403582849524 0.07909853398224985 0 -0.038480873575627177 0.076224870085708968 0 -0.038360068977717536 0.078790625602762024 0 -0.038863496841871653 0.079392452807743097 0 -0.038480873575627177 0.076224870085708968 0 -0.039613694830446688 0.07790308357946274 0 -0.039073450539001138 0.079261489517601424 0 -0.0401116615758444 0.078649812217959802 0 -0.039613694830446688 0.07790308357946274 0 -0.039073450539001138 0.079261489517601424 0 -0.0401116615758444 0.078649812217959802 0 -0.039073450539001138 0.079261489517601424 0 -0.040502404097564886 0.080127989320023865 0 -0.039073450539001138 0.079261489517601424 0 -0.040502404097564886 0.080127989320023865 0 -0.039440169506016011 0.082276901677398886 0 -0.033530275762340918 0.078347552290452566 0 -0.035436073385716103 0.077218683293181101 0 -0.03418129363915471 0.07831815518802912 0 -0.037525698699798216 0.077309176062967805 0 -0.038111285676768962 0.079566468257928485 0 -0.038371403582849524 0.07909853398224985 0 -0.038111285676768962 0.079566468257928485 0 -0.038360068977717536 0.078790625602762024 0 -0.038863496841871653 0.079392452807743097 0 -0.039218032378778342 0.082497571730320268 0 -0.041334176716135568 0.079151847555380114 0 -0.042543653620861599 0.081344154451769582 0 -0.04294912305493985 0.078625472548759109 0 -0.041334176716135568 0.079151847555380114 0 -0.040502404097564886 0.080127989320023865 0 -0.042543653620861599 0.081344154451769582 0 -0.040502404097564886 0.080127989320023865 0 -0.039440169506016011 0.082276901677398886 0 -0.042543653620861599 0.081344154451769582 0 -0.039401719407528714 0.080428043745795763 0 -0.038437062645488136 0.07977996549219285 0 -0.042543653620861599 0.081344154451769582 0 -0.041023423869743066 0.083624644515578064 0 -0.042714181853701266 0.08314744748614579 0 -0.039440169506016011 0.082276901677398886 0 -0.042543653620861599 0.081344154451769582 0 -0.039987732933125311 0.084750948842560722 0 -0.038111285676768962 0.079566468257928485 0 -0.037946331536393881 0.079427644374417142 0 -0.033530275762340918 0.078347552290452566 0 -0.03418129363915471 0.07831815518802912 0 -0.033518252410354762 0.078619057072913751 0 -0.03418129363915471 0.07831815518802912 0 -0.033746290327623704 0.078866703592748319 0 -0.033518252410354762 0.078619057072913751 0 -0.038111285676768962 0.079566468257928485 0 -0.038437062645488136 0.07977996549219285 0 -0.044978080711565789 0.081835683368867027 0 -0.046249568310773655 0.082375012533213304 0 -0.045244297773409319 0.083602271858230298 0 -0.044978080711565789 0.081835683368867027 0 -0.04388397475794599 0.082839250887230889 0 -0.045244297773409319 0.083602271858230298 0 -0.04388397475794599 0.082839250887230889 0 -0.042543653620861599 0.081344154451769582 0 -0.042714181853701266 0.08314744748614579 0 -0.044978080711565789 0.081835683368867027 0 -0.04388397475794599 0.082839250887230889 0 -0.042543653620861599 0.081344154451769582 0 -0.042543653620861599 0.081344154451769582 0 -0.044736743227645238 0.079787107746603983 0 -0.04294912305493985 0.078625472548759109 0 -0.044978080711565789 0.081835683368867027 0 -0.042543653620861599 0.081344154451769582 0 -0.044736743227645238 0.079787107746603983 0 -0.046983689739322827 0.079850991196653523 0 -0.048257717276980527 0.080154224177954356 0 -0.044978080711565789 0.081835683368867027 0 -0.044736743227645238 0.079787107746603983 0 -0.046799529909404461 0.080670484539088844 0 -0.044736743227645238 0.079787107746603983 0 -0.046012861905078785 0.077314195885615195 0 -0.047924504368650915 0.08095113720449483 0 -0.044736743227645238 0.079787107746603983 0 -0.046012861905078785 0.077314195885615195 0 -0.04294912305493985 0.078625472548759109 0 -0.046012861905078785 0.077314195885615195 0 -0.04294912305493985 0.078625472548759109 0 -0.042705231195619385 0.076513550824118259 0 -0.046012861905078785 0.077314195885615195 0 -0.044131629747937655 0.075000011575006548 0 -0.042705231195619385 0.076513550824118259 0 -0.040756248517204392 0.074999929717293579 0 -0.044131629747937655 0.075000011575006548 0 -0.042705231195619385 0.076513550824118259 0 -0.046012861905078785 0.077314195885615195 0 -0.044131629747937655 0.075000011575006548 0 -0.047506668733514258 0.074999725461631958 0 -0.046012861905078785 0.077314195885615195 0 -0.047506668733514258 0.074999725461631958 0 -0.048822117630245021 0.076872038565139911 0 -0.047510431914359122 0.075001259368836476 0 -0.050645948257284613 0.076222718838366024 0 -0.047506668733514258 0.074999725461631958 0 -0.048822117630245021 0.076872038565139911 0 -0.050672645539288949 0.076167869383177045 0 -0.047507031901860584 0.074999993192025938 0 -0.051531965416818676 0.075000000410804374 0 -0.050769397216045224 0.076333897796463324 0 -0.048822117630245021 0.076872038565139911 0 -0.050672645539288949 0.076167869383177045 0 -0.050305188746037406 0.077794953290974717 0 -0.048822117630245021 0.076872038565139911 0 -0.050305188746037406 0.077794953290974717 0 -0.048868128675848742 0.078447053972741321 0 -0.050305188746037406 0.077794953290974717 0 -0.050911420785830344 0.079476784059618583 0 -0.048868128675848742 0.078447053972741321 0 -0.046012861905078785 0.077314195885615195 0 -0.048822117630245021 0.076872038565139911 0 -0.048868128675848742 0.078447053972741321 0 -0.046012861905078785 0.077314195885615195 0 -0.048868128675848742 0.078447053972741321 0 -0.047924504368650915 0.08095113720449483 0 -0.055557119360786493 0.074999896326472165 0 -0.056144194753171318 0.077214138542147509 0 -0.054072967803759975 0.077632910262893179 0 -0.051531965416818676 0.075000000410804374 0 -0.050769397216045224 0.076333897796463324 0 -0.054072967803759975 0.077632910262893179 0 -0.050672645539288949 0.076167869383177045 0 -0.050305188746037406 0.077794953290974717 0 -0.054020280958837069 0.077400496728426693 0 -0.051531965416818676 0.075000000410804374 0 -0.055557119360786493 0.074999896326472165 0 -0.054072967803759975 0.077632910262893179 0 -0.050645948257284613 0.076222718838366024 0 -0.053492619910179125 0.077329327913282647 0 -0.050305188746037406 0.077794953290974717 0 -0.050911420785830344 0.079476784059618583 0 -0.054020280958837069 0.077400496728426693 0 -0.050911420785830344 0.079476784059618583 0 -0.054020280958837069 0.077400496728426693 0 -0.053708964350954409 0.080534752944680321 0 -0.053492619910179125 0.077329327913282647 0 -0.055005348483016685 0.077916006482875194 0 -0.054020280958837069 0.077400496728426693 0 -0.056082713356344016 0.079635401466313718 0 -0.057431299988679768 0.078698784447141151 0 -0.056144194753171318 0.077214138542147509 0 -0.054072967803759975 0.077632910262893179 0 -0.057431299988679768 0.078698784447141151 0 -0.054020280958837069 0.077400496728426693 0 -0.056082713356344016 0.079635401466313718 0 -0.053708964350954409 0.080534752944680321 0 -0.055988360842228337 0.081328450545583519 0 -0.053708964350954409 0.080534752944680321 0 -0.054270875776768493 0.083284260012193648 0 -0.055988360842228337 0.081328450545583519 0 -0.056082713356344016 0.079635401466313718 0 -0.053708964350954409 0.080534752944680321 0 -0.050911420785830344 0.079476784059618583 0 -0.053708964350954409 0.080534752944680321 0 -0.05106894458889804 0.082106000573208271 0 -0.049592153865371566 0.082673363014535914 0 -0.051058450323877652 0.082236563358325757 0 -0.048912138656004883 0.081459218951976692 0 -0.05472003364899209 0.080721706105855773 0 -0.050930601942758023 0.080561041602444608 0 -0.053708964350954409 0.080534752944680321 0 -0.054270875776768493 0.083284260012193648 0 -0.05106894458889804 0.082106000573208271 0 -0.058636823527111269 0.080581554864880667 0 -0.05838161041300257 0.080118647755351283 0 -0.057948413320960207 0.080315167368439452 0 -0.057614464742619595 0.079885345824140308 0 -0.057448447693110791 0.08021886927990797 0 -0.057883125853674382 0.080153982260647072 0 -0.05472003364899209 0.080721706105855773 0 -0.055721933951866774 0.08092322112934619 0 -0.057448447693110791 0.08021886927990797 0 -0.057948413320960207 0.080315167368439452 0 -0.057883125853674382 0.080153982260647072 0 -0.055694039751717703 0.080150088723342963 0 -0.05472003364899209 0.080721706105855773 0 -0.050911420785830344 0.079476784059618583 0 -0.047924504368650915 0.08095113720449483 0 -0.05106894458889804 0.082106000573208271 0 -0.048257717276980527 0.080154224177954356 0 -0.050930601942758023 0.080561041602444608 0 -0.050911420785830344 0.079476784059618583 0 -0.048868128675848742 0.078447053972741321 0 -0.047924504368650915 0.08095113720449483 0 -0.049592153865371566 0.082673363014535914 0 -0.048912138656004883 0.081459218951976692 0 -0.048321509972915115 0.083083667978901959 0 -0.048912138656004883 0.081459218951976692 0 -0.047382023045664218 0.082134046613785372 0 -0.048321509972915115 0.083083667978901959 0 -0.046799529909404461 0.080670484539088844 0 -0.048912138656004883 0.081459218951976692 0 -0.047382023045664218 0.082134046613785372 0 -0.046799529909404461 0.080670484539088844 0 -0.047382023045664218 0.082134046613785372 0 -0.046249568310773655 0.082375012533213304 0 -0.047382023045664218 0.082134046613785372 0 -0.046249568310773655 0.082375012533213304 0 -0.046843655150099112 0.083624418483157978 0 -0.044978080711565789 0.081835683368867027 0 -0.046799529909404461 0.080670484539088844 0 -0.046249568310773655 0.082375012533213304 0 -0.046249568310773655 0.082375012533213304 0 -0.046843655150099112 0.083624418483157978 0 -0.045244297773409319 0.083602271858230298 0 -0.046843655150099112 0.083624418483157978 0 -0.046083692342463185 0.084777305560247748 0 -0.046931282499405536 0.084955092722305794 0 -0.046843655150099112 0.083624418483157978 0 -0.046083692342463185 0.084777305560247748 0 -0.045244297773409319 0.083602271858230298 0 -0.046843655150099112 0.083624418483157978 0 -0.04772293552102478 0.084632880228736662 0 -0.046931282499405536 0.084955092722305794 0 -0.047382023045664218 0.082134046613785372 0 -0.046843655150099112 0.083624418483157978 0 -0.048321509972915115 0.083083667978901959 0 -0.048321509972915115 0.083083667978901959 0 -0.04772293552102478 0.084632880228736662 0 -0.049371627600250129 0.084167890340429818 0 -0.049592153865371566 0.082673363014535914 0 -0.048321509972915115 0.083083667978901959 0 -0.049371627600250129 0.084167890340429818 0 -0.046843655150099112 0.083624418483157978 0 -0.048321509972915115 0.083083667978901959 0 -0.04772293552102478 0.084632880228736662 0 -0.059810026793467329 0.07891997005334711 0 -0.059386529551632046 0.079620487526554581 0 -0.05936992223121082 0.079065628737393992 0 -0.04772293552102478 0.084632880228736662 0 -0.047669864554581567 0.086085744241203327 0 -0.049371627600250129 0.084167890340429818 0 -0.054971527714793932 0.077348428779992651 0 -0.054104174713861523 0.080380380612483607 0 -0.04772293552102478 0.084632880228736662 0 -0.047669864554581567 0.086085744241203327 0 -0.047191728310809734 0.085905435632257166 0 -0.054971527714793932 0.077348428779992651 0 -0.054795571427751176 0.077389772404962531 0 -0.047656788967144599 0.086076617552312301 0 -0.047191728310809734 0.085905435632257166 0 -0.046624423136168096 0.086133600227783658 0 -0.047191728310809734 0.085905435632257166 0 -0.046531557275536352 0.085512270449605535 0 -0.046931282499405536 0.084955092722305794 0 -0.047191728310809734 0.085905435632257166 0 -0.046531557275536352 0.085512270449605535 0 -0.046624423136168096 0.086133600227783658 0 -0.046531557275536352 0.085512270449605535 0 -0.046083692342463185 0.084777305560247748 0 -0.045827821536555992 0.085788273116079145 0 -0.046531557275536352 0.085512270449605535 0 -0.046624423136168096 0.086133600227783658 0 -0.045827821536555992 0.085788273116079145 0 -0.046531557275536352 0.085512270449605535 0 -0.046083692342463185 0.084777305560247748 0 -0.046931282499405536 0.084955092722305794 0 -0.04772293552102478 0.084632880228736662 0 -0.047191728310809734 0.085905435632257166 0 -0.046931282499405536 0.084955092722305794 0 -0.058636823527111269 0.080581554864880667 0 -0.05838161041300257 0.080118647755351283 0 -0.05875795366607283 0.079788777742960532 0 -0.058169349505770671 0.079721748262325337 0 -0.05838161041300257 0.080118647755351283 0 -0.057948413320960207 0.080315167368439452 0 -0.058169349505770671 0.079721748262325337 0 -0.05838161041300257 0.080118647755351283 0 -0.05875795366607283 0.079788777742960532 0 -0.05472003364899209 0.080721706105855773 0 -0.054104174713861523 0.080380380612483607 0 -0.049592153865371566 0.082673363014535914 0 -0.051058450323877652 0.082236563358325757 0 -0.049371627600250129 0.084167890340429818 0 -0.058636823527111269 0.080581554864880667 0 -0.05875795366607283 0.079788777742960532 0 -0.059386529551632046 0.079620487526554581 0 -0.05875795366607283 0.079788777742960532 0 -0.059386529551632046 0.079620487526554581 0 -0.059040117586095626 0.078960212196859905 0 -0.059386529551632046 0.079620487526554581 0 -0.05936992223121082 0.079065628737393992 0 -0.059040117586095626 0.078960212196859905 0 -0.05936992223121082 0.079065628737393992 0 -0.059040117586095626 0.078960212196859905 0 -0.059287652824799038 0.078832570247638983 0 -0.058169349505770671 0.079721748262325337 0 -0.05875795366607283 0.079788777742960532 0 -0.059040117586095626 0.078960212196859905 0 -0.059259747626343812 0.078575154519767071 0 -0.059040117586095626 0.078960212196859905 0 -0.059257739798713835 0.078895517133423396 0 -0.059363260023301438 0.079350079387119798 0 -0.059287317501379944 0.079313243788390012 0 -0.059288219182525921 0.079006540580869949 0 -0.059110229780435085 0.079026439520064856 0 -0.059474661242573917 0.079180559409889509 0 -0.059040117586095626 0.078960212196859905 0 -0.059257739798713835 0.078895517133423396 0 -0.059129142170748626 0.078954871350526909 0 -0.059257739798713835 0.078895517133423396 0 -0.059288219182525921 0.079006540580869949 0 -0.059129142170748626 0.078954871350526909 0 -0.062330376667345533 0.07321363250403598 0 -0.063072483817502009 0.072837484930845353 0 -0.061363369218705187 0.072296758319549001 0 -0.059504397841710487 0.071584519051074103 0 -0.058466301323113604 0.072772084184207289 0 -0.063072483817502009 0.072837484930845353 0 -0.063037435209579371 0.069787974009752021 0 -0.063072483817502009 0.072837484930845353 0 -0.05918333673703479 0.07515211673836994 0 -0.059040117586095626 0.078960212196859905 0 -0.059129142170748626 0.078954871350526909 0 -0.059287652824799038 0.078832570247638983 0 -0.07419468808887815 0.055444000203185871 0 -0.07160153377568787 0.055757160187546007 0 -0.072941860651275808 0.057389766661938645 0 -0.063072483817502009 0.072837484930845353 0 -0.065423866023017113 0.07127760563279191 0 -0.07419468808887815 0.055444000203185871 0 -0.076310744967704403 0.056406159854314832 0 -0.075392248924526117 0.057957223631509069 0 -0.07419468808887815 0.055444000203185871 0 -0.075392248924526117 0.057957223631509069 0 -0.072941860651275808 0.057389766661938645 0 -0.047656788967144599 0.086076617552312301 0 -0.046624423136168096 0.086133600227783658 0 -0.04587883558395519 0.08688732939734721 0 -0.057651204459638478 0.070883899705580539 0 -0.058466301323113604 0.072772084184207289 0 -0.055581951895144519 0.073247077772988015 0 -0.054971527714793932 0.077348428779992651 0 -0.054439987784358365 0.071151648617408997 0 -0.047656788967144599 0.086076617552312301 0 -0.045788386239242258 0.088158245800396412 0 -0.04587883558395519 0.08688732939734721 0 -0.046624423136168096 0.086133600227783658 0 -0.04587883558395519 0.08688732939734721 0 -0.045827821536555992 0.085788273116079145 0 -0.057651204459638478 0.070883899705580539 0 -0.059504397841710487 0.071584519051074103 0 -0.058466301323113604 0.072772084184207289 0 -0.054971527714793932 0.077348428779992651 0 -0.05918333673703479 0.07515211673836994 0 -0.059810026793467329 0.07891997005334711 0 -0.05936992223121082 0.079065628737393992 0 -0.059287652824799038 0.078832570247638983 0 -0.07160153377568787 0.055757160187546007 0 -0.070680265348968277 0.057773679214168504 0 -0.072941860651275808 0.057389766661938645 0 -0.07160153377568787 0.055757160187546007 0 -0.068968543586426886 0.056158182520180171 0 -0.070680265348968277 0.057773679214168504 0 -0.063037435209579371 0.069787974009752021 0 -0.054439987784358365 0.071151648617408997 0 -0.050169958542399286 0.069456397659378735 0 -0.047796558647067389 0.069849374468738804 0 -0.048471317701754758 0.071377700457036786 0 -0.054439987784358365 0.071151648617408997 0 -0.047124156239256247 0.073283212843945372 0 -0.054439987784358365 0.071151648617408997 0 -0.053492045967562372 0.066257158036484118 0 -0.045788386239242258 0.088158245800396412 0 -0.043937000444483454 0.087128570518574255 0 -0.043984169958229756 0.088446199516610993 0 -0.04587883558395519 0.08688732939734721 0 -0.044806885656225273 0.086139554756469242 0 -0.043937000444483454 0.087128570518574255 0 -0.045788386239242258 0.088158245800396412 0 -0.04587883558395519 0.08688732939734721 0 -0.043937000444483454 0.087128570518574255 0 -0.04587883558395519 0.08688732939734721 0 -0.044806885656225273 0.086139554756469242 0 -0.045827821536555992 0.085788273116079145 0 -0.043937000444483454 0.087128570518574255 0 -0.041611451499691768 0.086169666028935943 0 -0.043539568289834255 0.085541511278619406 0 -0.044806885656225273 0.086139554756469242 0 -0.043937000444483454 0.087128570518574255 0 -0.043539568289834255 0.085541511278619406 0 -0.047124156239256247 0.073283212843945372 0 -0.042208273344790409 0.073504964420852581 0 -0.043937000444483454 0.087128570518574255 0 -0.043984169958229756 0.088446199516610993 0 -0.042204961536751247 0.088730895846236585 0 -0.047796558647067389 0.069849374468738804 0 -0.046509885503070308 0.070453661010536961 0 -0.045421434316743808 0.070254630881539715 0 -0.047400820086638318 0.070819260461356448 0 -0.047796558647067389 0.069849374468738804 0 -0.048471317701754758 0.071377700457036786 0 -0.047400820086638318 0.070819260461356448 0 -0.047796558647067389 0.069849374468738804 0 -0.046509885503070308 0.070453661010536961 0 -0.046509885503070308 0.070453661010536961 0 -0.045421434316743808 0.070254630881539715 0 -0.045482320431656634 0.070533817900945012 0 -0.042791478130687552 0.071741440163938727 0 -0.04441566016709738 0.071622056517083102 0 -0.042570308871614324 0.070733382786339519 0 -0.046509885503070308 0.070453661010536961 0 -0.0454995659162429 0.070527081091748919 0 -0.0456394105623327 0.071145386488129597 0 -0.0342837298094101 0.078808809406021696 0 -0.03378284982123933 0.078379318693597599 0 -0.033952251602000862 0.077926413454408622 0 -0.042208273344790409 0.073504964420852581 0 -0.039738157076792444 0.07583391560471367 0 -0.042302956687914894 0.072024439234395193 0 -0.041927619568435 0.072081566155747095 0 -0.041927619568435 0.072081566155747095 0 -0.042885209219852047 0.069910022418373616 0 -0.0342837298094101 0.078808809406021696 0 -0.034309337918905759 0.078916067391852918 0 -0.033903521437888426 0.078951368943364728 0 -0.042208273344790409 0.073504964420852581 0 -0.041927619568435 0.072081566155747095 0 -0.0342837298094101 0.078808809406021696 0 -0.033830094601208248 0.078869827794439726 0 -0.03369292502597733 0.078637247370364885 0 -0.0342837298094101 0.078808809406021696 0 -0.033903521437888426 0.078951368943364728 0 -0.033830094601208248 0.078869827794439726 0 -0.041927619568435 0.072081566155747095 0 -0.037538963736082079 0.070854601279872684 0 -0.037538963736082079 0.070854601279872684 0 -0.037545166096487032 0.070883596339421262 0 -0.0342837298094101 0.078808809406021696 0 -0.03378284982123933 0.078379318693597599 0 -0.03369292502597733 0.078637247370364885 0 -0.032364523014150923 0.07906190923315938 0 -0.033904820516135685 0.078956386048482458 0 -0.033383271102314177 0.078731486321258481 0 -0.026875150243903943 0.07489015934439737 0 -0.037538963736082079 0.070854601279872684 0 -0.032364523014150923 0.07906190923315938 0 -0.033383271102314177 0.078731486321258481 0 -0.032978670456528962 0.078413079222519472 0 -0.033830094601208248 0.078869827794439726 0 -0.033383271102314177 0.078731486321258481 0 -0.03369292502597733 0.078637247370364885 0 -0.033904820516135685 0.078956386048482458 0 -0.033830094601208248 0.078869827794439726 0 -0.033383271102314177 0.078731486321258481 0 -0.033383271102314177 0.078731486321258481 0 -0.033531024450193826 0.078455912406040468 0 -0.03369292502597733 0.078637247370364885 0 -0.03378284982123933 0.078379318693597599 0 -0.033531024450193826 0.078455912406040468 0 -0.03369292502597733 0.078637247370364885 0 -0.03378284982123933 0.078379318693597599 0 -0.03358720982217997 0.078286607006644374 0 -0.033666253985771492 0.07810812796152479 0 -0.03378284982123933 0.078379318693597599 0 -0.033531024450193826 0.078455912406040468 0 -0.03358720982217997 0.078286607006644374 0 -0.033531024450193826 0.078455912406040468 0 -0.03358720982217997 0.078286607006644374 0 -0.033368885125398956 0.078203080224895707 0 -0.033531024450193826 0.078455912406040468 0 -0.032978670456528962 0.078413079222519472 0 -0.033368885125398956 0.078203080224895707 0 -0.033383271102314177 0.078731486321258481 0 -0.033531024450193826 0.078455912406040468 0 -0.032978670456528962 0.078413079222519472 0 -0.033539391009328887 0.077577230785014731 0 -0.03375826150632865 0.077892552347837971 0 -0.033669436380822017 0.077039687500489507 0 -0.037480644246084299 0.077356048801994218 0 -0.037907748880643119 0.077378330089896016 0 -0.032978670456528962 0.078413079222519472 0 -0.032975049004132291 0.077939476425088985 0 -0.033368885125398956 0.078203080224895707 0 -0.032975049004132291 0.077939476425088985 0 -0.033436928846516951 0.077898913032718897 0 -0.033368885125398956 0.078203080224895707 0 -0.033436928846516951 0.077898913032718897 0 -0.033368885125398956 0.078203080224895707 0 -0.033666253985771492 0.07810812796152479 0 -0.03358720982217997 0.078286607006644374 0 -0.033368885125398956 0.078203080224895707 0 -0.033666253985771492 0.07810812796152479 0 -0.033436928846516951 0.077898913032718897 0 -0.033666253985771492 0.07810812796152479 0 -0.03375826150632865 0.077892552347837971 0 -0.033436928846516951 0.077898913032718897 0 -0.033539391009328887 0.077577230785014731 0 -0.03375826150632865 0.077892552347837971 0 -0.033539391009328887 0.077577230785014731 0 -0.033274776971576492 0.077609284650077645 0 -0.033386543486631504 0.077220674241635812 0 -0.033436928846516951 0.077898913032718897 0 -0.033539391009328887 0.077577230785014731 0 -0.033274776971576492 0.077609284650077645 0 -0.032975049004132291 0.077939476425088985 0 -0.033436928846516951 0.077898913032718897 0 -0.033274776971576492 0.077609284650077645 0 -0.03287752549357971 0.077172864002314573 0 -0.032975049004132291 0.077939476425088985 0 -0.033274776971576492 0.077609284650077645 0 -0.040010514767913133 0.077446977951764459 0 -0.040057252096575055 0.076705792600008385 0 -0.040485540382401715 0.078149468192292307 0 -0.03958294743544008 0.075267776680922605 0 -0.040010514767913133 0.077446977951764459 0 -0.040057252096575055 0.076705792600008385 0 -0.03375826150632865 0.077892552347837971 0 -0.033952251602000862 0.077926413454408622 0 -0.033698150521861592 0.077038189197427595 0 -0.042208273344790409 0.073504964420852581 0 -0.040887181821370182 0.079880567039580935 0 -0.039738157076792444 0.07583391560471367 0 -0.037907748880643119 0.077378330089896016 0 -0.043937000444483454 0.087128570518574255 0 -0.042204961536751247 0.088730895846236585 0 -0.041611451499691768 0.086169666028935943 0 -0.03378284982123933 0.078379318693597599 0 -0.033666253985771492 0.07810812796152479 0 -0.033952251602000862 0.077926413454408622 0 -0.033666253985771492 0.07810812796152479 0 -0.03375826150632865 0.077892552347837971 0 -0.033952251602000862 0.077926413454408622 0 -0.040010514767913133 0.077446977951764459 0 -0.040485540382401715 0.078149468192292307 0 -0.040452982172059636 0.079615805777941737 0 -0.040887181821370182 0.079880567039580935 0 -0.038437062645488136 0.07977996549219285 0 -0.041611451499691768 0.086169666028935943 0 -0.042549706633098393 0.084533810398481624 0 -0.043539568289834255 0.085541511278619406 0 -0.041611451499691768 0.086169666028935943 0 -0.042549706633098393 0.084533810398481624 0 -0.041023423869743066 0.083624644515578064 0 -0.03287752549357971 0.077172864002314573 0 -0.033570335999716927 0.076707144692077345 0 -0.033599527307284459 0.076251388271047535 0 -0.03524477506073339 0.079345464411024441 0 -0.037946331536393881 0.079427644374417142 0 -0.03287752549357971 0.077172864002314573 0 -0.033274776971576492 0.077609284650077645 0 -0.033386543486631504 0.077220674241635812 0 -0.03287752549357971 0.077172864002314573 0 -0.033386543486631504 0.077220674241635812 0 -0.033570335999716927 0.076707144692077345 0 -0.033539391009328887 0.077577230785014731 0 -0.033386543486631504 0.077220674241635812 0 -0.033669436380822017 0.077039687500489507 0 -0.033676702918113796 0.077043085372802689 0 -0.033570335999716927 0.076707144692077345 0 -0.033599527307284459 0.076251388271047535 0 -0.033386543486631504 0.077220674241635812 0 -0.033669436380822017 0.077039687500489507 0 -0.033570335999716927 0.076707144692077345 0 -0.037907748880643119 0.077378330089896016 0 -0.037946331536393881 0.079427644374417142 0 -0.037907748880643119 0.077378330089896016 0 -0.03780243444974573 0.077278544488456266 0 -0.033105618175717416 0.078870208375290171 0 -0.032822659726778704 0.079200927381636851 0 -0.033746290327623704 0.078866703592748319 0 -0.037889149703119539 0.079639553123633869 0 -0.037885500186546968 0.079600290292754949 0 -0.037881952431375876 0.079604979805970602 0 -0.040485540382401715 0.078149468192292307 0 -0.040600399567734632 0.079423035220305624 0 -0.040452982172059636 0.079615805777941737 0 -0.037946331536393881 0.079427644374417142 0 -0.038437062645488136 0.07977996549219285 0 -0.033105618175717416 0.078870208375290171 0 -0.033746290327623704 0.078866703592748319 0 -0.033518252410354762 0.078619057072913751 0 -0.042549706633098393 0.084533810398481624 0 -0.041023423869743066 0.083624644515578064 0 -0.042714181853701266 0.08314744748614579 0 -0.042549706633098393 0.084533810398481624 0 -0.042714181853701266 0.08314744748614579 0 -0.043904908863546838 0.084204652143203954 0 -0.04388397475794599 0.082839250887230889 0 -0.042714181853701266 0.08314744748614579 0 -0.043904908863546838 0.084204652143203954 0 -0.04388397475794599 0.082839250887230889 0 -0.043904908863546838 0.084204652143203954 0 -0.045244297773409319 0.083602271858230298 0 -0.046083692342463185 0.084777305560247748 0 -0.045244297773409319 0.083602271858230298 0 -0.044898933135459833 0.085012682779898638 0 -0.043904908863546838 0.084204652143203954 0 -0.045244297773409319 0.083602271858230298 0 -0.044898933135459833 0.085012682779898638 0 -0.046083692342463185 0.084777305560247748 0 -0.044898933135459833 0.085012682779898638 0 -0.045827821536555992 0.085788273116079145 0 -0.044806885656225273 0.086139554756469242 0 -0.044898933135459833 0.085012682779898638 0 -0.045827821536555992 0.085788273116079145 0 -0.044806885656225273 0.086139554756469242 0 -0.044898933135459833 0.085012682779898638 0 -0.043539568289834255 0.085541511278619406 0 -0.042549706633098393 0.084533810398481624 0 -0.043904908863546838 0.084204652143203954 0 -0.043539568289834255 0.085541511278619406 0 -0.043904908863546838 0.084204652143203954 0 -0.044898933135459833 0.085012682779898638 0 -0.043539568289834255 0.085541511278619406 0 -0.074988465588406814 0.07499600629383768 0 -0.073190067353591792 0.07223208596099065 0 -0.075216590720914966 0.066007821733647137 0 -0.074988465588406814 0.07499600629383768 0 -0.074998836692063364 0.062634122952584165 0 -0.075216590720914966 0.066007821733647137 0 -0.073190067353591792 0.07223208596099065 0 -0.074618199765504351 0.068748538922348015 0 -0.075216590720914966 0.066007821733647137 0 -0.075040864174903826 0.066069848729300468 0 -0.074903736547835872 0.064374364937374931 0 -0.074988465588406814 0.07499600629383768 0 -0.073190067353591792 0.07223208596099065 0 -0.066991057030200113 0.07499455833125597 0 -0.073190067353591792 0.07223208596099065 0 -0.07148637820436185 0.072300122871041331 0 -0.073404760121699025 0.069622073789264063 0 -0.073190067353591792 0.07223208596099065 0 -0.066991057030200113 0.07499455833125597 0 -0.07148637820436185 0.072300122871041331 0 -0.066965750029806634 0.074998245311479389 0 -0.068320768540877722 0.073789785343179162 0 -0.066991057030200113 0.07499455833125597 0 -0.07148637820436185 0.072300122871041331 0 -0.07538947139537297 0.072093213693509392 0 -0.07148637820436185 0.072300122871041331 0 -0.073404760121699025 0.069622073789264063 0 -0.07538947139537297 0.072093213693509392 0 -0.073404760121699025 0.069622073789264063 0 -0.074901155729749605 0.065701683702483665 0 -0.076202999057596477 0.068087305323980149 0 -0.075188026487856316 0.066927006629383126 0 -0.075040864174903826 0.066069848729300468 0 -0.073190067353591792 0.07223208596099065 0 -0.073404760121699025 0.069622073789264063 0 -0.074618199765504351 0.068748538922348015 0 -0.073700398732288078 0.065513924486115191 0 -0.074901155729749605 0.065701683702483665 0 -0.074713478990825741 0.063853303573585748 0 -0.073404760121699025 0.069622073789264063 0 -0.073700398732288078 0.065513924486115191 0 -0.074901155729749605 0.065701683702483665 0 -0.074901155729749605 0.065701683702483665 0 -0.078303261800322835 0.065323827533854753 0 -0.076202999057596477 0.068087305323980149 0 -0.074901155729749605 0.065701683702483665 0 -0.078303261800322835 0.065323827533854753 0 -0.075585521525571422 0.063667302416201998 0 -0.078303261800322835 0.065323827533854753 0 -0.079269236030922785 0.067829432476973844 0 -0.076202999057596477 0.068087305323980149 0 -0.067755087915687573 0.073412304466892189 0 -0.063886203151327245 0.074505407491636644 0 -0.078303261800322835 0.065323827533854753 0 -0.079269236030922785 0.067829432476973844 0 -0.081238521335527739 0.064001960626422327 0 -0.06235688480421505 0.081080223548507052 0 -0.061736219496868264 0.080070445553439187 0 -0.064614079361892576 0.078147480474577674 0 -0.06235688480421505 0.081080223548507052 0 -0.061736219496868264 0.080070445553439187 0 -0.060348402525600413 0.081496467245503176 0 -0.073404760121699025 0.069622073789264063 0 -0.076202999057596477 0.068087305323980149 0 -0.07538947139537297 0.072093213693509392 0 -0.079269236030922785 0.067829432476973844 0 -0.076202999057596477 0.068087305323980149 0 -0.07538947139537297 0.072093213693509392 0 -0.067755087915687573 0.073412304466892189 0 -0.068320768540877722 0.073789785343179162 0 -0.066963032647812309 0.074999989527586686 0 -0.064614079361892576 0.078147480474577674 0 -0.063272425600978191 0.074999960906141763 0 -0.063272425600978191 0.074999960906141763 0 -0.061822151751693408 0.077339465707764274 0 -0.059582091808958168 0.074999983951292662 0 -0.064614079361892576 0.078147480474577674 0 -0.063272425600978191 0.074999960906141763 0 -0.061822151751693408 0.077339465707764274 0 -0.061736219496868264 0.080070445553439187 0 -0.064614079361892576 0.078147480474577674 0 -0.061822151751693408 0.077339465707764274 0 -0.061736219496868264 0.080070445553439187 0 -0.061822151751693408 0.077339465707764274 0 -0.059882272574625833 0.078375000800987429 0 -0.059293897393264093 0.07836907290654041 0 -0.057811323143177738 0.077894417200396054 0 -0.0582705796276584 0.079187840000473228 0 -0.059293897393264093 0.07836907290654041 0 -0.059581440027485395 0.075000187927908163 0 -0.058079874252776185 0.076798338164332278 0 -0.061822151751693408 0.077339465707764274 0 -0.059882272574625833 0.078375000800987429 0 -0.059582091808958168 0.074999983951292662 0 -0.060278286980633249 0.077488778216514523 0 -0.059583103205150797 0.075002747686500684 0 -0.055557119360786493 0.074999896326472165 0 -0.059581440027485395 0.075000187927908163 0 -0.058079874252776185 0.076798338164332278 0 -0.055557119360786493 0.074999896326472165 0 -0.056144194753171318 0.077214138542147509 0 -0.058079874252776185 0.076798338164332278 0 -0.056144194753171318 0.077214138542147509 0 -0.057811323143177738 0.077894417200396054 0 -0.057431299988679768 0.078698784447141151 0 -0.056144194753171318 0.077214138542147509 0 -0.058079874252776185 0.076798338164332278 0 -0.057811323143177738 0.077894417200396054 0 -0.059293897393264093 0.07836907290654041 0 -0.058079874252776185 0.076798338164332278 0 -0.057811323143177738 0.077894417200396054 0 -0.057811323143177738 0.077894417200396054 0 -0.057431299988679768 0.078698784447141151 0 -0.0582705796276584 0.079187840000473228 0 -0.057736123636984375 0.079192628112152039 0 -0.057431299988679768 0.078698784447141151 0 -0.0582705796276584 0.079187840000473228 0 -0.056082713356344016 0.079635401466313718 0 -0.057736123636984375 0.079192628112152039 0 -0.057431299988679768 0.078698784447141151 0 -0.055988360842228337 0.081328450545583519 0 -0.056082713356344016 0.079635401466313718 0 -0.057736123636984375 0.079192628112152039 0 -0.055694039751717703 0.080150088723342963 0 -0.056136038796095966 0.079798111690907961 0 -0.057614464742619595 0.079885345824140308 0 -0.058063986892118315 0.079900453395654353 0 -0.057883125853674382 0.080153982260647072 0 -0.057614464742619595 0.079885345824140308 0 -0.057736123636984375 0.079192628112152039 0 -0.058063986892118315 0.079900453395654353 0 -0.057736123636984375 0.079192628112152039 0 -0.058063986892118315 0.079900453395654353 0 -0.0582705796276584 0.079187840000473228 0 -0.061736219496868264 0.080070445553439187 0 -0.059882272574625833 0.078375000800987429 0 -0.060089784961013977 0.081681300898036283 0 -0.060278286980633249 0.077488778216514523 0 -0.061257389108024668 0.078608796370040368 0 -0.059293897393264093 0.07836907290654041 0 -0.0582705796276584 0.079187840000473228 0 -0.058822183191710765 0.080118540507140415 0 -0.061030623328312432 0.079020710269351729 0 -0.061257389108024668 0.078608796370040368 0 -0.058063986892118315 0.079900453395654353 0 -0.0582705796276584 0.079187840000473228 0 -0.058822183191710765 0.080118540507140415 0 -0.06235688480421505 0.081080223548507052 0 -0.060348402525600413 0.081496467245503176 0 -0.06046066326252942 0.083640688587164766 0 -0.061257389108024668 0.078608796370040368 0 -0.063886203151327245 0.074505407491636644 0 -0.05982344912157609 0.078003616696872932 0 -0.059531899785772294 0.078282490339727118 0 -0.059832868159729782 0.078354783061054173 0 -0.061257389108024668 0.078608796370040368 0 -0.059846894627869733 0.079259535142863144 0 -0.058063986892118315 0.079900453395654353 0 -0.057902629284264866 0.080417111117224285 0 -0.057883125853674382 0.080153982260647072 0 -0.058063986892118315 0.079900453395654353 0 -0.058822183191710765 0.080118540507140415 0 -0.057902629284264866 0.080417111117224285 0 -0.057902629284264866 0.080417111117224285 0 -0.057948413320960207 0.080315167368439452 0 -0.057883125853674382 0.080153982260647072 0 -0.059529039494225278 0.078498778004326267 0 -0.059832868159729782 0.078354783061054173 0 -0.059495062672733454 0.07877632745094873 0 -0.059259747626343812 0.078575154519767071 0 -0.059531899785772294 0.078282490339727118 0 -0.059529039494225278 0.078498778004326267 0 -0.058169349505770671 0.079721748262325337 0 -0.057902629284264866 0.080417111117224285 0 -0.057948413320960207 0.080315167368439452 0 -0.059363260023301438 0.079350079387119798 0 -0.059846894627869733 0.079259535142863144 0 -0.059531899785772294 0.078282490339727118 0 -0.059529039494225278 0.078498778004326267 0 -0.059832868159729782 0.078354783061054173 0 -0.063886203151327245 0.074505407491636644 0 -0.061261946871197202 0.077682584004597113 0 -0.063886203151327245 0.074505407491636644 0 -0.065945486991553434 0.070893337011609867 0 -0.059828962418387061 0.07829486276652467 0 -0.059823410467703862 0.078844037845462733 0 -0.059495062672733454 0.07877632745094873 0 -0.059259747626343812 0.078575154519767071 0 -0.059529039494225278 0.078498778004326267 0 -0.059495062672733454 0.07877632745094873 0 -0.059259747626343812 0.078575154519767071 0 -0.059257739798713835 0.078895517133423396 0 -0.059495062672733454 0.07877632745094873 0 -0.059257739798713835 0.078895517133423396 0 -0.059288219182525921 0.079006540580869949 0 -0.059507151430433669 0.078978091522058799 0 -0.059823410467703862 0.078844037845462733 0 -0.059495062672733454 0.07877632745094873 0 -0.059507151430433669 0.078978091522058799 0 -0.059257739798713835 0.078895517133423396 0 -0.059495062672733454 0.07877632745094873 0 -0.059507151430433669 0.078978091522058799 0 -0.059288219182525921 0.079006540580869949 0 -0.059507151430433669 0.078978091522058799 0 -0.059474661242573917 0.079180559409889509 0 -0.059507151430433669 0.078978091522058799 0 -0.059474661242573917 0.079180559409889509 0 -0.059840754562738727 0.079303278817930326 0 -0.065423866023017113 0.07127760563279191 0 -0.065084057463967254 0.070615588986709318 0 -0.076310744967704403 0.056406159854314832 0 -0.078283071975839863 0.057633094202088619 0 -0.077558043113026984 0.058278247670473245 0 -0.065084057463967254 0.070615588986709318 0 -0.065384988613126985 0.070580480528287012 0 -0.078334919740791681 0.057806467414048907 0 -0.07833051207842269 0.05798496963591377 0 -0.078803279591163192 0.058261770012595922 0 -0.065084057463967254 0.070615588986709318 0 -0.065123665040455234 0.070448864323445354 0 -0.059823410467703862 0.078844037845462733 0 -0.059507151430433669 0.078978091522058799 0 -0.059840754562738727 0.079303278817930326 0 -0.065945486991553434 0.070893337011609867 0 -0.065084057463967254 0.070615588986709318 0 -0.080302357415620251 0.06062626125632848 0 -0.078583492568696234 0.059015835046910298 0 -0.078169591135061223 0.060543689723709486 0 -0.080302357415620251 0.06062626125632848 0 -0.079260358285349081 0.058446601926377885 0 -0.078583492568696234 0.059015835046910298 0 -0.078583492568696234 0.059015835046910298 0 -0.078276500881747396 0.058504595271241973 0 -0.078512678180912579 0.058485556195213513 0 -0.078583492568696234 0.059015835046910298 0 -0.078803279591163192 0.058261770012595922 0 -0.078512678180912579 0.058485556195213513 0 -0.079260358285349081 0.058446601926377885 0 -0.078583492568696234 0.059015835046910298 0 -0.078803279591163192 0.058261770012595922 0 -0.078583492568696234 0.059015835046910298 0 -0.07772298460617591 0.059307036234415501 0 -0.078276500881747396 0.058504595271241973 0 -0.078583492568696234 0.059015835046910298 0 -0.078169591135061223 0.060543689723709486 0 -0.07772298460617591 0.059307036234415501 0 -0.078169591135061223 0.060543689723709486 0 -0.078871181143826977 0.062404680966987543 0 -0.076874979667335391 0.062303755039434611 0 -0.081238521335527739 0.064001960626422327 0 -0.080302357415620251 0.06062626125632848 0 -0.078871181143826977 0.062404680966987543 0 -0.080302357415620251 0.06062626125632848 0 -0.078169591135061223 0.060543689723709486 0 -0.078871181143826977 0.062404680966987543 0 -0.078303261800322835 0.065323827533854753 0 -0.081238521335527739 0.064001960626422327 0 -0.078871181143826977 0.062404680966987543 0 -0.077789903032645893 0.063890873696131584 0 -0.076865351287549122 0.062907158312618686 0 -0.078303261800322835 0.065323827533854753 0 -0.078871181143826977 0.062404680966987543 0 -0.076874979667335391 0.062303755039434611 0 -0.074901155729749605 0.065701683702483665 0 -0.075585521525571422 0.063667302416201998 0 -0.074713478990825741 0.063853303573585748 0 -0.075585521525571422 0.063667302416201998 0 -0.074713478990825741 0.063853303573585748 0 -0.075529260733487716 0.062296354985499722 0 -0.076865351287549122 0.062907158312618686 0 -0.075832346303963502 0.061533578863551673 0 -0.076874979667335391 0.062303755039434611 0 -0.076383972027775679 0.060536710381573572 0 -0.077142368001147432 0.060321323884669466 0 -0.078169591135061223 0.060543689723709486 0 -0.076874979667335391 0.062303755039434611 0 -0.077142368001147432 0.060321323884669466 0 -0.078169591135061223 0.060543689723709486 0 -0.077142368001147432 0.060321323884669466 0 -0.07772298460617591 0.059307036234415501 0 -0.077142368001147432 0.060321323884669466 0 -0.07772298460617591 0.059307036234415501 0 -0.076848181224475787 0.059287422358876206 0 -0.07772298460617591 0.059307036234415501 0 -0.077444263303585031 0.058571731812461315 0 -0.078276500881747396 0.058504595271241973 0 -0.07772298460617591 0.059307036234415501 0 -0.076848181224475787 0.059287422358876206 0 -0.077444263303585031 0.058571731812461315 0 -0.076848181224475787 0.059287422358876206 0 -0.07646453107916025 0.057693735215411476 0 -0.077444263303585031 0.058571731812461315 0 -0.076383972027775679 0.060536710381573572 0 -0.077142368001147432 0.060321323884669466 0 -0.076848181224475787 0.059287422358876206 0 -0.075832346303963502 0.061533578863551673 0 -0.075341578292339284 0.060784720338179006 0 -0.076383972027775679 0.060536710381573572 0 -0.076848181224475787 0.059287422358876206 0 -0.075849880753517521 0.059429118030086631 0 -0.076848181224475787 0.059287422358876206 0 -0.075849880753517521 0.059429118030086631 0 -0.07646453107916025 0.057693735215411476 0 -0.074999241091224189 0.056411023016602217 0 -0.075849880753517521 0.059429118030086631 0 -0.07646453107916025 0.057693735215411476 0 -0.074999241091224189 0.056411023016602217 0 -0.074999297998436118 0.059515153326564076 0 -0.075849880753517521 0.059429118030086631 0 -0.074999297998436118 0.059515153326564076 0 -0.075849880753517521 0.059429118030086631 0 -0.07499784570123065 0.062621811715066492 0 -0.075529260733487716 0.062296354985499722 0 -0.07499784570123065 0.062621811715066492 0 -0.074498913417795951 0.063562718662607653 0 -0.075529260733487716 0.062296354985499722 0 -0.075849880753517521 0.059429118030086631 0 -0.07499784570123065 0.062621811715066492 0 -0.074713478990825741 0.063853303573585748 0 -0.075529260733487716 0.062296354985499722 0 -0.074498913417795951 0.063562718662607653 0 -0.073700398732288078 0.065513924486115191 0 -0.074713478990825741 0.063853303573585748 0 -0.074498913417795951 0.063562718662607653 0 -0.074998670462684491 0.062626776400613329 0 -0.074903736547835872 0.064374364937374931 0 -0.074999942061981711 0.048323045096469917 0 -0.078722845957676896 0.050428208200200227 0 -0.077726515929417372 0.046431525927146979 0 -0.078722845957676896 0.050428208200200227 0 -0.080550838256403801 0.047632036172241494 0 -0.077726515929417372 0.046431525927146979 0 -0.074999942061981711 0.048323045096469917 0 -0.078722845957676896 0.050428208200200227 0 -0.074999924135850035 0.052364314073395396 0 -0.074999966357058079 0.056405740466807033 0 -0.074999924135850035 0.052364314073395396 0 -0.078712457647095557 0.054638070369181897 0 -0.075001771527499678 0.056406143822336177 0 -0.077182949562639866 0.056000101206127105 0 -0.078722845957676896 0.050428208200200227 0 -0.074999924135850035 0.052364314073395396 0 -0.078712457647095557 0.054638070369181897 0 -0.078722845957676896 0.050428208200200227 0 -0.078712457647095557 0.054638070369181897 0 -0.082325565826337696 0.052835039235754784 0 -0.077182949562639866 0.056000101206127105 0 -0.07947580999910156 0.055389453250106947 0 -0.07646453107916025 0.057693735215411476 0 -0.077444263303585031 0.058571731812461315 0 -0.077672216447651932 0.058092481431734837 0 -0.077444263303585031 0.058571731812461315 0 -0.077672216447651932 0.058092481431734837 0 -0.078276500881747396 0.058504595271241973 0 -0.082325565826337696 0.052835039235754784 0 -0.082250916928647624 0.049875092859600623 0 -0.085784675070843794 0.050946006738392655 0 -0.078722845957676896 0.050428208200200227 0 -0.082325565826337696 0.052835039235754784 0 -0.082250916928647624 0.049875092859600623 0 -0.078722845957676896 0.050428208200200227 0 -0.082250916928647624 0.049875092859600623 0 -0.080550838256403801 0.047632036172241494 0 -0.082250916928647624 0.049875092859600623 0 -0.080550838256403801 0.047632036172241494 0 -0.084235951417056865 0.047802845598539694 0 -0.080550838256403801 0.047632036172241494 0 -0.084235951417056865 0.047802845598539694 0 -0.082567016367458515 0.045582241353485535 0 -0.084235951417056865 0.047802845598539694 0 -0.087450029401211202 0.047400146669972186 0 -0.086302891212220123 0.044877166718229736 0 -0.087450029401211202 0.047400146669972186 0 -0.085784675070843794 0.050946006738392655 0 -0.088780914590107604 0.048966447537769048 0 -0.081259050528344187 0.054786935114806735 0 -0.082058183753402417 0.054270755837566964 0 -0.082250916928647624 0.049875092859600623 0 -0.084235951417056865 0.047802845598539694 0 -0.085784675070843794 0.050946006738392655 0 -0.084235951417056865 0.047802845598539694 0 -0.087450029401211202 0.047400146669972186 0 -0.085784675070843794 0.050946006738392655 0 -0.077672216447651932 0.058092481431734837 0 -0.078567770120922947 0.058804300759553244 0 -0.078276500881747396 0.058504595271241973 0 -0.07947580999910156 0.055389453250106947 0 -0.081259050528344187 0.054786935114806735 0 -0.078276500881747396 0.058504595271241973 0 -0.078512678180912579 0.058485556195213513 0 -0.078424349944886895 0.058617473445564956 0 -0.078493141889591722 0.058354813105747083 0 -0.078512678180912579 0.058485556195213513 0 -0.078424349944886895 0.058617473445564956 0 -0.078803279591163192 0.058261770012595922 0 -0.078493141889591722 0.058354813105747083 0 -0.078512678180912579 0.058485556195213513 0 -0.07833051207842269 0.05798496963591377 0 -0.078803279591163192 0.058261770012595922 0 -0.078493141889591722 0.058354813105747083 0 -0.078493141889591722 0.058354813105747083 0 -0.078424349944886895 0.058617473445564956 0 -0.078207203973321801 0.058330508804056484 0 -0.078567770120922947 0.058804300759553244 0 -0.078424349944886895 0.058617473445564956 0 -0.07779424901763117 0.05921413000699445 0 -0.078567770120922947 0.058804300759553244 0 -0.078276500881747396 0.058504595271241973 0 -0.078424349944886895 0.058617473445564956 0 -0.078567770120922947 0.058804300759553244 0 -0.07779424901763117 0.05921413000699445 0 -0.077627498703905479 0.060446784979843578 0 -0.07779424901763117 0.05921413000699445 0 -0.076829936384671782 0.059232849579369549 0 -0.077627498703905479 0.060446784979843578 0 -0.07779424901763117 0.05921413000699445 0 -0.077558043113026984 0.058278247670473245 0 -0.076829936384671782 0.059232849579369549 0 -0.078424349944886895 0.058617473445564956 0 -0.077558043113026984 0.058278247670473245 0 -0.078207203973321801 0.058330508804056484 0 -0.078424349944886895 0.058617473445564956 0 -0.07779424901763117 0.05921413000699445 0 -0.077558043113026984 0.058278247670473245 0 -0.07833051207842269 0.05798496963591377 0 -0.077558043113026984 0.058278247670473245 0 -0.078207203973321801 0.058330508804056484 0 -0.078283071975839863 0.057633094202088619 0 -0.07833051207842269 0.05798496963591377 0 -0.077558043113026984 0.058278247670473245 0 -0.07833051207842269 0.05798496963591377 0 -0.078493141889591722 0.058354813105747083 0 -0.078207203973321801 0.058330508804056484 0 -0.076310744967704403 0.056406159854314832 0 -0.077558043113026984 0.058278247670473245 0 -0.075392248924526117 0.057957223631509069 0 -0.077558043113026984 0.058278247670473245 0 -0.076829936384671782 0.059232849579369549 0 -0.075392248924526117 0.057957223631509069 0 -0.076829936384671782 0.059232849579369549 0 -0.077627498703905479 0.060446784979843578 0 -0.075382815506407838 0.060063771965838217 0 -0.076829936384671782 0.059232849579369549 0 -0.075392248924526117 0.057957223631509069 0 -0.075382815506407838 0.060063771965838217 0 -0.082058183753402417 0.054270755837566964 0 -0.081552558192989941 0.053725963513527923 0 -0.077627498703905479 0.060446784979843578 0 -0.075382815506407838 0.060063771965838217 0 -0.075292940367972294 0.061928599731658353 0 -0.087450029401211202 0.047400146669972186 0 -0.088780914590107604 0.048966447537769048 0 -0.089765032249531612 0.046026641167563831 0 -0.088780914590107604 0.048966447537769048 0 -0.089765032249531612 0.046026641167563831 0 -0.090409186092735766 0.047185514957123927 0 -0.089765032249531612 0.046026641167563831 0 -0.090409186092735766 0.047185514957123927 0 -0.090133852139533399 0.046354820026987285 0 -0.089765032249531612 0.046026641167563831 0 -0.090062757792907427 0.046343053994315916 0 -0.090133852139533399 0.046354820026987285 0 -0.087450029401211202 0.047400146669972186 0 -0.089765032249531612 0.046026641167563831 0 -0.086302891212220123 0.044877166718229736 0 -0.089765032249531612 0.046026641167563831 0 -0.08903693511659927 0.043579729770430932 0 -0.086302891212220123 0.044877166718229736 0 -0.08903693511659927 0.043579729770430932 0 -0.0889454446768419 0.041494724519918154 0 -0.087313964565260596 0.042649953322817721 0 -0.08903693511659927 0.043579729770430932 0 -0.091989850202574844 0.043354586177147048 0 -0.090429352835636231 0.0420932298572715 0 -0.089765032249531612 0.046026641167563831 0 -0.08903693511659927 0.043579729770430932 0 -0.091989850202574844 0.043354586177147048 0 -0.088036327990065152 0.041971553411518737 0 -0.088443768432614783 0.040089687355376637 0 -0.091989850202574844 0.043354586177147048 0 -0.091759402470724699 0.041396555574941138 0 -0.090429352835636231 0.0420932298572715 0 -0.091759402470724699 0.041396555574941138 0 -0.090429352835636231 0.0420932298572715 0 -0.090435815074094053 0.040695396889280276 0 -0.091759402470724699 0.041396555574941138 0 -0.090435815074094053 0.040695396889280276 0 -0.091683371636324049 0.039917119462455977 0 -0.090435815074094053 0.040695396889280276 0 -0.091683371636324049 0.039917119462455977 0 -0.09026581009625903 0.038865606484050977 0 -0.091683371636324049 0.039917119462455977 0 -0.09026581009625903 0.038865606484050977 0 -0.092097916211715591 0.0378601562160268 0 -0.08873268949784055 0.038036401070023804 0 -0.088812512523444548 0.039874124562822397 0 -0.086765064109300558 0.038740359634967733 0 -0.09026581009625903 0.038865606484050977 0 -0.08873268949784055 0.038036401070023804 0 -0.089779946774145414 0.036893319376182024 0 -0.09026581009625903 0.038865606484050977 0 -0.08873268949784055 0.038036401070023804 0 -0.088812512523444548 0.039874124562822397 0 -0.090435815074094053 0.040695396889280276 0 -0.09026581009625903 0.038865606484050977 0 -0.088812512523444548 0.039874124562822397 0 -0.088812512523444548 0.039874124562822397 0 -0.0889454446768419 0.041494724519918154 0 -0.087339869718639274 0.040867492980594979 0 -0.090435815074094053 0.040695396889280276 0 -0.088812512523444548 0.039874124562822397 0 -0.0889454446768419 0.041494724519918154 0 -0.08903693511659927 0.043579729770430932 0 -0.090429352835636231 0.0420932298572715 0 -0.0889454446768419 0.041494724519918154 0 -0.090429352835636231 0.0420932298572715 0 -0.090435815074094053 0.040695396889280276 0 -0.0889454446768419 0.041494724519918154 0 -0.0889454446768419 0.041494724519918154 0 -0.087339869718639274 0.040867492980594979 0 -0.087313964565260596 0.042649953322817721 0 -0.087339869718639274 0.040867492980594979 0 -0.086765064109300558 0.038740359634967733 0 -0.085302421090123301 0.041325215288577438 0 -0.087339869718639274 0.040867492980594979 0 -0.085302421090123301 0.041325215288577438 0 -0.087313964565260596 0.042649953322817721 0 -0.088812512523444548 0.039874124562822397 0 -0.087339869718639274 0.040867492980594979 0 -0.086765064109300558 0.038740359634967733 0 -0.08873268949784055 0.038036401070023804 0 -0.086765064109300558 0.038740359634967733 0 -0.087334590266232331 0.037340340035238749 0 -0.086765064109300558 0.038740359634967733 0 -0.0843136641715337 0.038548910196671185 0 -0.08577205119811715 0.037195098080396456 0 -0.086765064109300558 0.038740359634967733 0 -0.0843136641715337 0.038548910196671185 0 -0.085302421090123301 0.041325215288577438 0 -0.0843136641715337 0.038548910196671185 0 -0.085302421090123301 0.041325215288577438 0 -0.082313350207638608 0.040273958935217423 0 -0.085302421090123301 0.041325215288577438 0 -0.086302891212220123 0.044877166718229736 0 -0.083059142980047157 0.042861111139075175 0 -0.086302891212220123 0.044877166718229736 0 -0.082567016367458515 0.045582241353485535 0 -0.083059142980047157 0.042861111139075175 0 -0.08903693511659927 0.043579729770430932 0 -0.087313964565260596 0.042649953322817721 0 -0.086302891212220123 0.044877166718229736 0 -0.085302421090123301 0.041325215288577438 0 -0.087313964565260596 0.042649953322817721 0 -0.086302891212220123 0.044877166718229736 0 -0.084235951417056865 0.047802845598539694 0 -0.086302891212220123 0.044877166718229736 0 -0.082567016367458515 0.045582241353485535 0 -0.080550838256403801 0.047632036172241494 0 -0.082567016367458515 0.045582241353485535 0 -0.079870520301009759 0.043312608993427648 0 -0.082567016367458515 0.045582241353485535 0 -0.079870520301009759 0.043312608993427648 0 -0.083059142980047157 0.042861111139075175 0 -0.085302421090123301 0.041325215288577438 0 -0.083059142980047157 0.042861111139075175 0 -0.082313350207638608 0.040273958935217423 0 -0.079870520301009759 0.043312608993427648 0 -0.083059142980047157 0.042861111139075175 0 -0.082313350207638608 0.040273958935217423 0 -0.0843136641715337 0.038548910196671185 0 -0.082313350207638608 0.040273958935217423 0 -0.081923564996679965 0.03700417259049589 0 -0.082313350207638608 0.040273958935217423 0 -0.079696191514274387 0.038954808868856709 0 -0.081923564996679965 0.03700417259049589 0 -0.079870520301009759 0.043312608993427648 0 -0.082313350207638608 0.040273958935217423 0 -0.079696191514274387 0.038954808868856709 0 -0.079870520301009759 0.043312608993427648 0 -0.079696191514274387 0.038954808868856709 0 -0.0777600862081161 0.040877549453760188 0 -0.079696191514274387 0.038954808868856709 0 -0.0777600862081161 0.040877549453760188 0 -0.077223537252973443 0.037980297031018607 0 -0.079696191514274387 0.038954808868856709 0 -0.077223537252973443 0.037980297031018607 0 -0.078704165484423286 0.036092778967691516 0 -0.077223537252973443 0.037980297031018607 0 -0.074999916042154127 0.040240523375545706 0 -0.074999945497696049 0.036199261495303059 0 -0.0777600862081161 0.040877549453760188 0 -0.077223537252973443 0.037980297031018607 0 -0.074999916042154127 0.040240523375545706 0 -0.0777600862081161 0.040877549453760188 0 -0.074999916042154127 0.040240523375545706 0 -0.074999964529603821 0.044281771544033011 0 -0.079870520301009759 0.043312608993427648 0 -0.0777600862081161 0.040877549453760188 0 -0.074999964529603821 0.044281771544033011 0 -0.079870520301009759 0.043312608993427648 0 -0.074999964529603821 0.044281771544033011 0 -0.077726515929417372 0.046431525927146979 0 -0.080550838256403801 0.047632036172241494 0 -0.079870520301009759 0.043312608993427648 0 -0.077726515929417372 0.046431525927146979 0 -0.074999942061981711 0.048323045096469917 0 -0.074999964529603821 0.044281771544033011 0 -0.077726515929417372 0.046431525927146979 0 -0.063086506574369816 0.059168166568514979 0 -0.066268731496251579 0.059096539858641745 0 -0.062281403989891147 0.054559710565694391 0 -0.063086506574369816 0.059168166568514979 0 -0.062562072363686508 0.06037764040636083 0 -0.06138912778967303 0.055522623671733246 0 -0.045428226237880932 0.058576951642983363 0 -0.044008280275333975 0.066028906312647448 0 -0.045428226237880932 0.058576951642983363 0 -0.048191141360808876 0.057944313924799054 0 -0.063086506574369816 0.059168166568514979 0 -0.062562072363686508 0.06037764040636083 0 -0.064748454593714685 0.059588298239179369 0 -0.062817484711773314 0.060287387014143275 0 -0.064748454593714685 0.059588298239179369 0 -0.064821043718915422 0.061444615032763113 0 -0.068255189216576445 0.061224645498358432 0 -0.06807579004629831 0.059893324185421086 0 -0.069445911693951867 0.060174925637202004 0 -0.066268731496251579 0.059096539858641745 0 -0.064748454593714685 0.059588298239179369 0 -0.066387469784307984 0.061203175692523218 0 -0.063086506574369816 0.059168166568514979 0 -0.066268731496251579 0.059096539858641745 0 -0.064748454593714685 0.059588298239179369 0 -0.064821043718915422 0.061444615032763113 0 -0.066387469784307984 0.061203175692523218 0 -0.06660096364926596 0.062599953350491372 0 -0.066387469784307984 0.061203175692523218 0 -0.06660096364926596 0.062599953350491372 0 -0.069914984401097668 0.063529192700729098 0 -0.066268731496251579 0.059096539858641745 0 -0.066387469784307984 0.061203175692523218 0 -0.069914984401097668 0.063529192700729098 0 -0.064748454593714685 0.059588298239179369 0 -0.064821043718915422 0.061444615032763113 0 -0.066387469784307984 0.061203175692523218 0 -0.06660096364926596 0.062599953350491372 0 -0.063592973963463362 0.063559461612084769 0 -0.066455598839486416 0.064284559469643746 0 -0.064821043718915422 0.061444615032763113 0 -0.06660096364926596 0.062599953350491372 0 -0.063592973963463362 0.063559461612084769 0 -0.028510917901007422 0.048815278697101824 0 -0.028225049372137469 0.049276169258937547 0 -0.02863874203431557 0.049419528042435878 0 -0.062817484711773314 0.060287387014143275 0 -0.064821043718915422 0.061444615032763113 0 -0.063592973963463362 0.063559461612084769 0 -0.045428226237880932 0.058576951642983363 0 -0.051327675572423528 0.054987955749096623 0 -0.045428226237880932 0.058576951642983363 0 -0.034986915775784999 0.061625333159211544 0 -0.028510917901007422 0.048815278697101824 0 -0.028225049372137469 0.049276169258937547 0 -0.027800395698552277 0.049055361317724082 0 -0.028225049372137469 0.049276169258937547 0 -0.027800395698552277 0.049055361317724082 0 -0.027953826414103451 0.049597757086788402 0 -0.027800395698552277 0.049055361317724082 0 -0.027539202948980657 0.04951451291944254 0 -0.027953826414103451 0.049597757086788402 0 -0.034986915775784999 0.061625333159211544 0 -0.026582185689597429 0.065665527398499082 0 -0.027800395698552277 0.049055361317724082 0 -0.027119729921751101 0.049333067240431086 0 -0.027539202948980657 0.04951451291944254 0 -0.036665343440795896 0.065159787045866058 0 -0.032829025797466174 0.066510911506974468 0 -0.036139414246653893 0.062760474238897704 0 -0.026582185689597429 0.065665527398499082 0 -0.031494861853016635 0.068423803815971865 0 -0.016592560065191077 0.073043177771806939 0 -0.015073346925203755 0.072954336357228824 0 -0.016063544834469479 0.074457059537109974 0 -0.016592560065191077 0.073043177771806939 0 -0.016307091301638859 0.071378052912408077 0 -0.015073346925203755 0.072954336357228824 0 -0.040466745059961617 0.063802044625808393 0 -0.036665343440795896 0.065159787045866058 0 -0.036139414246653893 0.062760474238897704 0 -0.031494861853016635 0.068423803815971865 0 -0.044008280275333975 0.066028906312647448 0 -0.040466745059961617 0.063802044625808393 0 -0.036139414246653893 0.062760474238897704 0 -0.039414966067603148 0.059032055114246244 0 -0.015073346925203755 0.072954336357228824 0 -0.01490349319636889 0.074415149396415178 0 -0.013891516198484005 0.074439529198509324 0 -0.01490349319636889 0.074415149396415178 0 -0.014123258702562293 0.075461918245572107 0 -0.013891516198484005 0.074439529198509324 0 -0.043290590782114037 0.067882574339837784 0 -0.044008280275333975 0.066028906312647448 0 -0.015073346925203755 0.072954336357228824 0 -0.01490349319636889 0.074415149396415178 0 -0.016063544834469479 0.074457059537109974 0 -0.01490349319636889 0.074415149396415178 0 -0.016063544834469479 0.074457059537109974 0 -0.01512097340057429 0.075454581282407188 0 -0.017142157922789687 0.076321475513439443 0 -0.014959699783908738 0.076448423229472803 0 -0.016059419806276291 0.075577584668467201 0 -0.017001599584513531 0.075216696670008465 0 -0.016063544834469479 0.074457059537109974 0 -0.016059419806276291 0.075577584668467201 0 -0.016063544834469479 0.074457059537109974 0 -0.016059419806276291 0.075577584668467201 0 -0.01512097340057429 0.075454581282407188 0 -0.014959699783908738 0.076448423229472803 0 -0.016059419806276291 0.075577584668467201 0 -0.01512097340057429 0.075454581282407188 0 -0.04355658555464869 0.068602042429576807 0 -0.04315217809770807 0.068124753019051923 0 -0.042668621224514779 0.064592718373311361 0 -0.043568169791509452 0.067873424098215715 0 -0.043344953953947912 0.067606813628204698 0 -0.043878017977164438 0.069316168643758252 0 -0.043290590782114037 0.067882574339837784 0 -0.044240038819876364 0.067631109804730694 0 -0.01490349319636889 0.074415149396415178 0 -0.014123258702562293 0.075461918245572107 0 -0.01512097340057429 0.075454581282407188 0 -0.014959699783908738 0.076448423229472803 0 -0.014123258702562293 0.075461918245572107 0 -0.01512097340057429 0.075454581282407188 0 -0.043290590782114037 0.067882574339837784 0 -0.042885209219852047 0.069910022418373616 0 -0.04441566016709738 0.071622056517083102 0 -0.042185273974355134 0.068972320226793893 0 -0.042570308871614324 0.070733382786339519 0 -0.037538963736082079 0.070854601279872684 0 -0.043290590782114037 0.067882574339837784 0 -0.044240038819876364 0.067631109804730694 0 -0.042885209219852047 0.069910022418373616 0 -0.046509885503070308 0.070453661010536961 0 -0.0456394105623327 0.071145386488129597 0 -0.046825995106465242 0.071592707449912044 0 -0.066401346525950797 0.059072956454408659 0 -0.068203159935575242 0.059100790249198093 0 -0.067673548213844026 0.057616346485605402 0 -0.046055366009466185 0.072421980252695931 0 -0.0456394105623327 0.071145386488129597 0 -0.046825995106465242 0.071592707449912044 0 -0.047400820086638318 0.070819260461356448 0 -0.046509885503070308 0.070453661010536961 0 -0.046825995106465242 0.071592707449912044 0 -0.047400820086638318 0.070819260461356448 0 -0.046825995106465242 0.071592707449912044 0 -0.048471317701754758 0.071377700457036786 0 -0.046825995106465242 0.071592707449912044 0 -0.046789265463332265 0.073282515660267528 0 -0.048471317701754758 0.071377700457036786 0 -0.047884393956703249 0.065654159455394295 0 -0.053492045967562372 0.066257158036484118 0 -0.046055366009466185 0.072421980252695931 0 -0.046825995106465242 0.071592707449912044 0 -0.046789265463332265 0.073282515660267528 0 -0.044240038819876364 0.067631109804730694 0 -0.047884393956703249 0.065654159455394295 0 -0.044240038819876364 0.067631109804730694 0 -0.045672770873604288 0.065691089538197578 0 -0.047908542877988937 0.063890552800039899 0 -0.045672770873604288 0.065691089538197578 0 -0.063086506574369816 0.059168166568514979 0 -0.061697025622159764 0.055162840138434324 0 -0.06138912778967303 0.055522623671733246 0 -0.04315217809770807 0.068124753019051923 0 -0.042198477276589874 0.065135428556811925 0 -0.042668621224514779 0.064592718373311361 0 -0.05957570285341468 0.065353036547228016 0 -0.047884393956703249 0.065654159455394295 0 -0.044018053624048946 0.068793524698908773 0 -0.042716913945686698 0.064712890896204814 0 -0.041626574336368183 0.065970901799914147 0 -0.063086506574369816 0.059168166568514979 0 -0.061753121133762238 0.055172312982419397 0 -0.062281403989891147 0.054559710565694391 0 -0.045672770873604288 0.065691089538197578 0 -0.047884393956703249 0.065654159455394295 0 -0.045672770873604288 0.065691089538197578 0 -0.044008280275333975 0.066028906312647448 0 -0.068203159935575242 0.059100790249198093 0 -0.069237703702006811 0.058337187373643011 0 -0.069445911693951867 0.060174925637202004 0 -0.066401346525950797 0.059072956454408659 0 -0.06807579004629831 0.059893324185421086 0 -0.068203159935575242 0.059100790249198093 0 -0.068255189216576445 0.061224645498358432 0 -0.066401346525950797 0.059072956454408659 0 -0.06807579004629831 0.059893324185421086 0 -0.06807579004629831 0.059893324185421086 0 -0.068203159935575242 0.059100790249198093 0 -0.069445911693951867 0.060174925637202004 0 -0.068968543586426886 0.056158182520180171 0 -0.067673548213844026 0.057616346485605402 0 -0.069237703702006811 0.058337187373643011 0 -0.068203159935575242 0.059100790249198093 0 -0.067673548213844026 0.057616346485605402 0 -0.069237703702006811 0.058337187373643011 0 -0.068968543586426886 0.056158182520180171 0 -0.069237703702006811 0.058337187373643011 0 -0.070680265348968277 0.057773679214168504 0 -0.069237703702006811 0.058337187373643011 0 -0.070680265348968277 0.057773679214168504 0 -0.070441120703032545 0.059169411409297261 0 -0.070680265348968277 0.057773679214168504 0 -0.072098865428560421 0.059072517839772333 0 -0.070441120703032545 0.059169411409297261 0 -0.070680265348968277 0.057773679214168504 0 -0.072098865428560421 0.059072517839772333 0 -0.072941860651275808 0.057389766661938645 0 -0.072098865428560421 0.059072517839772333 0 -0.073149527227442238 0.060808213014073 0 -0.071108097072641804 0.060610603787454968 0 -0.072098865428560421 0.059072517839772333 0 -0.070441120703032545 0.059169411409297261 0 -0.071108097072641804 0.060610603787454968 0 -0.069445911693951867 0.060174925637202004 0 -0.070441120703032545 0.059169411409297261 0 -0.071108097072641804 0.060610603787454968 0 -0.069237703702006811 0.058337187373643011 0 -0.069445911693951867 0.060174925637202004 0 -0.070441120703032545 0.059169411409297261 0 -0.075392248924526117 0.057957223631509069 0 -0.072941860651275808 0.057389766661938645 0 -0.073872799578946019 0.058955517064299023 0 -0.072098865428560421 0.059072517839772333 0 -0.072941860651275808 0.057389766661938645 0 -0.073872799578946019 0.058955517064299023 0 -0.072098865428560421 0.059072517839772333 0 -0.073872799578946019 0.058955517064299023 0 -0.073149527227442238 0.060808213014073 0 -0.073872799578946019 0.058955517064299023 0 -0.075382815506407838 0.060063771965838217 0 -0.073149527227442238 0.060808213014073 0 -0.075392248924526117 0.057957223631509069 0 -0.073872799578946019 0.058955517064299023 0 -0.075382815506407838 0.060063771965838217 0 -0.075382815506407838 0.060063771965838217 0 -0.073149527227442238 0.060808213014073 0 -0.075292940367972294 0.061928599731658353 0 -0.089867343728625523 0.046059390641398842 0 -0.090409186092735766 0.047185514957123927 0 -0.090170155356927878 0.0464429047937783 0 -0.07938428016557704 0.052955148883836831 0 -0.081552558192989941 0.053725963513527923 0 -0.073149527227442238 0.060808213014073 0 -0.07270083429524514 0.063185703629133574 0 -0.075292940367972294 0.061928599731658353 0 -0.090409186092735766 0.047185514957123927 0 -0.090133852139533399 0.046354820026987285 0 -0.090170155356927878 0.0464429047937783 0 -0.069445911693951867 0.060174925637202004 0 -0.069992044788059163 0.061581816382749573 0 -0.071108097072641804 0.060610603787454968 0 -0.068255189216576445 0.061224645498358432 0 -0.069445911693951867 0.060174925637202004 0 -0.069992044788059163 0.061581816382749573 0 -0.073149527227442238 0.060808213014073 0 -0.071108097072641804 0.060610603787454968 0 -0.07137911843014573 0.062004129904473612 0 -0.069992044788059163 0.061581816382749573 0 -0.071108097072641804 0.060610603787454968 0 -0.07137911843014573 0.062004129904473612 0 -0.07270083429524514 0.063185703629133574 0 -0.07137911843014573 0.062004129904473612 0 -0.069914984401097668 0.063529192700729098 0 -0.073149527227442238 0.060808213014073 0 -0.07270083429524514 0.063185703629133574 0 -0.07137911843014573 0.062004129904473612 0 -0.069992044788059163 0.061581816382749573 0 -0.07137911843014573 0.062004129904473612 0 -0.069914984401097668 0.063529192700729098 0 -0.05957570285341468 0.065353036547228016 0 -0.063184336562078489 0.065848981769639339 0 -0.06660096364926596 0.062599953350491372 0 -0.069914984401097668 0.063529192700729098 0 -0.068141212971553372 0.063786770364372081 0 -0.068255189216576445 0.061224645498358432 0 -0.069992044788059163 0.061581816382749573 0 -0.069914984401097668 0.063529192700729098 0 -0.069914984401097668 0.063529192700729098 0 -0.069521171407436744 0.064727984206038258 0 -0.068141212971553372 0.063786770364372081 0 -0.069521171407436744 0.064727984206038258 0 -0.068141212971553372 0.063786770364372081 0 -0.066455598839486416 0.064284559469643746 0 -0.089867343728625523 0.046059390641398842 0 -0.087583699387314848 0.046481534832641384 0 -0.089834301340371958 0.046590932262628525 0 -0.087583699387314848 0.046481534832641384 0 -0.087613981660240661 0.047278198660992997 0 -0.089834301340371958 0.046590932262628525 0 -0.07270083429524514 0.063185703629133574 0 -0.069914984401097668 0.063529192700729098 0 -0.069521171407436744 0.064727984206038258 0 -0.082254243363699339 0.046165287831619252 0 -0.086487906531595868 0.045757786124933524 0 -0.07938428016557704 0.052955148883836831 0 -0.074067976806842753 0.051733827101608523 0 -0.088858259015041283 0.046518083702977012 0 -0.089341364335782561 0.046708288889371792 0 -0.089834301340371958 0.046590932262628525 0 -0.089341364335782561 0.046708288889371792 0 -0.089636462972960365 0.046693645856300016 0 -0.089834301340371958 0.046590932262628525 0 -0.089341364335782561 0.046708288889371792 0 -0.089636462972960365 0.046693645856300016 0 -0.08963142958830933 0.046893491991178371 0 -0.089636462972960365 0.046693645856300016 0 -0.08963142958830933 0.046893491991178371 0 -0.089821108826967547 0.046617358959697722 0 -0.089341364335782561 0.046708288889371792 0 -0.08963142958830933 0.046893491991178371 0 -0.089393833241782975 0.047137672266251429 0 -0.089341364335782561 0.046708288889371792 0 -0.088997726126973861 0.046892168208206526 0 -0.089393833241782975 0.047137672266251429 0 -0.088997726126973861 0.046892168208206526 0 -0.088689811011846628 0.046788834170345725 0 -0.088515667529796616 0.047086715929294108 0 -0.088858259015041283 0.046518083702977012 0 -0.088689811011846628 0.046788834170345725 0 -0.08897097583003688 0.046725789243749254 0 -0.089341364335782561 0.046708288889371792 0 -0.088997726126973861 0.046892168208206526 0 -0.08897097583003688 0.046725789243749254 0 -0.088858259015041283 0.046518083702977012 0 -0.089341364335782561 0.046708288889371792 0 -0.08897097583003688 0.046725789243749254 0 -0.088997726126973861 0.046892168208206526 0 -0.088689811011846628 0.046788834170345725 0 -0.08897097583003688 0.046725789243749254 0 -0.090133852139533399 0.046354820026987285 0 -0.090095526148372684 0.046453294025929064 0 -0.090170155356927878 0.0464429047937783 0 -0.090133852139533399 0.046354820026987285 0 -0.090095526148372684 0.046453294025929064 0 -0.090083648094699223 0.046405405332011394 0 -0.089996118898614447 0.046526669940753537 0 -0.090170155356927878 0.0464429047937783 0 -0.089834301340371958 0.046590932262628525 0 -0.089996118898614447 0.046526669940753537 0 -0.089821108826967547 0.046617358959697722 0 -0.090023407229667923 0.046502503760436471 0 -0.090095526148372684 0.046453294025929064 0 -0.089996118898614447 0.046526669940753537 0 -0.090170155356927878 0.0464429047937783 0 -0.090095526148372684 0.046453294025929064 0 -0.089996118898614447 0.046526669940753537 0 -0.090023407229667923 0.046502503760436471 0 -0.089867343728625523 0.046059390641398842 0 -0.090170155356927878 0.0464429047937783 0 -0.089834301340371958 0.046590932262628525 0 -0.089996118898614447 0.046526669940753537 0 -0.089834301340371958 0.046590932262628525 0 -0.089821108826967547 0.046617358959697722 0 -0.089636462972960365 0.046693645856300016 0 -0.089834301340371958 0.046590932262628525 0 -0.089821108826967547 0.046617358959697722 0 -0.089821108826967547 0.046617358959697722 0 -0.090023407229667923 0.046502503760436471 0 -0.090082716668654444 0.046457496015653854 0 -0.08963142958830933 0.046893491991178371 0 -0.089821108826967547 0.046617358959697722 0 -0.090030377069705791 0.047082408384225685 0 -0.08963142958830933 0.046893491991178371 0 -0.090030377069705791 0.047082408384225685 0 -0.089393833241782975 0.047137672266251429 0 -0.091228704845454214 0.041285826393599734 0 -0.090216773478846143 0.038387591684294509 0 -0.090023407229667923 0.046502503760436471 0 -0.090066338053905931 0.046436815052350172 0 -0.090082716668654444 0.046457496015653854 0 -0.090002210750301279 0.038823399365169646 0 -0.090216773478846143 0.038387591684294509 0 -0.090062757792907427 0.046343053994315916 0 -0.090133852139533399 0.046354820026987285 0 -0.090083648094699223 0.046405405332011394 0 -0.090062757792907427 0.046343053994315916 0 -0.090066338053905931 0.046436815052350172 0 -0.090064381569265051 0.0463867718356442 0 -0.090068950125885214 0.046453726052080688 0 -0.090066338053905931 0.046436815052350172 0 -0.090083648094699223 0.046405405332011394 0 -0.090095526148372684 0.046453294025929064 0 -0.090068950125885214 0.046453726052080688 0 -0.090083648094699223 0.046405405332011394 0 -0.090095526148372684 0.046453294025929064 0 -0.090023407229667923 0.046502503760436471 0 -0.090068950125885214 0.046453726052080688 0 -0.090023407229667923 0.046502503760436471 0 -0.090068950125885214 0.046453726052080688 0 -0.090066338053905931 0.046436815052350172 0 -0.090062757792907427 0.046343053994315916 0 -0.090066338053905931 0.046436815052350172 0 -0.090083648094699223 0.046405405332011394 0 -0.088443768432614783 0.040089687355376637 0 -0.090100216984862092 0.033208550798656998 0 -0.091989850202574844 0.043354586177147048 0 -0.091759402470724699 0.041396555574941138 0 -0.093873281339816927 0.040783901257643626 0 -0.090066338053905931 0.046436815052350172 0 -0.090064381569265051 0.0463867718356442 0 -0.09007772161866491 0.046417148038304289 0 -0.091759402470724699 0.041396555574941138 0 -0.091683371636324049 0.039917119462455977 0 -0.093873281339816927 0.040783901257643626 0 -0.090100216984862092 0.033208550798656998 0 -0.090216773478846143 0.038387591684294509 0 -0.090216773478846143 0.038387591684294509 0 -0.088675113128802219 0.032850263111734328 0 -0.088600249381111371 0.024126070451149697 0 -0.090761115408299869 0.027663515603318131 0 -0.095659009832589154 0.021010051601901211 0 -0.090030377069705791 0.047082408384225685 0 -0.089393833241782975 0.047137672266251429 0 -0.089495051614052065 0.047680220213924526 0 -0.090100216984862092 0.033208550798656998 0 -0.095048357351248933 0.021938987118558705 0 -0.088600249381111371 0.024126070451149697 0 -0.093210188057759463 0.017854908667006744 0 -0.095659009832589154 0.021010051601901211 0 -0.090432719769862072 0.021764672770784168 0 -0.094154580313564343 0.016694796257462674 0 -0.09071089238381834 0.01522363768136034 0 -0.091683371636324049 0.039917119462455977 0 -0.093873281339816927 0.040783901257643626 0 -0.092097916211715591 0.0378601562160268 0 -0.090432719769862072 0.021764672770784168 0 -0.09071089238381834 0.01522363768136034 0 -0.087132491899446649 0.016333311716219153 0 -0.090100216984862092 0.033208550798656998 0 -0.088703461164557088 0.028036228297469712 0 -0.088997726126973861 0.046892168208206526 0 -0.088822340736214159 0.047537970337208225 0 -0.089393833241782975 0.047137672266251429 0 -0.088997726126973861 0.046892168208206526 0 -0.088822340736214159 0.047537970337208225 0 -0.088515667529796616 0.047086715929294108 0 -0.088822340736214159 0.047537970337208225 0 -0.089393833241782975 0.047137672266251429 0 -0.089495051614052065 0.047680220213924526 0 -0.088675113128802219 0.032850263111734328 0 -0.083194719876002937 0.028789837834347631 0 -0.088822340736214159 0.047537970337208225 0 -0.089495051614052065 0.047680220213924526 0 -0.088920200988661616 0.048237560748154017 0 -0.093210188057759463 0.017854908667006744 0 -0.095659009832589154 0.021010051601901211 0 -0.10034604099586458 0.014425474414955893 0 -0.088822340736214159 0.047537970337208225 0 -0.088316708593938809 0.048135208245046093 0 -0.088920200988661616 0.048237560748154017 0 -0.060009689830127853 0.048038798481012793 0 -0.061856798575792092 0.045366902552159534 0 -0.027786647412178605 0.050567043069797805 0 -0.027996986255754471 0.050343118262453676 0 -0.028161141876033774 0.050683166751753876 0 -0.088822340736214159 0.047537970337208225 0 -0.088155552911973717 0.047469255968081346 0 -0.088316708593938809 0.048135208245046093 0 -0.027786647412178605 0.050567043069797805 0 -0.027661947227200639 0.050410901410220879 0 -0.027996986255754471 0.050343118262453676 0 -0.027786647412178605 0.050567043069797805 0 -0.027661947227200639 0.050410901410220879 0 -0.027516161111369456 0.050608482821547007 0 -0.027661947227200639 0.050410901410220879 0 -0.027725735908354719 0.050213905874747326 0 -0.027996986255754471 0.050343118262453676 0 -0.027725735908354719 0.050213905874747326 0 -0.027996986255754471 0.050343118262453676 0 -0.027928893561139281 0.049968806089983123 0 -0.027661947227200639 0.050410901410220879 0 -0.027725735908354719 0.050213905874747326 0 -0.027493619150505383 0.050310067073344865 0 -0.088822340736214159 0.047537970337208225 0 -0.088155552911973717 0.047469255968081346 0 -0.088515667529796616 0.047086715929294108 0 -0.088155552911973717 0.047469255968081346 0 -0.088515667529796616 0.047086715929294108 0 -0.087921326439742778 0.046707099983533271 0 -0.060009689830127853 0.048038798481012793 0 -0.058982953894212937 0.049272537514519488 0 -0.082254243363699339 0.046165287831619252 0 -0.058982953894212937 0.049272537514519488 0 -0.088689811011846628 0.046788834170345725 0 -0.088515667529796616 0.047086715929294108 0 -0.087921326439742778 0.046707099983533271 0 -0.088858259015041283 0.046518083702977012 0 -0.088689811011846628 0.046788834170345725 0 -0.087921326439742778 0.046707099983533271 0 -0.087613981660240661 0.047278198660992997 0 -0.084240946325939536 0.047949037085762085 0 -0.084171997522245051 0.047620055197495112 0 -0.027725735908354719 0.050213905874747326 0 -0.027693793873484519 0.050014082434355789 0 -0.027928893561139281 0.049968806089983123 0 -0.027725735908354719 0.050213905874747326 0 -0.027693793873484519 0.050014082434355789 0 -0.02751785984921756 0.050064296514395118 0 -0.049169863285125598 0.051700366594055559 0 -0.058456557465687967 0.050734978954089564 0 -0.028346954673750362 0.050207047286377426 0 -0.028798531199646999 0.050027982613291277 0 -0.028338724291941987 0.049734100196396978 0 -0.05198950320460926 0.050676016955783408 0 -0.058709638537873282 0.049309400799952753 0 -0.058394726008524855 0.047886897240372719 0 -0.049169863285125598 0.051700366594055559 0 -0.058982953894212937 0.049272537514519488 0 -0.058982953894212937 0.049272537514519488 0 -0.058456557465687967 0.050734978954089564 0 -0.058456557465687967 0.050734978954089564 0 -0.051327675572423528 0.054987955749096623 0 -0.028798531199646999 0.050027982613291277 0 -0.028338724291941987 0.049734100196396978 0 -0.02863874203431557 0.049419528042435878 0 -0.064348584940529599 0.066907236243008164 0 -0.063592973963463362 0.063559461612084769 0 -0.066455598839486416 0.064284559469643746 0 -0.028225049372137469 0.049276169258937547 0 -0.028338724291941987 0.049734100196396978 0 -0.02863874203431557 0.049419528042435878 0 -0.069521171407436744 0.064727984206038258 0 -0.064348584940529599 0.066907236243008164 0 -0.066455598839486416 0.064284559469643746 0 -0.087583699387314848 0.046481534832641384 0 -0.087613981660240661 0.047278198660992997 0 -0.084171997522245051 0.047620055197495112 0 -0.074067976806842753 0.051733827101608523 0 -0.058456557465687967 0.050734978954089564 0 -0.06660096364926596 0.062599953350491372 0 -0.068141212971553372 0.063786770364372081 0 -0.066455598839486416 0.064284559469643746 0 -0.027617821585473566 0.049896368126900639 0 -0.027206378701137908 0.049812314755205957 0 -0.027539202948980657 0.04951451291944254 0 -0.027119729921751101 0.049333067240431086 0 -0.027206378701137908 0.049812314755205957 0 -0.027539202948980657 0.04951451291944254 0 -0.027617821585473566 0.049896368126900639 0 -0.027539202948980657 0.04951451291944254 0 -0.027953826414103451 0.049597757086788402 0 -0.028225049372137469 0.049276169258937547 0 -0.028338724291941987 0.049734100196396978 0 -0.027953826414103451 0.049597757086788402 0 -0.028346954673750362 0.050207047286377426 0 -0.028338724291941987 0.049734100196396978 0 -0.028051918569000352 0.049931879791540873 0 -0.028338724291941987 0.049734100196396978 0 -0.027953826414103451 0.049597757086788402 0 -0.028051918569000352 0.049931879791540873 0 -0.027617821585473566 0.049896368126900639 0 -0.027953826414103451 0.049597757086788402 0 -0.028051918569000352 0.049931879791540873 0 -0.027617821585473566 0.049896368126900639 0 -0.028051918569000352 0.049931879791540873 0 -0.028012156214289801 0.050257021285643681 0 -0.049169863285125598 0.051700366594055559 0 -0.041884776902147647 0.05240410687062233 0 -0.028346954673750362 0.050207047286377426 0 -0.028051918569000352 0.049931879791540873 0 -0.028012156214289801 0.050257021285643681 0 -0.041884776902147647 0.05240410687062233 0 -0.035551205763103021 0.052925516949700865 0 -0.027617821585473566 0.049896368126900639 0 -0.028012156214289801 0.050257021285643681 0 -0.027181086051851249 0.050258717939934125 0 -0.027617821585473566 0.049896368126900639 0 -0.027206378701137908 0.049812314755205957 0 -0.027181086051851249 0.050258717939934125 0 -0.02751785984921756 0.050064296514395118 0 -0.027181086051851249 0.050258717939934125 0 -0.027246991342955992 0.050374588690660957 0 -0.027181086051851249 0.050258717939934125 0 -0.027246991342955992 0.050374588690660957 0 -0.026991736785277221 0.050512070767556538 0 -0.027246991342955992 0.050374588690660957 0 -0.026991736785277221 0.050512070767556538 0 -0.027310024347608073 0.050475641969382763 0 -0.027661947227200639 0.050410901410220879 0 -0.027493619150505383 0.050310067073344865 0 -0.027310024347608073 0.050475641969382763 0 -0.02751785984921756 0.050064296514395118 0 -0.027246991342955992 0.050374588690660957 0 -0.027493619150505383 0.050310067073344865 0 -0.027725735908354719 0.050213905874747326 0 -0.02751785984921756 0.050064296514395118 0 -0.027493619150505383 0.050310067073344865 0 -0.027246991342955992 0.050374588690660957 0 -0.027493619150505383 0.050310067073344865 0 -0.027310024347608073 0.050475641969382763 0 -0.027661947227200639 0.050410901410220879 0 -0.027310024347608073 0.050475641969382763 0 -0.027516161111369456 0.050608482821547007 0 -0.027310024347608073 0.050475641969382763 0 -0.027516161111369456 0.050608482821547007 0 -0.027082929188853314 0.050676608323607743 0 -0.026650502103425299 0.050729049780721035 0 -0.026991736785277221 0.050512070767556538 0 -0.027082929188853314 0.050676608323607743 0 -0.026991736785277221 0.050512070767556538 0 -0.027310024347608073 0.050475641969382763 0 -0.027082929188853314 0.050676608323607743 0 -0.026650502103425299 0.050729049780721035 0 -0.027082929188853314 0.050676608323607743 0 -0.026743862578743255 0.050804388620624356 0 -0.027082929188853314 0.050676608323607743 0 -0.027128691611805322 0.050963030996876081 0 -0.026743862578743255 0.050804388620624356 0 -0.027082929188853314 0.050676608323607743 0 -0.027483320546035431 0.050786705691433669 0 -0.027128691611805322 0.050963030996876081 0 -0.027516161111369456 0.050608482821547007 0 -0.027082929188853314 0.050676608323607743 0 -0.027483320546035431 0.050786705691433669 0 -0.027516161111369456 0.050608482821547007 0 -0.027483320546035431 0.050786705691433669 0 -0.027754949341961967 0.050753565557176472 0 -0.027580596695462083 0.051067093943255884 0 -0.027156359023905344 0.05128837586055536 0 -0.028028729004643198 0.051410441596615154 0 -0.027483320546035431 0.050786705691433669 0 -0.027580596695462083 0.051067093943255884 0 -0.027128691611805322 0.050963030996876081 0 -0.027580596695462083 0.051067093943255884 0 -0.027128691611805322 0.050963030996876081 0 -0.027156359023905344 0.05128837586055536 0 -0.027128691611805322 0.050963030996876081 0 -0.026840669449801371 0.050985375915378821 0 -0.026743862578743255 0.050804388620624356 0 -0.027128691611805322 0.050963030996876081 0 -0.026840669449801371 0.050985375915378821 0 -0.027156359023905344 0.05128837586055536 0 -0.030329286182555218 0.052499120498919694 0 -0.033289764824848932 0.050162036097801774 0 -0.03289688002001017 0.055507276024580353 0 -0.032648619171524375 0.045180701852948403 0 -0.030195800498824938 0.046255840107230384 0 -0.026840669449801371 0.050985375915378821 0 -0.027156359023905344 0.05128837586055536 0 -0.026640288893969855 0.051026615834154604 0 -0.030329286182555218 0.052499120498919694 0 -0.033289764824848932 0.050162036097801774 0 -0.027872476183001177 0.051221842870584788 0 -0.033289764824848932 0.050162036097801774 0 -0.027872476183001177 0.051221842870584788 0 -0.026640288893969855 0.051026615834154604 0 -0.030329286182555218 0.052499120498919694 0 -0.03289688002001017 0.055507276024580353 0 -0.026539909683147435 0.052678966940434648 0 -0.038780520636863991 0.033839025915039102 0 -0.033412775680554008 0.039897672644622448 0 -0.032648619171524375 0.045180701852948403 0 -0.040220194104389304 0.041567422293284452 0 -0.033289764824848932 0.050162036097801774 0 -0.03843450799939039 0.052225448521063193 0 -0.040414455435699104 0.049669338381414858 0 -0.033289764824848932 0.050162036097801774 0 -0.03843450799939039 0.052225448521063193 0 -0.037401202810202233 0.05457358217229169 0 -0.033289764824848932 0.050162036097801774 0 -0.037401202810202233 0.05457358217229169 0 -0.03289688002001017 0.055507276024580353 0 -0.038780520636863991 0.033839025915039102 0 -0.049787820900228104 0.02763990177801038 0 -0.036376943127217308 0.020104621441555448 0 -0.037512787818346591 0.020618129944812973 0 -0.036534048999740651 0.020809694447742461 0 -0.037401202810202233 0.05457358217229169 0 -0.03289688002001017 0.055507276024580353 0 -0.039651945962699484 0.05853245974662985 0 -0.036376943127217308 0.020104621441555448 0 -0.035261530129207297 0.019623772146483462 0 -0.03563992292871454 0.020399463523412147 0 -0.036376943127217308 0.020104621441555448 0 -0.036061714691871159 0.020677611804508177 0 -0.036534048999740651 0.020809694447742461 0 -0.036376943127217308 0.020104621441555448 0 -0.036061714691871159 0.020677611804508177 0 -0.03563992292871454 0.020399463523412147 0 -0.036061714691871159 0.020677611804508177 0 -0.03563992292871454 0.020399463523412147 0 -0.035650836462400914 0.020830673074287886 0 -0.061004590565956834 0.019111323868265945 0 -0.05769489023455919 0.017464616680398167 0 -0.059814950700158138 0.016442228728748589 0 -0.061004590565956834 0.019111323868265945 0 -0.059814950700158138 0.016442228728748589 0 -0.061801063753146035 0.01620612807698895 0 -0.061004590565956834 0.019111323868265945 0 -0.05769489023455919 0.017464616680398167 0 -0.057632065639807106 0.020916735240451578 0 -0.05769489023455919 0.017464616680398167 0 -0.057632065639807106 0.020916735240451578 0 -0.055314617155794867 0.019216530721753375 0 -0.05769489023455919 0.017464616680398167 0 -0.058204775323112072 0.014907151292330291 0 -0.054220144420511693 0.014213258748038707 0 -0.05769489023455919 0.017464616680398167 0 -0.058204775323112072 0.014907151292330291 0 -0.059814950700158138 0.016442228728748589 0 -0.058204775323112072 0.014907151292330291 0 -0.059814950700158138 0.016442228728748589 0 -0.060285361300887783 0.014212431169516489 0 -0.059814950700158138 0.016442228728748589 0 -0.061609386497400831 0.015246504588408857 0 -0.061801063753146035 0.01620612807698895 0 -0.060285361300887783 0.014212431169516489 0 -0.061609386497400831 0.015246504588408857 0 -0.06199966365430544 0.013967949647266404 0 -0.059814950700158138 0.016442228728748589 0 -0.060285361300887783 0.014212431169516489 0 -0.061609386497400831 0.015246504588408857 0 -0.054337066488960473 0.032632573938326317 0 -0.050851421555298294 0.026696916165689533 0 -0.061004590565956834 0.019111323868265945 0 -0.061801063753146035 0.01620612807698895 0 -0.064778285083369566 0.014025620533929486 0 -0.061609386497400831 0.015246504588408857 0 -0.061801063753146035 0.01620612807698895 0 -0.064778285083369566 0.014025620533929486 0 -0.061609386497400831 0.015246504588408857 0 -0.064778285083369566 0.014025620533929486 0 -0.06199966365430544 0.013967949647266404 0 -0.049787820900228104 0.02763990177801038 0 -0.046974996435716974 0.032289325738199412 0 -0.039651945962699484 0.05853245974662985 0 -0.039701351533094037 0.055744333827317596 0 -0.041933151050648911 0.055515697993607151 0 -0.039787153182883138 0.058279944304662941 0 -0.041933151050648911 0.055515697993607151 0 -0.040461331776160445 0.058599395770180085 0 -0.049787820900228104 0.02763990177801038 0 -0.050851421555298294 0.026696916165689533 0 -0.037401202810202233 0.05457358217229169 0 -0.039651945962699484 0.05853245974662985 0 -0.039701351533094037 0.055744333827317596 0 -0.03982256940257696 0.054360452900917663 0 -0.041933151050648911 0.055515697993607151 0 -0.041292489141258028 0.053000648184149124 0 -0.039701351533094037 0.055744333827317596 0 -0.03982256940257696 0.054360452900917663 0 -0.041933151050648911 0.055515697993607151 0 -0.037401202810202233 0.05457358217229169 0 -0.039701351533094037 0.055744333827317596 0 -0.03982256940257696 0.054360452900917663 0 -0.04390861604120698 0.054125701896552331 0 -0.041933151050648911 0.055515697993607151 0 -0.040461331776160445 0.058599395770180085 0 -0.04390861604120698 0.054125701896552331 0 -0.041933151050648911 0.055515697993607151 0 -0.041292489141258028 0.053000648184149124 0 -0.04390861604120698 0.054125701896552331 0 -0.041292489141258028 0.053000648184149124 0 -0.042636262936185707 0.052048762865586788 0 -0.041292489141258028 0.053000648184149124 0 -0.042636262936185707 0.052048762865586788 0 -0.040414455435699104 0.049669338381414858 0 -0.04390861604120698 0.054125701896552331 0 -0.042636262936185707 0.052048762865586788 0 -0.043986681220973468 0.050982466561854671 0 -0.03843450799939039 0.052225448521063193 0 -0.041292489141258028 0.053000648184149124 0 -0.040414455435699104 0.049669338381414858 0 -0.03843450799939039 0.052225448521063193 0 -0.03982256940257696 0.054360452900917663 0 -0.041292489141258028 0.053000648184149124 0 -0.03843450799939039 0.052225448521063193 0 -0.037401202810202233 0.05457358217229169 0 -0.03982256940257696 0.054360452900917663 0 -0.042636262936185707 0.052048762865586788 0 -0.040414455435699104 0.049669338381414858 0 -0.043986681220973468 0.050982466561854671 0 -0.040220194104389304 0.041567422293284452 0 -0.061150990915240941 0.033676785567048194 0 -0.040414455435699104 0.049669338381414858 0 -0.043986681220973468 0.050982466561854671 0 -0.047549009343029677 0.049315125844391683 0 -0.04390861604120698 0.054125701896552331 0 -0.043986681220973468 0.050982466561854671 0 -0.047549009343029677 0.049315125844391683 0 -0.054337066488960473 0.032632573938326317 0 -0.061150990915240941 0.033676785567048194 0 -0.057632065639807106 0.020916735240451578 0 -0.05642946884680141 0.024242978175684833 0 -0.055314617155794867 0.019216530721753375 0 -0.061004590565956834 0.019111323868265945 0 -0.057632065639807106 0.020916735240451578 0 -0.057251854727577857 0.024206074166965654 0 -0.057632065639807106 0.020916735240451578 0 -0.057251854727577857 0.024206074166965654 0 -0.05642946884680141 0.024242978175684833 0 -0.061150990915240941 0.033676785567048194 0 -0.064439026139390648 0.03188043935445399 0 -0.074620704275691965 0.024345804542744091 0 -0.062863576506373697 0.024865213306157083 0 -0.065512933249869731 0.036351313549271229 0 -0.063977722772724621 0.033017780359689976 0 -0.061856798575792092 0.045366902552159534 0 -0.029311020680545093 0.051364946411677943 0 -0.029426256405076109 0.05121999864415544 0 -0.02832802713842832 0.050846355502689213 0 -0.063977722772724621 0.033017780359689976 0 -0.044327148860871989 0.035175445310524675 0 -0.028379957798313 0.051131636810726674 0 -0.027919009000208918 0.050994125444248355 0 -0.028161141876033774 0.050683166751753876 0 -0.064439026139390648 0.03188043935445399 0 -0.063977722772724621 0.033017780359689976 0 -0.061150990915240941 0.033676785567048194 0 -0.063977722772724621 0.033017780359689976 0 -0.039587681754340201 0.036347438537131266 0 -0.044327148860871989 0.035175445310524675 0 -0.027580596695462083 0.051067093943255884 0 -0.028028729004643198 0.051410441596615154 0 -0.02832802713842832 0.050846355502689213 0 -0.027483320546035431 0.050786705691433669 0 -0.027580596695462083 0.051067093943255884 0 -0.02832802713842832 0.050846355502689213 0 -0.028028729004643198 0.051410441596615154 0 -0.029311020680545093 0.051364946411677943 0 -0.02832802713842832 0.050846355502689213 0 -0.027483320546035431 0.050786705691433669 0 -0.027919009000208918 0.050994125444248355 0 -0.027754949341961967 0.050753565557176472 0 -0.027786647412178605 0.050567043069797805 0 -0.027754949341961967 0.050753565557176472 0 -0.028161141876033774 0.050683166751753876 0 -0.027919009000208918 0.050994125444248355 0 -0.027754949341961967 0.050753565557176472 0 -0.028161141876033774 0.050683166751753876 0 -0.027786647412178605 0.050567043069797805 0 -0.027516161111369456 0.050608482821547007 0 -0.027754949341961967 0.050753565557176472 0 -0.088407105808544259 0.048739393725268768 0 -0.088316708593938809 0.048135208245046093 0 -0.088920200988661616 0.048237560748154017 0 -0.095048357351248933 0.021938987118558705 0 -0.096966707086669351 0.018038110378842665 0 -0.093210188057759463 0.017854908667006744 0 -0.10034604099586458 0.014425474414955893 0 -0.097781652561999999 0.011782260054692564 0 -0.10034604099586458 0.014425474414955893 0 -0.097781652561999999 0.011782260054692564 0 -0.1005941556115787 0.0099636082920042859 0 -0.097781652561999999 0.011782260054692564 0 -0.095832896757621605 0.0091783700171366046 0 -0.09458779304639954 0.01092308769231287 0 -0.097781652561999999 0.011782260054692564 0 -0.095832896757621605 0.0091783700171366046 0 -0.097706234855288468 0.0087910676698871124 0 -0.095832896757621605 0.0091783700171366046 0 -0.097706234855288468 0.0087910676698871124 0 -0.095370549019725803 0.0071462945536837881 0 -0.097706234855288468 0.0087910676698871124 0 -0.1005941556115787 0.0099636082920042859 0 -0.10055353853119942 0.0081943881382463557 0 -0.097781652561999999 0.011782260054692564 0 -0.097706234855288468 0.0087910676698871124 0 -0.1005941556115787 0.0099636082920042859 0 -0.10427634534390075 0.0086573958168261692 0 -0.10034604099586458 0.014425474414955893 0 -0.1005941556115787 0.0099636082920042859 0 -0.063977722772724621 0.033017780359689976 0 -0.083194719876002937 0.028789837834347631 0 -0.1005941556115787 0.0099636082920042859 0 -0.10297452506327145 0.0080759218826638272 0 -0.10055353853119942 0.0081943881382463557 0 -0.10427634534390075 0.0086573958168261692 0 -0.1005941556115787 0.0099636082920042859 0 -0.10297452506327145 0.0080759218826638272 0 -0.063977722772724621 0.033017780359689976 0 -0.068887355810277967 0.030508211497585987 0 -0.088429145446328003 0.013096513367021818 0 -0.09071089238381834 0.01522363768136034 0 -0.087132491899446649 0.016333311716219153 0 -0.088429145446328003 0.013096513367021818 0 -0.09071089238381834 0.01522363768136034 0 -0.091554230974445594 0.011613580918135389 0 -0.094154580313564343 0.016694796257462674 0 -0.097781652561999999 0.011782260054692564 0 -0.09377656313090188 0.013244288907778136 0 -0.09071089238381834 0.01522363768136034 0 -0.09377656313090188 0.013244288907778136 0 -0.091554230974445594 0.011613580918135389 0 -0.094154580313564343 0.016694796257462674 0 -0.09071089238381834 0.01522363768136034 0 -0.09377656313090188 0.013244288907778136 0 -0.097781652561999999 0.011782260054692564 0 -0.09377656313090188 0.013244288907778136 0 -0.09458779304639954 0.01092308769231287 0 -0.095832896757621605 0.0091783700171366046 0 -0.093376966062330868 0.0087941762647437156 0 -0.095370549019725803 0.0071462945536837881 0 -0.095832896757621605 0.0091783700171366046 0 -0.09458779304639954 0.01092308769231287 0 -0.093376966062330868 0.0087941762647437156 0 -0.093376966062330868 0.0087941762647437156 0 -0.090575967914488534 0.0094927533699381075 0 -0.091257508234583604 0.0074807076974245761 0 -0.093376966062330868 0.0087941762647437156 0 -0.091554230974445594 0.011613580918135389 0 -0.090575967914488534 0.0094927533699381075 0 -0.09458779304639954 0.01092308769231287 0 -0.093376966062330868 0.0087941762647437156 0 -0.091554230974445594 0.011613580918135389 0 -0.09377656313090188 0.013244288907778136 0 -0.09458779304639954 0.01092308769231287 0 -0.091554230974445594 0.011613580918135389 0 -0.091554230974445594 0.011613580918135389 0 -0.090575967914488534 0.0094927533699381075 0 -0.088549234524284093 0.01049532360275837 0 -0.090575967914488534 0.0094927533699381075 0 -0.088549234524284093 0.01049532360275837 0 -0.088423472692018446 0.0076041181022590398 0 -0.088549234524284093 0.01049532360275837 0 -0.088423472692018446 0.0076041181022590398 0 -0.085962069437730118 0.009079740655192018 0 -0.088429145446328003 0.013096513367021818 0 -0.088549234524284093 0.01049532360275837 0 -0.087226094317457342 0.011379411595870373 0 -0.088429145446328003 0.013096513367021818 0 -0.091554230974445594 0.011613580918135389 0 -0.088549234524284093 0.01049532360275837 0 -0.088423472692018446 0.0076041181022590398 0 -0.090048641530565701 0.0048636660355758027 0 -0.087222834075424735 0.0044598873334574197 0 -0.090575967914488534 0.0094927533699381075 0 -0.088423472692018446 0.0076041181022590398 0 -0.091257508234583604 0.0074807076974245761 0 -0.091257508234583604 0.0074807076974245761 0 -0.090048641530565701 0.0048636660355758027 0 -0.093273734696919491 0.0060912724318322713 0 -0.088423472692018446 0.0076041181022590398 0 -0.091257508234583604 0.0074807076974245761 0 -0.090048641530565701 0.0048636660355758027 0 -0.083781743819618837 0.008219832072677527 0 -0.082184684555739781 0.014742679338964556 0 -0.093273734696919491 0.0060912724318322713 0 -0.092373091589811968 0.0028867228697643929 0 -0.097209937885115547 0.0053262696534427945 0 -0.090048641530565701 0.0048636660355758027 0 -0.093273734696919491 0.0060912724318322713 0 -0.092373091589811968 0.0028867228697643929 0 -0.093376966062330868 0.0087941762647437156 0 -0.091257508234583604 0.0074807076974245761 0 -0.093273734696919491 0.0060912724318322713 0 -0.093273734696919491 0.0060912724318322713 0 -0.095370549019725803 0.0071462945536837881 0 -0.097209937885115547 0.0053262696534427945 0 -0.093376966062330868 0.0087941762647437156 0 -0.093273734696919491 0.0060912724318322713 0 -0.095370549019725803 0.0071462945536837881 0 -0.085259124805157183 -0.0034208147525602631 0 -0.084572836336094068 -0.0032423714684752789 0 -0.085652919213880435 -0.0027323482162294657 0 -0.085259124805157183 -0.0034208147525602631 0 -0.084883270898244115 -0.0039389488426786771 0 -0.085710073171655243 -0.0040371990863395128 0 -0.085259124805157183 -0.0034208147525602631 0 -0.084883270898244115 -0.0039389488426786771 0 -0.084572836336094068 -0.0032423714684752789 0 -0.090048641530565701 0.0048636660355758027 0 -0.087222834075424735 0.0044598873334574197 0 -0.087471955538074256 0.00012527967206000027 0 -0.084883270898244115 -0.0039389488426786771 0 -0.084572836336094068 -0.0032423714684752789 0 -0.0835406676179688 -0.0034175993225720102 0 -0.083781743819618837 0.008219832072677527 0 -0.082940286866397636 0.0042945791500141163 0 -0.090048641530565701 0.0048636660355758027 0 -0.092373091589811968 0.0028867228697643929 0 -0.087471955538074256 0.00012527967206000027 0 -0.068887355810277967 0.030508211497585987 0 -0.082184684555739781 0.014742679338964556 0 -0.071598555816343223 0.021964613108146749 0 -0.069336925823437145 0.020912399169857456 0 -0.071701002311142584 0.020410642614910886 0 -0.10283115429266342 0.0081175108333131924 0 -0.10055353853119942 0.0081943881382463557 0 -0.097072860365905775 0.0054647145590937521 0 -0.064439026139390648 0.03188043935445399 0 -0.068856442720625327 0.020384689573091041 0 -0.072031051097059706 0.021949223154918786 0 -0.071598555816343223 0.021964613108146749 0 -0.071701002311142584 0.020410642614910886 0 -0.064439026139390648 0.03188043935445399 0 -0.068887355810277967 0.030508211497585987 0 -0.064756475690587886 0.029458512951916791 0 -0.065238519055480629 0.031557526056377634 0 -0.061013294735825625 0.029622575173209903 0 -0.068887355810277967 0.030508211497585987 0 -0.072756706239906266 0.029689070444762478 0 -0.097706234855288468 0.0087910676698871124 0 -0.10055353853119942 0.0081943881382463557 0 -0.097072860365905775 0.0054647145590937521 0 -0.097706234855288468 0.0087910676698871124 0 -0.095370549019725803 0.0071462945536837881 0 -0.097072860365905775 0.0054647145590937521 0 -0.083762071505766186 0.013378484809503131 0 -0.082184684555739781 0.014742679338964556 0 -0.085259124805157183 -0.0034208147525602631 0 -0.085652919213880435 -0.0027323482162294657 0 -0.085710073171655243 -0.0040371990863395128 0 -0.082184684555739781 0.014742679338964556 0 -0.074527804284751586 0.010080831309997811 0 -0.085652919213880435 -0.0027323482162294657 0 -0.085710073171655243 -0.0040371990863395128 0 -0.08698676038116078 -0.0040888227603246962 0 -0.069336925823437145 0.020912399169857456 0 -0.071701002311142584 0.020410642614910886 0 -0.071368116740506818 0.018878251575086345 0 -0.068856442720625327 0.020384689573091041 0 -0.074527804284751586 0.010080831309997811 0 -0.05769489023455919 0.017464616680398167 0 -0.055314617155794867 0.019216530721753375 0 -0.054220144420511693 0.014213258748038707 0 -0.08698676038116078 -0.0040888227603246962 0 -0.08611172701597164 -0.0048139774515568393 0 -0.086399936993028628 -0.0058906436597872735 0 -0.086291928541383164 -0.0062846490003031323 0 -0.086256151098796544 -0.0061683988739855856 0 -0.086399936993028628 -0.0058906436597872735 0 -0.074527804284751586 0.010080831309997811 0 -0.07548616983305087 0.003779758003056011 0 -0.085710073171655243 -0.0040371990863395128 0 -0.08698676038116078 -0.0040888227603246962 0 -0.08611172701597164 -0.0048139774515568393 0 -0.085554540750684402 -0.005137412622913862 0 -0.08611172701597164 -0.0048139774515568393 0 -0.086399936993028628 -0.0058906436597872735 0 -0.084883270898244115 -0.0039389488426786771 0 -0.085710073171655243 -0.0040371990863395128 0 -0.085554540750684402 -0.005137412622913862 0 -0.085710073171655243 -0.0040371990863395128 0 -0.085554540750684402 -0.005137412622913862 0 -0.08611172701597164 -0.0048139774515568393 0 -0.085554540750684402 -0.005137412622913862 0 -0.085568627061724398 -0.0059971075362178763 0 -0.086239970991026482 -0.0062347540716568084 0 -0.085554540750684402 -0.005137412622913862 0 -0.086399936993028628 -0.0058906436597872735 0 -0.086239970991026482 -0.0062347540716568084 0 -0.086399936993028628 -0.0058906436597872735 0 -0.086239970991026482 -0.0062347540716568084 0 -0.086250312417075009 -0.0063570193667307094 0 -0.086256151098796544 -0.0061683988739855856 0 -0.086399936993028628 -0.0058906436597872735 0 -0.086250312417075009 -0.0063570193667307094 0 -0.084883270898244115 -0.0039389488426786771 0 -0.084577666419281244 -0.0045576519142175465 0 -0.0835406676179688 -0.0034175993225720102 0 -0.084577666419281244 -0.0045576519142175465 0 -0.083945729734244856 -0.0047955412124482512 0 -0.0835406676179688 -0.0034175993225720102 0 -0.083945729734244856 -0.0047955412124482512 0 -0.0835406676179688 -0.0034175993225720102 0 -0.083194898566316622 -0.0044229956417194674 0 -0.084883270898244115 -0.0039389488426786771 0 -0.085554540750684402 -0.005137412622913862 0 -0.084577666419281244 -0.0045576519142175465 0 -0.085554540750684402 -0.005137412622913862 0 -0.084577666419281244 -0.0045576519142175465 0 -0.084827322098664434 -0.0054328380564384656 0 -0.085554540750684402 -0.005137412622913862 0 -0.084827322098664434 -0.0054328380564384656 0 -0.085568627061724398 -0.0059971075362178763 0 -0.084577666419281244 -0.0045576519142175465 0 -0.084827322098664434 -0.0054328380564384656 0 -0.083945729734244856 -0.0047955412124482512 0 -0.084827322098664434 -0.0054328380564384656 0 -0.084014169968453012 -0.0056592593278660926 0 -0.083945729734244856 -0.0047955412124482512 0 -0.084014169968453012 -0.0056592593278660926 0 -0.083945729734244856 -0.0047955412124482512 0 -0.083371549701158607 -0.0052100193867943862 0 -0.08404460168747907 -0.0063655214673630344 0 -0.084871466786324901 -0.0065252427502673653 0 -0.08369747372673228 -0.0070103662499968111 0 -0.084827322098664434 -0.0054328380564384656 0 -0.084014169968453012 -0.0056592593278660926 0 -0.084871466786324901 -0.0065252427502673653 0 -0.08404460168747907 -0.0063655214673630344 0 -0.08369747372673228 -0.0070103662499968111 0 -0.083134247540490439 -0.0060815742581228601 0 -0.084014169968453012 -0.0056592593278660926 0 -0.08404460168747907 -0.0063655214673630344 0 -0.083134247540490439 -0.0060815742581228601 0 -0.084014169968453012 -0.0056592593278660926 0 -0.08404460168747907 -0.0063655214673630344 0 -0.084871466786324901 -0.0065252427502673653 0 -0.085568627061724398 -0.0059971075362178763 0 -0.084871466786324901 -0.0065252427502673653 0 -0.086079291208691983 -0.0065841865426539683 0 -0.084827322098664434 -0.0054328380564384656 0 -0.085568627061724398 -0.0059971075362178763 0 -0.084871466786324901 -0.0065252427502673653 0 -0.085552354580604242 -0.0069350582448295794 0 -0.084401325171072544 -0.0074688111633311946 0 -0.085269021818643626 -0.0076875330061844278 0 -0.084871466786324901 -0.0065252427502673653 0 -0.085552354580604242 -0.0069350582448295794 0 -0.086079291208691983 -0.0065841865426539683 0 -0.084871466786324901 -0.0065252427502673653 0 -0.085552354580604242 -0.0069350582448295794 0 -0.084401325171072544 -0.0074688111633311946 0 -0.085552354580604242 -0.0069350582448295794 0 -0.086450339609778951 -0.0070003480970530227 0 -0.085269021818643626 -0.0076875330061844278 0 -0.084871466786324901 -0.0065252427502673653 0 -0.084401325171072544 -0.0074688111633311946 0 -0.08369747372673228 -0.0070103662499968111 0 -0.084401325171072544 -0.0074688111633311946 0 -0.08369747372673228 -0.0070103662499968111 0 -0.082933453015458597 -0.0076139400851458735 0 -0.086266619029720465 -0.0066037339307761841 0 -0.086239970991026482 -0.0062347540716568084 0 -0.086250312417075009 -0.0063570193667307094 0 -0.086349441304738594 -0.0065967945919324575 0 -0.086266619029720465 -0.0066037339307761841 0 -0.086296028199471561 -0.006761628895541911 0 -0.086349441304738594 -0.0065967945919324575 0 -0.086266619029720465 -0.0066037339307761841 0 -0.086239970991026482 -0.0062347540716568084 0 -0.085568627061724398 -0.0059971075362178763 0 -0.086239970991026482 -0.0062347540716568084 0 -0.086079291208691983 -0.0065841865426539683 0 -0.086349441304738594 -0.0065967945919324575 0 -0.086239970991026482 -0.0062347540716568084 0 -0.086079291208691983 -0.0065841865426539683 0 -0.086349441304738594 -0.0065967945919324575 0 -0.086079291208691983 -0.0065841865426539683 0 -0.086570382467849691 -0.0068239405330419592 0 -0.086079291208691983 -0.0065841865426539683 0 -0.086450339609778951 -0.0070003480970530227 0 -0.086570382467849691 -0.0068239405330419592 0 -0.085552354580604242 -0.0069350582448295794 0 -0.086079291208691983 -0.0065841865426539683 0 -0.086450339609778951 -0.0070003480970530227 0 -0.086450339609778951 -0.0070003480970530227 0 -0.086570382467849691 -0.0068239405330419592 0 -0.086906525952440541 -0.0067005848855700564 0 -0.086349441304738594 -0.0065967945919324575 0 -0.086570382467849691 -0.0068239405330419592 0 -0.086296028199471561 -0.006761628895541911 0 -0.086570382467849691 -0.0068239405330419592 0 -0.086349903818932261 -0.0067071745914306403 0 -0.086796590364724521 -0.006521833185714733 0 -0.086570382467849691 -0.0068239405330419592 0 -0.086296028199471561 -0.006761628895541911 0 -0.086349903818932261 -0.0067071745914306403 0 -0.086349903818932261 -0.0067071745914306403 0 -0.0859037956523174 -0.0068637840448812016 0 -0.085906311917270772 -0.0065909067096968504 0 -0.0859037956523174 -0.0068637840448812016 0 -0.085432167484188332 -0.006838017706657225 0 -0.085906311917270772 -0.0065909067096968504 0 -0.086296028199471561 -0.006761628895541911 0 -0.086349903818932261 -0.0067071745914306403 0 -0.0859037956523174 -0.0068637840448812016 0 -0.086296028199471561 -0.006761628895541911 0 -0.0859037956523174 -0.0068637840448812016 0 -0.086076378777012547 -0.0067510846623962456 0 -0.086266619029720465 -0.0066037339307761841 0 -0.086296028199471561 -0.006761628895541911 0 -0.086076378777012547 -0.0067510846623962456 0 -0.086076378777012547 -0.0067510846623962456 0 -0.085979994969151347 -0.0066972977598606463 0 -0.085768565372635761 -0.006918883604172919 0 -0.0859037956523174 -0.0068637840448812016 0 -0.086076378777012547 -0.0067510846623962456 0 -0.085768565372635761 -0.006918883604172919 0 -0.086076378777012547 -0.0067510846623962456 0 -0.085979994969151347 -0.0066972977598606463 0 -0.086250312417075009 -0.0063570193667307094 0 -0.086266619029720465 -0.0066037339307761841 0 -0.086076378777012547 -0.0067510846623962456 0 -0.086250312417075009 -0.0063570193667307094 0 -0.085979994969151347 -0.0066972977598606463 0 -0.0856329172271659 -0.0070043387657996439 0 -0.085768565372635761 -0.006918883604172919 0 -0.0856329172271659 -0.0070043387657996439 0 -0.085768565372635761 -0.006918883604172919 0 -0.08535060219677576 -0.0070498526365950723 0 -0.0859037956523174 -0.0068637840448812016 0 -0.085768565372635761 -0.006918883604172919 0 -0.08535060219677576 -0.0070498526365950723 0 -0.0859037956523174 -0.0068637840448812016 0 -0.08535060219677576 -0.0070498526365950723 0 -0.085432167484188332 -0.006838017706657225 0 -0.08535060219677576 -0.0070498526365950723 0 -0.08482670412450373 -0.0070197068819452067 0 -0.085432167484188332 -0.006838017706657225 0 -0.0856329172271659 -0.0070043387657996439 0 -0.08535060219677576 -0.0070498526365950723 0 -0.084637718519495794 -0.0072427199964079396 0 -0.085658387748233686 -0.014073025922161496 0 -0.084209567515207751 -0.011005333347234003 0 -0.083364437151188159 -0.011844588867453095 0 -0.08535060219677576 -0.0070498526365950723 0 -0.084637718519495794 -0.0072427199964079396 0 -0.08482670412450373 -0.0070197068819452067 0 -0.084209567515207751 -0.011005333347234003 0 -0.083364437151188159 -0.011844588867453095 0 -0.080686447480424875 -0.0094123078035356859 0 -0.070317028463693851 -0.0011124137997395606 0 -0.073415869879726606 -0.0021442919088025176 0 -0.074431657123628869 -0.0048171327157469357 0 -0.077119123605029802 -0.0045837977713565495 0 -0.07765183583754097 -0.0058574633306414043 0 -0.070317028463693851 -0.0011124137997395606 0 -0.073415869879726606 -0.0021442919088025176 0 -0.07211726692837038 0.00062484828581642283 0 -0.073415869879726606 -0.0021442919088025176 0 -0.074541490199646426 0.00058341394078606382 0 -0.07211726692837038 0.00062484828581642283 0 -0.055199534860220022 0.012577621702012608 0 -0.053919421551461844 0.016994737374523977 0 -0.074541490199646426 0.00058341394078606382 0 -0.071160776764904399 0.0030575658970743366 0 -0.069991403116112516 0.0072629758076918783 0 -0.035676538282482212 0.022899276463502604 0 -0.036592462864908797 0.021762742342560159 0 -0.035734668163715386 0.022042205810723112 0 -0.074541490199646426 0.00058341394078606382 0 -0.07211726692837038 0.00062484828581642283 0 -0.071160776764904399 0.0030575658970743366 0 -0.070317028463693851 -0.0011124137997395606 0 -0.07211726692837038 0.00062484828581642283 0 -0.071160776764904399 0.0030575658970743366 0 -0.065804044695516747 0.0032504737922219116 0 -0.070317028463693851 -0.0011124137997395606 0 -0.071160776764904399 0.0030575658970743366 0 -0.065804044695516747 0.0032504737922219116 0 -0.071160776764904399 0.0030575658970743366 0 -0.06928989135475129 0.0049497615733962276 0 -0.075637295997254203 -0.0015000331922969854 0 -0.080405186599037587 -0.0073626288533495329 0 -0.075637295997254203 -0.0015000331922969854 0 -0.077119123605029802 -0.0045837977713565495 0 -0.065804044695516747 0.0032504737922219116 0 -0.067831535668062895 0.0062398664089092443 0 -0.065451230642087646 0.0073931020464927675 0 -0.065804044695516747 0.0032504737922219116 0 -0.067831535668062895 0.0062398664089092443 0 -0.06928989135475129 0.0049497615733962276 0 -0.067831535668062895 0.0062398664089092443 0 -0.06928989135475129 0.0049497615733962276 0 -0.069991403116112516 0.0072629758076918783 0 -0.071160776764904399 0.0030575658970743366 0 -0.06928989135475129 0.0049497615733962276 0 -0.069991403116112516 0.0072629758076918783 0 -0.067831535668062895 0.0062398664089092443 0 -0.069991403116112516 0.0072629758076918783 0 -0.068127920063524847 0.0084026080471101966 0 -0.067831535668062895 0.0062398664089092443 0 -0.068127920063524847 0.0084026080471101966 0 -0.065451230642087646 0.0073931020464927675 0 -0.068127920063524847 0.0084026080471101966 0 -0.065898687809361547 0.0088926905843391378 0 -0.065451230642087646 0.0073931020464927675 0 -0.036592462864908797 0.021762742342560159 0 -0.035734668163715386 0.022042205810723112 0 -0.036138006535866171 0.021547996895164522 0 -0.036592462864908797 0.021762742342560159 0 -0.036138006535866171 0.021547996895164522 0 -0.036558258401864344 0.021228316181833434 0 -0.035734668163715386 0.022042205810723112 0 -0.036138006535866171 0.021547996895164522 0 -0.035713895368673698 0.021548526339810779 0 -0.036049313298678054 0.021200097259996577 0 -0.035441957865564019 0.021222528424996924 0 -0.035650836462400914 0.020830673074287886 0 -0.035713895368673698 0.021548526339810779 0 -0.036049313298678054 0.021200097259996577 0 -0.035441957865564019 0.021222528424996924 0 -0.036138006535866171 0.021547996895164522 0 -0.035713895368673698 0.021548526339810779 0 -0.036049313298678054 0.021200097259996577 0 -0.036138006535866171 0.021547996895164522 0 -0.036049313298678054 0.021200097259996577 0 -0.036558258401864344 0.021228316181833434 0 -0.036049313298678054 0.021200097259996577 0 -0.036558258401864344 0.021228316181833434 0 -0.036534048999740651 0.020809694447742461 0 -0.036049313298678054 0.021200097259996577 0 -0.036061714691871159 0.020677611804508177 0 -0.036534048999740651 0.020809694447742461 0 -0.036049313298678054 0.021200097259996577 0 -0.036061714691871159 0.020677611804508177 0 -0.035650836462400914 0.020830673074287886 0 -0.037512787818346591 0.020618129944812973 0 -0.036558258401864344 0.021228316181833434 0 -0.036534048999740651 0.020809694447742461 0 -0.049787820900228104 0.02763990177801038 0 -0.053919421551461844 0.016994737374523977 0 -0.037512787818346591 0.020618129944812973 0 -0.036592462864908797 0.021762742342560159 0 -0.036558258401864344 0.021228316181833434 0 -0.068127920063524847 0.0084026080471101966 0 -0.064315207650658499 0.013628776565888602 0 -0.065350927752772181 0.010344203513358012 0 -0.064426457883480143 0.014803433828331986 0 -0.069991403116112516 0.0072629758076918783 0 -0.068127920063524847 0.0084026080471101966 0 -0.058530609624241531 0.017299460966743844 0 -0.050851421555298294 0.026696916165689533 0 -0.068127920063524847 0.0084026080471101966 0 -0.065898687809361547 0.0088926905843391378 0 -0.065350927752772181 0.010344203513358012 0 -0.064315207650658499 0.013628776565888602 0 -0.063904338518578546 0.011689182961023 0 -0.065350927752772181 0.010344203513358012 0 -0.064426457883480143 0.014803433828331986 0 -0.068127920063524847 0.0084026080471101966 0 -0.063680179734565384 0.014462209225356161 0 -0.064315207650658499 0.013628776565888602 0 -0.063904338518578546 0.011689182961023 0 -0.063089620089672657 0.012381422952403152 0 -0.06465740969830415 0.0094287207255399404 0 -0.062013569064338643 0.011087821001199559 0 -0.065451230642087646 0.0073931020464927675 0 -0.063904338518578546 0.011689182961023 0 -0.065350927752772181 0.010344203513358012 0 -0.063875099422849316 0.010539082306544106 0 -0.065350927752772181 0.010344203513358012 0 -0.063875099422849316 0.010539082306544106 0 -0.06465740969830415 0.0094287207255399404 0 -0.065898687809361547 0.0088926905843391378 0 -0.065350927752772181 0.010344203513358012 0 -0.06465740969830415 0.0094287207255399404 0 -0.063875099422849316 0.010539082306544106 0 -0.06465740969830415 0.0094287207255399404 0 -0.062013569064338643 0.011087821001199559 0 -0.063875099422849316 0.010539082306544106 0 -0.063173081451689095 0.011224701374188024 0 -0.062013569064338643 0.011087821001199559 0 -0.063904338518578546 0.011689182961023 0 -0.063875099422849316 0.010539082306544106 0 -0.063173081451689095 0.011224701374188024 0 -0.063173081451689095 0.011224701374188024 0 -0.062013569064338643 0.011087821001199559 0 -0.062787639625477107 0.011835518396943084 0 -0.064778285083369566 0.014025620533929486 0 -0.06199966365430544 0.013967949647266404 0 -0.061325506933060797 0.012388758302410482 0 -0.064315207650658499 0.013628776565888602 0 -0.063089620089672657 0.012381422952403152 0 -0.061325506933060797 0.012388758302410482 0 -0.062787639625477107 0.011835518396943084 0 -0.063089620089672657 0.012381422952403152 0 -0.061325506933060797 0.012388758302410482 0 -0.062013569064338643 0.011087821001199559 0 -0.062787639625477107 0.011835518396943084 0 -0.061325506933060797 0.012388758302410482 0 -0.050851421555298294 0.026696916165689533 0 -0.051948437944791009 0.026267905562311619 0 -0.063904338518578546 0.011689182961023 0 -0.062787639625477107 0.011835518396943084 0 -0.063089620089672657 0.012381422952403152 0 -0.063904338518578546 0.011689182961023 0 -0.063173081451689095 0.011224701374188024 0 -0.062787639625477107 0.011835518396943084 0 -0.054220144420511693 0.014213258748038707 0 -0.058809650095842533 0.012238650902927152 0 -0.060322696409929731 0.0080562748651036454 0 -0.060285361300887783 0.014212431169516489 0 -0.06199966365430544 0.013967949647266404 0 -0.061325506933060797 0.012388758302410482 0 -0.058204775323112072 0.014907151292330291 0 -0.060285361300887783 0.014212431169516489 0 -0.058809650095842533 0.012238650902927152 0 -0.086291928541383164 -0.0062846490003031323 0 -0.086256151098796544 -0.0061683988739855856 0 -0.086128042477807545 -0.00636428432352783 0 -0.060285361300887783 0.014212431169516489 0 -0.058809650095842533 0.012238650902927152 0 -0.061325506933060797 0.012388758302410482 0 -0.074527804284751586 0.010080831309997811 0 -0.074937621928931719 0.0032266062605944227 0 -0.062013569064338643 0.011087821001199559 0 -0.061325506933060797 0.012388758302410482 0 -0.060624553704508526 0.010954884546677437 0 -0.058809650095842533 0.012238650902927152 0 -0.061325506933060797 0.012388758302410482 0 -0.060624553704508526 0.010954884546677437 0 -0.058204775323112072 0.014907151292330291 0 -0.054220144420511693 0.014213258748038707 0 -0.058809650095842533 0.012238650902927152 0 -0.058809650095842533 0.012238650902927152 0 -0.060624553704508526 0.010954884546677437 0 -0.060322696409929731 0.0080562748651036454 0 -0.062013569064338643 0.011087821001199559 0 -0.060624553704508526 0.010954884546677437 0 -0.060322696409929731 0.0080562748651036454 0 -0.086256151098796544 -0.0061683988739855856 0 -0.086128042477807545 -0.00636428432352783 0 -0.086250312417075009 -0.0063570193667307094 0 -0.085979994969151347 -0.0066972977598606463 0 -0.086128042477807545 -0.00636428432352783 0 -0.086250312417075009 -0.0063570193667307094 0 -0.066789327475522506 0.001707191906908027 0 -0.062013569064338643 0.011087821001199559 0 -0.060322696409929731 0.0080562748651036454 0 -0.075637295997254203 -0.0015000331922969854 0 -0.074937621928931719 0.0032266062605944227 0 -0.085979994969151347 -0.0066972977598606463 0 -0.0856329172271659 -0.0070043387657996439 0 -0.086128042477807545 -0.00636428432352783 0 -0.075637295997254203 -0.0015000331922969854 0 -0.069326289417390968 0.0069182128483070695 0 -0.065804044695516747 0.0032504737922219116 0 -0.062013569064338643 0.011087821001199559 0 -0.065451230642087646 0.0073931020464927675 0 -0.065898687809361547 0.0088926905843391378 0 -0.06465740969830415 0.0094287207255399404 0 -0.065451230642087646 0.0073931020464927675 0 -0.074999922466273058 0.032157738107179257 0 -0.077252431678176178 0.030723569776436012 0 -0.07499998747503725 0.028116272991001501 0 -0.077268003735806057 0.028672591220470067 0 -0.077252431678176178 0.030723569776436012 0 -0.07499998747503725 0.028116272991001501 0 -0.077268003735806057 0.028672591220470067 0 -0.079300215398343074 0.030516883883221584 0 -0.080422998335716908 0.029019636794385698 0 -0.077268003735806057 0.028672591220470067 0 -0.079300215398343074 0.030516883883221584 0 -0.077252431678176178 0.030723569776436012 0 -0.079188858729718828 0.032656805681495107 0 -0.077252431678176178 0.030723569776436012 0 -0.077353873319084637 0.033504622018585707 0 -0.079300215398343074 0.030516883883221584 0 -0.079188858729718828 0.032656805681495107 0 -0.077252431678176178 0.030723569776436012 0 -0.074999922466273058 0.032157738107179257 0 -0.077252431678176178 0.030723569776436012 0 -0.077353873319084637 0.033504622018585707 0 -0.074999922466273058 0.032157738107179257 0 -0.076869661915161716 0.035528712787486129 0 -0.074999945497696049 0.036199261495303059 0 -0.074999922466273058 0.032157738107179257 0 -0.076869661915161716 0.035528712787486129 0 -0.077353873319084637 0.033504622018585707 0 -0.077223537252973443 0.037980297031018607 0 -0.076869661915161716 0.035528712787486129 0 -0.074999945497696049 0.036199261495303059 0 -0.077223537252973443 0.037980297031018607 0 -0.076869661915161716 0.035528712787486129 0 -0.078704165484423286 0.036092778967691516 0 -0.078704165484423286 0.036092778967691516 0 -0.077353873319084637 0.033504622018585707 0 -0.080651773240027105 0.034212440993151259 0 -0.079188858729718828 0.032656805681495107 0 -0.077353873319084637 0.033504622018585707 0 -0.080774286136392967 0.033723186025631659 0 -0.076869661915161716 0.035528712787486129 0 -0.078704165484423286 0.036092778967691516 0 -0.077353873319084637 0.033504622018585707 0 -0.079539241521098675 0.033508048750653517 0 -0.081071483568063568 0.033608637509021926 0 -0.079188858729718828 0.032656805681495107 0 -0.080774286136392967 0.033723186025631659 0 -0.082499964981669727 0.032782161830882596 0 -0.079696191514274387 0.038954808868856709 0 -0.078704165484423286 0.036092778967691516 0 -0.080311478459981905 0.03638904408704248 0 -0.080651773240027105 0.034212440993151259 0 -0.080311478459981905 0.03638904408704248 0 -0.081923564996679965 0.03700417259049589 0 -0.079696191514274387 0.038954808868856709 0 -0.080311478459981905 0.03638904408704248 0 -0.081923564996679965 0.03700417259049589 0 -0.078704165484423286 0.036092778967691516 0 -0.080651773240027105 0.034212440993151259 0 -0.080311478459981905 0.03638904408704248 0 -0.081923564996679965 0.03700417259049589 0 -0.083838254602544848 0.034761092544041673 0 -0.084258795580284845 0.036677736316615861 0 -0.0843136641715337 0.038548910196671185 0 -0.081923564996679965 0.03700417259049589 0 -0.084258795580284845 0.036677736316615861 0 -0.081071483568063568 0.033608637509021926 0 -0.083777694464092861 0.033642307884826042 0 -0.082499964981669727 0.032782161830882596 0 -0.084629185597286591 0.031929872821298298 0 -0.083976254354848248 0.034022373129910466 0 -0.080774286136392967 0.033723186025631659 0 -0.082499964981669727 0.032782161830882596 0 -0.083976254354848248 0.034022373129910466 0 -0.080651773240027105 0.034212440993151259 0 -0.081923564996679965 0.03700417259049589 0 -0.083838254602544848 0.034761092544041673 0 -0.082799527662605663 0.030841358476104613 0 -0.082499964981669727 0.032782161830882596 0 -0.084629185597286591 0.031929872821298298 0 -0.080192336369338882 0.029507203641151732 0 -0.081898291146919128 0.027620545681706334 0 -0.079188858729718828 0.032656805681495107 0 -0.082799527662605663 0.030841358476104613 0 -0.082499964981669727 0.032782161830882596 0 -0.079300215398343074 0.030516883883221584 0 -0.079188858729718828 0.032656805681495107 0 -0.083100913620441266 0.030567704084997122 0 -0.079300215398343074 0.030516883883221584 0 -0.083100913620441266 0.030567704084997122 0 -0.080422998335716908 0.029019636794385698 0 -0.083100913620441266 0.030567704084997122 0 -0.085303571967945371 0.02761005957439451 0 -0.083704305495718584 0.027781997645766783 0 -0.083100913620441266 0.030567704084997122 0 -0.082299847368739271 0.028297327970924411 0 -0.083704305495718584 0.027781997645766783 0 -0.083100913620441266 0.030567704084997122 0 -0.080422998335716908 0.029019636794385698 0 -0.082299847368739271 0.028297327970924411 0 -0.082799527662605663 0.030841358476104613 0 -0.086306953640608905 0.029067846500308279 0 -0.085116071849870356 0.030888903080785114 0 -0.081898291146919128 0.027620545681706334 0 -0.084680734265248483 0.022364530750563182 0 -0.083100913620441266 0.030567704084997122 0 -0.086972147060796173 0.028543454653535371 0 -0.085303571967945371 0.02761005957439451 0 -0.086306953640608905 0.029067846500308279 0 -0.086724191400263162 0.031714733509989247 0 -0.085116071849870356 0.030888903080785114 0 -0.085525200617735164 0.018699407412277685 0 -0.085737212950596137 0.02031481471114031 0 -0.084680734265248483 0.022364530750563182 0 -0.085743706954517732 0.029619428888927095 0 -0.085642207169226228 0.028652280033016213 0 -0.086507357577926727 0.028215072825044849 0 -0.08616010042096392 0.031907024325127112 0 -0.086507357577926727 0.028215072825044849 0 -0.08616010042096392 0.031907024325127112 0 -0.088547782957147422 0.031605706524450924 0 -0.084680734265248483 0.022364530750563182 0 -0.085525200617735164 0.018699407412277685 0 -0.08616010042096392 0.031907024325127112 0 -0.087900102426737708 0.033633737678535225 0 -0.088547782957147422 0.031605706524450924 0 -0.086724191400263162 0.031714733509989247 0 -0.085116071849870356 0.030888903080785114 0 -0.084629185597286591 0.031929872821298298 0 -0.086724191400263162 0.031714733509989247 0 -0.084629185597286591 0.031929872821298298 0 -0.085643192528305392 0.032884041145738188 0 -0.082799527662605663 0.030841358476104613 0 -0.085116071849870356 0.030888903080785114 0 -0.084629185597286591 0.031929872821298298 0 -0.084629185597286591 0.031929872821298298 0 -0.085643192528305392 0.032884041145738188 0 -0.083976254354848248 0.034022373129910466 0 -0.083838254602544848 0.034761092544041673 0 -0.085440654348280409 0.0359069042710091 0 -0.086971285820485647 0.035185161946889386 0 -0.083777694464092861 0.033642307884826042 0 -0.086118464626449565 0.033277714476986887 0 -0.085643192528305392 0.032884041145738188 0 -0.083976254354848248 0.034022373129910466 0 -0.087139581437661637 0.034350122223235309 0 -0.083838254602544848 0.034761092544041673 0 -0.084258795580284845 0.036677736316615861 0 -0.085440654348280409 0.0359069042710091 0 -0.084258795580284845 0.036677736316615861 0 -0.085440654348280409 0.0359069042710091 0 -0.08577205119811715 0.037195098080396456 0 -0.0843136641715337 0.038548910196671185 0 -0.084258795580284845 0.036677736316615861 0 -0.08577205119811715 0.037195098080396456 0 -0.086765064109300558 0.038740359634967733 0 -0.08577205119811715 0.037195098080396456 0 -0.087334590266232331 0.037340340035238749 0 -0.08577205119811715 0.037195098080396456 0 -0.087334590266232331 0.037340340035238749 0 -0.087088986590886791 0.035975583964143618 0 -0.085440654348280409 0.0359069042710091 0 -0.087088986590886791 0.035975583964143618 0 -0.086971285820485647 0.035185161946889386 0 -0.085440654348280409 0.0359069042710091 0 -0.08577205119811715 0.037195098080396456 0 -0.087088986590886791 0.035975583964143618 0 -0.087334590266232331 0.037340340035238749 0 -0.087088986590886791 0.035975583964143618 0 -0.08834397269866838 0.036770450748526744 0 -0.085743706954517732 0.029619428888927095 0 -0.086118464626449565 0.033277714476986887 0 -0.087088986590886791 0.035975583964143618 0 -0.086948984695431164 0.035139677959764505 0 -0.088142029138650407 0.035231874097264512 0 -0.086690429441468458 0.03508386930841266 0 -0.087900102426737708 0.033633737678535225 0 -0.088142029138650407 0.035231874097264512 0 -0.086118464626449565 0.033277714476986887 0 -0.086325367331694908 0.033355264971135432 0 -0.08616010042096392 0.031907024325127112 0 -0.086690429441468458 0.03508386930841266 0 -0.087900102426737708 0.033633737678535225 0 -0.086724191400263162 0.031714733509989247 0 -0.085643192528305392 0.032884041145738188 0 -0.087139581437661637 0.034350122223235309 0 -0.086148764576312639 0.033418782923042033 0 -0.086118464626449565 0.033277714476986887 0 -0.087900102426737708 0.033633737678535225 0 -0.090406177797836204 0.034895201605915291 0 -0.088547782957147422 0.031605706524450924 0 -0.087900102426737708 0.033633737678535225 0 -0.088142029138650407 0.035231874097264512 0 -0.090406177797836204 0.034895201605915291 0 -0.087118739999927086 0.02377883989899016 0 -0.085737212950596137 0.02031481471114031 0 -0.088142029138650407 0.035231874097264512 0 -0.089779946774145414 0.036893319376182024 0 -0.08834397269866838 0.036770450748526744 0 -0.087088986590886791 0.035975583964143618 0 -0.088142029138650407 0.035231874097264512 0 -0.08834397269866838 0.036770450748526744 0 -0.088142029138650407 0.035231874097264512 0 -0.089779946774145414 0.036893319376182024 0 -0.090406177797836204 0.034895201605915291 0 -0.08873268949784055 0.038036401070023804 0 -0.087334590266232331 0.037340340035238749 0 -0.08834397269866838 0.036770450748526744 0 -0.08873268949784055 0.038036401070023804 0 -0.089779946774145414 0.036893319376182024 0 -0.08834397269866838 0.036770450748526744 0 -0.088703461164557088 0.028036228297469712 0 -0.087118739999927086 0.02377883989899016 0 -0.089779946774145414 0.036893319376182024 0 -0.092097916211715591 0.0378601562160268 0 -0.090406177797836204 0.034895201605915291 0 -0.087132491899446649 0.016333311716219153 0 -0.085880004857454076 0.012726649534201726 0 -0.084306918961518609 0.011599900678848467 0 -0.09026581009625903 0.038865606484050977 0 -0.089779946774145414 0.036893319376182024 0 -0.092097916211715591 0.0378601562160268 0 -0.088429145446328003 0.013096513367021818 0 -0.087132491899446649 0.016333311716219153 0 -0.085880004857454076 0.012726649534201726 0 -0.085880004857454076 0.012726649534201726 0 -0.087226094317457342 0.011379411595870373 0 -0.085962069437730118 0.009079740655192018 0 -0.085880004857454076 0.012726649534201726 0 -0.085962069437730118 0.009079740655192018 0 -0.082060969941138928 0.0055741701373251138 0 -0.085880004857454076 0.012726649534201726 0 -0.084306918961518609 0.011599900678848467 0 -0.083327601455426281 0.007735270879089616 0 -0.088429145446328003 0.013096513367021818 0 -0.085880004857454076 0.012726649534201726 0 -0.087226094317457342 0.011379411595870373 0 -0.083697140752331728 0.010233295061219927 0 -0.082627781012619583 0.0086789916158952485 0 -0.088549234524284093 0.01049532360275837 0 -0.087226094317457342 0.011379411595870373 0 -0.085962069437730118 0.009079740655192018 0 -0.088423472692018446 0.0076041181022590398 0 -0.085962069437730118 0.009079740655192018 0 -0.085626197508816976 0.0060157619063441444 0 -0.088423472692018446 0.0076041181022590398 0 -0.085626197508816976 0.0060157619063441444 0 -0.087222834075424735 0.0044598873334574197 0 -0.085626197508816976 0.0060157619063441444 0 -0.087222834075424735 0.0044598873334574197 0 -0.08430995676838314 0.003351654191595492 0 -0.085626197508816976 0.0060157619063441444 0 -0.082060969941138928 0.0055741701373251138 0 -0.08430995676838314 0.003351654191595492 0 -0.085962069437730118 0.009079740655192018 0 -0.085626197508816976 0.0060157619063441444 0 -0.082060969941138928 0.0055741701373251138 0 -0.084306918961518609 0.011599900678848467 0 -0.081977366722111089 0.0076330843723721922 0 -0.083327601455426281 0.007735270879089616 0 -0.082627781012619583 0.0086789916158952485 0 -0.08429912094181638 0.014294983969877067 0 -0.082060969941138928 0.0055741701373251138 0 -0.080090861956434625 0.00026080665111420984 0 -0.08430995676838314 0.003351654191595492 0 -0.07985450725162746 0.004207770952392758 0 -0.083327601455426281 0.007735270879089616 0 -0.081208549948118033 0.0035296550227931984 0 -0.080090861956434625 0.00026080665111420984 0 -0.083895307703734309 0.00050325349972155868 0 -0.08430995676838314 0.003351654191595492 0 -0.082060969941138928 0.0055741701373251138 0 -0.080090861956434625 0.00026080665111420984 0 -0.078222904689868006 -0.002274913109449871 0 -0.07985450725162746 0.004207770952392758 0 -0.081977366722111089 0.0076330843723721922 0 -0.083327601455426281 0.007735270879089616 0 -0.080090861956434625 0.00026080665111420984 0 -0.082067854135406113 -0.0007513412394092267 0 -0.083895307703734309 0.00050325349972155868 0 -0.080090861956434625 0.00026080665111420984 0 -0.082067854135406113 -0.0007513412394092267 0 -0.079761858717452644 -0.003228784931138116 0 -0.082067854135406113 -0.0007513412394092267 0 -0.083895307703734309 0.00050325349972155868 0 -0.082028327387376379 -0.0031960862284041197 0 -0.083895307703734309 0.00050325349972155868 0 -0.087471955538074256 0.00012527967206000027 0 -0.082028327387376379 -0.0031960862284041197 0 -0.087222834075424735 0.0044598873334574197 0 -0.087471955538074256 0.00012527967206000027 0 -0.08430995676838314 0.003351654191595492 0 -0.083895307703734309 0.00050325349972155868 0 -0.087471955538074256 0.00012527967206000027 0 -0.08430995676838314 0.003351654191595492 0 -0.0835406676179688 -0.0034175993225720102 0 -0.082683624027901068 -0.0039701741035295373 0 -0.083194898566316622 -0.0044229956417194674 0 -0.082940286866397636 0.0042945791500141163 0 -0.082021343061743551 0.0028212635287578145 0 -0.0835406676179688 -0.0034175993225720102 0 -0.082683624027901068 -0.0039701741035295373 0 -0.082028327387376379 -0.0031960862284041197 0 -0.082683624027901068 -0.0039701741035295373 0 -0.081837045658652616 -0.0039083553983932165 0 -0.082498077061667285 -0.005062597230294179 0 -0.082683624027901068 -0.0039701741035295373 0 -0.083194898566316622 -0.0044229956417194674 0 -0.082498077061667285 -0.005062597230294179 0 -0.082683624027901068 -0.0039701741035295373 0 -0.082028327387376379 -0.0031960862284041197 0 -0.081837045658652616 -0.0039083553983932165 0 -0.081401890874406052 -0.0036774199913360787 0 -0.081837045658652616 -0.0039083553983932165 0 -0.081394944228311547 -0.0054827806793379865 0 -0.082067854135406113 -0.0007513412394092267 0 -0.082028327387376379 -0.0031960862284041197 0 -0.079761858717452644 -0.003228784931138116 0 -0.082028327387376379 -0.0031960862284041197 0 -0.079761858717452644 -0.003228784931138116 0 -0.081837045658652616 -0.0039083553983932165 0 -0.082999200900014281 0.012694639994082255 0 -0.083238030676791058 0.012248787029346026 0 -0.08264992569440989 0.01054754886791834 0 -0.082999200900014281 0.012694639994082255 0 -0.080090861956434625 0.00026080665111420984 0 -0.078222904689868006 -0.002274913109449871 0 -0.079632764561142155 -0.0029781797575606484 0 -0.08429912094181638 0.014294983969877067 0 -0.082999200900014281 0.012694639994082255 0 -0.081837045658652616 -0.0039083553983932165 0 -0.081394944228311547 -0.0054827806793379865 0 -0.082498077061667285 -0.005062597230294179 0 -0.082999200900014281 0.012694639994082255 0 -0.083784680980910575 0.0095703930671478376 0 -0.081394944228311547 -0.0054827806793379865 0 -0.082498077061667285 -0.005062597230294179 0 -0.082159495609673602 -0.0062361159804230036 0 -0.083194898566316622 -0.0044229956417194674 0 -0.082498077061667285 -0.005062597230294179 0 -0.083371549701158607 -0.0052100193867943862 0 -0.083945729734244856 -0.0047955412124482512 0 -0.083194898566316622 -0.0044229956417194674 0 -0.083371549701158607 -0.0052100193867943862 0 -0.084014169968453012 -0.0056592593278660926 0 -0.083371549701158607 -0.0052100193867943862 0 -0.083134247540490439 -0.0060815742581228601 0 -0.082498077061667285 -0.005062597230294179 0 -0.083371549701158607 -0.0052100193867943862 0 -0.083134247540490439 -0.0060815742581228601 0 -0.082498077061667285 -0.005062597230294179 0 -0.083134247540490439 -0.0060815742581228601 0 -0.082159495609673602 -0.0062361159804230036 0 -0.083134247540490439 -0.0060815742581228601 0 -0.082864672183540683 -0.00686309842998915 0 -0.082159495609673602 -0.0062361159804230036 0 -0.08369747372673228 -0.0070103662499968111 0 -0.083134247540490439 -0.0060815742581228601 0 -0.082864672183540683 -0.00686309842998915 0 -0.08369747372673228 -0.0070103662499968111 0 -0.082864672183540683 -0.00686309842998915 0 -0.082933453015458597 -0.0076139400851458735 0 -0.082864672183540683 -0.00686309842998915 0 -0.082933453015458597 -0.0076139400851458735 0 -0.08210741938578528 -0.0069793776837948273 0 -0.082035275090562035 -0.0075782059171509404 0 -0.08210741938578528 -0.0069793776837948273 0 -0.081316597639060934 -0.007069558291971134 0 -0.082035275090562035 -0.0075782059171509404 0 -0.081316597639060934 -0.007069558291971134 0 -0.081229171190436489 -0.0076556245570284119 0 -0.082933453015458597 -0.0076139400851458735 0 -0.082035275090562035 -0.0075782059171509404 0 -0.08210741938578528 -0.0069793776837948273 0 -0.082864672183540683 -0.00686309842998915 0 -0.08210741938578528 -0.0069793776837948273 0 -0.082159495609673602 -0.0062361159804230036 0 -0.08210741938578528 -0.0069793776837948273 0 -0.082159495609673602 -0.0062361159804230036 0 -0.081275745275280031 -0.007092581922146928 0 -0.083748178954587402 0.0084368474586273366 0 -0.084701609490276886 0.0095219046136667089 0 -0.081394944228311547 -0.0054827806793379865 0 -0.082159495609673602 -0.0062361159804230036 0 -0.081275745275280031 -0.007092581922146928 0 -0.083784680980910575 0.0095703930671478376 0 -0.084701609490276886 0.0095219046136667089 0 -0.087007451196093794 0.022310268586662234 0 -0.086440028480151171 0.022061326475424366 0 -0.0865148162133733 0.021473948152817873 0 -0.087007451196093794 0.022310268586662234 0 -0.0865148162133733 0.021473948152817873 0 -0.086975004064867578 0.020667545610399088 0 -0.086440028480151171 0.022061326475424366 0 -0.086055047843087207 0.021906204462332851 0 -0.0865148162133733 0.021473948152817873 0 -0.086055047843087207 0.021906204462332851 0 -0.08594849490327662 0.022330272751679689 0 -0.086110612748864793 0.022196145685900445 0 -0.086440028480151171 0.022061326475424366 0 -0.086055047843087207 0.021906204462332851 0 -0.086110612748864793 0.022196145685900445 0 -0.086055047843087207 0.021906204462332851 0 -0.0865148162133733 0.021473948152817873 0 -0.085535727091854821 0.021546347811756957 0 -0.0865148162133733 0.021473948152817873 0 -0.086975004064867578 0.020667545610399088 0 -0.086179791044372636 0.020413285219395432 0 -0.0865148162133733 0.021473948152817873 0 -0.086179791044372636 0.020413285219395432 0 -0.085535727091854821 0.021546347811756957 0 -0.084701609490276886 0.0095219046136667089 0 -0.083799881437592275 0.012177073311205492 0 -0.081911949509015133 0.016611212987680351 0 -0.083186079635630614 0.015827430477600421 0 -0.08243217006394736 0.0149957382286179 0 -0.083799881437592275 0.012177073311205492 0 -0.085316962849683778 0.0094329412779659352 0 -0.084910885219095178 0.011115656218634234 0 -0.085616576788081961 0.011222101045607455 0 -0.084984035162049346 0.011633345656766663 0 -0.084701609490276886 0.0095219046136667089 0 -0.085316962849683778 0.0094329412779659352 0 -0.086179791044372636 0.020413285219395432 0 -0.085535727091854821 0.021546347811756957 0 -0.083697390294054444 0.021844712296923533 0 -0.083799881437592275 0.012177073311205492 0 -0.081125934153557566 0.015365364673257186 0 -0.081911949509015133 0.016611212987680351 0 -0.079110643902843211 0.016282347621680085 0 -0.080336048313051828 0.014895714734148866 0 -0.083799881437592275 0.012177073311205492 0 -0.082560947682248267 0.015119340848976237 0 -0.086849177661386015 0.019756852729153573 0 -0.083697390294054444 0.021844712296923533 0 -0.082908978084613005 0.019199097297507642 0 -0.086055047843087207 0.021906204462332851 0 -0.085535727091854821 0.021546347811756957 0 -0.08594849490327662 0.022330272751679689 0 -0.085839405173055064 0.022265019035057489 0 -0.085869164340626636 0.022382394904033483 0 -0.085535727091854821 0.021546347811756957 0 -0.084724317992490236 0.023022542823953305 0 -0.083697390294054444 0.021844712296923533 0 -0.085535727091854821 0.021546347811756957 0 -0.084724317992490236 0.023022542823953305 0 -0.086150603411408941 0.023832872632684497 0 -0.084724317992490236 0.023022542823953305 0 -0.085014674457623729 0.024011744410852243 0 -0.083606952190674294 0.02472769063725986 0 -0.086167915272395007 0.025581382645304827 0 -0.086150603411408941 0.023832872632684497 0 -0.086619353909973176 0.026278257684942886 0 -0.084724317992490236 0.023022542823953305 0 -0.085014674457623729 0.024011744410852243 0 -0.086150603411408941 0.023832872632684497 0 -0.085869164340626636 0.022382394904033483 0 -0.085782307290618032 0.021812223294947568 0 -0.08520187447666526 0.024813858326838838 0 -0.084840470006373042 0.02614710373603054 0 -0.083606952190674294 0.02472769063725986 0 -0.085014674457623729 0.024011744410852243 0 -0.08520187447666526 0.024813858326838838 0 -0.083606952190674294 0.02472769063725986 0 -0.08520187447666526 0.024813858326838838 0 -0.086167915272395007 0.025581382645304827 0 -0.084840470006373042 0.02614710373603054 0 -0.08520187447666526 0.024813858326838838 0 -0.086167915272395007 0.025581382645304827 0 -0.086150603411408941 0.023832872632684497 0 -0.085014674457623729 0.024011744410852243 0 -0.08520187447666526 0.024813858326838838 0 -0.086150603411408941 0.023832872632684497 0 -0.086110612748864793 0.022196145685900445 0 -0.086538761453198776 0.022488135710321287 0 -0.08656207369607466 0.02294073204315937 0 -0.08710558431414045 0.023500875094702486 0 -0.087007451196093794 0.022310268586662234 0 -0.08656207369607466 0.02294073204315937 0 -0.08594849490327662 0.022330272751679689 0 -0.086110612748864793 0.022196145685900445 0 -0.086221145770879401 0.022554601020361491 0 -0.086288234992104682 0.019619101062583903 0 -0.08593298357793569 0.0185937559018233 0 -0.08594849490327662 0.022330272751679689 0 -0.086221145770879401 0.022554601020361491 0 -0.086041523068533451 0.022661399311866524 0 -0.086440028480151171 0.022061326475424366 0 -0.086110612748864793 0.022196145685900445 0 -0.086538761453198776 0.022488135710321287 0 -0.087007451196093794 0.022310268586662234 0 -0.086440028480151171 0.022061326475424366 0 -0.086538761453198776 0.022488135710321287 0 -0.087007451196093794 0.022310268586662234 0 -0.086538761453198776 0.022488135710321287 0 -0.08656207369607466 0.02294073204315937 0 -0.086221145770879401 0.022554601020361491 0 -0.086041523068533451 0.022661399311866524 0 -0.086196037289572897 0.022720552766846876 0 -0.08429912094181638 0.014294983969877067 0 -0.08593298357793569 0.0185937559018233 0 -0.086888270100939413 0.023606860085730139 0 -0.08710558431414045 0.023500875094702486 0 -0.08656207369607466 0.02294073204315937 0 -0.086325461783791815 0.022794392159567436 0 -0.086221145770879401 0.022554601020361491 0 -0.086196037289572897 0.022720552766846876 0 -0.085525200617735164 0.018699407412277685 0 -0.08429912094181638 0.014294983969877067 0 -0.08619033441686702 0.022866561711173444 0 -0.086325461783791815 0.022794392159567436 0 -0.086196037289572897 0.022720552766846876 0 -0.085525200617735164 0.018699407412277685 0 -0.085782307290618032 0.021812223294947568 0 -0.084680734265248483 0.022364530750563182 0 -0.085782307290618032 0.021812223294947568 0 -0.08619033441686702 0.022866561711173444 0 -0.086041523068533451 0.022661399311866524 0 -0.086196037289572897 0.022720552766846876 0 -0.086529108932416207 0.017896514924346293 0 -0.085298951053100619 0.018517112722131975 0 -0.087093014749215658 0.021433648505871421 0 -0.086972147060796173 0.028543454653535371 0 -0.086609322169078684 0.026284703006146003 0 -0.085303571967945371 0.02761005957439451 0 -0.085303571967945371 0.02761005957439451 0 -0.084840470006373042 0.02614710373603054 0 -0.083704305495718584 0.027781997645766783 0 -0.085303571967945371 0.02761005957439451 0 -0.084840470006373042 0.02614710373603054 0 -0.085710897198610955 0.026359466019773552 0 -0.086167915272395007 0.025581382645304827 0 -0.084840470006373042 0.02614710373603054 0 -0.085710897198610955 0.026359466019773552 0 -0.086609322169078684 0.026284703006146003 0 -0.085303571967945371 0.02761005957439451 0 -0.085710897198610955 0.026359466019773552 0 -0.086167915272395007 0.025581382645304827 0 -0.086609322169078684 0.026284703006146003 0 -0.085710897198610955 0.026359466019773552 0 -0.085854262616779378 0.021966168569613889 0 -0.085782307290618032 0.021812223294947568 0 -0.083052704277387257 0.026586623356232422 0 -0.080809250282107267 0.025983043102488248 0 -0.083606952190674294 0.02472769063725986 0 -0.084840470006373042 0.02614710373603054 0 -0.083052704277387257 0.026586623356232422 0 -0.083704305495718584 0.027781997645766783 0 -0.084840470006373042 0.02614710373603054 0 -0.083052704277387257 0.026586623356232422 0 -0.083606952190674294 0.02472769063725986 0 -0.082299847368739271 0.028297327970924411 0 -0.083052704277387257 0.026586623356232422 0 -0.083704305495718584 0.027781997645766783 0 -0.082299847368739271 0.028297327970924411 0 -0.083052704277387257 0.026586623356232422 0 -0.080809250282107267 0.025983043102488248 0 -0.080422998335716908 0.029019636794385698 0 -0.082299847368739271 0.028297327970924411 0 -0.080809250282107267 0.025983043102488248 0 -0.080422998335716908 0.029019636794385698 0 -0.080809250282107267 0.025983043102488248 0 -0.077706410936445383 0.02650433229146839 0 -0.080809250282107267 0.025983043102488248 0 -0.082189981554768768 0.023258323192660531 0 -0.079732419198974461 0.023041231144820543 0 -0.080809250282107267 0.025983043102488248 0 -0.083606952190674294 0.02472769063725986 0 -0.082189981554768768 0.023258323192660531 0 -0.084724317992490236 0.023022542823953305 0 -0.083606952190674294 0.02472769063725986 0 -0.082189981554768768 0.023258323192660531 0 -0.084724317992490236 0.023022542823953305 0 -0.082189981554768768 0.023258323192660531 0 -0.083697390294054444 0.021844712296923533 0 -0.082189981554768768 0.023258323192660531 0 -0.083697390294054444 0.021844712296923533 0 -0.081458833199932704 0.021186871380571626 0 -0.083697390294054444 0.021844712296923533 0 -0.082908978084613005 0.019199097297507642 0 -0.081458833199932704 0.021186871380571626 0 -0.081125934153557566 0.015365364673257186 0 -0.077860400132716598 0.016916678995194105 0 -0.082908978084613005 0.019199097297507642 0 -0.081458833199932704 0.021186871380571626 0 -0.078951813737220766 0.018643434176424688 0 -0.079732419198974461 0.023041231144820543 0 -0.081458833199932704 0.021186871380571626 0 -0.078951813737220766 0.018643434176424688 0 -0.082189981554768768 0.023258323192660531 0 -0.079732419198974461 0.023041231144820543 0 -0.081458833199932704 0.021186871380571626 0 -0.079732419198974461 0.023041231144820543 0 -0.077250115142120129 0.022553454624030016 0 -0.078951813737220766 0.018643434176424688 0 -0.074999989346150001 0.021069387228193383 0 -0.077250115142120129 0.022553454624030016 0 -0.078951813737220766 0.018643434176424688 0 -0.074999989346150001 0.021069387228193383 0 -0.074999987119611561 0.018063867877560241 0 -0.078951813737220766 0.018643434176424688 0 -0.074999989346150001 0.021069387228193383 0 -0.077250115142120129 0.022553454624030016 0 -0.07499999630133479 0.024074788938250907 0 -0.07500247649166783 0.024077182591237149 0 -0.077352811773658145 0.026217039034983874 0 -0.077250115142120129 0.022553454624030016 0 -0.07499999630133479 0.024074788938250907 0 -0.077706410936445383 0.02650433229146839 0 -0.080809250282107267 0.025983043102488248 0 -0.079732419198974461 0.023041231144820543 0 -0.077706410936445383 0.02650433229146839 0 -0.079732419198974461 0.023041231144820543 0 -0.077250115142120129 0.022553454624030016 0 -0.077706410936445383 0.02650433229146839 0 -0.078647325548613548 0.027395793516258402 0 -0.077352811773658145 0.026217039034983874 0 -0.077268003735806057 0.028672591220470067 0 -0.080422998335716908 0.029019636794385698 0 -0.077720361745624911 0.026586835750028195 0 -0.074999989573738282 0.024074975971858838 0 -0.077720361745624911 0.026586835750028195 0 -0.07499998747503725 0.028116272991001501 0 -0.077268003735806057 0.028672591220470067 0 -0.077720361745624911 0.026586835750028195 0 -0.07499998747503725 0.028116272991001501 0 -0.077000179277789793 0.01077561524610794 0 -0.074999951242715676 0.010371313535101496 0 -0.076579305538325551 0.012393367571439433 0 -0.077000179277789793 0.01077561524610794 0 -0.078122715526681777 0.011910239275755286 0 -0.076579305538325551 0.012393367571439433 0 -0.077000179277789793 0.01077561524610794 0 -0.076544766316956003 0.0093831476233649409 0 -0.077691659079172054 0.0096909797119869787 0 -0.077000179277789793 0.01077561524610794 0 -0.074999951242715676 0.010371313535101496 0 -0.076544766316956003 0.0093831476233649409 0 -0.079427335565678714 0.010901557177336737 0 -0.078122715526681777 0.011910239275755286 0 -0.080630362152180612 0.012239356965587938 0 -0.081386758627637057 0.0098041929179127369 0 -0.078421857213680127 0.0087425574360663755 0 -0.078520947018609913 0.0092102932974531069 0 -0.077000179277789793 0.01077561524610794 0 -0.077691659079172054 0.0096909797119869787 0 -0.078177046111689519 0.010547093303341184 0 -0.077691659079172054 0.0096909797119869787 0 -0.078383798014987335 0.0098771797891252303 0 -0.078520947018609913 0.0092102932974531069 0 -0.077691659079172054 0.0096909797119869787 0 -0.078383798014987335 0.0098771797891252303 0 -0.078177046111689519 0.010547093303341184 0 -0.078383798014987335 0.0098771797891252303 0 -0.079149013381724156 0.010069668527210966 0 -0.078520947018609913 0.0092102932974531069 0 -0.078383798014987335 0.0098771797891252303 0 -0.079149013381724156 0.010069668527210966 0 -0.078177046111689519 0.010547093303341184 0 -0.079149013381724156 0.010069668527210966 0 -0.079427335565678714 0.010901557177336737 0 -0.078177046111689519 0.010547093303341184 0 -0.079427335565678714 0.010901557177336737 0 -0.078177046111689519 0.010547093303341184 0 -0.078122715526681777 0.011910239275755286 0 -0.077000179277789793 0.01077561524610794 0 -0.078177046111689519 0.010547093303341184 0 -0.078122715526681777 0.011910239275755286 0 -0.077215031550893473 0.014113406254368738 0 -0.07929259904257896 0.011516454544977163 0 -0.076076092595787514 0.013909777296172782 0 -0.077487687641302386 0.013208554960332191 0 -0.077552367916819756 0.011359240605148185 0 -0.078122715526681777 0.011910239275755286 0 -0.076579305538325551 0.012393367571439433 0 -0.07782123132567044 0.014497007048839076 0 -0.078122715526681777 0.011910239275755286 0 -0.07782123132567044 0.014497007048839076 0 -0.080630362152180612 0.012239356965587938 0 -0.074999954363287144 0.0136125192410001 0 -0.076579305538325551 0.012393367571439433 0 -0.07782123132567044 0.014497007048839076 0 -0.074999951242715676 0.010371313535101496 0 -0.074999954363287144 0.0136125192410001 0 -0.076579305538325551 0.012393367571439433 0 -0.074998855995509345 0.016854376646988588 0 -0.076078344827275948 0.015993300557108996 0 -0.076076092595787514 0.013909777296172782 0 -0.074999954363287144 0.0136125192410001 0 -0.075000005081282711 0.016853660434327004 0 -0.07782123132567044 0.014497007048839076 0 -0.07500199415608147 0.016850152759470959 0 -0.077215031550893473 0.014113406254368738 0 -0.074998855995509345 0.016854376646988588 0 -0.075000194754038949 0.018060858207580015 0 -0.076078344827275948 0.015993300557108996 0 -0.075000194754038949 0.018060858207580015 0 -0.076078344827275948 0.015993300557108996 0 -0.076843083442425256 0.016426324140454834 0 -0.075002427803573052 0.018061400245748774 0 -0.077860400132716598 0.016916678995194105 0 -0.076078344827275948 0.015993300557108996 0 -0.076843083442425256 0.016426324140454834 0 -0.077651624793502474 0.014692435581635981 0 -0.076076092595787514 0.013909777296172782 0 -0.077487687641302386 0.013208554960332191 0 -0.077651624793502474 0.014692435581635981 0 -0.076078344827275948 0.015993300557108996 0 -0.076076092595787514 0.013909777296172782 0 -0.077651624793502474 0.014692435581635981 0 -0.077487687641302386 0.013208554960332191 0 -0.077651624793502474 0.014692435581635981 0 -0.078753143211872836 0.012822559887751637 0 -0.079110643902843211 0.016282347621680085 0 -0.076843083442425256 0.016426324140454834 0 -0.077651624793502474 0.014692435581635981 0 -0.079110643902843211 0.016282347621680085 0 -0.079502775388461885 0.014054728875564915 0 -0.080336048313051828 0.014895714734148866 0 -0.079110643902843211 0.016282347621680085 0 -0.077651624793502474 0.014692435581635981 0 -0.079502775388461885 0.014054728875564915 0 -0.077651624793502474 0.014692435581635981 0 -0.079502775388461885 0.014054728875564915 0 -0.078753143211872836 0.012822559887751637 0 -0.079502775388461885 0.014054728875564915 0 -0.079931588576814205 0.012150861002847343 0 -0.080576436523472655 0.012799978926420293 0 -0.079502775388461885 0.014054728875564915 0 -0.078753143211872836 0.012822559887751637 0 -0.079931588576814205 0.012150861002847343 0 -0.078753143211872836 0.012822559887751637 0 -0.079931588576814205 0.012150861002847343 0 -0.079222343833012535 0.011143700220151913 0 -0.078753143211872836 0.012822559887751637 0 -0.079222343833012535 0.011143700220151913 0 -0.077552367916819756 0.011359240605148185 0 -0.079931588576814205 0.012150861002847343 0 -0.079222343833012535 0.011143700220151913 0 -0.080424272560731175 0.010364380138063603 0 -0.077487687641302386 0.013208554960332191 0 -0.078753143211872836 0.012822559887751637 0 -0.077552367916819756 0.011359240605148185 0 -0.081386758627637057 0.0098041929179127369 0 -0.08431856153249688 0.0094937924901817468 0 -0.080662886808255035 0.0075700584771996446 0 -0.078972423601897768 0.0081311775196484404 0 -0.077599532905114871 0.0073754311584905714 0 -0.079149013381724156 0.010069668527210966 0 -0.081386758627637057 0.0098041929179127369 0 -0.078520947018609913 0.0092102932974531069 0 -0.080630362152180612 0.012239356965587938 0 -0.081386758627637057 0.0098041929179127369 0 -0.08431856153249688 0.0094937924901817468 0 -0.079427335565678714 0.010901557177336737 0 -0.080630362152180612 0.012239356965587938 0 -0.081386758627637057 0.0098041929179127369 0 -0.079149013381724156 0.010069668527210966 0 -0.079427335565678714 0.010901557177336737 0 -0.081386758627637057 0.0098041929179127369 0 -0.07929259904257896 0.011516454544977163 0 -0.081304554149672678 0.0088767150421320534 0 -0.079222343833012535 0.011143700220151913 0 -0.077552367916819756 0.011359240605148185 0 -0.07943968445211394 0.0089776243689652958 0 -0.079222343833012535 0.011143700220151913 0 -0.07943968445211394 0.0089776243689652958 0 -0.080424272560731175 0.010364380138063603 0 -0.081018716545263214 0.0087890397098570813 0 -0.08176763484803394 0.0095905965368518822 0 -0.080424272560731175 0.010364380138063603 0 -0.07943968445211394 0.0089776243689652958 0 -0.081018716545263214 0.0087890397098570813 0 -0.080424272560731175 0.010364380138063603 0 -0.08176763484803394 0.0095905965368518822 0 -0.083236957505454789 0.0087523496169513541 0 -0.082049338340697997 0.0080423627026738539 0 -0.081018716545263214 0.0087890397098570813 0 -0.08176763484803394 0.0095905965368518822 0 -0.082049338340697997 0.0080423627026738539 0 -0.08176763484803394 0.0095905965368518822 0 -0.082683156998849552 0.010892211930138401 0 -0.083236957505454789 0.0087523496169513541 0 -0.08176763484803394 0.0095905965368518822 0 -0.082683156998849552 0.010892211930138401 0 -0.081286944480448833 0.011456014209600678 0 -0.082683156998849552 0.010892211930138401 0 -0.082085909477074059 0.011882633413529319 0 -0.082639507532247303 0.01244954092029567 0 -0.082683156998849552 0.010892211930138401 0 -0.081286944480448833 0.011456014209600678 0 -0.082085909477074059 0.011882633413529319 0 -0.081286944480448833 0.011456014209600678 0 -0.081400743473146311 0.012522053851839882 0 -0.082085909477074059 0.011882633413529319 0 -0.08176763484803394 0.0095905965368518822 0 -0.081286944480448833 0.011456014209600678 0 -0.080424272560731175 0.010364380138063603 0 -0.079931588576814205 0.012150861002847343 0 -0.081286944480448833 0.011456014209600678 0 -0.080424272560731175 0.010364380138063603 0 -0.079931588576814205 0.012150861002847343 0 -0.081286944480448833 0.011456014209600678 0 -0.080576436523472655 0.012799978926420293 0 -0.080576436523472655 0.012799978926420293 0 -0.081400743473146311 0.012522053851839882 0 -0.08081405793881187 0.013698692204740933 0 -0.081286944480448833 0.011456014209600678 0 -0.080576436523472655 0.012799978926420293 0 -0.081400743473146311 0.012522053851839882 0 -0.08081405793881187 0.013698692204740933 0 -0.081322225174829316 0.014278193239738411 0 -0.081827410127308681 0.013317983779722379 0 -0.081400743473146311 0.012522053851839882 0 -0.08081405793881187 0.013698692204740933 0 -0.081827410127308681 0.013317983779722379 0 -0.079502775388461885 0.014054728875564915 0 -0.080576436523472655 0.012799978926420293 0 -0.08081405793881187 0.013698692204740933 0 -0.08081405793881187 0.013698692204740933 0 -0.080336048313051828 0.014895714734148866 0 -0.081322225174829316 0.014278193239738411 0 -0.081911949509015133 0.016611212987680351 0 -0.080336048313051828 0.014895714734148866 0 -0.081634084453531125 0.015095850611204269 0 -0.079502775388461885 0.014054728875564915 0 -0.08081405793881187 0.013698692204740933 0 -0.080336048313051828 0.014895714734148866 0 -0.080336048313051828 0.014895714734148866 0 -0.081322225174829316 0.014278193239738411 0 -0.081634084453531125 0.015095850611204269 0 -0.081322225174829316 0.014278193239738411 0 -0.081634084453531125 0.015095850611204269 0 -0.082053835415278151 0.014331332307436169 0 -0.083186079635630614 0.015827430477600421 0 -0.08243217006394736 0.0149957382286179 0 -0.082982793759525136 0.013979145151801623 0 -0.085316962849683778 0.0094329412779659352 0 -0.0854001627696271 0.0096424922450614892 0 -0.081911949509015133 0.016611212987680351 0 -0.081634084453531125 0.015095850611204269 0 -0.08243217006394736 0.0149957382286179 0 -0.08243217006394736 0.0149957382286179 0 -0.082053835415278151 0.014331332307436169 0 -0.082982793759525136 0.013979145151801623 0 -0.081634084453531125 0.015095850611204269 0 -0.08243217006394736 0.0149957382286179 0 -0.082053835415278151 0.014331332307436169 0 -0.081322225174829316 0.014278193239738411 0 -0.082053835415278151 0.014331332307436169 0 -0.081827410127308681 0.013317983779722379 0 -0.082053835415278151 0.014331332307436169 0 -0.082982793759525136 0.013979145151801623 0 -0.082344272134734942 0.013533901657304531 0 -0.082982793759525136 0.013979145151801623 0 -0.082344272134734942 0.013533901657304531 0 -0.082639507532247303 0.01244954092029567 0 -0.0854001627696271 0.0096424922450614892 0 -0.085337643427931056 0.010070879314750935 0 -0.082720978862383179 0.013160270661843164 0 -0.082639507532247303 0.01244954092029567 0 -0.083491966402836307 0.012636673299143017 0 -0.082053835415278151 0.014331332307436169 0 -0.082344272134734942 0.013533901657304531 0 -0.081827410127308681 0.013317983779722379 0 -0.082344272134734942 0.013533901657304531 0 -0.081827410127308681 0.013317983779722379 0 -0.082639507532247303 0.01244954092029567 0 -0.081827410127308681 0.013317983779722379 0 -0.082085909477074059 0.011882633413529319 0 -0.082639507532247303 0.01244954092029567 0 -0.081400743473146311 0.012522053851839882 0 -0.081827410127308681 0.013317983779722379 0 -0.082085909477074059 0.011882633413529319 0 -0.082683156998849552 0.010892211930138401 0 -0.082639507532247303 0.01244954092029567 0 -0.083858343542788163 0.011712646447187875 0 -0.083858343542788163 0.011712646447187875 0 -0.083491966402836307 0.012636673299143017 0 -0.084890261929454258 0.01332432101980457 0 -0.082639507532247303 0.01244954092029567 0 -0.083858343542788163 0.011712646447187875 0 -0.083491966402836307 0.012636673299143017 0 -0.082720978862383179 0.013160270661843164 0 -0.083491966402836307 0.012636673299143017 0 -0.084890261929454258 0.01332432101980457 0 -0.085316962849683778 0.0094329412779659352 0 -0.08558907478453677 0.008326938030243208 0 -0.0854001627696271 0.0096424922450614892 0 -0.08558907478453677 0.008326938030243208 0 -0.085237495228856652 0.0090548047463619909 0 -0.085216512846665066 0.0089031688463863789 0 -0.085441359970810205 0.0089206461273999942 0 -0.082035275090562035 -0.0075782059171509404 0 -0.081229171190436489 -0.0076556245570284119 0 -0.082614254984704719 -0.0085821676179304897 0 -0.082933453015458597 -0.0076139400851458735 0 -0.082614254984704719 -0.0085821676179304897 0 -0.084373352271751398 -0.0084544126933555706 0 -0.08558907478453677 0.008326938030243208 0 -0.085707437579927367 0.0041688803609848217 0 -0.082933453015458597 -0.0076139400851458735 0 -0.082035275090562035 -0.0075782059171509404 0 -0.082614254984704719 -0.0085821676179304897 0 -0.08558907478453677 0.008326938030243208 0 -0.085404323323587869 0.0095765636277399119 0 -0.084890261929454258 0.01332432101980457 0 -0.085391300605790102 0.010852501464173882 0 -0.087473625603856853 0.011473611647443469 0 -0.083858343542788163 0.011712646447187875 0 -0.084890261929454258 0.01332432101980457 0 -0.085391300605790102 0.010852501464173882 0 -0.085391300605790102 0.010852501464173882 0 -0.084006797181291309 0.010208704840143294 0 -0.084959425836352631 0.0088040982644602365 0 -0.085391300605790102 0.010852501464173882 0 -0.084959425836352631 0.0088040982644602365 0 -0.086607332949362154 0.0089834772614582302 0 -0.083858343542788163 0.011712646447187875 0 -0.085391300605790102 0.010852501464173882 0 -0.084006797181291309 0.010208704840143294 0 -0.082683156998849552 0.010892211930138401 0 -0.084006797181291309 0.010208704840143294 0 -0.083236957505454789 0.0087523496169513541 0 -0.082683156998849552 0.010892211930138401 0 -0.083858343542788163 0.011712646447187875 0 -0.084006797181291309 0.010208704840143294 0 -0.083236957505454789 0.0087523496169513541 0 -0.084959425836352631 0.0088040982644602365 0 -0.084528254818719256 0.0068177687244777409 0 -0.084006797181291309 0.010208704840143294 0 -0.083236957505454789 0.0087523496169513541 0 -0.084959425836352631 0.0088040982644602365 0 -0.084959425836352631 0.0088040982644602365 0 -0.086068334459433266 0.0067789597171597441 0 -0.084528254818719256 0.0068177687244777409 0 -0.084959425836352631 0.0088040982644602365 0 -0.086068334459433266 0.0067789597171597441 0 -0.086607332949362154 0.0089834772614582302 0 -0.086068334459433266 0.0067789597171597441 0 -0.084950369252998967 0.0044214116329585537 0 -0.086574741498463406 0.0037982345587233299 0 -0.086068334459433266 0.0067789597171597441 0 -0.084528254818719256 0.0068177687244777409 0 -0.084950369252998967 0.0044214116329585537 0 -0.084528254818719256 0.0068177687244777409 0 -0.083617472509185942 0.0048203941420964106 0 -0.082495297380375004 0.0056289031173140242 0 -0.083236957505454789 0.0087523496169513541 0 -0.084528254818719256 0.0068177687244777409 0 -0.083028513686412453 0.0071866247695544306 0 -0.083428396432915067 0.0068449539278085678 0 -0.082902793892543569 0.006754334434492565 0 -0.083617472509185942 0.0048203941420964106 0 -0.082522541740982919 0.0041151217176515877 0 -0.082495297380375004 0.0056289031173140242 0 -0.084528254818719256 0.0068177687244777409 0 -0.083617472509185942 0.0048203941420964106 0 -0.084950369252998967 0.0044214116329585537 0 -0.083617472509185942 0.0048203941420964106 0 -0.08365188831603125 0.0030135881066143608 0 -0.084950369252998967 0.0044214116329585537 0 -0.083617472509185942 0.0048203941420964106 0 -0.08365188831603125 0.0030135881066143608 0 -0.082522541740982919 0.0041151217176515877 0 -0.08365188831603125 0.0030135881066143608 0 -0.084950369252998967 0.0044214116329585537 0 -0.08514455330636661 0.0021277322060540794 0 -0.084950369252998967 0.0044214116329585537 0 -0.08514455330636661 0.0021277322060540794 0 -0.086574741498463406 0.0037982345587233299 0 -0.08514455330636661 0.0021277322060540794 0 -0.084275405829635192 0.00022391379703777788 0 -0.086778136320736401 0.001082903682603566 0 -0.085437770246264769 -0.0012403160898766679 0 -0.084275405829635192 0.00022391379703777788 0 -0.086778136320736401 0.001082903682603566 0 -0.08365188831603125 0.0030135881066143608 0 -0.084275405829635192 0.00022391379703777788 0 -0.081663054894643941 0.0027310008528129994 0 -0.08365188831603125 0.0030135881066143608 0 -0.08514455330636661 0.0021277322060540794 0 -0.084275405829635192 0.00022391379703777788 0 -0.084275405829635192 0.00022391379703777788 0 -0.081663054894643941 0.0027310008528129994 0 -0.081092654535550493 0.00092121014897368928 0 -0.083343634155684951 -0.0017366730867457122 0 -0.084275405829635192 0.00022391379703777788 0 -0.082175675053922495 -0.00011936565465230423 0 -0.08302374256712651 0.00032807093676288847 0 -0.081622963599847886 0.00045680422402118181 0 -0.081622963599847886 0.00045680422402118181 0 -0.079331069986822961 0.00068353810228442586 0 -0.081663054894643941 0.0027310008528129994 0 -0.081092654535550493 0.00092121014897368928 0 -0.079832778972449628 0.0024835711223041078 0 -0.081092654535550493 0.00092121014897368928 0 -0.079832778972449628 0.0024835711223041078 0 -0.078849710653410954 0.001299328374478455 0 -0.081663054894643941 0.0027310008528129994 0 -0.079832778972449628 0.0024835711223041078 0 -0.080501442887394359 0.0036077497556166339 0 -0.080501442887394359 0.0036077497556166339 0 -0.080953002315980904 0.004604714914929032 0 -0.078869638652302482 0.0036958948059670604 0 -0.080501442887394359 0.0036077497556166339 0 -0.081335916258422611 0.0044189228142144611 0 -0.080953002315980904 0.004604714914929032 0 -0.08365188831603125 0.0030135881066143608 0 -0.081663054894643941 0.0027310008528129994 0 -0.082522541740982919 0.0041151217176515877 0 -0.081663054894643941 0.0027310008528129994 0 -0.080501442887394359 0.0036077497556166339 0 -0.081335916258422611 0.0044189228142144611 0 -0.081663054894643941 0.0027310008528129994 0 -0.082522541740982919 0.0041151217176515877 0 -0.081335916258422611 0.0044189228142144611 0 -0.082902793892543569 0.006754334434492565 0 -0.082190258217175904 0.006698995276961957 0 -0.081335916258422611 0.0044189228142144611 0 -0.082495297380375004 0.0056289031173140242 0 -0.080797934395356458 0.0048360898346547143 0 -0.083028513686412453 0.0071866247695544306 0 -0.082049338340697997 0.0080423627026738539 0 -0.081417648597942094 0.0070019651584832341 0 -0.082198770567334128 0.006645868006902797 0 -0.082190258217175904 0.006698995276961957 0 -0.082522541740982919 0.0041151217176515877 0 -0.081335916258422611 0.0044189228142144611 0 -0.082495297380375004 0.0056289031173140242 0 -0.083236957505454789 0.0087523496169513541 0 -0.083028513686412453 0.0071866247695544306 0 -0.082049338340697997 0.0080423627026738539 0 -0.082190258217175904 0.006698995276961957 0 -0.080573857736250004 0.0052910656438375095 0 -0.081304554149672678 0.0088767150421320534 0 -0.082190258217175904 0.006698995276961957 0 -0.07943968445211394 0.0089776243689652958 0 -0.081018716545263214 0.0087890397098570813 0 -0.081417648597942094 0.0070019651584832341 0 -0.081018716545263214 0.0087890397098570813 0 -0.082049338340697997 0.0080423627026738539 0 -0.081417648597942094 0.0070019651584832341 0 -0.08431856153249688 0.0094937924901817468 0 -0.08839881569414991 0.0061938041413022449 0 -0.082733671730348429 0.0047967143960422924 0 -0.08431856153249688 0.0094937924901817468 0 -0.080662886808255035 0.0075700584771996446 0 -0.082733671730348429 0.0047967143960422924 0 -0.080662886808255035 0.0075700584771996446 0 -0.079163990311580723 0.0055888488074252339 0 -0.082733671730348429 0.0047967143960422924 0 -0.081386758627637057 0.0098041929179127369 0 -0.080662886808255035 0.0075700584771996446 0 -0.07703082039590993 0.0078323392264249714 0 -0.080662886808255035 0.0075700584771996446 0 -0.079163990311580723 0.0055888488074252339 0 -0.078299600868672298 0.0065741328776355032 0 -0.080573857736250004 0.0052910656438375095 0 -0.078814019220068338 0.0045833615205382984 0 -0.079163990311580723 0.0055888488074252339 0 -0.082733671730348429 0.0047967143960422924 0 -0.076855738772646426 0.0032612963447787961 0 -0.078869638652302482 0.0036958948059670604 0 -0.078334860139588375 0.0025283474149562441 0 -0.076855738772646426 0.0032612963447787961 0 -0.079832778972449628 0.0024835711223041078 0 -0.080501442887394359 0.0036077497556166339 0 -0.078869638652302482 0.0036958948059670604 0 -0.079832778972449628 0.0024835711223041078 0 -0.078869638652302482 0.0036958948059670604 0 -0.078334860139588375 0.0025283474149562441 0 -0.079832778972449628 0.0024835711223041078 0 -0.078849710653410954 0.001299328374478455 0 -0.078334860139588375 0.0025283474149562441 0 -0.0801636263618246 -0.0021332346992051351 0 -0.082175675053922495 -0.00011936565465230423 0 -0.079809968515051205 0.0001536152466693426 0 -0.079809968515051205 0.0001536152466693426 0 -0.076610820401130347 0.00095062350105264224 0 -0.077548709875036065 -0.00026787351046498231 0 -0.078307818865679155 -0.0015259826146101225 0 -0.079809968515051205 0.0001536152466693426 0 -0.077548709875036065 -0.00026787351046498231 0 -0.0801636263618246 -0.0021332346992051351 0 -0.078307818865679155 -0.0015259826146101225 0 -0.079809968515051205 0.0001536152466693426 0 -0.079331069986822961 0.00068353810228442586 0 -0.077882425248232523 0.00082056982418552088 0 -0.078849710653410954 0.001299328374478455 0 -0.078334860139588375 0.0025283474149562441 0 -0.077098729672160346 0.0020328996662680029 0 -0.078849710653410954 0.001299328374478455 0 -0.077098729672160346 0.0020328996662680029 0 -0.076610820401130347 0.00095062350105264224 0 -0.076610820401130347 0.00095062350105264224 0 -0.076033162424683526 0.00038468518302829603 0 -0.076246221317477714 0.0029144814970732767 0 -0.076643405961656863 0.0013448462132633068 0 -0.077121793202293398 0.0043692174883978386 0 -0.077098729672160346 0.0020328996662680029 0 -0.076610820401130347 0.00095062350105264224 0 -0.076246221317477714 0.0029144814970732767 0 -0.076610820401130347 0.00095062350105264224 0 -0.077548709875036065 -0.00026787351046498231 0 -0.076033162424683526 0.00038468518302829603 0 -0.076890362299483539 -0.0013149707748204493 0 -0.077548709875036065 -0.00026787351046498231 0 -0.076033162424683526 0.00038468518302829603 0 -0.078307818865679155 -0.0015259826146101225 0 -0.076890362299483539 -0.0013149707748204493 0 -0.077548709875036065 -0.00026787351046498231 0 -0.075787651425341565 -0.0024724482802602563 0 -0.076890362299483539 -0.0013149707748204493 0 -0.076033162424683526 0.00038468518302829603 0 -0.076220629647705901 -0.0013168930914824932 0 -0.076643405961656863 0.0013448462132633068 0 -0.074999979918157419 -0.0017235947800690581 0 -0.077230812153536679 0.0019108780754383175 0 -0.074999994861121494 0.0027034132589628074 0 -0.074999994861121494 0.0027034132589628074 0 -0.076641525240961433 0.003799577265607053 0 -0.074999996226232643 0.0071301657925273813 0 -0.077230812153536679 0.0019108780754383175 0 -0.076641525240961433 0.003799577265607053 0 -0.077873989163313964 0.0053417195371051884 0 -0.077230812153536679 0.0019108780754383175 0 -0.074999994861121494 0.0027034132589628074 0 -0.076641525240961433 0.003799577265607053 0 -0.076641525240961433 0.003799577265607053 0 -0.077873989163313964 0.0053417195371051884 0 -0.074999996226232643 0.0071301657925273813 0 -0.078334860139588375 0.0025283474149562441 0 -0.077098729672160346 0.0020328996662680029 0 -0.076855738772646426 0.0032612963447787961 0 -0.077098729672160346 0.0020328996662680029 0 -0.076855738772646426 0.0032612963447787961 0 -0.076246221317477714 0.0029144814970732767 0 -0.079163990311580723 0.0055888488074252339 0 -0.076855738772646426 0.0032612963447787961 0 -0.077435516051039044 0.0051866183409962352 0 -0.076246221317477714 0.0029144814970732767 0 -0.077435516051039044 0.0051866183409962352 0 -0.077229914108911057 0.0059290599816966792 0 -0.076855738772646426 0.0032612963447787961 0 -0.076246221317477714 0.0029144814970732767 0 -0.077435516051039044 0.0051866183409962352 0 -0.080662886808255035 0.0075700584771996446 0 -0.078299600868672298 0.0065741328776355032 0 -0.07703082039590993 0.0078323392264249714 0 -0.076246221317477714 0.0029144814970732767 0 -0.077229914108911057 0.0059290599816966792 0 -0.07703082039590993 0.0078323392264249714 0 -0.077121793202293398 0.0043692174883978386 0 -0.077599532905114871 0.0073754311584905714 0 -0.079163990311580723 0.0055888488074252339 0 -0.077435516051039044 0.0051866183409962352 0 -0.078299600868672298 0.0065741328776355032 0 -0.077229914108911057 0.0059290599816966792 0 -0.078299600868672298 0.0065741328776355032 0 -0.07703082039590993 0.0078323392264249714 0 -0.077435516051039044 0.0051866183409962352 0 -0.077229914108911057 0.0059290599816966792 0 -0.078299600868672298 0.0065741328776355032 0 -0.077599532905114871 0.0073754311584905714 0 -0.077607741188864474 0.0074054512391535064 0 -0.076544766316956003 0.0093831476233649409 0 -0.077691659079172054 0.0096909797119869787 0 -0.078445334890523688 0.0087548953320888186 0 -0.077691659079172054 0.0096909797119869787 0 -0.078445334890523688 0.0087548953320888186 0 -0.078520947018609913 0.0092102932974531069 0 -0.074999951242715676 0.010371313535101496 0 -0.076544766316956003 0.0093831476233649409 0 -0.07499999837549251 0.0071302961479312605 0 -0.077599532905114871 0.0073754311584905714 0 -0.075003210586295554 0.0071300306682086116 0 -0.077873989163313964 0.0053417195371051884 0 -0.078515146762143911 0.0087541802080093271 0 -0.074999996226232643 0.0071301657925273813 0 -0.076544766316956003 0.0093831476233649409 0 -0.078445334890523688 0.0087548953320888186 0 -0.07499999837549251 0.0071302961479312605 0 -0.085830026679313359 -0.0046233681182996948 0 -0.086750206549733325 -0.0025918531553765036 0 -0.085327753184773009 -0.0032931161566401835 0 -0.085830026679313359 -0.0046233681182996948 0 -0.084176230199092317 -0.0047653169298613489 0 -0.084847645859947751 -0.0058382115192390314 0 -0.085830026679313359 -0.0046233681182996948 0 -0.085327753184773009 -0.0032931161566401835 0 -0.084176230199092317 -0.0047653169298613489 0 -0.085830026679313359 -0.0046233681182996948 0 -0.086946012490308242 -0.0041481577786352999 0 -0.086750206549733325 -0.0025918531553765036 0 -0.085830026679313359 -0.0046233681182996948 0 -0.086946012490308242 -0.0041481577786352999 0 -0.086623159506357572 -0.0053854961391265046 0 -0.086750206549733325 -0.0025918531553765036 0 -0.085327753184773009 -0.0032931161566401835 0 -0.085789098092287089 -0.0015492315108147257 0 -0.085327753184773009 -0.0032931161566401835 0 -0.083851969304180721 -0.0022304720725916469 0 -0.085789098092287089 -0.0015492315108147257 0 -0.083851969304180721 -0.0022304720725916469 0 -0.084033515542713419 -0.0036101037027288355 0 -0.082639031591825063 -0.00415465019026865 0 -0.085327753184773009 -0.0032931161566401835 0 -0.083851969304180721 -0.0022304720725916469 0 -0.084033515542713419 -0.0036101037027288355 0 -0.083851969304180721 -0.0022304720725916469 0 -0.08194477588102661 -0.002968794135226915 0 -0.082639031591825063 -0.00415465019026865 0 -0.08194477588102661 -0.002968794135226915 0 -0.081224516155954954 -0.001916623555241512 0 -0.080261262891262064 -0.0030908229023548419 0 -0.083851969304180721 -0.0022304720725916469 0 -0.08194477588102661 -0.002968794135226915 0 -0.082568856885352995 -0.0017863281706184746 0 -0.08194477588102661 -0.002968794135226915 0 -0.081224516155954954 -0.001916623555241512 0 -0.082568856885352995 -0.0017863281706184746 0 -0.08194477588102661 -0.002968794135226915 0 -0.080752608953551019 -0.0043231602593376238 0 -0.082639031591825063 -0.00415465019026865 0 -0.08194477588102661 -0.002968794135226915 0 -0.080752608953551019 -0.0043231602593376238 0 -0.080261262891262064 -0.0030908229023548419 0 -0.080752608953551019 -0.0043231602593376238 0 -0.082639031591825063 -0.00415465019026865 0 -0.08088631471403758 -0.0054971451857223266 0 -0.082639031591825063 -0.00415465019026865 0 -0.08088631471403758 -0.0054971451857223266 0 -0.082398831757717422 -0.0057000640802022653 0 -0.085327753184773009 -0.0032931161566401835 0 -0.084033515542713419 -0.0036101037027288355 0 -0.084176230199092317 -0.0047653169298613489 0 -0.084033515542713419 -0.0036101037027288355 0 -0.082639031591825063 -0.00415465019026865 0 -0.084176230199092317 -0.0047653169298613489 0 -0.082639031591825063 -0.00415465019026865 0 -0.084176230199092317 -0.0047653169298613489 0 -0.082398831757717422 -0.0057000640802022653 0 -0.084176230199092317 -0.0047653169298613489 0 -0.083720078659953387 -0.0061109600038612606 0 -0.084847645859947751 -0.0058382115192390314 0 -0.084176230199092317 -0.0047653169298613489 0 -0.083720078659953387 -0.0061109600038612606 0 -0.082398831757717422 -0.0057000640802022653 0 -0.083720078659953387 -0.0061109600038612606 0 -0.082569659839674917 -0.0073516487965038261 0 -0.084285231555091683 -0.0067536322346271162 0 -0.083720078659953387 -0.0061109600038612606 0 -0.084285231555091683 -0.0067536322346271162 0 -0.084847645859947751 -0.0058382115192390314 0 -0.08088631471403758 -0.0054971451857223266 0 -0.080915409228781432 -0.0063859604481690388 0 -0.082398831757717422 -0.0057000640802022653 0 -0.083720078659953387 -0.0061109600038612606 0 -0.082398831757717422 -0.0057000640802022653 0 -0.082569659839674917 -0.0073516487965038261 0 -0.080915409228781432 -0.0063859604481690388 0 -0.082398831757717422 -0.0057000640802022653 0 -0.082569659839674917 -0.0073516487965038261 0 -0.080915409228781432 -0.0063859604481690388 0 -0.082569659839674917 -0.0073516487965038261 0 -0.080199983590489202 -0.0074066720820640062 0 -0.084209567515207751 -0.011005333347234003 0 -0.082569659839674917 -0.0073516487965038261 0 -0.080686447480424875 -0.0094123078035356859 0 -0.082569659839674917 -0.0073516487965038261 0 -0.080686447480424875 -0.0094123078035356859 0 -0.080199983590489202 -0.0074066720820640062 0 -0.080405186599037587 -0.0073626288533495329 0 -0.08106560863805809 -0.0077596626807909571 0 -0.084637718519495794 -0.0072427199964079396 0 -0.082569659839674917 -0.0073516487965038261 0 -0.084110608220136746 -0.0071234271058296314 0 -0.082569659839674917 -0.0073516487965038261 0 -0.084285231555091683 -0.0067536322346271162 0 -0.084110608220136746 -0.0071234271058296314 0 -0.084285231555091683 -0.0067536322346271162 0 -0.084110608220136746 -0.0071234271058296314 0 -0.08482670412450373 -0.0070197068819452067 0 -0.084637718519495794 -0.0072427199964079396 0 -0.084110608220136746 -0.0071234271058296314 0 -0.08482670412450373 -0.0070197068819452067 0 -0.08482670412450373 -0.0070197068819452067 0 -0.085432167484188332 -0.006838017706657225 0 -0.085206903902372066 -0.0065225055520005491 0 -0.085432167484188332 -0.006838017706657225 0 -0.085206903902372066 -0.0065225055520005491 0 -0.085906311917270772 -0.0065909067096968504 0 -0.085206903902372066 -0.0065225055520005491 0 -0.085851962408968016 -0.0059146703904966926 0 -0.085906311917270772 -0.0065909067096968504 0 -0.084285231555091683 -0.0067536322346271162 0 -0.08482670412450373 -0.0070197068819452067 0 -0.085206903902372066 -0.0065225055520005491 0 -0.084285231555091683 -0.0067536322346271162 0 -0.085206903902372066 -0.0065225055520005491 0 -0.084847645859947751 -0.0058382115192390314 0 -0.085830026679313359 -0.0046233681182996948 0 -0.084847645859947751 -0.0058382115192390314 0 -0.085851962408968016 -0.0059146703904966926 0 -0.085206903902372066 -0.0065225055520005491 0 -0.084847645859947751 -0.0058382115192390314 0 -0.085851962408968016 -0.0059146703904966926 0 -0.085830026679313359 -0.0046233681182996948 0 -0.086623159506357572 -0.0053854961391265046 0 -0.085851962408968016 -0.0059146703904966926 0 -0.086623159506357572 -0.0053854961391265046 0 -0.085851962408968016 -0.0059146703904966926 0 -0.086429883274229957 -0.0062345008170927724 0 -0.085851962408968016 -0.0059146703904966926 0 -0.086429883274229957 -0.0062345008170927724 0 -0.085906311917270772 -0.0065909067096968504 0 -0.086349903818932261 -0.0067071745914306403 0 -0.086429883274229957 -0.0062345008170927724 0 -0.085906311917270772 -0.0065909067096968504 0 -0.086349903818932261 -0.0067071745914306403 0 -0.086429883274229957 -0.0062345008170927724 0 -0.086796590364724521 -0.006521833185714733 0 -0.086429883274229957 -0.0062345008170927724 0 -0.086796590364724521 -0.006521833185714733 0 -0.086939688969658535 -0.0058861782410116756 0 -0.086796590364724521 -0.006521833185714733 0 -0.08744529439213064 -0.0059521068103720416 0 -0.086939688969658535 -0.0058861782410116756 0 -0.086796590364724521 -0.006521833185714733 0 -0.087147109536446221 -0.0064153310855388892 0 -0.08744529439213064 -0.0059521068103720416 0 -0.086796590364724521 -0.006521833185714733 0 -0.086906525952440541 -0.0067005848855700564 0 -0.087147109536446221 -0.0064153310855388892 0 -0.086570382467849691 -0.0068239405330419592 0 -0.086796590364724521 -0.006521833185714733 0 -0.086906525952440541 -0.0067005848855700564 0 -0.086450339609778951 -0.0070003480970530227 0 -0.086906525952440541 -0.0067005848855700564 0 -0.087552573542404311 -0.0064294525324717104 0 -0.086906525952440541 -0.0067005848855700564 0 -0.087552573542404311 -0.0064294525324717104 0 -0.08748206916297542 -0.0064330258841729764 0 -0.086906525952440541 -0.0067005848855700564 0 -0.087147109536446221 -0.0064153310855388892 0 -0.08748206916297542 -0.0064330258841729764 0 -0.085046764959869806 -0.0011748400733343778 0 -0.084993697690439629 0.00090750144790748726 0 -0.086450339609778951 -0.0070003480970530227 0 -0.086351255851198419 -0.0082931428998650851 0 -0.085269021818643626 -0.0076875330061844278 0 -0.084993697690439629 0.00090750144790748726 0 -0.085011964517471658 0.0008921749366711569 0 -0.087147109536446221 -0.0064153310855388892 0 -0.08748206916297542 -0.0064330258841729764 0 -0.08744529439213064 -0.0059521068103720416 0 -0.087711362659170677 -0.0064133982218432129 0 -0.08748206916297542 -0.0064330258841729764 0 -0.08744529439213064 -0.0059521068103720416 0 -0.084993697690439629 0.00090750144790748726 0 -0.0873338966357768 0.0027350108986979932 0 -0.087711362659170677 -0.0064133982218432129 0 -0.08744529439213064 -0.0059521068103720416 0 -0.088798142400707977 -0.0046165019059453034 0 -0.08744529439213064 -0.0059521068103720416 0 -0.087538527791927098 -0.0049875224183763712 0 -0.088798142400707977 -0.0046165019059453034 0 -0.090747318471211744 0.013735344906803263 0 -0.089182247142126733 0.012117648188402034 0 -0.090643707122636599 0.010931564604356748 0 -0.086946012490308242 -0.0041481577786352999 0 -0.086623159506357572 -0.0053854961391265046 0 -0.087538527791927098 -0.0049875224183763712 0 -0.086623159506357572 -0.0053854961391265046 0 -0.086429883274229957 -0.0062345008170927724 0 -0.086939688969658535 -0.0058861782410116756 0 -0.086623159506357572 -0.0053854961391265046 0 -0.087538527791927098 -0.0049875224183763712 0 -0.086939688969658535 -0.0058861782410116756 0 -0.08744529439213064 -0.0059521068103720416 0 -0.087538527791927098 -0.0049875224183763712 0 -0.086939688969658535 -0.0058861782410116756 0 -0.084401325171072544 -0.0074688111633311946 0 -0.082933453015458597 -0.0076139400851458735 0 -0.084373352271751398 -0.0084544126933555706 0 -0.086351255851198419 -0.0082931428998650851 0 -0.084373352271751398 -0.0084544126933555706 0 -0.085269021818643626 -0.0076875330061844278 0 -0.084993697690439629 0.00090750144790748726 0 -0.085707437579927367 0.0041688803609848217 0 -0.090747318471211744 0.013735344906803263 0 -0.087732690420602125 0.013474892468133317 0 -0.089182247142126733 0.012117648188402034 0 -0.084401325171072544 -0.0074688111633311946 0 -0.084373352271751398 -0.0084544126933555706 0 -0.085269021818643626 -0.0076875330061844278 0 -0.084796820658498334 0.013205813243326514 0 -0.087732690420602125 0.013474892468133317 0 -0.087473625603856853 0.011473611647443469 0 -0.087732690420602125 0.013474892468133317 0 -0.089182247142126733 0.012117648188402034 0 -0.087473625603856853 0.011473611647443469 0 -0.085391300605790102 0.010852501464173882 0 -0.087473625603856853 0.011473611647443469 0 -0.086607332949362154 0.0089834772614582302 0 -0.087473625603856853 0.011473611647443469 0 -0.088725820110710993 0.0096845689546146869 0 -0.086607332949362154 0.0089834772614582302 0 -0.089182247142126733 0.012117648188402034 0 -0.087473625603856853 0.011473611647443469 0 -0.088725820110710993 0.0096845689546146869 0 -0.088725820110710993 0.0096845689546146869 0 -0.090643707122636599 0.010931564604356748 0 -0.090504257077528127 0.0078877390677598615 0 -0.089182247142126733 0.012117648188402034 0 -0.088725820110710993 0.0096845689546146869 0 -0.090643707122636599 0.010931564604356748 0 -0.088725820110710993 0.0096845689546146869 0 -0.090504257077528127 0.0078877390677598615 0 -0.087979541271094794 0.0063533328364921158 0 -0.088725820110710993 0.0096845689546146869 0 -0.086607332949362154 0.0089834772614582302 0 -0.087979541271094794 0.0063533328364921158 0 -0.086068334459433266 0.0067789597171597441 0 -0.086607332949362154 0.0089834772614582302 0 -0.087979541271094794 0.0063533328364921158 0 -0.086946012490308242 -0.0041481577786352999 0 -0.087538527791927098 -0.0049875224183763712 0 -0.087946993189982711 -0.0033111995496211432 0 -0.088798142400707977 -0.0046165019059453034 0 -0.089409295232998759 -0.0023612916259539729 0 -0.087946993189982711 -0.0033111995496211432 0 -0.0873338966357768 0.0027350108986979932 0 -0.088453911467865409 0.0027121701174273039 0 -0.087538527791927098 -0.0049875224183763712 0 -0.088798142400707977 -0.0046165019059453034 0 -0.087946993189982711 -0.0033111995496211432 0 -0.089409295232998759 -0.0023612916259539729 0 -0.087946993189982711 -0.0033111995496211432 0 -0.088195936299973146 -0.00095436583420693008 0 -0.086750206549733325 -0.0025918531553765036 0 -0.087946993189982711 -0.0033111995496211432 0 -0.088195936299973146 -0.00095436583420693008 0 -0.086946012490308242 -0.0041481577786352999 0 -0.086750206549733325 -0.0025918531553765036 0 -0.087946993189982711 -0.0033111995496211432 0 -0.088453911467865409 0.0027121701174273039 0 -0.088862418960491935 0.0022733767278198913 0 -0.089409295232998759 -0.0023612916259539729 0 -0.088195936299973146 -0.00095436583420693008 0 -0.089426041963387937 -0.00021564648005801331 0 -0.088195936299973146 -0.00095436583420693008 0 -0.088600191771141992 0.00051804034759477349 0 -0.089426041963387937 -0.00021564648005801331 0 -0.088600191771141992 0.00051804034759477349 0 -0.089426041963387937 -0.00021564648005801331 0 -0.088815225808531933 0.001260908837106924 0 -0.088862418960491935 0.0022733767278198913 0 -0.088903204490596105 0.0019419442057732341 0 -0.088195936299973146 -0.00095436583420693008 0 -0.088600191771141992 0.00051804034759477349 0 -0.088003064920316315 0.00049684560588629707 0 -0.088195936299973146 -0.00095436583420693008 0 -0.088003064920316315 0.00049684560588629707 0 -0.087135540156428978 -0.00045889885925822648 0 -0.086068334459433266 0.0067789597171597441 0 -0.087979541271094794 0.0063533328364921158 0 -0.086574741498463406 0.0037982345587233299 0 -0.090504257077528127 0.0078877390677598615 0 -0.090074714137574244 0.0045826639862470309 0 -0.087979541271094794 0.0063533328364921158 0 -0.090074714137574244 0.0045826639862470309 0 -0.088157387843393262 0.0030711598712440807 0 -0.088815225808531933 0.001260908837106924 0 -0.090074714137574244 0.0045826639862470309 0 -0.087979541271094794 0.0063533328364921158 0 -0.088157387843393262 0.0030711598712440807 0 -0.087979541271094794 0.0063533328364921158 0 -0.088157387843393262 0.0030711598712440807 0 -0.086574741498463406 0.0037982345587233299 0 -0.08514455330636661 0.0021277322060540794 0 -0.086574741498463406 0.0037982345587233299 0 -0.086778136320736401 0.001082903682603566 0 -0.088157387843393262 0.0030711598712440807 0 -0.086574741498463406 0.0037982345587233299 0 -0.086778136320736401 0.001082903682603566 0 -0.088157387843393262 0.0030711598712440807 0 -0.086778136320736401 0.001082903682603566 0 -0.088815225808531933 0.001260908837106924 0 -0.087390242055992023 -0.00062249068813161458 0 -0.086778136320736401 0.001082903682603566 0 -0.088815225808531933 0.001260908837106924 0 -0.088258114552052597 -1.9032014221749483e-05 0 -0.087390242055992023 -0.00062249068813161458 0 -0.088815225808531933 0.001260908837106924 0 -0.087390242055992023 -0.00062249068813161458 0 -0.085437770246264769 -0.0012403160898766679 0 -0.086778136320736401 0.001082903682603566 0 -0.088003064920316315 0.00049684560588629707 0 -0.088353273559449344 0.001086424099511144 0 -0.087558016478427134 0.0011754057249471846 0 -0.088600191771141992 0.00051804034759477349 0 -0.088003064920316315 0.00049684560588629707 0 -0.088353273559449344 0.001086424099511144 0 -0.088353273559449344 0.001086424099511144 0 -0.087998604073532757 0.0012935074645046491 0 -0.087558016478427134 0.0011754057249471846 0 -0.088600191771141992 0.00051804034759477349 0 -0.088353273559449344 0.001086424099511144 0 -0.088815225808531933 0.001260908837106924 0 -0.088258114552052597 -1.9032014221749483e-05 0 -0.088353273559449344 0.001086424099511144 0 -0.088815225808531933 0.001260908837106924 0 -0.088258114552052597 -1.9032014221749483e-05 0 -0.088353273559449344 0.001086424099511144 0 -0.087998604073532757 0.0012935074645046491 0 -0.087931396114105026 0.0003216112215124255 0 -0.087998604073532757 0.0012935074645046491 0 -0.087908475923782731 0.0015196490539007004 0 -0.087998604073532757 0.0012935074645046491 0 -0.087908475923782731 0.0015196490539007004 0 -0.0874686829557587 0.0020791277390777374 0 -0.087908475923782731 0.0015196490539007004 0 -0.087723176593118499 0.0026580819494915627 0 -0.0874686829557587 0.0020791277390777374 0 -0.088236523791640417 0.0011040735759626156 0 -0.087908475923782731 0.0015196490539007004 0 -0.087723176593118499 0.0026580819494915627 0 -0.087723176593118499 0.0026580819494915627 0 -0.0874686829557587 0.0020791277390777374 0 -0.086912613172918388 0.0028352829168917766 0 -0.0874686829557587 0.0020791277390777374 0 -0.086689244716095001 0.0015817938532882482 0 -0.087558016478427134 0.0011754057249471846 0 -0.0874686829557587 0.0020791277390777374 0 -0.086689244716095001 0.0015817938532882482 0 -0.086912613172918388 0.0028352829168917766 0 -0.087998604073532757 0.0012935074645046491 0 -0.0874686829557587 0.0020791277390777374 0 -0.087558016478427134 0.0011754057249471846 0 -0.088003064920316315 0.00049684560588629707 0 -0.087558016478427134 0.0011754057249471846 0 -0.087135540156428978 -0.00045889885925822648 0 -0.087558016478427134 0.0011754057249471846 0 -0.086316216208504021 0.00020575689813697332 0 -0.087135540156428978 -0.00045889885925822648 0 -0.086689244716095001 0.0015817938532882482 0 -0.087558016478427134 0.0011754057249471846 0 -0.086316216208504021 0.00020575689813697332 0 -0.086689244716095001 0.0015817938532882482 0 -0.086316216208504021 0.00020575689813697332 0 -0.085568752524045624 0.00079264056255428641 0 -0.086316216208504021 0.00020575689813697332 0 -0.0848867912783694 -0.00071266082120308724 0 -0.085568752524045624 0.00079264056255428641 0 -0.086316216208504021 0.00020575689813697332 0 -0.085789098092287089 -0.0015492315108147257 0 -0.0848867912783694 -0.00071266082120308724 0 -0.086316216208504021 0.00020575689813697332 0 -0.085789098092287089 -0.0015492315108147257 0 -0.087135540156428978 -0.00045889885925822648 0 -0.086750206549733325 -0.0025918531553765036 0 -0.085789098092287089 -0.0015492315108147257 0 -0.087135540156428978 -0.00045889885925822648 0 -0.086750206549733325 -0.0025918531553765036 0 -0.088195936299973146 -0.00095436583420693008 0 -0.087135540156428978 -0.00045889885925822648 0 -0.082113443071462039 -0.00085127513263021884 0 -0.082967807015991324 0.00030700345826213665 0 -0.081459950794162933 0.00027316465405961956 0 -0.082113443071462039 -0.00085127513263021884 0 -0.083504407383427667 -0.00086107664530735194 0 -0.082967807015991324 0.00030700345826213665 0 -0.082113443071462039 -0.00085127513263021884 0 -0.081459950794162933 0.00027316465405961956 0 -0.080470772299315374 -0.00069291203061756887 0 -0.082113443071462039 -0.00085127513263021884 0 -0.081224516155954954 -0.001916623555241512 0 -0.080470772299315374 -0.00069291203061756887 0 -0.082113443071462039 -0.00085127513263021884 0 -0.082568856885352995 -0.0017863281706184746 0 -0.083504407383427667 -0.00086107664530735194 0 -0.082113443071462039 -0.00085127513263021884 0 -0.081224516155954954 -0.001916623555241512 0 -0.082568856885352995 -0.0017863281706184746 0 -0.083851969304180721 -0.0022304720725916469 0 -0.082568856885352995 -0.0017863281706184746 0 -0.083504407383427667 -0.00086107664530735194 0 -0.083851969304180721 -0.0022304720725916469 0 -0.085789098092287089 -0.0015492315108147257 0 -0.0848867912783694 -0.00071266082120308724 0 -0.083851969304180721 -0.0022304720725916469 0 -0.0848867912783694 -0.00071266082120308724 0 -0.083504407383427667 -0.00086107664530735194 0 -0.083504407383427667 -0.00086107664530735194 0 -0.084387112793046656 0.00019330613127654676 0 -0.082967807015991324 0.00030700345826213665 0 -0.0848867912783694 -0.00071266082120308724 0 -0.083504407383427667 -0.00086107664530735194 0 -0.084387112793046656 0.00019330613127654676 0 -0.084387112793046656 0.00019330613127654676 0 -0.083739682091440823 0.0018673788053282664 0 -0.082967807015991324 0.00030700345826213665 0 -0.0848867912783694 -0.00071266082120308724 0 -0.084387112793046656 0.00019330613127654676 0 -0.085568752524045624 0.00079264056255428641 0 -0.084387112793046656 0.00019330613127654676 0 -0.085568752524045624 0.00079264056255428641 0 -0.085469332264408934 0.0018759876551011174 0 -0.086689244716095001 0.0015817938532882482 0 -0.085568752524045624 0.00079264056255428641 0 -0.085469332264408934 0.0018759876551011174 0 -0.084387112793046656 0.00019330613127654676 0 -0.083739682091440823 0.0018673788053282664 0 -0.085469332264408934 0.0018759876551011174 0 -0.082411769755622075 0.001320232373597597 0 -0.083739682091440823 0.0018673788053282664 0 -0.082967807015991324 0.00030700345826213665 0 -0.082411769755622075 0.001320232373597597 0 -0.083739682091440823 0.0018673788053282664 0 -0.08120492356004945 0.0025171521075210393 0 -0.082411769755622075 0.001320232373597597 0 -0.082967807015991324 0.00030700345826213665 0 -0.081459950794162933 0.00027316465405961956 0 -0.081459950794162933 0.00027316465405961956 0 -0.08120492356004945 0.0025171521075210393 0 -0.079737379884713688 0.00087442569457012989 0 -0.082411769755622075 0.001320232373597597 0 -0.081459950794162933 0.00027316465405961956 0 -0.08120492356004945 0.0025171521075210393 0 -0.083739682091440823 0.0018673788053282664 0 -0.083339081780335486 0.0036126171361376405 0 -0.085539966722331204 0.0031698346544346339 0 -0.083739682091440823 0.0018673788053282664 0 -0.08120492356004945 0.0025171521075210393 0 -0.083339081780335486 0.0036126171361376405 0 -0.08120492356004945 0.0025171521075210393 0 -0.083339081780335486 0.0036126171361376405 0 -0.081365041255253887 0.0051148674547992394 0 -0.086689244716095001 0.0015817938532882482 0 -0.085469332264408934 0.0018759876551011174 0 -0.086912613172918388 0.0028352829168917766 0 -0.083739682091440823 0.0018673788053282664 0 -0.085469332264408934 0.0018759876551011174 0 -0.085539966722331204 0.0031698346544346339 0 -0.085539966722331204 0.0031698346544346339 0 -0.086912613172918388 0.0028352829168917766 0 -0.087250950101392513 0.0041919659443133998 0 -0.085469332264408934 0.0018759876551011174 0 -0.085539966722331204 0.0031698346544346339 0 -0.086912613172918388 0.0028352829168917766 0 -0.084839597851802492 0.011240507002905438 0 -0.087250950101392513 0.0041919659443133998 0 -0.08416262017778528 0.006596791769002984 0 -0.087723176593118499 0.0026580819494915627 0 -0.086912613172918388 0.0028352829168917766 0 -0.087250950101392513 0.0041919659443133998 0 -0.085539966722331204 0.0031698346544346339 0 -0.087250950101392513 0.0041919659443133998 0 -0.08416262017778528 0.006596791769002984 0 -0.088843641250231059 0.0021358883286994074 0 -0.087723176593118499 0.0026580819494915627 0 -0.087250950101392513 0.0041919659443133998 0 -0.081365041255253887 0.0051148674547992394 0 -0.08416262017778528 0.006596791769002984 0 -0.081028786777383149 0.0075654953578462381 0 -0.083339081780335486 0.0036126171361376405 0 -0.085539966722331204 0.0031698346544346339 0 -0.08416262017778528 0.006596791769002984 0 -0.083339081780335486 0.0036126171361376405 0 -0.081365041255253887 0.0051148674547992394 0 -0.08416262017778528 0.006596791769002984 0 -0.082082721377930531 0.0090284210971380841 0 -0.08416262017778528 0.006596791769002984 0 -0.081028786777383149 0.0075654953578462381 0 -0.082082721377930531 0.0090284210971380841 0 -0.080517872636524893 0.0098125457188109159 0 -0.081028786777383149 0.0075654953578462381 0 -0.081028786777383149 0.0075654953578462381 0 -0.079233177967581975 0.008616022245148007 0 -0.078883162689935379 0.006646757915258302 0 -0.080517872636524893 0.0098125457188109159 0 -0.081028786777383149 0.0075654953578462381 0 -0.079233177967581975 0.008616022245148007 0 -0.081365041255253887 0.0051148674547992394 0 -0.081028786777383149 0.0075654953578462381 0 -0.078883162689935379 0.006646757915258302 0 -0.078883162689935379 0.006646757915258302 0 -0.075709789227389745 0.0074005984802871863 0 -0.077588613996187883 0.00505541789325169 0 -0.079233177967581975 0.008616022245148007 0 -0.078883162689935379 0.006646757915258302 0 -0.077083493225806793 0.0091523248932434496 0 -0.073914594837646813 0.010115345215417834 0 -0.075709789227389745 0.0074005984802871863 0 -0.071609272923670864 0.0080478115152092401 0 -0.073914594837646813 0.010115345215417834 0 -0.077083493225806793 0.0091523248932434496 0 -0.075709789227389745 0.0074005984802871863 0 -0.075709789227389745 0.0074005984802871863 0 -0.074549021899624521 0.0053171364296967921 0 -0.071609272923670864 0.0080478115152092401 0 -0.078883162689935379 0.006646757915258302 0 -0.077083493225806793 0.0091523248932434496 0 -0.075709789227389745 0.0074005984802871863 0 -0.075709789227389745 0.0074005984802871863 0 -0.074549021899624521 0.0053171364296967921 0 -0.077588613996187883 0.00505541789325169 0 -0.074549021899624521 0.0053171364296967921 0 -0.076455646811442513 0.003705393051849238 0 -0.075159266690796617 0.0024498854008806487 0 -0.074549021899624521 0.0053171364296967921 0 -0.076455646811442513 0.003705393051849238 0 -0.077588613996187883 0.00505541789325169 0 -0.076455646811442513 0.003705393051849238 0 -0.077588613996187883 0.00505541789325169 0 -0.078849822746390352 0.0027112214829922176 0 -0.079657058776338205 0.0043519716465844262 0 -0.077588613996187883 0.00505541789325169 0 -0.078849822746390352 0.0027112214829922176 0 -0.08120492356004945 0.0025171521075210393 0 -0.079657058776338205 0.0043519716465844262 0 -0.078849822746390352 0.0027112214829922176 0 -0.08120492356004945 0.0025171521075210393 0 -0.081365041255253887 0.0051148674547992394 0 -0.079657058776338205 0.0043519716465844262 0 -0.081365041255253887 0.0051148674547992394 0 -0.078883162689935379 0.006646757915258302 0 -0.079657058776338205 0.0043519716465844262 0 -0.078883162689935379 0.006646757915258302 0 -0.079657058776338205 0.0043519716465844262 0 -0.077588613996187883 0.00505541789325169 0 -0.067531954959588553 0.01123899949524652 0 -0.067775466366726878 0.0083465905770791823 0 -0.071609272923670864 0.0080478115152092401 0 -0.067775466366726878 0.0083465905770791823 0 -0.071609272923670864 0.0080478115152092401 0 -0.069686799556534215 0.0065763106500057525 0 -0.074549021899624521 0.0053171364296967921 0 -0.071609272923670864 0.0080478115152092401 0 -0.071595344691920249 0.0043962478228447279 0 -0.071609272923670864 0.0080478115152092401 0 -0.071595344691920249 0.0043962478228447279 0 -0.069686799556534215 0.0065763106500057525 0 -0.074549021899624521 0.0053171364296967921 0 -0.071595344691920249 0.0043962478228447279 0 -0.075159266690796617 0.0024498854008806487 0 -0.071595344691920249 0.0043962478228447279 0 -0.069686799556534215 0.0065763106500057525 0 -0.067808579968781424 0.0054481551561734592 0 -0.067775466366726878 0.0083465905770791823 0 -0.069686799556534215 0.0065763106500057525 0 -0.067808579968781424 0.0054481551561734592 0 -0.067775466366726878 0.0083465905770791823 0 -0.067808579968781424 0.0054481551561734592 0 -0.065090039093104596 0.0075274849033557427 0 -0.067808579968781424 0.0054481551561734592 0 -0.069135920159867109 0.0019460392328980629 0 -0.063971987096955535 0.0048670946585120545 0 -0.071595344691920249 0.0043962478228447279 0 -0.067808579968781424 0.0054481551561734592 0 -0.069135920159867109 0.0019460392328980629 0 -0.069135920159867109 0.0019460392328980629 0 -0.073227121070970749 0.0015429541532796316 0 -0.072218437187669585 -0.00081153779437388967 0 -0.071595344691920249 0.0043962478228447279 0 -0.069135920159867109 0.0019460392328980629 0 -0.073227121070970749 0.0015429541532796316 0 -0.071595344691920249 0.0043962478228447279 0 -0.073227121070970749 0.0015429541532796316 0 -0.075159266690796617 0.0024498854008806487 0 -0.073227121070970749 0.0015429541532796316 0 -0.072218437187669585 -0.00081153779437388967 0 -0.074640408288529747 -0.00043510920872218009 0 -0.074358496409693497 -0.0020139475090225124 0 -0.072218437187669585 -0.00081153779437388967 0 -0.074640408288529747 -0.00043510920872218009 0 -0.074358496409693497 -0.0020139475090225124 0 -0.072218437187669585 -0.00081153779437388967 0 -0.071595681184456778 -0.0030005645778698087 0 -0.072218437187669585 -0.00081153779437388967 0 -0.069349953745800608 -0.0009112819170063013 0 -0.071595681184456778 -0.0030005645778698087 0 -0.069135920159867109 0.0019460392328980629 0 -0.069349953745800608 -0.0009112819170063013 0 -0.064885375778490698 -6.8631213477582173e-06 0 -0.069135920159867109 0.0019460392328980629 0 -0.072218437187669585 -0.00081153779437388967 0 -0.069349953745800608 -0.0009112819170063013 0 -0.07784949083209261 0.0014195871933126336 0 -0.079737379884713688 0.00087442569457012989 0 -0.078559106877575835 -0.00053011265525424128 0 -0.07784949083209261 0.0014195871933126336 0 -0.076531072710397455 0.00065182569574509736 0 -0.078559106877575835 -0.00053011265525424128 0 -0.08120492356004945 0.0025171521075210393 0 -0.079737379884713688 0.00087442569457012989 0 -0.078849822746390352 0.0027112214829922176 0 -0.07784949083209261 0.0014195871933126336 0 -0.079737379884713688 0.00087442569457012989 0 -0.078849822746390352 0.0027112214829922176 0 -0.076455646811442513 0.003705393051849238 0 -0.07784949083209261 0.0014195871933126336 0 -0.078849822746390352 0.0027112214829922176 0 -0.076455646811442513 0.003705393051849238 0 -0.07784949083209261 0.0014195871933126336 0 -0.075159266690796617 0.0024498854008806487 0 -0.073227121070970749 0.0015429541532796316 0 -0.075159266690796617 0.0024498854008806487 0 -0.076531072710397455 0.00065182569574509736 0 -0.07784949083209261 0.0014195871933126336 0 -0.075159266690796617 0.0024498854008806487 0 -0.076531072710397455 0.00065182569574509736 0 -0.076531072710397455 0.00065182569574509736 0 -0.076735939848323637 -0.0014665779147833623 0 -0.078559106877575835 -0.00053011265525424128 0 -0.076531072710397455 0.00065182569574509736 0 -0.074640408288529747 -0.00043510920872218009 0 -0.076735939848323637 -0.0014665779147833623 0 -0.073227121070970749 0.0015429541532796316 0 -0.076531072710397455 0.00065182569574509736 0 -0.074640408288529747 -0.00043510920872218009 0 -0.074358496409693497 -0.0020139475090225124 0 -0.076735939848323637 -0.0014665779147833623 0 -0.075875719322183177 -0.0025688429816200691 0 -0.074358496409693497 -0.0020139475090225124 0 -0.074640408288529747 -0.00043510920872218009 0 -0.076735939848323637 -0.0014665779147833623 0 -0.076735939848323637 -0.0014665779147833623 0 -0.078215252458672765 -0.002014841030557846 0 -0.078559106877575835 -0.00053011265525424128 0 -0.078215252458672765 -0.002014841030557846 0 -0.078559106877575835 -0.00053011265525424128 0 -0.079633472730157417 -0.0018872366058585303 0 -0.081459950794162933 0.00027316465405961956 0 -0.079737379884713688 0.00087442569457012989 0 -0.080470772299315374 -0.00069291203061756887 0 -0.079737379884713688 0.00087442569457012989 0 -0.078559106877575835 -0.00053011265525424128 0 -0.080470772299315374 -0.00069291203061756887 0 -0.081224516155954954 -0.001916623555241512 0 -0.080470772299315374 -0.00069291203061756887 0 -0.079633472730157417 -0.0018872366058585303 0 -0.078559106877575835 -0.00053011265525424128 0 -0.080470772299315374 -0.00069291203061756887 0 -0.079633472730157417 -0.0018872366058585303 0 -0.081224516155954954 -0.001916623555241512 0 -0.079633472730157417 -0.0018872366058585303 0 -0.080261262891262064 -0.0030908229023548419 0 -0.079633472730157417 -0.0018872366058585303 0 -0.080261262891262064 -0.0030908229023548419 0 -0.07868088475131095 -0.0031416033791055041 0 -0.078215252458672765 -0.002014841030557846 0 -0.079633472730157417 -0.0018872366058585303 0 -0.07868088475131095 -0.0031416033791055041 0 -0.078215252458672765 -0.002014841030557846 0 -0.07868088475131095 -0.0031416033791055041 0 -0.077202048354237038 -0.0027813851973844568 0 -0.07868088475131095 -0.0031416033791055041 0 -0.079216931868761623 -0.0042233544038229633 0 -0.077420859016362684 -0.0042485289750885937 0 -0.080752608953551019 -0.0043231602593376238 0 -0.080261262891262064 -0.0030908229023548419 0 -0.079216931868761623 -0.0042233544038229633 0 -0.080261262891262064 -0.0030908229023548419 0 -0.07868088475131095 -0.0031416033791055041 0 -0.079216931868761623 -0.0042233544038229633 0 -0.080752608953551019 -0.0043231602593376238 0 -0.08088631471403758 -0.0054971451857223266 0 -0.079530255873298941 -0.0052268060353732422 0 -0.080752608953551019 -0.0043231602593376238 0 -0.079216931868761623 -0.0042233544038229633 0 -0.079530255873298941 -0.0052268060353732422 0 -0.079216931868761623 -0.0042233544038229633 0 -0.079530255873298941 -0.0052268060353732422 0 -0.078276400333142176 -0.005116899755460016 0 -0.079216931868761623 -0.0042233544038229633 0 -0.078276400333142176 -0.005116899755460016 0 -0.077420859016362684 -0.0042485289750885937 0 -0.079530255873298941 -0.0052268060353732422 0 -0.078499149979772156 -0.0059414728023362302 0 -0.079524166384996875 -0.0061432749626344034 0 -0.079530255873298941 -0.0052268060353732422 0 -0.078276400333142176 -0.005116899755460016 0 -0.078499149979772156 -0.0059414728023362302 0 -0.078276400333142176 -0.005116899755460016 0 -0.078499149979772156 -0.0059414728023362302 0 -0.077510131438538535 -0.0062460596222398655 0 -0.078499149979772156 -0.0059414728023362302 0 -0.077510131438538535 -0.0062460596222398655 0 -0.078448982234034098 -0.0067542571368691363 0 -0.078499149979772156 -0.0059414728023362302 0 -0.079524166384996875 -0.0061432749626344034 0 -0.078448982234034098 -0.0067542571368691363 0 -0.08088631471403758 -0.0054971451857223266 0 -0.079530255873298941 -0.0052268060353732422 0 -0.079524166384996875 -0.0061432749626344034 0 -0.076106371124960881 -0.0059232157113032168 0 -0.076065055378499308 -0.0067556857651148655 0 -0.077510131438538535 -0.0062460596222398655 0 -0.076106371124960881 -0.0059232157113032168 0 -0.076065055378499308 -0.0067556857651148655 0 -0.074862003271012181 -0.0061537584818300564 0 -0.076065055378499308 -0.0067556857651148655 0 -0.074862003271012181 -0.0061537584818300564 0 -0.07491567053618127 -0.0068766923424807237 0 -0.076065055378499308 -0.0067556857651148655 0 -0.07491567053618127 -0.0068766923424807237 0 -0.075520130568154209 -0.007471282239098969 0 -0.076065055378499308 -0.0067556857651148655 0 -0.077510131438538535 -0.0062460596222398655 0 -0.077853153932295152 -0.0075700190977563524 0 -0.076106371124960881 -0.0059232157113032168 0 -0.077510131438538535 -0.0062460596222398655 0 -0.076792089202208244 -0.0052776129469890125 0 -0.078276400333142176 -0.005116899755460016 0 -0.076792089202208244 -0.0052776129469890125 0 -0.077420859016362684 -0.0042485289750885937 0 -0.078276400333142176 -0.005116899755460016 0 -0.077510131438538535 -0.0062460596222398655 0 -0.076792089202208244 -0.0052776129469890125 0 -0.076792089202208244 -0.0052776129469890125 0 -0.076131210362081106 -0.0045223210395848408 0 -0.077420859016362684 -0.0042485289750885937 0 -0.076792089202208244 -0.0052776129469890125 0 -0.075191910499025322 -0.0051545347695679984 0 -0.076131210362081106 -0.0045223210395848408 0 -0.076106371124960881 -0.0059232157113032168 0 -0.076792089202208244 -0.0052776129469890125 0 -0.075191910499025322 -0.0051545347695679984 0 -0.076106371124960881 -0.0059232157113032168 0 -0.075191910499025322 -0.0051545347695679984 0 -0.074862003271012181 -0.0061537584818300564 0 -0.075191910499025322 -0.0051545347695679984 0 -0.076131210362081106 -0.0045223210395848408 0 -0.074530857573605599 -0.003917457470293411 0 -0.076145618421651864 -0.0036118841296398202 0 -0.075875719322183177 -0.0025688429816200691 0 -0.074530857573605599 -0.003917457470293411 0 -0.076131210362081106 -0.0045223210395848408 0 -0.076145618421651864 -0.0036118841296398202 0 -0.074530857573605599 -0.003917457470293411 0 -0.07868088475131095 -0.0031416033791055041 0 -0.077420859016362684 -0.0042485289750885937 0 -0.077202048354237038 -0.0027813851973844568 0 -0.076145618421651864 -0.0036118841296398202 0 -0.077420859016362684 -0.0042485289750885937 0 -0.077202048354237038 -0.0027813851973844568 0 -0.076131210362081106 -0.0045223210395848408 0 -0.076145618421651864 -0.0036118841296398202 0 -0.077420859016362684 -0.0042485289750885937 0 -0.076735939848323637 -0.0014665779147833623 0 -0.078215252458672765 -0.002014841030557846 0 -0.077202048354237038 -0.0027813851973844568 0 -0.076735939848323637 -0.0014665779147833623 0 -0.077202048354237038 -0.0027813851973844568 0 -0.075875719322183177 -0.0025688429816200691 0 -0.076145618421651864 -0.0036118841296398202 0 -0.077202048354237038 -0.0027813851973844568 0 -0.075875719322183177 -0.0025688429816200691 0 -0.074358496409693497 -0.0020139475090225124 0 -0.075875719322183177 -0.0025688429816200691 0 -0.074530857573605599 -0.003917457470293411 0 -0.074358496409693497 -0.0020139475090225124 0 -0.071595681184456778 -0.0030005645778698087 0 -0.074530857573605599 -0.003917457470293411 0 -0.071595681184456778 -0.0030005645778698087 0 -0.074530857573605599 -0.003917457470293411 0 -0.072626521719673306 -0.0049652350289600038 0 -0.071595681184456778 -0.0030005645778698087 0 -0.069544354919047868 -0.005588759255400315 0 -0.072626521719673306 -0.0049652350289600038 0 -0.069349953745800608 -0.0009112819170063013 0 -0.071595681184456778 -0.0030005645778698087 0 -0.068157114596422166 -0.0027454262113677428 0 -0.071595681184456778 -0.0030005645778698087 0 -0.068157114596422166 -0.0027454262113677428 0 -0.069544354919047868 -0.005588759255400315 0 -0.069544354919047868 -0.005588759255400315 0 -0.069395527343157168 -0.0084288860780491245 0 -0.064923735790448842 -0.008095116932852895 0 -0.069544354919047868 -0.005588759255400315 0 -0.072970298085515847 -0.0066617762398784473 0 -0.069395527343157168 -0.0084288860780491245 0 -0.072970298085515847 -0.0066617762398784473 0 -0.074244669506810662 -0.008437153391499707 0 -0.069395527343157168 -0.0084288860780491245 0 -0.075191910499025322 -0.0051545347695679984 0 -0.074530857573605599 -0.003917457470293411 0 -0.073979865010545043 -0.0055486144039548898 0 -0.073979865010545043 -0.0055486144039548898 0 -0.072626521719673306 -0.0049652350289600038 0 -0.072970298085515847 -0.0066617762398784473 0 -0.074530857573605599 -0.003917457470293411 0 -0.073979865010545043 -0.0055486144039548898 0 -0.072626521719673306 -0.0049652350289600038 0 -0.075191910499025322 -0.0051545347695679984 0 -0.073979865010545043 -0.0055486144039548898 0 -0.074862003271012181 -0.0061537584818300564 0 -0.069544354919047868 -0.005588759255400315 0 -0.072626521719673306 -0.0049652350289600038 0 -0.072970298085515847 -0.0066617762398784473 0 -0.073979865010545043 -0.0055486144039548898 0 -0.072970298085515847 -0.0066617762398784473 0 -0.074862003271012181 -0.0061537584818300564 0 -0.072970298085515847 -0.0066617762398784473 0 -0.074862003271012181 -0.0061537584818300564 0 -0.07491567053618127 -0.0068766923424807237 0 -0.072970298085515847 -0.0066617762398784473 0 -0.07491567053618127 -0.0068766923424807237 0 -0.074139701759127125 -0.0073044408273470526 0 -0.072970298085515847 -0.0066617762398784473 0 -0.074139701759127125 -0.0073044408273470526 0 -0.074244669506810662 -0.008437153391499707 0 -0.07491567053618127 -0.0068766923424807237 0 -0.074499147032271978 -0.0077239349817886825 0 -0.075520130568154209 -0.007471282239098969 0 -0.07491567053618127 -0.0068766923424807237 0 -0.074139701759127125 -0.0073044408273470526 0 -0.074499147032271978 -0.0077239349817886825 0 -0.074499147032271978 -0.0077239349817886825 0 -0.074244669506810662 -0.008437153391499707 0 -0.075520130568154209 -0.007471282239098969 0 -0.074139701759127125 -0.0073044408273470526 0 -0.074499147032271978 -0.0077239349817886825 0 -0.074244669506810662 -0.008437153391499707 0 -0.055154962579479182 0.0083231532515673987 0 -0.052304980804586391 0.0083134200540981185 0 -0.03381446779132264 0.025149711157655977 0 -0.033210608664132168 0.024719057345938145 0 -0.032735979012658442 0.025216411890894196 0 -0.03381446779132264 0.025149711157655977 0 -0.033657371057682912 0.024589877180801436 0 -0.034022654169524463 0.024317718560207188 0 -0.03381446779132264 0.025149711157655977 0 -0.033210608664132168 0.024719057345938145 0 -0.033657371057682912 0.024589877180801436 0 -0.032735979012658442 0.025216411890894196 0 -0.032530312943978998 0.024343522406359015 0 -0.031934545736224014 0.024489823445665287 0 -0.033210608664132168 0.024719057345938145 0 -0.032735979012658442 0.025216411890894196 0 -0.032530312943978998 0.024343522406359015 0 -0.032530312943978998 0.024343522406359015 0 -0.03271343090979989 0.023918442024758887 0 -0.033400161307557859 0.024167224964262071 0 -0.033210608664132168 0.024719057345938145 0 -0.032530312943978998 0.024343522406359015 0 -0.033400161307557859 0.024167224964262071 0 -0.032530312943978998 0.024343522406359015 0 -0.03271343090979989 0.023918442024758887 0 -0.031894070357275268 0.024003294118074742 0 -0.033657371057682912 0.024589877180801436 0 -0.033400161307557859 0.024167224964262071 0 -0.034022654169524463 0.024317718560207188 0 -0.033210608664132168 0.024719057345938145 0 -0.033657371057682912 0.024589877180801436 0 -0.033400161307557859 0.024167224964262071 0 -0.033400161307557859 0.024167224964262071 0 -0.034022654169524463 0.024317718560207188 0 -0.034123128860359793 0.023615825086467451 0 -0.034022654169524463 0.024317718560207188 0 -0.034732252362878059 0.02404821046197252 0 -0.034123128860359793 0.023615825086467451 0 -0.03381446779132264 0.025149711157655977 0 -0.034022654169524463 0.024317718560207188 0 -0.034732252362878059 0.02404821046197252 0 -0.074431657123628869 -0.0048171327157469357 0 -0.078136560614260858 -0.0052003155789520179 0 -0.077790063024975625 -0.0071860952802317579 0 -0.073415869879726606 -0.0021442919088025176 0 -0.074431657123628869 -0.0048171327157469357 0 -0.078136560614260858 -0.0052003155789520179 0 -0.080686447480424875 -0.0094123078035356859 0 -0.077790063024975625 -0.0071860952802317579 0 -0.080199983590489202 -0.0074066720820640062 0 -0.07765183583754097 -0.0058574633306414043 0 -0.077774801707497648 -0.006187782291006319 0 -0.080915409228781432 -0.0063859604481690388 0 -0.080199983590489202 -0.0074066720820640062 0 -0.079235690524879082 -0.0067789972558112508 0 -0.077790063024975625 -0.0071860952802317579 0 -0.080199983590489202 -0.0074066720820640062 0 -0.079235690524879082 -0.0067789972558112508 0 -0.080915409228781432 -0.0063859604481690388 0 -0.079235690524879082 -0.0067789972558112508 0 -0.079524166384996875 -0.0061432749626344034 0 -0.08088631471403758 -0.0054971451857223266 0 -0.080915409228781432 -0.0063859604481690388 0 -0.079524166384996875 -0.0061432749626344034 0 -0.077790063024975625 -0.0071860952802317579 0 -0.079235690524879082 -0.0067789972558112508 0 -0.078448982234034098 -0.0067542571368691363 0 -0.079235690524879082 -0.0067789972558112508 0 -0.079524166384996875 -0.0061432749626344034 0 -0.078448982234034098 -0.0067542571368691363 0 -0.077790063024975625 -0.0071860952802317579 0 -0.078448982234034098 -0.0067542571368691363 0 -0.077853153932295152 -0.0075700190977563524 0 -0.077510131438538535 -0.0062460596222398655 0 -0.078448982234034098 -0.0067542571368691363 0 -0.077853153932295152 -0.0075700190977563524 0 -0.055154962579479182 0.0083231532515673987 0 -0.055704582904037507 0.0099100582791622188 0 -0.078933768188058723 -0.0078476264237452697 0 -0.078136560614260858 -0.0052003155789520179 0 -0.077790063024975625 -0.0071860952802317579 0 -0.078933768188058723 -0.0078476264237452697 0 -0.077790063024975625 -0.0071860952802317579 0 -0.077853153932295152 -0.0075700190977563524 0 -0.076065055378499308 -0.0067556857651148655 0 -0.077853153932295152 -0.0075700190977563524 0 -0.075520130568154209 -0.007471282239098969 0 -0.074244669506810662 -0.008437153391499707 0 -0.077853153932295152 -0.0075700190977563524 0 -0.075520130568154209 -0.007471282239098969 0 -0.055154962579479182 0.0083231532515673987 0 -0.060989546333441072 0.006755818012253877 0 -0.044778158706811191 0.018928657987743808 0 -0.039111762869561327 0.016471849930529418 0 -0.048068938797253762 0.013338102541952683 0 -0.044778158706811191 0.018928657987743808 0 -0.039111762869561327 0.016471849930529418 0 -0.040973773260269429 0.022407780252504159 0 -0.039111762869561327 0.016471849930529418 0 -0.048068938797253762 0.013338102541952683 0 -0.040020803105209932 0.0091974532763301978 0 -0.048068938797253762 0.013338102541952683 0 -0.053526268841586892 0.013430978504006518 0 -0.056045534520231879 0.006555730530676037 0 -0.053526268841586892 0.013430978504006518 0 -0.058073319037140178 0.013230739156662169 0 -0.056045534520231879 0.006555730530676037 0 -0.058073319037140178 0.013230739156662169 0 -0.051940101846238235 0.020413937478285189 0 -0.060380685117327512 0.021797307388482075 0 -0.053526268841586892 0.013430978504006518 0 -0.058073319037140178 0.013230739156662169 0 -0.051940101846238235 0.020413937478285189 0 -0.048068938797253762 0.013338102541952683 0 -0.053526268841586892 0.013430978504006518 0 -0.051940101846238235 0.020413937478285189 0 -0.044778158706811191 0.018928657987743808 0 -0.048068938797253762 0.013338102541952683 0 -0.051940101846238235 0.020413937478285189 0 -0.051940101846238235 0.020413937478285189 0 -0.044335030940468985 0.024539662619379662 0 -0.049439262840375427 0.031085257022771134 0 -0.051940101846238235 0.020413937478285189 0 -0.056042184218841211 0.027319528072629853 0 -0.049439262840375427 0.031085257022771134 0 -0.051940101846238235 0.020413937478285189 0 -0.056042184218841211 0.027319528072629853 0 -0.060380685117327512 0.021797307388482075 0 -0.041613189950145249 0.028691110818778308 0 -0.044335030940468985 0.024539662619379662 0 -0.049439262840375427 0.031085257022771134 0 -0.041613189950145249 0.028691110818778308 0 -0.044335030940468985 0.024539662619379662 0 -0.040117752103482215 0.026263240641390385 0 -0.044778158706811191 0.018928657987743808 0 -0.044335030940468985 0.024539662619379662 0 -0.040973773260269429 0.022407780252504159 0 -0.044778158706811191 0.018928657987743808 0 -0.051940101846238235 0.020413937478285189 0 -0.044335030940468985 0.024539662619379662 0 -0.039111762869561327 0.016471849930529418 0 -0.040973773260269429 0.022407780252504159 0 -0.037595394918538208 0.025679950413694471 0 -0.044335030940468985 0.024539662619379662 0 -0.040973773260269429 0.022407780252504159 0 -0.040117752103482215 0.026263240641390385 0 -0.040973773260269429 0.022407780252504159 0 -0.037595394918538208 0.025679950413694471 0 -0.040117752103482215 0.026263240641390385 0 -0.037595394918538208 0.025679950413694471 0 -0.040117752103482215 0.026263240641390385 0 -0.037982013611959388 0.029808208471164485 0 -0.041613189950145249 0.028691110818778308 0 -0.040117752103482215 0.026263240641390385 0 -0.037982013611959388 0.029808208471164485 0 -0.041613189950145249 0.028691110818778308 0 -0.037982013611959388 0.029808208471164485 0 -0.040146866151865232 0.033073983155338785 0 -0.036096105741207189 0.02233634159835322 0 -0.033153167826590932 0.026381511231295774 0 -0.036042736876585851 0.029483101727423997 0 -0.034551393827422242 0.028525086916721735 0 -0.034816859661932147 0.032891681618175822 0 -0.039111762869561327 0.016471849930529418 0 -0.031503623855500158 0.024546002634159892 0 -0.031528249928723419 0.023496672123780142 0 -0.039111762869561327 0.016471849930529418 0 -0.034551393827422242 0.028525086916721735 0 -0.030067040668064444 0.03119537230895594 0 -0.039111762869561327 0.016471849930529418 0 -0.037595394918538208 0.025679950413694471 0 -0.034551393827422242 0.028525086916721735 0 -0.037595394918538208 0.025679950413694471 0 -0.036042736876585851 0.029483101727423997 0 -0.034551393827422242 0.028525086916721735 0 -0.037595394918538208 0.025679950413694471 0 -0.037982013611959388 0.029808208471164485 0 -0.036042736876585851 0.029483101727423997 0 -0.034551393827422242 0.028525086916721735 0 -0.030067040668064444 0.03119537230895594 0 -0.032566270447853651 0.032083318917766619 0 -0.032530312943978998 0.024343522406359015 0 -0.031894070357275268 0.024003294118074742 0 -0.031932928138477444 0.024078947285474248 0 -0.031528249928723419 0.023496672123780142 0 -0.031894070357275268 0.024003294118074742 0 -0.031932928138477444 0.024078947285474248 0 -0.031503623855500158 0.024546002634159892 0 -0.031528249928723419 0.023496672123780142 0 -0.031894070357275268 0.024003294118074742 0 -0.031528249928723419 0.023496672123780142 0 -0.031932928138477444 0.024078947285474248 0 -0.031934545736224014 0.024489823445665287 0 -0.032530312943978998 0.024343522406359015 0 -0.031932928138477444 0.024078947285474248 0 -0.031934545736224014 0.024489823445665287 0 -0.032735979012658442 0.025216411890894196 0 -0.031934545736224014 0.024489823445665287 0 -0.031528994390274873 0.025372254775115583 0 -0.047144113481275868 0.016435786700216316 0 -0.051972812521982499 0.0080722318541396575 0 -0.052304980804586391 0.0083134200540981185 0 -0.051972812521982499 0.0080722318541396575 0 -0.031528249928723419 0.023496672123780142 0 -0.031934545736224014 0.024489823445665287 0 -0.031528994390274873 0.025372254775115583 0 -0.039111762869561327 0.016471849930529418 0 -0.029703049446499433 0.011361161660910285 0 -0.040020803105209932 0.0091974532763301978 0 -0.039111762869561327 0.016471849930529418 0 -0.031528249928723419 0.023496672123780142 0 -0.029703049446499433 0.011361161660910285 0 -0.058977764201628521 0.0038896425900749663 0 -0.059909827988426145 0.0029324953465773044 0 -0.058405102391849553 0.0031859121007764071 0 -0.058977764201628521 0.0038896425900749663 0 -0.059909827988426145 0.0029324953465773044 0 -0.060122155028038207 0.0039244897354289163 0 -0.051972812521982499 0.0080722318541396575 0 -0.051603710149226836 0.007480957085295099 0 -0.069544354919047868 -0.005588759255400315 0 -0.064923735790448842 -0.008095116932852895 0 -0.065184191511536538 -0.0039331408589690928 0 -0.051972812521982499 0.0080722318541396575 0 -0.056459124389988888 0.003284554248932898 0 -0.068157114596422166 -0.0027454262113677428 0 -0.065184191511536538 -0.0039331408589690928 0 -0.064885375778490698 -6.8631213477582173e-06 0 -0.068157114596422166 -0.0027454262113677428 0 -0.069544354919047868 -0.005588759255400315 0 -0.065184191511536538 -0.0039331408589690928 0 -0.058977764201628521 0.0038896425900749663 0 -0.060122155028038207 0.0039244897354289163 0 -0.059850538264964524 0.0040825207425214281 0 -0.060122155028038207 0.0039244897354289163 0 -0.059850538264964524 0.0040825207425214281 0 -0.061147148790266892 0.0041774796678719483 0 -0.058977764201628521 0.0038896425900749663 0 -0.059850538264964524 0.0040825207425214281 0 -0.059019501714234958 0.004139946026675106 0 -0.059019501714234958 0.004139946026675106 0 -0.05806634661244503 0.0040872220387907108 0 -0.058118427745098393 0.0041011830535830881 0 -0.059019501714234958 0.004139946026675106 0 -0.05806634661244503 0.0040872220387907108 0 -0.058941681218625828 0.0043118099231882782 0 -0.05806634661244503 0.0040872220387907108 0 -0.058118427745098393 0.0041011830535830881 0 -0.057389559359557273 0.0042236203517434416 0 -0.058977764201628521 0.0038896425900749663 0 -0.059019501714234958 0.004139946026675106 0 -0.058118427745098393 0.0041011830535830881 0 -0.048068938797253762 0.013338102541952683 0 -0.040020803105209932 0.0091974532763301978 0 -0.056045534520231879 0.006555730530676037 0 -0.058977764201628521 0.0038896425900749663 0 -0.057648960502225122 0.0042390793739818756 0 -0.058405102391849553 0.0031859121007764071 0 -0.051603710149226836 0.007480957085295099 0 -0.053309873873438204 0.0071868103712529443 0 -0.058977764201628521 0.0038896425900749663 0 -0.058118427745098393 0.0041011830535830881 0 -0.057648960502225122 0.0042390793739818756 0 -0.057648960502225122 0.0042390793739818756 0 -0.058405102391849553 0.0031859121007764071 0 -0.056045534520231879 0.006555730530676037 0 -0.058118427745098393 0.0041011830535830881 0 -0.057648960502225122 0.0042390793739818756 0 -0.057389559359557273 0.0042236203517434416 0 -0.058073319037140178 0.013230739156662169 0 -0.056045534520231879 0.006555730530676037 0 -0.057906269604263517 0.0035171074527452508 0 -0.057648960502225122 0.0042390793739818756 0 -0.056045534520231879 0.006555730530676037 0 -0.057389559359557273 0.0042236203517434416 0 -0.056045534520231879 0.006555730530676037 0 -0.057389559359557273 0.0042236203517434416 0 -0.057906269604263517 0.0035171074527452508 0 -0.0042884707943970117 0.028030475848748175 0 -0.0043575857717391099 0.030060149124469557 0 -0.0049428493366879857 0.031077435531824699 0 -0.030489708895276149 0.018766428381760774 0 -0.02962874992093651 0.018716696648891921 0 -0.05806634661244503 0.0040872220387907108 0 -0.057906269604263517 0.0035171074527452508 0 -0.058250786254703597 0.0043372408478801671 0 -0.0042884707943970117 0.028030475848748175 0 -0.0039346449499532933 0.029704954046061886 0 -0.0043575857717391099 0.030060149124469557 0 -0.05806634661244503 0.0040872220387907108 0 -0.057389559359557273 0.0042236203517434416 0 -0.057906269604263517 0.0035171074527452508 0 -0.0039346449499532933 0.029704954046061886 0 -0.0043575857717391099 0.030060149124469557 0 -0.0043525791925541181 0.031328757928441101 0 -0.0043525791925541181 0.031328757928441101 0 -0.0049428493366879857 0.031077435531824699 0 -0.0043702090779890977 0.033662552700360407 0 -0.0048968427274237404 0.032513969226301093 0 -0.0044228543012641607 0.033145975960624484 0 -0.0034212017592115907 0.032330455566555304 0 -0.0043575857717391099 0.030060149124469557 0 -0.0043525791925541181 0.031328757928441101 0 -0.0049428493366879857 0.031077435531824699 0 -0.05806634661244503 0.0040872220387907108 0 -0.058250786254703597 0.0043372408478801671 0 -0.058941681218625828 0.0043118099231882782 0 -0.059019501714234958 0.004139946026675106 0 -0.058941681218625828 0.0043118099231882782 0 -0.059949886759670702 0.0043491831708471753 0 -0.059346748271265903 0.0046564971838430795 0 -0.059949886759670702 0.0043491831708471753 0 -0.060087050854364228 0.0046856441782056734 0 -0.058941681218625828 0.0043118099231882782 0 -0.059346748271265903 0.0046564971838430795 0 -0.059949886759670702 0.0043491831708471753 0 -0.058250786254703597 0.0043372408478801671 0 -0.058941681218625828 0.0043118099231882782 0 -0.059346748271265903 0.0046564971838430795 0 -0.058250786254703597 0.0043372408478801671 0 -0.059346748271265903 0.0046564971838430795 0 -0.059835044294367354 0.0051695430015349193 0 -0.0049428493366879857 0.031077435531824699 0 -0.0043702090779890977 0.033662552700360407 0 -0.0043845498770522708 0.033797487504994131 0 -0.0048968427274237404 0.032513969226301093 0 -0.0043702090779890977 0.033662552700360407 0 -0.0045007789583990853 0.033480347740083759 0 -0.0041500721172132793 0.031402224607109994 0 -0.0046744180656018474 0.032280432063472114 0 -0.02962874992093651 0.018716696648891921 0 -0.028137804433553303 0.020611126651359859 0 -0.059346748271265903 0.0046564971838430795 0 -0.059897008339699943 0.0048628077918861272 0 -0.059835044294367354 0.0051695430015349193 0 -0.059346748271265903 0.0046564971838430795 0 -0.059897008339699943 0.0048628077918861272 0 -0.060087050854364228 0.0046856441782056734 0 -0.059897008339699943 0.0048628077918861272 0 -0.059835044294367354 0.0051695430015349193 0 -0.060372503749007933 0.0049737139569130942 0 -0.0043702090779890977 0.033662552700360407 0 -0.004331078051887826 0.033678792271894423 0 -0.0042524885835181041 0.033687441220513675 0 -0.0043702090779890977 0.033662552700360407 0 -0.0043845498770522708 0.033797487504994131 0 -0.0042524885835181041 0.033687441220513675 0 -0.0043702090779890977 0.033662552700360407 0 -0.004331078051887826 0.033678792271894423 0 -0.0045007789583990853 0.033480347740083759 0 -0.004331078051887826 0.033678792271894423 0 -0.0045007789583990853 0.033480347740083759 0 -0.0043540262447971318 0.033743640573225639 0 -0.0048968427274237404 0.032513969226301093 0 -0.0045007789583990853 0.033480347740083759 0 -0.004562345850748945 0.033459914099092485 0 -0.0045007789583990853 0.033480347740083759 0 -0.004562345850748945 0.033459914099092485 0 -0.0043540262447971318 0.033743640573225639 0 -0.0045059923248369849 0.034157439216415203 0 -0.004562345850748945 0.033459914099092485 0 -0.0043540262447971318 0.033743640573225639 0 -0.0045059923248369849 0.034157439216415203 0 -0.0044228543012641607 0.033145975960624484 0 -0.004562345850748945 0.033459914099092485 0 -0.0048968427274237404 0.032513969226301093 0 -0.0044228543012641607 0.033145975960624484 0 -0.004562345850748945 0.033459914099092485 0 -0.056459124389988888 0.003284554248932898 0 -0.058877412849271379 0.0035858902438004026 0 -0.069349953745800608 -0.0009112819170063013 0 -0.068157114596422166 -0.0027454262113677428 0 -0.064885375778490698 -6.8631213477582173e-06 0 -0.059850538264964524 0.0040825207425214281 0 -0.061147148790266892 0.0041774796678719483 0 -0.059949886759670702 0.0043491831708471753 0 -0.061147148790266892 0.0041774796678719483 0 -0.059949886759670702 0.0043491831708471753 0 -0.061185366327156702 0.0045852051531445979 0 -0.059850538264964524 0.0040825207425214281 0 -0.059019501714234958 0.004139946026675106 0 -0.059949886759670702 0.0043491831708471753 0 -0.060087050854364228 0.0046856441782056734 0 -0.060372503749007933 0.0049737139569130942 0 -0.061185366327156702 0.0045852051531445979 0 -0.059949886759670702 0.0043491831708471753 0 -0.060087050854364228 0.0046856441782056734 0 -0.061185366327156702 0.0045852051531445979 0 -0.059897008339699943 0.0048628077918861272 0 -0.060087050854364228 0.0046856441782056734 0 -0.060372503749007933 0.0049737139569130942 0 -0.059835044294367354 0.0051695430015349193 0 -0.060542317654935202 0.0052497361031516882 0 -0.061273585032834837 0.0059662328390288908 0 -0.060372503749007933 0.0049737139569130942 0 -0.061000424289628839 0.0051461831932851062 0 -0.061185366327156702 0.0045852051531445979 0 -0.059835044294367354 0.0051695430015349193 0 -0.060372503749007933 0.0049737139569130942 0 -0.060542317654935202 0.0052497361031516882 0 -0.060372503749007933 0.0049737139569130942 0 -0.060542317654935202 0.0052497361031516882 0 -0.061000424289628839 0.0051461831932851062 0 -0.060542317654935202 0.0052497361031516882 0 -0.061000424289628839 0.0051461831932851062 0 -0.061273585032834837 0.0059662328390288908 0 -0.06215338631148478 0.0052149043741739447 0 -0.061185366327156702 0.0045852051531445979 0 -0.063971987096955535 0.0048670946585120545 0 -0.061000424289628839 0.0051461831932851062 0 -0.06215338631148478 0.0052149043741739447 0 -0.061185366327156702 0.0045852051531445979 0 -0.061147148790266892 0.0041774796678719483 0 -0.061185366327156702 0.0045852051531445979 0 -0.063971987096955535 0.0048670946585120545 0 -0.069135920159867109 0.0019460392328980629 0 -0.064885375778490698 -6.8631213477582173e-06 0 -0.063971987096955535 0.0048670946585120545 0 -0.058877412849271379 0.0035858902438004026 0 -0.059696066515075065 0.0044453189436786588 0 -0.067808579968781424 0.0054481551561734592 0 -0.065090039093104596 0.0075274849033557427 0 -0.063971987096955535 0.0048670946585120545 0 -0.06215338631148478 0.0052149043741739447 0 -0.063971987096955535 0.0048670946585120545 0 -0.063237380785809913 0.0065907519034045766 0 -0.065090039093104596 0.0075274849033557427 0 -0.063237380785809913 0.0065907519034045766 0 -0.062483361484982798 0.008120578989526556 0 -0.065090039093104596 0.0075274849033557427 0 -0.063971987096955535 0.0048670946585120545 0 -0.063237380785809913 0.0065907519034045766 0 -0.0043845498770522708 0.033797487504994131 0 -0.0029617167731680457 0.033071498883162735 0 -0.0038927266407653904 0.033491998789475112 0 -0.059835044294367354 0.0051695430015349193 0 -0.061273585032834837 0.0059662328390288908 0 -0.062047635233395834 0.0084752274122376469 0 -0.062096989646294329 0.0070442319292601703 0 -0.061273585032834837 0.0059662328390288908 0 -0.062047635233395834 0.0084752274122376469 0 -0.028137804433553303 0.020611126651359859 0 -0.023336578805375822 0.022223967987221604 0 -0.063237380785809913 0.0065907519034045766 0 -0.062096989646294329 0.0070442319292601703 0 -0.062483361484982798 0.008120578989526556 0 -0.063237380785809913 0.0065907519034045766 0 -0.062096989646294329 0.0070442319292601703 0 -0.062084495588694985 0.006131312774593038 0 -0.06215338631148478 0.0052149043741739447 0 -0.063237380785809913 0.0065907519034045766 0 -0.062084495588694985 0.006131312774593038 0 -0.062096989646294329 0.0070442319292601703 0 -0.062084495588694985 0.006131312774593038 0 -0.061273585032834837 0.0059662328390288908 0 -0.061000424289628839 0.0051461831932851062 0 -0.06215338631148478 0.0052149043741739447 0 -0.061273585032834837 0.0059662328390288908 0 -0.06215338631148478 0.0052149043741739447 0 -0.062084495588694985 0.006131312774593038 0 -0.061273585032834837 0.0059662328390288908 0 -0.0029617167731680457 0.033071498883162735 0 -0.0036613784379831431 0.033294023092424192 0 -0.0038927266407653904 0.033491998789475112 0 -0.0029617167731680457 0.033071498883162735 0 -0.0036613784379831431 0.033294023092424192 0 -0.0033683838625314958 0.03286910186562287 0 -0.062096989646294329 0.0070442319292601703 0 -0.062047635233395834 0.0084752274122376469 0 -0.062483361484982798 0.008120578989526556 0 -0.062018934422259961 0.0086638186988111533 0 -0.062483361484982798 0.008120578989526556 0 -0.064257632282473193 0.0099170162350778832 0 -0.023336578805375822 0.022223967987221604 0 -0.023918344243317718 0.021720875721832809 0 -0.027810497545956096 0.021097487960962891 0 -0.023336578805375822 0.022223967987221604 0 -0.064415919732542917 0.012328089842448667 0 -0.062018934422259961 0.0086638186988111533 0 -0.064257632282473193 0.0099170162350778832 0 -0.065090039093104596 0.0075274849033557427 0 -0.062483361484982798 0.008120578989526556 0 -0.064257632282473193 0.0099170162350778832 0 -0.067531954959588553 0.01123899949524652 0 -0.067775466366726878 0.0083465905770791823 0 -0.064257632282473193 0.0099170162350778832 0 -0.067775466366726878 0.0083465905770791823 0 -0.065090039093104596 0.0075274849033557427 0 -0.064257632282473193 0.0099170162350778832 0 -0.0041807402731092493 0.033578883720231809 0 -0.0044126998016328963 0.033663377620069532 0 -0.0038325367822372573 0.033206497544490031 0 -0.0045059923248369849 0.034157439216415203 0 -0.0044126998016328963 0.033663377620069532 0 -0.0043540262447971318 0.033743640573225639 0 -0.0041807402731092493 0.033578883720231809 0 -0.0044126998016328963 0.033663377620069532 0 -0.0043540262447971318 0.033743640573225639 0 -0.004331078051887826 0.033678792271894423 0 -0.0043540262447971318 0.033743640573225639 0 -0.004108583692271294 0.033591375176727722 0 -0.0041807402731092493 0.033578883720231809 0 -0.0043540262447971318 0.033743640573225639 0 -0.004108583692271294 0.033591375176727722 0 -0.004331078051887826 0.033678792271894423 0 -0.004108583692271294 0.033591375176727722 0 -0.0042524885835181041 0.033687441220513675 0 -0.0043845498770522708 0.033797487504994131 0 -0.0042524885835181041 0.033687441220513675 0 -0.0038927266407653904 0.033491998789475112 0 -0.004108583692271294 0.033591375176727722 0 -0.0042524885835181041 0.033687441220513675 0 -0.0038927266407653904 0.033491998789475112 0 -0.004108583692271294 0.033591375176727722 0 -0.0036613784379831431 0.033294023092424192 0 -0.0038325367822372573 0.033206497544490031 0 -0.004108583692271294 0.033591375176727722 0 -0.0036613784379831431 0.033294023092424192 0 -0.0038927266407653904 0.033491998789475112 0 -0.0041807402731092493 0.033578883720231809 0 -0.004108583692271294 0.033591375176727722 0 -0.0038325367822372573 0.033206497544490031 0 -0.0030203791488579092 0.031802423681489299 0 -0.0038325367822372573 0.033206497544490031 0 -0.0033683838625314958 0.03286910186562287 0 -0.0030203791488579092 0.031802423681489299 0 -0.0029617167731680457 0.033071498883162735 0 -0.0033683838625314958 0.03286910186562287 0 -0.0030203791488579092 0.031802423681489299 0 -0.0038325367822372573 0.033206497544490031 0 -0.0041128436634680719 0.03275382512902824 0 -0.0036613784379831431 0.033294023092424192 0 -0.0038325367822372573 0.033206497544490031 0 -0.0033683838625314958 0.03286910186562287 0 -0.0044126998016328963 0.033663377620069532 0 -0.0038325367822372573 0.033206497544490031 0 -0.0041128436634680719 0.03275382512902824 0 -0.0044126998016328963 0.033663377620069532 0 -0.0041128436634680719 0.03275382512902824 0 -0.0052000163334696885 0.033225774650043366 0 -0.0044126998016328963 0.033663377620069532 0 -0.0052000163334696885 0.033225774650043366 0 -0.005626235225588026 0.034243148126191149 0 -0.0045059923248369849 0.034157439216415203 0 -0.0044126998016328963 0.033663377620069532 0 -0.005626235225588026 0.034243148126191149 0 -0.005626235225588026 0.034243148126191149 0 -0.0062418332364903677 0.034465736434003226 0 -0.006298343189997507 0.035221559280552268 0 -0.0061688359898677088 0.033038940757479741 0 -0.0052000163334696885 0.033225774650043366 0 -0.0062418332364903677 0.034465736434003226 0 -0.0052000163334696885 0.033225774650043366 0 -0.005626235225588026 0.034243148126191149 0 -0.0062418332364903677 0.034465736434003226 0 -0.0062418332364903677 0.034465736434003226 0 -0.0069670111621971589 0.034023037792880614 0 -0.0059294424667226077 0.036850793516391048 0 -0.0061688359898677088 0.033038940757479741 0 -0.0062418332364903677 0.034465736434003226 0 -0.0069670111621971589 0.034023037792880614 0 -0.0069670111621971589 0.034023037792880614 0 -0.0089184133470063768 0.03419008586283806 0 -0.0059294424667226077 0.036850793516391048 0 -0.0083759124721483579 0.032910619749124695 0 -0.0069670111621971589 0.034023037792880614 0 -0.0089184133470063768 0.03419008586283806 0 -0.0044620327233803022 0.037460557789624843 0 -0.004746950499187364 0.037220739396930651 0 -0.0035296238130104228 0.043071485983475453 0 -0.0059294424667226077 0.036850793516391048 0 -0.0016807175117028803 0.038996083833547412 0 -0.0059294424667226077 0.036850793516391048 0 -0.0016807175117028803 0.038996083833547412 0 -0.0022432454345167967 0.035309737896221528 0 -0.0059294424667226077 0.036850793516391048 0 -0.006298343189997507 0.035221559280552268 0 -0.0022432454345167967 0.035309737896221528 0 -0.0062418332364903677 0.034465736434003226 0 -0.0059294424667226077 0.036850793516391048 0 -0.006298343189997507 0.035221559280552268 0 -0.006298343189997507 0.035221559280552268 0 -0.0048581382894176649 0.032732403785843432 0 -0.0063780588271237252 0.034758996508008788 0 -0.00055575178317115775 0.032480590331468592 0 -0.002992266904741274 0.033443202752540271 0 -0.006298343189997507 0.035221559280552268 0 -0.0048581382894176649 0.032732403785843432 0 -0.0022432454345167967 0.035309737896221528 0 0.0020204298199673304 0.032253780416938001 0 0.0054453932762562676 0.03100085620129199 0 0.0031372411677023974 0.029205034957097177 0 0.0020204298199673304 0.032253780416938001 0 -0.0013984009549595645 0.033436936146342716 0 4.5694106380538649e-05 0.02972800484043072 0 -0.0019773511004148232 0.03124115940158707 0 -0.0034212017592115907 0.032330455566555304 0 -0.0013984009549595645 0.033436936146342716 0 -0.0019773511004148232 0.03124115940158707 0 -0.0013984009549595645 0.033436936146342716 0 4.5694106380538649e-05 0.02972800484043072 0 -0.0048968427274237404 0.032513969226301093 0 -0.0034212017592115907 0.032330455566555304 0 -0.0031210995426508782 0.0293850558761184 0 -0.0019773511004148232 0.03124115940158707 0 -0.0034212017592115907 0.032330455566555304 0 -0.0031210995426508782 0.0293850558761184 0 -0.0045059923248369849 0.034157439216415203 0 -0.0044228543012641607 0.033145975960624484 0 -0.0034212017592115907 0.032330455566555304 0 -0.0045059923248369849 0.034157439216415203 0 -0.0034212017592115907 0.032330455566555304 0 -0.0013984009549595645 0.033436936146342716 0 -0.0045059923248369849 0.034157439216415203 0 -0.005626235225588026 0.034243148126191149 0 -0.0063780588271237252 0.034758996508008788 0 -0.003825212765119889 0.033771490550827767 0 -0.002992266904741274 0.033443202752540271 0 -0.005626235225588026 0.034243148126191149 0 -0.006298343189997507 0.035221559280552268 0 -0.0063780588271237252 0.034758996508008788 0 0.015364422242709869 0.037226945429763181 0 0.011621316841773853 0.041888300270365171 0 0.011169137113560611 0.035147456692093987 0 0.011136181538599419 0.044655229143228288 0 0.013727452783260879 0.044245029033868281 0 0.011621316841773853 0.041888300270365171 0 0.011621316841773853 0.041888300270365171 0 0.0072013998096990056 0.038888040315735367 0 0.005478305608655849 0.044396507315437858 0 0.0064726803816783371 0.039287844848848681 0 0.003255144324413547 0.039353123733358232 0 0.011136181538599419 0.044655229143228288 0 0.011621316841773853 0.041888300270365171 0 0.0073984343230400589 0.044175034369869144 0 0.011621316841773853 0.041888300270365171 0 0.0072013998096990056 0.038888040315735367 0 0.011169137113560611 0.035147456692093987 0 0.0072013998096990056 0.038888040315735367 0 0.0023918572948872932 0.038898230606733232 0 0.0051054544899451935 0.034701871053922979 0 0.0072013998096990056 0.038888040315735367 0 0.0023918572948872932 0.038898230606733232 0 0.005478305608655849 0.044396507315437858 0 0.0023918572948872932 0.038898230606733232 0 0.005478305608655849 0.044396507315437858 0 0.00041396648718280206 0.042560544768275553 0 -0.0011430698412434527 0.047466661345187081 0 -0.0035296238130104228 0.043071485983475453 0 0.00041396648718280206 0.042560544768275553 0 -0.0035296238130104228 0.043071485983475453 0 0.00041396648718280206 0.042560544768275553 0 -0.0016807175117028803 0.038996083833547412 0 0.0023918572948872932 0.038898230606733232 0 -0.0016807175117028803 0.038996083833547412 0 -0.0022432454345167967 0.035309737896221528 0 0.0023918572948872932 0.038898230606733232 0 0.00041396648718280206 0.042560544768275553 0 -0.0016807175117028803 0.038996083833547412 0 -0.0022432454345167967 0.035309737896221528 0 0.0010943699962168397 0.030590829123013807 0 0.0051054544899451935 0.034701871053922979 0 -0.00055575178317115775 0.032480590331468592 0 0.0029019273187978244 0.031293286851858337 0 -0.0048581382894176649 0.032732403785843432 0 -0.0022432454345167967 0.035309737896221528 0 0.0010943699962168397 0.030590829123013807 0 0.0029019273187978244 0.031293286851858337 0 0.0051450903394416794 0.030619528622237473 0 0.0010943699962168397 0.030590829123013807 0 0.0051054544899451935 0.034701871053922979 0 0.0086080921399900954 0.029893937646945673 0 0.0023918572948872932 0.038898230606733232 0 -0.0022432454345167967 0.035309737896221528 0 0.0051054544899451935 0.034701871053922979 0 0.0072013998096990056 0.038888040315735367 0 0.0051054544899451935 0.034701871053922979 0 0.011169137113560611 0.035147456692093987 0 0.0051054544899451935 0.034701871053922979 0 0.011169137113560611 0.035147456692093987 0 0.0086080921399900954 0.029893937646945673 0 0.015981278005507187 0.033621819879947737 0 0.011169137113560611 0.035147456692093987 0 0.013415024821462956 0.030436587348103165 0 0.011169137113560611 0.035147456692093987 0 0.013415024821462956 0.030436587348103165 0 0.0086080921399900954 0.029893937646945673 0 0.011754404284320074 0.026800699097558792 0 0.0086080921399900954 0.029893937646945673 0 0.0086491631593732469 0.025144898620756945 0 0.015066474432100112 0.027587327092150948 0 0.011754404284320074 0.026800699097558792 0 0.013415024821462956 0.030436587348103165 0 0.015066474432100112 0.027587327092150948 0 0.014141576223830873 0.024757949398051458 0 0.011754404284320074 0.026800699097558792 0 0.011754404284320074 0.026800699097558792 0 0.013415024821462956 0.030436587348103165 0 0.0086080921399900954 0.029893937646945673 0 0.0086080921399900954 0.029893937646945673 0 0.0063949068792108939 0.027898064433104702 0 0.0086491631593732469 0.025144898620756945 0 0.0063949068792108939 0.027898064433104702 0 0.0061834686553090346 0.025163133673635218 0 0.0086491631593732469 0.025144898620756945 0 0.0054453932762562676 0.03100085620129199 0 0.0086080921399900954 0.029893937646945673 0 0.0063949068792108939 0.027898064433104702 0 0.0054453932762562676 0.03100085620129199 0 0.0063949068792108939 0.027898064433104702 0 0.0031372411677023974 0.029205034957097177 0 0.0063949068792108939 0.027898064433104702 0 0.0041206358311683235 0.026343294666534518 0 0.0031372411677023974 0.029205034957097177 0 0.0063949068792108939 0.027898064433104702 0 0.0041206358311683235 0.026343294666534518 0 0.0061834686553090346 0.025163133673635218 0 0.0041206358311683235 0.026343294666534518 0 0.0045293841833799527 0.023774318885575043 0 0.0061834686553090346 0.025163133673635218 0 0.0045293841833799527 0.023774318885575043 0 0.0028194624604884842 0.022730079240395985 0 0.0047622076433909205 0.021245689197318045 0 0.0045293841833799527 0.023774318885575043 0 0.0072950770869761325 0.022634370446651755 0 0.0047622076433909205 0.021245689197318045 0 0.0072950770869761325 0.022634370446651755 0 0.0068268130576254618 0.020704315541610011 0 0.0047622076433909205 0.021245689197318045 0 0.0072950770869761325 0.022634370446651755 0 0.0095965320824983255 0.020481657660423508 0 0.0068268130576254618 0.020704315541610011 0 0.0045293841833799527 0.023774318885575043 0 0.0072950770869761325 0.022634370446651755 0 0.0061834686553090346 0.025163133673635218 0 0.0072950770869761325 0.022634370446651755 0 0.0061834686553090346 0.025163133673635218 0 0.0086491631593732469 0.025144898620756945 0 0.0072950770869761325 0.022634370446651755 0 0.0086491631593732469 0.025144898620756945 0 0.011284010408085604 0.022679470596007192 0 0.011754404284320074 0.026800699097558792 0 0.0086491631593732469 0.025144898620756945 0 0.011284010408085604 0.022679470596007192 0 0.0072950770869761325 0.022634370446651755 0 0.011284010408085604 0.022679470596007192 0 0.0095965320824983255 0.020481657660423508 0 0.014307171092615723 0.021316364046781975 0 0.012999423156382202 0.019486566736484256 0 0.011284010408085604 0.022679470596007192 0 0.014141576223830873 0.024757949398051458 0 0.011754404284320074 0.026800699097558792 0 0.011284010408085604 0.022679470596007192 0 0.014307171092615723 0.021316364046781975 0 0.014141576223830873 0.024757949398051458 0 0.011284010408085604 0.022679470596007192 0 -0.00066188138172100519 0.026380937908672138 0 -0.0026342159797767529 0.026996350436675635 0 -0.0027607962990202741 0.028972669969727163 0 -0.00066188138172100519 0.026380937908672138 0 -0.0031210995426508782 0.0293850558761184 0 4.5694106380538649e-05 0.02972800484043072 0 -0.0017121658942590957 0.028211880055515247 0 -0.0027383400135358115 0.02947359113820645 0 -0.0042884707943970117 0.028030475848748175 0 -0.0026342159797767529 0.026996350436675635 0 -0.0028861057731131871 0.026319586578109941 0 -0.0042884707943970117 0.028030475848748175 0 -0.0033223828765694802 0.028222496879266635 0 -0.0036157733058807219 0.028842667166956808 0 -0.0042884707943970117 0.028030475848748175 0 -0.0026342159797767529 0.026996350436675635 0 -0.0033223828765694802 0.028222496879266635 0 -0.0026342159797767529 0.026996350436675635 0 -0.0033223828765694802 0.028222496879266635 0 -0.0027607962990202741 0.028972669969727163 0 -0.0039346449499532933 0.029704954046061886 0 -0.0043525791925541181 0.031328757928441101 0 -0.0027607962990202741 0.028972669969727163 0 -0.0041500721172132793 0.031402224607109994 0 -0.0027383400135358115 0.02947359113820645 0 -0.0039346449499532933 0.029704954046061886 0 -0.0027607962990202741 0.028972669969727163 0 -0.0036157733058807219 0.028842667166956808 0 -0.0033223828765694802 0.028222496879266635 0 -0.0027607962990202741 0.028972669969727163 0 -0.0036157733058807219 0.028842667166956808 0 -0.0042884707943970117 0.028030475848748175 0 -0.0039346449499532933 0.029704954046061886 0 -0.0036157733058807219 0.028842667166956808 0 -0.0019773511004148232 0.03124115940158707 0 -0.0031210995426508782 0.0293850558761184 0 4.5694106380538649e-05 0.02972800484043072 0 0.0020204298199673304 0.032253780416938001 0 4.5694106380538649e-05 0.02972800484043072 0 0.0031372411677023974 0.029205034957097177 0 4.5694106380538649e-05 0.02972800484043072 0 0.0031372411677023974 0.029205034957097177 0 0.0015423798490607984 0.026790744206178458 0 0.0041206358311683235 0.026343294666534518 0 0.0031372411677023974 0.029205034957097177 0 0.0015423798490607984 0.026790744206178458 0 -0.00066188138172100519 0.026380937908672138 0 4.5694106380538649e-05 0.02972800484043072 0 0.0015423798490607984 0.026790744206178458 0 -0.00066188138172100519 0.026380937908672138 0 0.0015423798490607984 0.026790744206178458 0 -5.2749090040105891e-05 0.024748150074567841 0 0.0015423798490607984 0.026790744206178458 0 -5.2749090040105891e-05 0.024748150074567841 0 0.0023009574460440374 0.024467404480189626 0 -5.2749090040105891e-05 0.024748150074567841 0 0.0023009574460440374 0.024467404480189626 0 0.0011727972007404231 0.023097841020234076 0 0.0041206358311683235 0.026343294666534518 0 0.0015423798490607984 0.026790744206178458 0 0.0023009574460440374 0.024467404480189626 0 0.0041206358311683235 0.026343294666534518 0 0.0045293841833799527 0.023774318885575043 0 0.0023009574460440374 0.024467404480189626 0 0.0028194624604884842 0.022730079240395985 0 0.0013907157440372388 0.021226617467315991 0 0.0047622076433909205 0.021245689197318045 0 0.0045293841833799527 0.023774318885575043 0 0.0023009574460440374 0.024467404480189626 0 0.0028194624604884842 0.022730079240395985 0 0.0023009574460440374 0.024467404480189626 0 0.0028194624604884842 0.022730079240395985 0 0.0011727972007404231 0.023097841020234076 0 0.0028194624604884842 0.022730079240395985 0 0.0011727972007404231 0.023097841020234076 0 0.0013907157440372388 0.021226617467315991 0 -5.2749090040105891e-05 0.024748150074567841 0 0.0011727972007404231 0.023097841020234076 0 -0.00048280263895981209 0.022692500891830787 0 -0.0075671674118244995 0.024110967330320594 0 -0.01444029224964862 0.027652754039690065 0 0.0011727972007404231 0.023097841020234076 0 -0.00048280263895981209 0.022692500891830787 0 0.0013907157440372388 0.021226617467315991 0 -0.066637928723263004 0.017289860951000626 0 -0.067570232880754699 0.02740932977515197 0 -0.076374280744371151 0.034203254992061838 0 -0.032144816623265467 0.02297871985168902 0 -0.031940862752926416 0.028250504816759597 0 -5.2749090040105891e-05 0.024748150074567841 0 -0.00048280263895981209 0.022692500891830787 0 -0.002321808797308349 0.024321173295667523 0 -0.002321808797308349 0.024321173295667523 0 -0.0028384146470275149 0.024678545498973425 0 -0.0018464130438198482 0.022884103492460294 0 -0.0014482106825949204 0.023629533282480988 0 -0.002321808797308349 0.024321173295667523 0 -0.0018464130438198482 0.022884103492460294 0 -0.0075671674118244995 0.024110967330320594 0 -0.0060497729504731881 0.023443230387437657 0 -0.00066188138172100519 0.026380937908672138 0 -0.0026342159797767529 0.026996350436675635 0 -0.0018288222200697809 0.02559686978671271 0 -5.2749090040105891e-05 0.024748150074567841 0 -0.002321808797308349 0.024321173295667523 0 -0.0018288222200697809 0.02559686978671271 0 -0.002321808797308349 0.024321173295667523 0 -0.0018288222200697809 0.02559686978671271 0 -0.0028384146470275149 0.024678545498973425 0 -0.0026342159797767529 0.026996350436675635 0 -0.0018288222200697809 0.02559686978671271 0 -0.0028861057731131871 0.026319586578109941 0 -0.00066188138172100519 0.026380937908672138 0 -5.2749090040105891e-05 0.024748150074567841 0 -0.0018288222200697809 0.02559686978671271 0 -0.030489708895276149 0.018766428381760774 0 -0.032144816623265467 0.02297871985168902 0 -0.058073319037140178 0.013230739156662169 0 -0.057906269604263517 0.0035171074527452508 0 -0.066637928723263004 0.017289860951000626 0 -0.0042884707943970117 0.028030475848748175 0 -0.0028861057731131871 0.026319586578109941 0 -0.0028384146470275149 0.024678545498973425 0 -0.0018288222200697809 0.02559686978671271 0 -0.0028861057731131871 0.026319586578109941 0 -0.0028384146470275149 0.024678545498973425 0 -0.058073319037140178 0.013230739156662169 0 -0.066637928723263004 0.017289860951000626 0 -0.060380685117327512 0.021797307388482075 0 -0.066637928723263004 0.017289860951000626 0 -0.060380685117327512 0.021797307388482075 0 -0.067570232880754699 0.02740932977515197 0 -0.056042184218841211 0.027319528072629853 0 -0.060347821158220447 0.028073116070797412 0 -0.057384168015394976 0.035803341038445631 0 -0.067570232880754699 0.02740932977515197 0 -0.060347821158220447 0.028073116070797412 0 -0.057384168015394976 0.035803341038445631 0 -0.056042184218841211 0.027319528072629853 0 -0.060380685117327512 0.021797307388482075 0 -0.060347821158220447 0.028073116070797412 0 -0.060380685117327512 0.021797307388482075 0 -0.067570232880754699 0.02740932977515197 0 -0.060347821158220447 0.028073116070797412 0 -0.067570232880754699 0.02740932977515197 0 -0.076374280744371151 0.034203254992061838 0 -0.057384168015394976 0.035803341038445631 0 -0.031940862752926416 0.028250504816759597 0 -0.044164930370993109 0.031784382818626104 0 -0.040820718532163729 0.040358087364282022 0 -0.041094835687535844 0.039874136603686001 0 -0.03954839422989985 0.038411477437640389 0 -0.039584495034322528 0.039728852388274241 0 -0.040820718532163729 0.040358087364282022 0 -0.03954839422989985 0.038411477437640389 0 -0.040820718532163729 0.040358087364282022 0 -0.040006076532754155 0.040755004794714923 0 -0.040912072227494371 0.041425183799755377 0 -0.039584495034322528 0.039728852388274241 0 -0.040006076532754155 0.040755004794714923 0 -0.038918357536263139 0.04069844581095463 0 -0.039584495034322528 0.039728852388274241 0 -0.040820718532163729 0.040358087364282022 0 -0.040006076532754155 0.040755004794714923 0 -0.040820718532163729 0.040358087364282022 0 -0.041243454665753666 0.040370762974869537 0 -0.041948129951617195 0.041564264472474029 0 -0.039770082809828446 0.04185008847377307 0 -0.039393302033379513 0.042612971348482319 0 -0.040820718532163729 0.040358087364282022 0 -0.041094835687535844 0.039874136603686001 0 -0.041243454665753666 0.040370762974869537 0 -0.041094835687535844 0.039874136603686001 0 -0.04153512332943906 0.039251885284191365 0 -0.03954839422989985 0.038411477437640389 0 -0.041094835687535844 0.039874136603686001 0 -0.04153512332943906 0.039251885284191365 0 -0.041243454665753666 0.040370762974869537 0 -0.042049734750710152 0.0438164819559669 0 -0.040182661115526236 0.043906303977125818 0 -0.039996559374437746 0.042670347601641373 0 -0.0014482106825949204 0.023629533282480988 0 -0.0018464130438198482 0.022884103492460294 0 -0.00063274734177302429 0.023069696280906056 0 -0.031940862752926416 0.028250504816759597 0 -0.01444029224964862 0.027652754039690065 0 -0.01444029224964862 0.027652754039690065 0 -0.0046355253287069494 0.026895619932007193 0 0.0011832195348217228 0.021007463928760711 0 0.0047622076433909205 0.021245689197318045 0 0.0048399303363228082 0.018611934488032052 0 -0.040182661115526236 0.043906303977125818 0 -0.039996559374437746 0.042670347601641373 0 -0.038279477252523973 0.042585596590296183 0 -0.01444029224964862 0.027652754039690065 0 -0.015752554823901189 0.030238000705520084 0 -0.039996559374437746 0.042670347601641373 0 -0.038952351801614195 0.041826186403639276 0 -0.038279477252523973 0.042585596590296183 0 -0.039996559374437746 0.042670347601641373 0 -0.040913997788811093 0.041378852429716478 0 -0.038952351801614195 0.041826186403639276 0 -0.031940862752926416 0.028250504816759597 0 -0.03765698735838912 0.03746573369515023 0 -0.04153512332943906 0.039251885284191365 0 -0.041243454665753666 0.040370762974869537 0 -0.040913997788811093 0.041378852429716478 0 -0.041243454665753666 0.040370762974869537 0 -0.040913997788811093 0.041378852429716478 0 -0.0410329523177436 0.041173709755636632 0 -0.042049734750710152 0.0438164819559669 0 -0.039996559374437746 0.042670347601641373 0 -0.040913997788811093 0.041378852429716478 0 -0.040913997788811093 0.041378852429716478 0 -0.040789711369397214 0.040900876017958991 0 -0.0410329523177436 0.041173709755636632 0 -0.040913997788811093 0.041378852429716478 0 -0.040789711369397214 0.040900876017958991 0 -0.04001946330866675 0.041071127912408086 0 -0.040789711369397214 0.040900876017958991 0 -0.04001946330866675 0.041071127912408086 0 -0.040530711789434147 0.040372656053421579 0 -0.040913997788811093 0.041378852429716478 0 -0.038952351801614195 0.041826186403639276 0 -0.04001946330866675 0.041071127912408086 0 -0.04001946330866675 0.041071127912408086 0 -0.039098802951032845 0.040560064247037252 0 -0.040530711789434147 0.040372656053421579 0 -0.038952351801614195 0.041826186403639276 0 -0.04001946330866675 0.041071127912408086 0 -0.039098802951032845 0.040560064247037252 0 -0.038952351801614195 0.041826186403639276 0 -0.039098802951032845 0.040560064247037252 0 -0.037401924271963878 0.041901050304210805 0 -0.037306852529916959 0.045132146744335674 0 -0.038203575892755699 0.04487537595634114 0 -0.034218067252909393 0.04344411455475837 0 -0.034699954100892223 0.046513764954145137 0 -0.029539294749630841 0.046102295393491179 0 -0.034699954100892223 0.046513764954145137 0 -0.029539294749630841 0.046102295393491179 0 -0.033803713568042092 0.049669410621131234 0 -0.037306852529916959 0.045132146744335674 0 -0.035553798964974209 0.046888094212422397 0 -0.034218067252909393 0.04344411455475837 0 -0.034699954100892223 0.046513764954145137 0 -0.036624323009618896 0.044096277747432536 0 -0.037259841692584492 0.045836809806921598 0 -0.037250143325343675 0.045874611985670305 0 -0.037387230928231416 0.04584918493198873 0 -0.038203575892755699 0.04487537595634114 0 -0.038010299093266454 0.045317000570083255 0 -0.040789711369397214 0.040900876017958991 0 -0.040530711789434147 0.040372656053421579 0 -0.041364531386345549 0.040276511335398862 0 -0.037114777904848302 0.045894014950877145 0 -0.037259841692584492 0.045836809806921598 0 -0.037250143325343675 0.045874611985670305 0 -0.035553798964974209 0.046888094212422397 0 -0.036382586880655675 0.048057482690306727 0 -0.037259841692584492 0.045836809806921598 0 -0.037387230928231416 0.04584918493198873 0 -0.037406965985576385 0.045772307601121026 0 -0.042051873442542839 0.044043967281963504 0 -0.040218094938594393 0.043534720365132541 0 -0.041141929969030759 0.042539412107347213 0 -0.038010299093266454 0.045317000570083255 0 -0.036382586880655675 0.048057482690306727 0 -0.042051873442542839 0.044043967281963504 0 -0.039304395264514645 0.045513004521897993 0 -0.040218094938594393 0.043534720365132541 0 -0.040976431795975009 0.045628011716554132 0 -0.037837908730959491 0.04642518217834956 0 -0.04063057123112615 0.047101621476086306 0 -0.038010299093266454 0.045317000570083255 0 -0.037806269805284065 0.045682425237011347 0 -0.039304395264514645 0.045513004521897993 0 -0.040218094938594393 0.043534720365132541 0 -0.03815278763864114 0.043463494040230706 0 -0.040218094938594393 0.043534720365132541 0 -0.039798795444639219 0.042046271670085004 0 -0.041141929969030759 0.042539412107347213 0 -0.039798795444639219 0.042046271670085004 0 -0.040912072227494371 0.041425183799755377 0 -0.041141929969030759 0.042539412107347213 0 -0.040218094938594393 0.043534720365132541 0 -0.039798795444639219 0.042046271670085004 0 -0.03815278763864114 0.043463494040230706 0 -0.040006076532754155 0.040755004794714923 0 -0.039798795444639219 0.042046271670085004 0 -0.038918357536263139 0.04069844581095463 0 -0.040006076532754155 0.040755004794714923 0 -0.039798795444639219 0.042046271670085004 0 -0.040912072227494371 0.041425183799755377 0 -0.038010299093266454 0.045317000570083255 0 -0.039393302033379513 0.042612971348482319 0 -0.040789711369397214 0.040900876017958991 0 -0.041364531386345549 0.040276511335398862 0 -0.0410329523177436 0.041173709755636632 0 -0.040820718532163729 0.040358087364282022 0 -0.040912072227494371 0.041425183799755377 0 -0.041948129951617195 0.041564264472474029 0 -0.040912072227494371 0.041425183799755377 0 -0.041948129951617195 0.041564264472474029 0 -0.041141929969030759 0.042539412107347213 0 -0.042051873442542839 0.044043967281963504 0 -0.041948129951617195 0.041564264472474029 0 -0.041141929969030759 0.042539412107347213 0 0.012999423156382202 0.019486566736484256 0 0.012378058816131948 0.017466923442881192 0 0.01025108436299505 0.018067942126739154 0 0.012999423156382202 0.019486566736484256 0 0.0095965320824983255 0.020481657660423508 0 0.01025108436299505 0.018067942126739154 0 0.012999423156382202 0.019486566736484256 0 0.011284010408085604 0.022679470596007192 0 0.0095965320824983255 0.020481657660423508 0 0.0095965320824983255 0.020481657660423508 0 0.01025108436299505 0.018067942126739154 0 0.007617334435944742 0.018896043159788919 0 0.01025108436299505 0.018067942126739154 0 0.007617334435944742 0.018896043159788919 0 0.0083216452504206295 0.016674523919163863 0 0.007617334435944742 0.018896043159788919 0 0.0048399303363228082 0.018611934488032052 0 0.0083216452504206295 0.016674523919163863 0 -0.038279477252523973 0.042585596590296183 0 -0.038057015850967171 0.041836459737553552 0 -0.036377986234408959 0.041463711131595221 0 -0.015752554823901189 0.030238000705520084 0 -0.012781549219372558 0.03007515649285392 0 0.007617334435944742 0.018896043159788919 0 0.0068268130576254618 0.020704315541610011 0 0.0048399303363228082 0.018611934488032052 0 0.0095965320824983255 0.020481657660423508 0 0.007617334435944742 0.018896043159788919 0 0.0068268130576254618 0.020704315541610011 0 0.0068268130576254618 0.020704315541610011 0 0.0047622076433909205 0.021245689197318045 0 0.0048399303363228082 0.018611934488032052 0 -0.038952351801614195 0.041826186403639276 0 -0.038279477252523973 0.042585596590296183 0 -0.038057015850967171 0.041836459737553552 0 -0.038952351801614195 0.041826186403639276 0 -0.038057015850967171 0.041836459737553552 0 -0.037401924271963878 0.041901050304210805 0 -0.038057015850967171 0.041836459737553552 0 -0.037401924271963878 0.041901050304210805 0 -0.038024182564408433 0.041313867476173313 0 -0.037401924271963878 0.041901050304210805 0 -0.036624323009618896 0.044096277747432536 0 -0.038024182564408433 0.041313867476173313 0 -0.037306852529916959 0.045132146744335674 0 -0.037549265027344132 0.04475958068868667 0 -0.034218067252909393 0.04344411455475837 0 -0.037401924271963878 0.041901050304210805 0 -0.036624323009618896 0.044096277747432536 0 -0.036624323009618896 0.044096277747432536 0 -0.037992269113889268 0.046134308715906854 0 -0.038024182564408433 0.041313867476173313 0 -0.034699954100892223 0.046513764954145137 0 -0.036624323009618896 0.044096277747432536 0 -0.037992269113889268 0.046134308715906854 0 -0.034699954100892223 0.046513764954145137 0 -0.037992269113889268 0.046134308715906854 0 -0.036613647339048962 0.04866068125441074 0 -0.031538630953827057 0.04538904059775007 0 -0.029462734005012134 0.047866938040712598 0 -0.037992269113889268 0.046134308715906854 0 -0.038024182564408433 0.041313867476173313 0 -0.042190034232997234 0.047652214842814247 0 -0.038057015850967171 0.041836459737553552 0 -0.036377986234408959 0.041463711131595221 0 -0.038024182564408433 0.041313867476173313 0 -0.036377986234408959 0.041463711131595221 0 -0.038024182564408433 0.041313867476173313 0 -0.036173905448761041 0.03714485269151107 0 -0.012781549219372558 0.03007515649285392 0 -0.0081213350168318123 0.03009667050252467 0 0.01025108436299505 0.018067942126739154 0 0.0083216452504206295 0.016674523919163863 0 0.011462236973018484 0.015131234493226231 0 -0.036377986234408959 0.041463711131595221 0 -0.031787676386528831 0.038914733739850597 0 -0.036173905448761041 0.03714485269151107 0 0.01332262550145262 0.016399472231015195 0 0.012378058816131948 0.017466923442881192 0 0.011462236973018484 0.015131234493226231 0 0.012378058816131948 0.017466923442881192 0 0.01025108436299505 0.018067942126739154 0 0.011462236973018484 0.015131234493226231 0 -0.030811266614211449 0.033449833867081558 0 -0.032466257870358173 0.033794724889436016 0 -0.031834259916481991 0.032090455709545336 0 -0.032466257870358173 0.033794724889436016 0 -0.032896811496193695 0.032605489230262366 0 -0.031834259916481991 0.032090455709545336 0 -0.030811266614211449 0.033449833867081558 0 -0.032466257870358173 0.033794724889436016 0 -0.032140454565481438 0.035689055466304145 0 -0.030008032780097272 0.035497079042380829 0 -0.030811266614211449 0.033449833867081558 0 -0.032140454565481438 0.035689055466304145 0 -0.030008032780097272 0.035497079042380829 0 -0.031787676386528831 0.038914733739850597 0 -0.032140454565481438 0.035689055466304145 0 -0.031787676386528831 0.038914733739850597 0 -0.032140454565481438 0.035689055466304145 0 -0.036173905448761041 0.03714485269151107 0 -0.032466257870358173 0.033794724889436016 0 -0.032140454565481438 0.035689055466304145 0 -0.036173905448761041 0.03714485269151107 0 -0.022352213839056733 0.059568100921033616 0 -0.029462734005012134 0.047866938040712598 0 -0.032466257870358173 0.033794724889436016 0 -0.034290872390425928 0.033152031576251753 0 -0.036173905448761041 0.03714485269151107 0 -0.044971014420926117 0.054844678244552733 0 -0.042959210676767265 0.053115824469237127 0 -0.042190034232997234 0.047652214842814247 0 -0.032466257870358173 0.033794724889436016 0 -0.034290872390425928 0.033152031576251753 0 -0.032896811496193695 0.032605489230262366 0 -0.044971014420926117 0.054844678244552733 0 -0.044141475555775508 0.054983516011887404 0 -0.043779095062264739 0.054391757777034533 0 -0.044971014420926117 0.054844678244552733 0 -0.044141475555775508 0.054983516011887404 0 -0.043597635043987934 0.056104873557709246 0 -0.044141475555775508 0.054983516011887404 0 -0.043155454482284111 0.054774205962745605 0 -0.043597635043987934 0.056104873557709246 0 -0.044141475555775508 0.054983516011887404 0 -0.043155454482284111 0.054774205962745605 0 -0.043779095062264739 0.054391757777034533 0 -0.044971014420926117 0.054844678244552733 0 -0.043779095062264739 0.054391757777034533 0 -0.042959210676767265 0.053115824469237127 0 -0.043155454482284111 0.054774205962745605 0 -0.043779095062264739 0.054391757777034533 0 -0.042959210676767265 0.053115824469237127 0 -0.04203621978844567 0.054171469218773839 0 -0.042030154370480945 0.055572008687600497 0 -0.039728679148964656 0.055204348017105262 0 -0.043155454482284111 0.054774205962745605 0 -0.04203621978844567 0.054171469218773839 0 -0.042959210676767265 0.053115824469237127 0 -0.043155454482284111 0.054774205962745605 0 -0.04203621978844567 0.054171469218773839 0 -0.042030154370480945 0.055572008687600497 0 -0.043155454482284111 0.054774205962745605 0 -0.042030154370480945 0.055572008687600497 0 -0.043597635043987934 0.056104873557709246 0 -0.039728679148964656 0.055204348017105262 0 -0.040567057783249268 0.053133619221505952 0 -0.03819088162515074 0.053164242608207346 0 -0.04203621978844567 0.054171469218773839 0 -0.039728679148964656 0.055204348017105262 0 -0.040567057783249268 0.053133619221505952 0 -0.040567057783249268 0.053133619221505952 0 -0.039734864082176358 0.049848496609481992 0 -0.03819088162515074 0.053164242608207346 0 -0.04203621978844567 0.054171469218773839 0 -0.040567057783249268 0.053133619221505952 0 -0.042959210676767265 0.053115824469237127 0 -0.040567057783249268 0.053133619221505952 0 -0.042959210676767265 0.053115824469237127 0 -0.039734864082176358 0.049848496609481992 0 -0.037992269113889268 0.046134308715906854 0 -0.042190034232997234 0.047652214842814247 0 -0.039734864082176358 0.049848496609481992 0 -0.042959210676767265 0.053115824469237127 0 -0.042190034232997234 0.047652214842814247 0 -0.039734864082176358 0.049848496609481992 0 -0.039734864082176358 0.049848496609481992 0 -0.03690562602398606 0.051264572776177554 0 -0.03819088162515074 0.053164242608207346 0 -0.039734864082176358 0.049848496609481992 0 -0.036613647339048962 0.04866068125441074 0 -0.03690562602398606 0.051264572776177554 0 -0.037992269113889268 0.046134308715906854 0 -0.039734864082176358 0.049848496609481992 0 -0.036613647339048962 0.04866068125441074 0 -0.036613647339048962 0.04866068125441074 0 -0.03690562602398606 0.051264572776177554 0 -0.033803713568042092 0.049669410621131234 0 -0.035348744473030269 0.055296860669331684 0 -0.034017330046040711 0.058376291431707708 0 -0.03690562602398606 0.051264572776177554 0 -0.036443616225821297 0.054938629907665834 0 -0.033683962422488556 0.057717211395053716 0 -0.03690562602398606 0.051264572776177554 0 -0.03819088162515074 0.053164242608207346 0 -0.036443616225821297 0.054938629907665834 0 -0.039728679148964656 0.055204348017105262 0 -0.03819088162515074 0.053164242608207346 0 -0.036443616225821297 0.054938629907665834 0 -0.036443616225821297 0.054938629907665834 0 -0.035014598805297073 0.060172303245718185 0 -0.033683962422488556 0.057717211395053716 0 -0.036443616225821297 0.054938629907665834 0 -0.038294180524705242 0.057838188904905281 0 -0.034932669013884726 0.060696781796363189 0 -0.034426726407244916 0.059131531639645199 0 -0.033655773346972437 0.061684527709871567 0 -0.039728679148964656 0.055204348017105262 0 -0.036443616225821297 0.054938629907665834 0 -0.038294180524705242 0.057838188904905281 0 -0.038294180524705242 0.057838188904905281 0 -0.034932669013884726 0.060696781796363189 0 -0.039089694767230822 0.060764312762665952 0 -0.033536974884090943 0.066599126525902608 0 -0.034932669013884726 0.060696781796363189 0 -0.037247297878562582 0.06396296944921219 0 -0.034932669013884726 0.060696781796363189 0 -0.037247297878562582 0.06396296944921219 0 -0.039089694767230822 0.060764312762665952 0 -0.037247297878562582 0.06396296944921219 0 -0.039089694767230822 0.060764312762665952 0 -0.041864005914204944 0.063548681564211548 0 -0.039089694767230822 0.060764312762665952 0 -0.041864005914204944 0.063548681564211548 0 -0.04255679661882962 0.059753232684621758 0 -0.04255679661882962 0.059753232684621758 0 -0.04121410594174281 0.057676820438156501 0 -0.044093021564571858 0.057602058575653058 0 -0.038294180524705242 0.057838188904905281 0 -0.039089694767230822 0.060764312762665952 0 -0.04121410594174281 0.057676820438156501 0 -0.039089694767230822 0.060764312762665952 0 -0.04255679661882962 0.059753232684621758 0 -0.04121410594174281 0.057676820438156501 0 -0.042030154370480945 0.055572008687600497 0 -0.039728679148964656 0.055204348017105262 0 -0.04121410594174281 0.057676820438156501 0 -0.039728679148964656 0.055204348017105262 0 -0.038294180524705242 0.057838188904905281 0 -0.04121410594174281 0.057676820438156501 0 -0.042030154370480945 0.055572008687600497 0 -0.04121410594174281 0.057676820438156501 0 -0.043597635043987934 0.056104873557709246 0 -0.04121410594174281 0.057676820438156501 0 -0.044093021564571858 0.057602058575653058 0 -0.043597635043987934 0.056104873557709246 0 -0.023246011606401672 0.06381903271179 0 -0.022099741501759564 0.060635095982838644 0 -0.021439551060657803 0.061238436893822787 0 -0.022352213839056733 0.059568100921033616 0 -0.019180203515450026 0.070469311367485715 0 -0.044971014420926117 0.054844678244552733 0 -0.044093021564571858 0.057602058575653058 0 -0.046498054180978035 0.059185015370555837 0 -0.044971014420926117 0.054844678244552733 0 -0.044093021564571858 0.057602058575653058 0 -0.043597635043987934 0.056104873557709246 0 -0.022352213839056733 0.059568100921033616 0 -0.020247272673080876 0.064969276233908177 0 -0.034290872390425928 0.033152031576251753 0 -0.032896811496193695 0.032605489230262366 0 -0.032790923537212385 0.031221561602598154 0 -0.019180203515450026 0.070469311367485715 0 -0.020247272673080876 0.064969276233908177 0 -0.04255679661882962 0.059753232684621758 0 -0.044093021564571858 0.057602058575653058 0 -0.046498054180978035 0.059185015370555837 0 -0.00087172665228931769 0.10522119920909324 0 -0.0037302959749487474 0.11355669536245649 0 -0.0048141616956649145 0.10777837611647123 0 -0.009712680030897437 0.10832372803967195 0 -0.0037302959749487474 0.11355669536245649 0 -0.0048141616956649145 0.10777837611647123 0 -0.041864005914204944 0.063548681564211548 0 -0.04255679661882962 0.059753232684621758 0 -0.046498054180978035 0.059185015370555837 0 -0.021438725229126168 0.078334106828632316 0 -0.019180203515450026 0.070469311367485715 0 -0.00087172665228931769 0.10522119920909324 0 -0.0025793134388623707 0.11013840860971066 0 4.3198304980014078e-05 0.10811971658532495 0 -0.019135226544200537 0.089111834899922221 0 -0.019180203515450026 0.070469311367485715 0 -0.013337108575828947 0.069401694950803824 0 -0.020247272673080876 0.064969276233908177 0 0.0024876867300651991 0.10517614225971962 0 0.00082037344743684983 0.10527323659374348 0 4.3198304980014078e-05 0.10811971658532495 0 -0.0056628575485421712 0.073530479929509007 0 -0.013337108575828947 0.069401694950803824 0 -0.029870901940158852 0.031118740603426811 0 -0.031276555830637043 0.029567959553938341 0 -0.031356457609551594 0.030867811801978499 0 -0.029870901940158852 0.031118740603426811 0 -0.031356457609551594 0.030867811801978499 0 -0.031834259916481991 0.032090455709545336 0 -0.029870901940158852 0.031118740603426811 0 -0.030811266614211449 0.033449833867081558 0 -0.031834259916481991 0.032090455709545336 0 -0.031356457609551594 0.030867811801978499 0 -0.032591449831204204 0.031378168522756412 0 -0.031834259916481991 0.032090455709545336 0 -0.0025793134388623707 0.11013840860971066 0 4.3198304980014078e-05 0.10811971658532495 0 -0.0019015947013294014 0.11074644184293375 0 -0.031276555830637043 0.029567959553938341 0 -0.031356457609551594 0.030867811801978499 0 -0.032591449831204204 0.031378168522756412 0 -0.032896811496193695 0.032605489230262366 0 -0.032790923537212385 0.031221561602598154 0 -0.031834259916481991 0.032090455709545336 0 -0.020247272673080876 0.064969276233908177 0 -0.022212917845251211 0.062594204306853363 0 -0.026635796302184933 0.052742819870982997 0 -0.023747106579788506 0.054854807384246515 0 -0.026029076511092639 0.057231254317610343 0 -0.032872588974136162 0.053591006333812648 0 -0.036382586880655675 0.048057482690306727 0 -0.026635796302184933 0.052742819870982997 0 -0.029828104853062483 0.053466903957357627 0 -0.026029076511092639 0.057231254317610343 0 -0.026635796302184933 0.052742819870982997 0 -0.023747106579788506 0.054854807384246515 0 -0.025137706420374939 0.048564486543450663 0 -0.04142587048691572 0.051559207897367253 0 -0.038314148532823784 0.05060135051370078 0 -0.03896219071828648 0.047993889281644685 0 -0.04142587048691572 0.051559207897367253 0 -0.038314148532823784 0.05060135051370078 0 -0.037635363091731551 0.052967045163463233 0 -0.037837908730959491 0.04642518217834956 0 -0.038176445993013473 0.048406188206364137 0 -0.04063057123112615 0.047101621476086306 0 -0.04142587048691572 0.051559207897367253 0 -0.03896219071828648 0.047993889281644685 0 -0.042660650795045336 0.04606810245269035 0 -0.037347534035239813 0.047977523622567381 0 -0.036382586880655675 0.048057482690306727 0 -0.026635796302184933 0.052742819870982997 0 -0.025137706420374939 0.048564486543450663 0 -0.028704246334404007 0.04981898695670528 0 -0.029539294749630841 0.046102295393491179 0 -0.025137706420374939 0.048564486543450663 0 -0.028704246334404007 0.04981898695670528 0 -0.028704246334404007 0.04981898695670528 0 -0.033803713568042092 0.049669410621131234 0 -0.029828104853062483 0.053466903957357627 0 -0.029539294749630841 0.046102295393491179 0 -0.028704246334404007 0.04981898695670528 0 -0.033803713568042092 0.049669410621131234 0 -0.03690562602398606 0.051264572776177554 0 -0.033803713568042092 0.049669410621131234 0 -0.033526163672842051 0.054314637586035198 0 -0.034699954100892223 0.046513764954145137 0 -0.036613647339048962 0.04866068125441074 0 -0.033803713568042092 0.049669410621131234 0 -0.03235370029511983 0.053243936038175163 0 -0.030944321913372878 0.055085686353546597 0 -0.03690562602398606 0.051264572776177554 0 -0.033526163672842051 0.054314637586035198 0 -0.034702343727176406 0.058406506040756222 0 -0.033803713568042092 0.049669410621131234 0 -0.033526163672842051 0.054314637586035198 0 -0.030435988885386841 0.054633011212015734 0 -0.026635796302184933 0.052742819870982997 0 -0.028704246334404007 0.04981898695670528 0 -0.029828104853062483 0.053466903957357627 0 -0.033526163672842051 0.054314637586035198 0 -0.030435988885386841 0.054633011212015734 0 -0.031852527456498636 0.057448619808602955 0 -0.030944321913372878 0.055085686353546597 0 -0.029020026078394157 0.058266764433985173 0 -0.031852527456498636 0.057448619808602955 0 -0.031039992663768168 0.060322067168362387 0 -0.027619095625556877 0.059083263177858537 0 -0.030435988885386841 0.054633011212015734 0 -0.031852527456498636 0.057448619808602955 0 -0.027619095625556877 0.059083263177858537 0 -0.031852527456498636 0.057448619808602955 0 -0.034702343727176406 0.058406506040756222 0 -0.031039992663768168 0.060322067168362387 0 -0.033526163672842051 0.054314637586035198 0 -0.031852527456498636 0.057448619808602955 0 -0.034702343727176406 0.058406506040756222 0 -0.031255694666122477 0.06359535620467982 0 -0.033780332403702006 0.06480359585293706 0 -0.035014598805297073 0.060172303245718185 0 -0.031997909310164843 0.062994964652559229 0 -0.034017330046040711 0.058376291431707708 0 -0.032132516575481031 0.064183777687207996 0 -0.034702343727176406 0.058406506040756222 0 -0.031039992663768168 0.060322067168362387 0 -0.031255694666122477 0.06359535620467982 0 -0.035014598805297073 0.060172303245718185 0 -0.033683962422488556 0.057717211395053716 0 -0.031792134926070928 0.067231036132753136 0 -0.033655773346972437 0.061684527709871567 0 -0.032132516575481031 0.064183777687207996 0 -0.031039992663768168 0.060322067168362387 0 -0.030477228049071117 0.0629317834290192 0 -0.031039992663768168 0.060322067168362387 0 -0.028661883502172868 0.062345519704041424 0 -0.027619095625556877 0.059083263177858537 0 -0.031039992663768168 0.060322067168362387 0 -0.030477228049071117 0.0629317834290192 0 -0.028661883502172868 0.062345519704041424 0 -0.029791569544144521 0.064303029203679793 0 -0.030477228049071117 0.0629317834290192 0 -0.028661883502172868 0.062345519704041424 0 -0.029020026078394157 0.058266764433985173 0 -0.029346715700720661 0.060212508613003882 0 -0.028661883502172868 0.062345519704041424 0 -0.027619095625556877 0.059083263177858537 0 -0.025432696587439317 0.062845770452798475 0 -0.028384618804206174 0.065245139141366926 0 -0.028661883502172868 0.062345519704041424 0 -0.025432696587439317 0.062845770452798475 0 -0.023747106579788506 0.054854807384246515 0 -0.026029076511092639 0.057231254317610343 0 -0.022349784770891456 0.06097082369494735 0 -0.04142587048691572 0.051559207897367253 0 -0.040192561109430112 0.057503741005074084 0 -0.037635363091731551 0.052967045163463233 0 -0.032872588974136162 0.053591006333812648 0 -0.029346715700720661 0.060212508613003882 0 -0.040192561109430112 0.057503741005074084 0 -0.034860165917399134 0.055471625611792565 0 -0.033422845137277647 0.058967708115808426 0 -0.034860165917399134 0.055471625611792565 0 -0.033422845137277647 0.058967708115808426 0 -0.030832472392900073 0.055801217159981931 0 -0.028989000609147386 0.060405751241697662 0 -0.033422845137277647 0.058967708115808426 0 -0.030832472392900073 0.055801217159981931 0 -0.034860165917399134 0.055471625611792565 0 -0.033467729295844732 0.052433830079808653 0 -0.030832472392900073 0.055801217159981931 0 -0.040192561109430112 0.057503741005074084 0 -0.034860165917399134 0.055471625611792565 0 -0.037635363091731551 0.052967045163463233 0 -0.034860165917399134 0.055471625611792565 0 -0.033467729295844732 0.052433830079808653 0 -0.037635363091731551 0.052967045163463233 0 -0.037347534035239813 0.047977523622567381 0 -0.036818651917725029 0.048381436977516457 0 -0.033467729295844732 0.052433830079808653 0 -0.037635363091731551 0.052967045163463233 0 -0.035340977208801728 0.049925264890880117 0 -0.038314148532823784 0.05060135051370078 0 -0.03896219071828648 0.047993889281644685 0 -0.035340977208801728 0.049925264890880117 0 -0.038314148532823784 0.05060135051370078 0 -0.037635363091731551 0.052967045163463233 0 -0.035340977208801728 0.049925264890880117 0 -0.033467729295844732 0.052433830079808653 0 -0.035340977208801728 0.049925264890880117 0 -0.03274966500581869 0.049525568926887815 0 -0.035340977208801728 0.049925264890880117 0 -0.03274966500581869 0.049525568926887815 0 -0.034778567444523047 0.047100973200280283 0 -0.03274966500581869 0.049525568926887815 0 -0.034778567444523047 0.047100973200280283 0 -0.031495358137109984 0.047286041945417107 0 -0.037837908730959491 0.04642518217834956 0 -0.034778567444523047 0.047100973200280283 0 -0.03647168489631003 0.047941301327613942 0 -0.038176445993013473 0.048406188206364137 0 -0.035340977208801728 0.049925264890880117 0 -0.03647168489631003 0.047941301327613942 0 -0.035340977208801728 0.049925264890880117 0 -0.034778567444523047 0.047100973200280283 0 -0.03647168489631003 0.047941301327613942 0 -0.037806269805284065 0.045682425237011347 0 -0.036725637901773911 0.046068090425462074 0 -0.037837908730959491 0.04642518217834956 0 -0.038176445993013473 0.048406188206364137 0 -0.03647168489631003 0.047941301327613942 0 -0.028828048677449616 0.047996530911783672 0 -0.031495358137109984 0.047286041945417107 0 -0.029924633553684677 0.045429098156585211 0 -0.028828048677449616 0.047996530911783672 0 -0.031495358137109984 0.047286041945417107 0 -0.029472708102304613 0.051497682014088907 0 -0.03274966500581869 0.049525568926887815 0 -0.031495358137109984 0.047286041945417107 0 -0.029472708102304613 0.051497682014088907 0 -0.033467729295844732 0.052433830079808653 0 -0.03274966500581869 0.049525568926887815 0 -0.029472708102304613 0.051497682014088907 0 -0.028828048677449616 0.047996530911783672 0 -0.029472708102304613 0.051497682014088907 0 -0.027805810779586371 0.050072715347510566 0 -0.027951194786352086 0.053022228413342982 0 -0.026840836004246471 0.05433197486360776 0 -0.029472708102304613 0.051497682014088907 0 -0.027606711750450388 0.051554555170409196 0 -0.027805810779586371 0.050072715347510566 0 -0.029472708102304613 0.051497682014088907 0 -0.030832472392900073 0.055801217159981931 0 -0.02482461165822681 0.056950690711808118 0 -0.033467729295844732 0.052433830079808653 0 -0.029472708102304613 0.051497682014088907 0 -0.030832472392900073 0.055801217159981931 0 -0.028989000609147386 0.060405751241697662 0 -0.030832472392900073 0.055801217159981931 0 -0.02482461165822681 0.056950690711808118 0 -0.025369711410778234 0.056444294569457071 0 -0.026840836004246471 0.05433197486360776 0 -0.026579708242416573 0.051232895586420052 0 -0.027606711750450388 0.051554555170409196 0 -0.026330447540727657 0.051038894299254428 0 -0.026330447540727657 0.051038894299254428 0 -0.02671938184416265 0.050613837829018772 0 -0.025447954796562599 0.050522992584542369 0 -0.027606711750450388 0.051554555170409196 0 -0.02671938184416265 0.050613837829018772 0 -0.027805810779586371 0.050072715347510566 0 -0.027606711750450388 0.051554555170409196 0 -0.026330447540727657 0.051038894299254428 0 -0.02671938184416265 0.050613837829018772 0 -0.026650502103425299 0.050729049780721035 0 -0.026238743968143144 0.05074873433989617 0 -0.026743862578743255 0.050804388620624356 0 -0.026443381517169684 0.050897679119528465 0 -0.026330447540727657 0.051038894299254428 0 -0.02639548398406634 0.050874817719366625 0 -0.026650502103425299 0.050729049780721035 0 -0.02639548398406634 0.050874817719366625 0 -0.026238743968143144 0.05074873433989617 0 -0.026330447540727657 0.051038894299254428 0 -0.02639548398406634 0.050874817719366625 0 -0.026238743968143144 0.05074873433989617 0 -0.026330447540727657 0.051038894299254428 0 -0.026238743968143144 0.05074873433989617 0 -0.025447954796562599 0.050522992584542369 0 -0.026238743968143144 0.05074873433989617 0 -0.02627040061288187 0.050798276751542366 0 -0.025447954796562599 0.050522992584542369 0 -0.026238743968143144 0.05074873433989617 0 -0.026519000279905822 0.050839502718234862 0 -0.026743862578743255 0.050804388620624356 0 -0.02627040061288187 0.050798276751542366 0 -0.026519000279905822 0.050839502718234862 0 -0.026640288893969855 0.051026615834154604 0 -0.026238743968143144 0.05074873433989617 0 -0.02627040061288187 0.050798276751542366 0 -0.026519000279905822 0.050839502718234862 0 -0.026840669449801371 0.050985375915378821 0 -0.026519000279905822 0.050839502718234862 0 -0.026640288893969855 0.051026615834154604 0 -0.026840669449801371 0.050985375915378821 0 -0.026519000279905822 0.050839502718234862 0 -0.026743862578743255 0.050804388620624356 0 -0.030329286182555218 0.052499120498919694 0 -0.026539909683147435 0.052678966940434648 0 -0.027872476183001177 0.051221842870584788 0 -0.033412775680554008 0.039897672644622448 0 -0.032872940718351243 0.04061859447230573 0 -0.026612567562011864 0.051674364231430722 0 -0.027872476183001177 0.051221842870584788 0 -0.026640288893969855 0.051026615834154604 0 -0.02627040061288187 0.050798276751542366 0 -0.026612567562011864 0.051674364231430722 0 -0.026640288893969855 0.051026615834154604 0 -0.025447954796562599 0.050522992584542369 0 -0.024476227084455064 0.048716364653489753 0 -0.025483297145630236 0.048270272670654285 0 -0.033412775680554008 0.039897672644622448 0 -0.031157716164383936 0.041287675594765275 0 -0.02627040061288187 0.050798276751542366 0 -0.026612567562011864 0.051674364231430722 0 -0.025447954796562599 0.050522992584542369 0 -0.022617300259017245 0.049379878141483272 0 -0.025447954796562599 0.050522992584542369 0 -0.024476227084455064 0.048716364653489753 0 -0.033412775680554008 0.039897672644622448 0 -0.031469954926021088 0.035607927450784088 0 -0.022617300259017245 0.049379878141483272 0 -0.024476227084455064 0.048716364653489753 0 -0.024288443019316062 0.046911299646069354 0 -0.024476227084455064 0.048716364653489753 0 -0.025483297145630236 0.048270272670654285 0 -0.024288443019316062 0.046911299646069354 0 -0.035261530129207297 0.019623772146483462 0 -0.03563992292871454 0.020399463523412147 0 -0.03512188670699052 0.020693341927534605 0 -0.035261530129207297 0.019623772146483462 0 -0.03512188670699052 0.020693341927534605 0 -0.034322666009969721 0.020669084366457299 0 -0.03563992292871454 0.020399463523412147 0 -0.035650836462400914 0.020830673074287886 0 -0.03512188670699052 0.020693341927534605 0 -0.027805810779586371 0.050072715347510566 0 -0.026506248152235904 0.049410775448440823 0 -0.02695972399291308 0.047771122529515084 0 -0.02671938184416265 0.050613837829018772 0 -0.027805810779586371 0.050072715347510566 0 -0.026506248152235904 0.049410775448440823 0 -0.02671938184416265 0.050613837829018772 0 -0.025447954796562599 0.050522992584542369 0 -0.026506248152235904 0.049410775448440823 0 -0.025447954796562599 0.050522992584542369 0 -0.026506248152235904 0.049410775448440823 0 -0.025483297145630236 0.048270272670654285 0 -0.025483297145630236 0.048270272670654285 0 -0.02695972399291308 0.047771122529515084 0 -0.025668796503595881 0.046214625406355708 0 -0.026506248152235904 0.049410775448440823 0 -0.025483297145630236 0.048270272670654285 0 -0.02695972399291308 0.047771122529515084 0 -0.025483297145630236 0.048270272670654285 0 -0.025668796503595881 0.046214625406355708 0 -0.024288443019316062 0.046911299646069354 0 -0.028828048677449616 0.047996530911783672 0 -0.02695972399291308 0.047771122529515084 0 -0.027877403836760132 0.04619188581999388 0 -0.028828048677449616 0.047996530911783672 0 -0.027805810779586371 0.050072715347510566 0 -0.02695972399291308 0.047771122529515084 0 -0.02695972399291308 0.047771122529515084 0 -0.027877403836760132 0.04619188581999388 0 -0.025668796503595881 0.046214625406355708 0 -0.027877403836760132 0.04619188581999388 0 -0.025668796503595881 0.046214625406355708 0 -0.028105453595395149 0.043053167582321097 0 -0.027076008474031583 0.044230827265121515 0 -0.028661853444322639 0.042633032226899237 0 -0.025668796503595881 0.046214625406355708 0 -0.025192152142564601 0.043831363823439301 0 -0.024288443019316062 0.046911299646069354 0 -0.030628514573220123 0.033044659572319258 0 -0.031469954926021088 0.035607927450784088 0 -0.033347155918004689 0.021697542286821928 0 -0.034322666009969721 0.020669084366457299 0 -0.034169686701331276 0.02155373587873308 0 -0.033347155918004689 0.021697542286821928 0 -0.033911926129413558 0.022201150415559194 0 -0.033333003728785345 0.022589955169042525 0 -0.033347155918004689 0.021697542286821928 0 -0.033911926129413558 0.022201150415559194 0 -0.034169686701331276 0.02155373587873308 0 -0.025668796503595881 0.046214625406355708 0 -0.025192152142564601 0.043831363823439301 0 -0.027458205189730349 0.043320143574619129 0 -0.025192152142564601 0.043831363823439301 0 -0.027458205189730349 0.043320143574619129 0 -0.026721104647712508 0.039195268362803314 0 -0.035441957865564019 0.021222528424996924 0 -0.035650836462400914 0.020830673074287886 0 -0.03512188670699052 0.020693341927534605 0 -0.035441957865564019 0.021222528424996924 0 -0.034746004550190619 0.021301717534378917 0 -0.035205294897476702 0.021729916540435722 0 -0.035441957865564019 0.021222528424996924 0 -0.03512188670699052 0.020693341927534605 0 -0.034746004550190619 0.021301717534378917 0 -0.034746004550190619 0.021301717534378917 0 -0.034322666009969721 0.020669084366457299 0 -0.034169686701331276 0.02155373587873308 0 -0.03512188670699052 0.020693341927534605 0 -0.034746004550190619 0.021301717534378917 0 -0.034322666009969721 0.020669084366457299 0 -0.033911926129413558 0.022201150415559194 0 -0.034518154618776449 0.021913861476720212 0 -0.034422461102230899 0.022497356132069327 0 -0.033911926129413558 0.022201150415559194 0 -0.034169686701331276 0.02155373587873308 0 -0.034518154618776449 0.021913861476720212 0 -0.034746004550190619 0.021301717534378917 0 -0.034518154618776449 0.021913861476720212 0 -0.035205294897476702 0.021729916540435722 0 -0.034746004550190619 0.021301717534378917 0 -0.034169686701331276 0.02155373587873308 0 -0.034518154618776449 0.021913861476720212 0 -0.034518154618776449 0.021913861476720212 0 -0.035205294897476702 0.021729916540435722 0 -0.035038893163188138 0.022400049044630603 0 -0.035734668163715386 0.022042205810723112 0 -0.035205294897476702 0.021729916540435722 0 -0.035038893163188138 0.022400049044630603 0 -0.035713895368673698 0.021548526339810779 0 -0.035441957865564019 0.021222528424996924 0 -0.035205294897476702 0.021729916540435722 0 -0.035734668163715386 0.022042205810723112 0 -0.035713895368673698 0.021548526339810779 0 -0.035205294897476702 0.021729916540435722 0 -0.035676538282482212 0.022899276463502604 0 -0.035734668163715386 0.022042205810723112 0 -0.035038893163188138 0.022400049044630603 0 -0.035676538282482212 0.022899276463502604 0 -0.035038893163188138 0.022400049044630603 0 -0.034664322166438055 0.023058200965809458 0 -0.035038893163188138 0.022400049044630603 0 -0.034422461102230899 0.022497356132069327 0 -0.034664322166438055 0.023058200965809458 0 -0.034518154618776449 0.021913861476720212 0 -0.035038893163188138 0.022400049044630603 0 -0.034422461102230899 0.022497356132069327 0 -0.033911926129413558 0.022201150415559194 0 -0.034422461102230899 0.022497356132069327 0 -0.033972923928177648 0.022914204981428325 0 -0.034422461102230899 0.022497356132069327 0 -0.034664322166438055 0.023058200965809458 0 -0.033972923928177648 0.022914204981428325 0 -0.034732252362878059 0.02404821046197252 0 -0.034123128860359793 0.023615825086467451 0 -0.034664322166438055 0.023058200965809458 0 -0.034123128860359793 0.023615825086467451 0 -0.034664322166438055 0.023058200965809458 0 -0.033972923928177648 0.022914204981428325 0 -0.055199534860220022 0.012577621702012608 0 -0.055704582904037507 0.0099100582791622188 0 -0.035676538282482212 0.022899276463502604 0 -0.034732252362878059 0.02404821046197252 0 -0.034664322166438055 0.023058200965809458 0 -0.073415869879726606 -0.0021442919088025176 0 -0.074541490199646426 0.00058341394078606382 0 -0.078136560614260858 -0.0052003155789520179 0 -0.030628514573220123 0.033044659572319258 0 -0.030972716671423511 0.030400824671880027 0 -0.033347155918004689 0.021697542286821928 0 -0.032293636264019529 0.02277539137443688 0 -0.033333003728785345 0.022589955169042525 0 -0.032293636264019529 0.02277539137443688 0 -0.033333003728785345 0.022589955169042525 0 -0.033147605832400409 0.023367262695689346 0 -0.033911926129413558 0.022201150415559194 0 -0.033333003728785345 0.022589955169042525 0 -0.033972923928177648 0.022914204981428325 0 -0.033333003728785345 0.022589955169042525 0 -0.033972923928177648 0.022914204981428325 0 -0.033147605832400409 0.023367262695689346 0 -0.033400161307557859 0.024167224964262071 0 -0.034123128860359793 0.023615825086467451 0 -0.033147605832400409 0.023367262695689346 0 -0.034123128860359793 0.023615825086467451 0 -0.033972923928177648 0.022914204981428325 0 -0.033147605832400409 0.023367262695689346 0 -0.032293636264019529 0.02277539137443688 0 -0.033147605832400409 0.023367262695689346 0 -0.032247838583436682 0.023649466014825444 0 -0.03271343090979989 0.023918442024758887 0 -0.033400161307557859 0.024167224964262071 0 -0.033147605832400409 0.023367262695689346 0 -0.03271343090979989 0.023918442024758887 0 -0.033147605832400409 0.023367262695689346 0 -0.032247838583436682 0.023649466014825444 0 -0.03271343090979989 0.023918442024758887 0 -0.031894070357275268 0.024003294118074742 0 -0.032247838583436682 0.023649466014825444 0 -0.033153167826590932 0.026381511231295774 0 -0.030972716671423511 0.030400824671880027 0 -0.031503623855500158 0.024546002634159892 0 -0.031894070357275268 0.024003294118074742 0 -0.032247838583436682 0.023649466014825444 0 -0.031503623855500158 0.024546002634159892 0 -0.032293636264019529 0.02277539137443688 0 -0.032247838583436682 0.023649466014825444 0 -0.030067040668064444 0.03119537230895594 0 -0.026721104647712508 0.039195268362803314 0 -0.031564704836523565 0.035341693756156749 0 -0.026721104647712508 0.039195268362803314 0 -0.031636543660634647 0.039288246282882099 0 -0.031564704836523565 0.035341693756156749 0 -0.028661853444322639 0.042633032226899237 0 -0.032241948586866541 0.039249790761895838 0 -0.027458205189730349 0.043320143574619129 0 -0.026721104647712508 0.039195268362803314 0 -0.031636543660634647 0.039288246282882099 0 -0.031179797698212212 0.03954781524098118 0 -0.038135075185506684 0.03555712748930135 0 -0.035843678548714772 0.03975673626535102 0 -0.031179797698212212 0.03954781524098118 0 -0.035843678548714772 0.03975673626535102 0 -0.033840023072992956 0.04224357186019112 0 -0.031179797698212212 0.03954781524098118 0 -0.038135075185506684 0.03555712748930135 0 -0.040146866151865232 0.033073983155338785 0 -0.032241948586866541 0.039249790761895838 0 -0.035312050263023469 0.036501507999786284 0 -0.031636543660634647 0.039288246282882099 0 -0.031564704836523565 0.035341693756156749 0 -0.034816859661932147 0.032891681618175822 0 -0.031636543660634647 0.039288246282882099 0 -0.034816859661932147 0.032891681618175822 0 -0.040146866151865232 0.033073983155338785 0 -0.031564704836523565 0.035341693756156749 0 -0.032566270447853651 0.032083318917766619 0 -0.034816859661932147 0.032891681618175822 0 -0.030067040668064444 0.03119537230895594 0 -0.031564704836523565 0.035341693756156749 0 -0.032566270447853651 0.032083318917766619 0 -0.034551393827422242 0.028525086916721735 0 -0.032566270447853651 0.032083318917766619 0 -0.034816859661932147 0.032891681618175822 0 -0.037982013611959388 0.029808208471164485 0 -0.036042736876585851 0.029483101727423997 0 -0.034816859661932147 0.032891681618175822 0 -0.038135075185506684 0.03555712748930135 0 -0.040146866151865232 0.033073983155338785 0 -0.049439262840375427 0.031085257022771134 0 -0.037982013611959388 0.029808208471164485 0 -0.034816859661932147 0.032891681618175822 0 -0.040146866151865232 0.033073983155338785 0 -0.041613189950145249 0.028691110818778308 0 -0.040146866151865232 0.033073983155338785 0 -0.049439262840375427 0.031085257022771134 0 -0.042147994726939288 0.032937442022712503 0 -0.044164930370993109 0.031784382818626104 0 -0.038135075185506684 0.03555712748930135 0 -0.03954839422989985 0.038411477437640389 0 -0.03856738091769199 0.038745780364291646 0 -0.038135075185506684 0.03555712748930135 0 -0.057384168015394976 0.035803341038445631 0 -0.049439262840375427 0.031085257022771134 0 -0.056042184218841211 0.027319528072629853 0 -0.057384168015394976 0.035803341038445631 0 -0.049439262840375427 0.031085257022771134 0 -0.03856738091769199 0.038745780364291646 0 -0.038918357536263139 0.04069844581095463 0 -0.036920364279882725 0.041858461283873327 0 -0.039584495034322528 0.039728852388274241 0 -0.03954839422989985 0.038411477437640389 0 -0.03856738091769199 0.038745780364291646 0 -0.039584495034322528 0.039728852388274241 0 -0.03856738091769199 0.038745780364291646 0 -0.038918357536263139 0.04069844581095463 0 -0.038135075185506684 0.03555712748930135 0 -0.03856738091769199 0.038745780364291646 0 -0.035843678548714772 0.03975673626535102 0 -0.03856738091769199 0.038745780364291646 0 -0.035843678548714772 0.03975673626535102 0 -0.036920364279882725 0.041858461283873327 0 -0.036920364279882725 0.041858461283873327 0 -0.03815278763864114 0.043463494040230706 0 -0.03497513233081382 0.044453920825356576 0 -0.035843678548714772 0.03975673626535102 0 -0.036920364279882725 0.041858461283873327 0 -0.033840023072992956 0.04224357186019112 0 -0.036920364279882725 0.041858461283873327 0 -0.03497513233081382 0.044453920825356576 0 -0.033840023072992956 0.04224357186019112 0 -0.039798795444639219 0.042046271670085004 0 -0.038918357536263139 0.04069844581095463 0 -0.038484254276219085 0.042023118178849475 0 -0.038918357536263139 0.04069844581095463 0 -0.036920364279882725 0.041858461283873327 0 -0.038484254276219085 0.042023118178849475 0 -0.036920364279882725 0.041858461283873327 0 -0.038484254276219085 0.042023118178849475 0 -0.03815278763864114 0.043463494040230706 0 -0.039798795444639219 0.042046271670085004 0 -0.038484254276219085 0.042023118178849475 0 -0.03815278763864114 0.043463494040230706 0 -0.039304395264514645 0.045513004521897993 0 -0.034778567444523047 0.047100973200280283 0 -0.03815278763864114 0.043463494040230706 0 -0.034778567444523047 0.047100973200280283 0 -0.03815278763864114 0.043463494040230706 0 -0.03497513233081382 0.044453920825356576 0 -0.034778567444523047 0.047100973200280283 0 -0.031495358137109984 0.047286041945417107 0 -0.03497513233081382 0.044453920825356576 0 -0.031495358137109984 0.047286041945417107 0 -0.032323972794263266 0.044517731612540627 0 -0.029924633553684677 0.045429098156585211 0 -0.031495358137109984 0.047286041945417107 0 -0.03497513233081382 0.044453920825356576 0 -0.032323972794263266 0.044517731612540627 0 -0.032323972794263266 0.044517731612540627 0 -0.029924633553684677 0.045429098156585211 0 -0.031019223881570013 0.043107299233573246 0 -0.027877403836760132 0.04619188581999388 0 -0.028105453595395149 0.043053167582321097 0 -0.029924633553684677 0.045429098156585211 0 -0.028828048677449616 0.047996530911783672 0 -0.027877403836760132 0.04619188581999388 0 -0.029924633553684677 0.045429098156585211 0 -0.028105453595395149 0.043053167582321097 0 -0.031179797698212212 0.03954781524098118 0 -0.031019223881570013 0.043107299233573246 0 -0.028105453595395149 0.043053167582321097 0 -0.029924633553684677 0.045429098156585211 0 -0.031019223881570013 0.043107299233573246 0 -0.031179797698212212 0.03954781524098118 0 -0.033840023072992956 0.04224357186019112 0 -0.031019223881570013 0.043107299233573246 0 -0.032323972794263266 0.044517731612540627 0 -0.033840023072992956 0.04224357186019112 0 -0.031019223881570013 0.043107299233573246 0 -0.03497513233081382 0.044453920825356576 0 -0.032323972794263266 0.044517731612540627 0 -0.033840023072992956 0.04224357186019112 0 
</DataArray>
</PointData>
<CellData Scalars="region_id,cross_section_updated," Vectors="" Tensors="stress,">
<DataArray type="Float64" Name="region_id" format="ascii">
5 5 5 5 5 6 5 5 5 5 5 5 5 6 5 5 5 5 6 5 5 6 5 5 5 5 6 5 5 5 5 6 5 5 5 5 5 5 5 5 5 5 5 5 5 6 5 5 6 5 5 5 5 5 6 5 5 5 5 5 5 5 6 5 5 5 5 6 5 5 5 5 5 5 5 5 5 6 5 5 6 5 5 6 5 5 5 5 6 5 5 5 5 5 5 5 6 6 6 5 5 6 5 5 5 5 5 6 5 5 5 5 5 5 5 5 5 5 5 5 5 6 5 5 5 6 5 5 5 5 5 5 6 5 5 5 5 5 5 5 5 5 5 5 5 5 5 5 5 5 5 5 5 5 5 5 5 5 6 5 5 5 6 5 5 6 5 5 5 5 5 5 5 5 5 5 5 6 5 5 5 5 5 5 5 5 6 5 5 5 5 5 5 5 5 6 5 5 5 5 5 5 5 5 5 6 5 5 5 5 5 5 5 5 5 5 5 5 5 5 5 5 5 5 5 5 5 5 5 6 5 5 5 6 5 6 5 6 5 5 6 5 5 5 6 5 6 5 6 5 6 6 5 6 5 5 6 5 6 5 5 5 6 5 6 6 5 5 6 5 5 5 6 5 6 6 6 5 6 5 5 5 6 5 6 6 6 5 5 6 6 5 5 5 5 6 5 6 5 5 6 5 5 5 6 5 6 6 6 5 5 5 6 5 6 6 6 6 5 5 5 6 6 5 5 6 6 6 5 6 5 5 5 5 6 5 5 5 5 5 5 5 6 5 5 5 5 5 5 6 6 5 5 5 6 5 5 5 6 5 6 5 6 6 5 5 5 5 6 5 5 6 5 5 5 5 6 5 6 5 5 5 5 5 6 6 5 5 5 5 5 5 5 5 6 5 5 5 6 5 5 6 5 6 5 5 5 5 5 5 5 5 5 5 5 6 5 6 5 6 5 5 5 6 5 6 5 6 5 5 5 5 5 5 6 5 6 5 5 5 6 5 5 5 6 5 6 6 5 5 5 5 6 5 5 5 5 6 6 5 5 6 5 6 5 6 6 5 5 5 6 5 5 5 5 6 5 5 5 5 5 5 5 5 5 5 5 6 5 5 5 5 6 5 5 5 6 5 6 6 6 5 5 5 6 6 5 6 5 5 6 5 5 5 5 6 5 5 5 5 5 5 5 5 5 5 5 6 6 5 5 6 5 5 5 6 5 5 5 5 5 5 6 5 5 5 6 5 5 5 6 5 5 5 5 5 5 5 5 5 5 5 6 5 5 5 6 5 5 5 5 5 5 5 6 5 5 5 5 5 6 5 5 5 5 5 5 5 5 5 5 5 5 5 5 5 5 5 5 5 6 5 5 5 5 6 5 5 6 5 5 5 5 5 5 5 6 5 5 5 5 5 5 5 5 6 5 6 5 5 6 5 5 5 6 5 5 6 5 5 5 6 5 6 5 5 6 5 6 5 5 5 5 5 5 5 5 5 5 5 5 5 5 5 5 5 5 5 5 5 5 6 5 6 5 6 5 5 5 5 5 5 5 5 5 5 5 5 5 5 5 6 5 5 5 5 5 5 5 5 5 6 5 5 5 5 5 5 5 5 5 5 5 5 5 5 5 5 5 5 5 5 5 5 5 5 5 5 5 5 5 6 5 5 6 5 5 5 6 6 5 6 5 5 5 5 5 6 5 5 5 5 5 6 5 5 5 5 5 5 5 5 5 5 5 5 5 5 5 5 5 5 5 5 5 5 5 5 5 5 5 5 5 5 5 5 5 5 5 5 5 5 5 5 5 5 5 5 5 5 5 5 5 6 5 5 5 5 5 5 5 5 5 5 5 5 5 5 5 6 5 5 5 5 6 5 5 5 5 5 5 5 5 5 5 5 5 5 5 5 5 5 5 5 5 5 5 5 5 5 5 5 6 5 5 6 5 6 6 6 6 5 5 6 5 5 5 5 5 5 5 5 5 5 5 5 5 5 5 5 5 6 5 5 6 5 6 5 5 5 5 6 5 6 5 5 5 5 6 5 5 5 6 5 5 5 5 5 6 5 6 5 5 6 6 5 6 5 5 5 5 5 5 5 5 5 5 5 6 5 5 5 6 5 5 5 6 5 5 6 6 6 5 5 5 5 5 5 5 5 5 5 5 6 5 5 5 5 5 5 5 5 6 6 6 5 5 5 5 5 5 5 5 6 6 5 5 5 6 5 5 6 5 5 5 5 5 5 5 5 5 5 5 6 5 5 5 5 5 5 5 5 6 5 5 5 5 5 5 5 5 5 5 6 5 6 6 6 5 5 5 5 5 5 5 6 6 5 6 5 5 5 5 5 6 5 6 6 5 5 5 6 5 6 5 5 5 5 6 5 5 5 5 5 5 5 5 5 5 5 5 5 5 5 5 5 6 5 5 5 6 5 5 5 5 5 6 5 5 5 5 5 5 6 5 6 5 5 5 5 5 5 5 5 6 5 5 5 6 5 5 5 5 5 5 5 5 5 5 5 5 5 5 5 5 5 5 5 5 5 5 5 5 5 6 6 6 5 5 5 5 6 5 5 5 5 6 5 5 5 5 5 5 5 6 5 5 5 5 5 5 5 5 6 5 5 5 5 5 5 5 5 5 5 5 5 6 5 5 5 5 5 5 6 5 5 5 5 5 5 5 5 6 5 5 5 6 5 5 5 5 5 5 5 5 5 5 5 5 6 5 5 5 5 5 5 5 5 5 5 5 5 5 5 5 5 5 5 5 5 5 5 5 5 5 5 5 5 5 5 5 5 5 5 5 5 5 5 5 5 5 5 5 5 5 5 5 6 5 5 5 5 5 5 5 5 5 5 5 5 5 5 5 5 5 5 5 5 5 5 5 5 6 5 5 5 5 5 5 5 5 5 5 6 5 5 6 5 5 5 5 5 5 5 5 5 6 5 6 5 5 5 5 6 5 5 6 5 6 5 5 5 5 5 6 5 5 5 5 5 5 5 5 6 5 5 5 5 5 5 5 5 5 5 5 5 5 5 6 5 6 6 5 5 5 5 5 6 5 5 5 5 5 5 5 5 5 5 5 5 5 5 5 6 5 5 5 5 5 5 5 5 5 5 5 5 5 5 5 5 6 5 5 5 5 5 6 6 5 5 6 5 5 5 5 5 5 5 5 5 5 6 5 5 5 5 5 5 5 5 5 6 5 6 5 5 5 5 5 6 5 5 5 5 6 5 5 5 6 5 5 5 6 5 5 6 5 5 5 5 5 5 5 5 5 5 5 5 5 5 5 5 6 5 5 5 5 5 5 5 6 5 5 5 5 5 5 5 5 5 5 5 5 5 5 5 5 5 5 5 5 5 5 5 5 5 5 5 6 5 5 5 5 6 5 5 5 6 5 5 5 5 5 5 5 5 5 6 5 6 5 5 5 5 5 5 5 5 5 5 5 5 5 5 5 5 5 5 6 6 5 5 5 6 5 5 6 5 5 6 5 5 5 6 5 5 6 5 5 5 5 5 5 5 5 5 5 5 5 5 5 5 5 5 5 5 5 6 5 6 5 5 5 5 5 5 5 5 5 5 5 6 5 6 5 5 5 6 5 5 5 5 5 6 5 5 5 5 5 5 6 5 5 5 5 5 5 5 5 5 5 5 6 5 5 5 5 5 5 5 5 6 5 5 5 6 5 5 6 5 5 5 5 5 6 5 5 5 5 5 5 5 5 5 6 5 5 6 5 6 5 6 6 6 5 6 5 5 5 5 5 5 6 5 5 5 5 5 5 6 5 5 5 5 5 5 5 6 5 5 5 5 6 5 5 5 5 5 6 5 6 5 5 5 5 5 5 5 5 5 5 6 5 5 5 5 5 5 5 6 5 5 5 5 5 5 5 6 5 6 5 5 5 5 5 5 5 5 6 5 5 5 6 6 5 5 5 5 5 6 6 5 6 5 5 6 5 5 6 5 5 5 5 5 5 5 5 6 5 5 5 5 5 6 5 5 5 5 6 5 5 6 5 5 5 5 5 5 5 5 5 5 5 5 5 5 5 5 5 5 5 5 5 5 5 5 5 5 5 5 5 5 5 5 5 5 5 5 5 5 5 5 5 6 5 5 6 5 5 5 5 5 6 5 5 5 5 6 5 5 5 5 5 5 5 5 5 5 5 5 5 5 5 5 5 5 5 5 5 5 5 5 6 5 5 5 6 5 5 5 5 5 5 6 5 5 5 5 5 5 5 5 5 5 5 6 5 6 6 5 5 6 5 5 5 5 5 5 5 5 5 5 5 6 5 5 6 5 5 5 5 5 5 5 5 5 5 5 5 5 5 5 6 5 5 5 5 5 5 5 6 5 6 5 5 5 5 6 5 6 5 5 5 5 5 5 5 5 5 6 5 5 5 5 5 5 5 5 5 5 5 5 5 5 5 5 5 6 5 5 5 5 5 5 5 5 5 5 5 5 5 5 5 5 5 5 5 5 5 5 5 5 5 6 6 5 5 5 5 5 5 5 5 5 5 5 6 5 5 5 5 6 5 5 5 5 6 5 5 5 5 5 5 5 5 6 5 5 5 5 5 5 5 5 5 6 5 5 5 5 5 5 5 5 5 5 5 5 5 5 5 5 5 5 5 5 6 5 5 5 5 5 5 5 5 5 5 5 5 5 5 6 5 6 5 5 5 5 5 5 5 5 6 5 5 6 5 5 5 5 5 5 5 5 5 5 5 5 5 5 5 5 5 5 5 5 5 5 5 5 5 5 5 5 5 5 5 5 5 5 5 5 6 5 5 6 5 5 5 5 6 5 6 5 5 6 5 6 5 5 5 5 5 6 5 5 5 5 5 5 5 5 5 5 5 5 6 5 5 5 6 5 5 5 5 5 5 5 5 5 6 5 5 5 5 6 6 5 5 5 5 5 5 5 5 6 5 5 5 5 5 6 5 5 5 6 5 5 5 6 5 5 5 5 6 5 5 5 5 5 5 5 5 5 5 5 5 5 5 6 5 5 5 5 5 5 6 5 6 6 5 6 5 6 5 5 5 5 6 5 5 5 5 6 5 5 5 5 5 5 5 5 5 6 5 5 5 5 5 5 5 5 5 5 5 5 5 5 6 5 5 5 6 5 5 5 6 5 6 5 5 5 5 5 5 5 5 5 5 5 5 5 5 5 5 6 5 5 5 5 5 5 6 5 5 5 5 5 5 5 5 5 5 5 5 5 5 5 5 5 5 6 5 5 5 5 5 5 5 5 5 5 5 5 5 5 5 5 5 5 5 5 5 5 5 5 5 5 5 5 5 5 5 5 5 5 6 5 5 5 5 6 5 5 5 5 5 5 5 6 5 5 5 5 5 5 5 5 5 6 5 5 6 5 5 5 5 5 6 5 5 5 6 5 5 6 5 5 5 5 5 5 5 5 5 5 5 5 5 5 5 5 5 5 5 5 6 5 5 5 5 5 5 5 5 5 5 6 6 5 6 5 5 5 5 5 6 5 5 5 5 6 5 5 5 5 5 6 5 6 5 5 6 5 5 5 5 5 5 5 5 6 5 5 5 5 5 5 6 5 5 5 5 5 5 6 5 5 5 5 6 5 5 6 5 6 5 5 6 5 5 5 5 5 5 6 5 5 5 5 6 5 5 5 5 5 5 5 5 6 6 5 5 5 5 5 5 5 5 6 5 5 5 5 5 5 6 5 5 5 5 5 5 5 6 5 5 5 6 5 5 5 5 5 5 5 5 5 5 5 5 6 5 5 5 5 6 5 5 6 5 5 5 5 6 5 5 5 6 6 5 5 5 6 5 5 5 6 5 5 5 5 5 5 5 5 5 6 5 5 5 6 5 5 5 5 5 5 5 5 5 5 5 5 6 5 6 5 5 6 5 5 6 5 5 5 5 5 5 5 6 5 5 5 5 5 6 5 6 5 5 5 6 6 5 6 6 5 6 5 5 5 5 5 5 6 5 6 5 5 5 5 5 5 5 5 5 5 5 5 5 6 5 5 6 5 6 5 5 6 5 5 5 6 6 5 5 6 5 5 5 5 5 5 5 5 5 5 5 5 5 5 5 5 5 5 5 5 5 5 5 6 6 5 6 5 6 5 5 6 6 5 5 6 5 5 6 5 5 6 5 6 5 5 5 5 6 5 5 5 5 6 5 6 6 5 6 5 5 6 6 5 5 5 6 5 5 5 5 6 6 5 5 5 5 5 6 5 5 5 5 5 5 5 5 5 5 5 6 5 6 5 6 5 5 6 5 6 5 5 5 5 5 5 5 5 6 5 5 6 5 5 5 5 6 5 5 5 5 5 5 5 5 5 5 5 5 6 5 5 5 5 5 5 5 5 5 5 5 6 5 5 5 5 5 5 6 5 6 5 5 6 5 5 5 5 5 5 5 5 5 5 5 5 5 5 5 5 5 6 6 5 5 5 6 5 5 6 5 5 5 5 5 5 5 5 5 5 5 5 5 5 5 5 5 5 5 5 5 5 5 5 5 6 6 5 5 5 5 5 5 5 5 5 5 5 6 5 5 5 5 5 5 5 5 5 5 5 5 5 5 5 5 5 5 5 5 5 5 5 5 5 5 5 5 5 5 5 5 5 6 5 5 5 5 5 6 5 5 6 5 5 6 6 5 5 5 5 5 5 5 5 5 5 5 5 5 6 5 5 6 5 5 5 5 5 5 6 5 5 6 5 5 5 5 5 5 5 5 5 5 5 5 5 6 5 5 5 5 5 5 5 6 5 5 5 5 5 5 5 5 5 5 5 5 6 5 5 6 5 5 5 5 5 5 5 5 5 5 5 5 5 5 5 5 5 5 5 5 6 5 5 6 5 6 5 5 5 6 5 5 6 5 6 5 5 5 6 5 5 5 5 6 5 5 5 5 5 5 5 6 5 5 5 6 5 5 5 5 5 5 5 5 5 5 5 5 6 5 5 5 5 5 5 5 5 6 5 5 5 5 5 5 5 5 5 5 5 6 5 5 5 5 5 5 5 5 5 5 5 5 5 5 5 5 5 5 5 6 6 5 5 5 6 5 5 5 5 5 5 5 5 5 5 5 5 6 5 5 5 5 5 5 5 5 5 6 5 5 5 5 5 5 5 5 5 5 5 5 5 5 5 5 6 5 6 5 5 5 5 5 6 5 5 5 5 6 5 5 5 6 5 5 5 6 5 5 5 5 5 5 5 5 5 6 5 5 5 6 5 5 6 5 5 5 5 5 5 6 5 5 5 5 5 5 5 5 6 5 5 5 6 5 5 5 5 5 5 5 5 5 5 5 5 5 5 5 5 5 5 5 5 5 5 5 5 5 5 5 6 5 5 5 5 5 5 5 6 5 5 5 5 5 5 5 5 5 5 5 5 5 5 5 5 5 5 5 5 5 5 5 5 5 6 5 6 5 5 5 5 5 5 6 5 5 5 6 5 5 6 5 5 5 5 5 5 5 5 5 5 5 5 6 5 5 5 5 5 6 5 5 5 5 5 5 5 5 5 5 5 5 5 6 5 5 5 6 5 5 5 5 5 5 5 5 5 5 5 5 6 6 5 5 5 5 6 5 5 5 5 5 5 5 5 5 6 6 5 5 5 5 5 6 5 5 5 5 5 6 5 5 5 5 5 6 5 6 5 5 5 5 6 5 6 5 6 6 5 5 5 5 5 5 5 6 6 5 5 5 5 5 5 6 6 6 5 6 6 5 5 5 6 5 5 5 5 5 6 6 6 5 6 5 5 5 6 5 6 6 5 5 5 5 5 5 5 6 6 5 5 6 6 6 5 5 5 5 5 5 5 5 5 5 5 5 5 5 5 5 5 5 5 5 5 5 5 5 5 5 5 5 5 5 5 5 5 5 5 5 5 5 5 5 6 5 5 5 5 5 5 5 5 5 5 6 5 5 5 5 5 5 6 5 5 6 5 5 5 5 5 5 5 5 5 5 5 5 5 6 5 6 5 5 5 5 6 5 5 5 6 5 5 6 5 5 5 6 5 5 6 5 5 5 5 5 6 5 5 5 5 5 5 5 6 5 5 5 5 5 5 5 6 5 5 6 5 5 5 5 6 5 6 5 5 5 5 5 6 5 5 5 5 6 5 5 5 5 5 5 6 6 5 5 5 5 5 6 5 5 6 5 5 5 5 5 5 5 5 5 5 6 5 5 5 5 5 5 5 5 5 5 5 5 5 5 5 5 5 5 6 5 5 5 5 5 5 6 5 5 5 5 5 5 5 6 6 5 5 5 5 6 5 5 5 5 5 5 5 6 5 5 6 5 6 6 6 5 5 5 5 5 5 6 5 5 5 5 5 6 5 5 5 5 6 5 5 5 6 5 5 5 6 5 5 5 5 5 5 5 5 5 5 5 5 5 5 5 5 5 5 5 5 5 5 5 5 5 6 5 5 5 5 5 5 5 6 5 6 5 5 5 5 5 5 6 5 5 6 5 5 5 6 5 5 6 5 5 5 5 5 6 5 5 5 6 6 5 5 5 5 5 5 5 5 5 5 5 5 6 5 5 5 5 5 5 5 5 5 6 5 5 5 5 5 6 6 5 5 5 5 5 5 5 5 5 6 5 5 5 5 5 5 5 5 6 5 5 5 5 5 5 5 5 5 5 5 5 5 5 5 5 5 5 6 5 5 5 5 6 5 6 5 6 5 5 5 5 5 5 5 5 5 5 5 5 5 5 5 5 5 6 5 5 5 5 5 6 5 5 5 6 6 5 5 5 5 5 6 5 5 5 5 6 5 5 5 5 5 5 5 5 6 5 5 5 5 5 5 5 6 5 5 5 5 5 5 5 5 5 6 5 5 5 5 5 5 5 5 5 5 5 5 5 5 5 5 5 5 6 5 5 5 5 5 5 5 5 5 5 5 5 5 6 5 5 5 5 5 5 6 5 5 6 5 5 6 5 5 5 5 5 5 5 5 5 5 5 5 5 5 5 5 5 5 5 5 5 5 5 5 5 5 6 5 6 5 6 6 5 5 5 6 5 5 5 5 5 5 5 5 5 6 6 5 6 5 5 5 5 5 5 5 5 5 5 5 5 5 5 6 5 6 6 5 6 5 5 5 5 5 5 5 5 5 6 6 5 5 5 5 5 5 5 5 5 5 5 5 5 5 5 5 5 5 5 5 5 5 6 5 5 5 5 5 6 5 5 5 5 5 6 5 5 5 6 5 5 5 5 5 5 5 5 5 6 5 5 5 5 6 5 5 5 5 5 5 6 5 5 5 5 5 5 5 6 5 5 5 5 6 5 5 5 5 5 5 5 5 5 5 6 5 5 5 5 6 5 5 5 6 5 5 5 5 5 6 5 5 5 5 5 5 5 5 5 5 5 5 5 5 6 6 5 5 6 5 5 5 5 5 5 5 6 5 5 5 5 5 5 6 5 5 5 5 5 5 5 5 5 5 5 5 5 5 5 5 5 5 5 5 5 5 5 6 5 5 5 5 5 5 5 5 6 5 5 5 5 6 5 5 5 5 5 6 5 6 5 6 5 5 5 5 5 5 5 6 5 5 5 6 5 5 5 5 5 6 5 5 5 5 5 6 5 6 5 5 6 5 6 5 5 5 5 5 6 5 5 5 6 5 5 5 5 5 5 5 5 5 5 6 5 5 5 5 5 5 5 5 5 5 5 5 5 5 5 5 5 5 5 5 5 5 6 5 5 5 5 5 5 5 5 5 5 5 5 5 5 5 5 5 5 6 5 5 5 6 5 5 5 5 5 5 6 5 5 5 6 6 5 6 5 6 6 5 6 5 5 6 5 5 6 6 5 5 5 5 5 5 5 5 6 5 6 5 5 5 5 5 5 5 5 5 5 5 5 5 5 5 5 5 5 5 5 5 5 6 5 5 5 5 5 5 5 5 6 5 5 6 5 5 6 6 5 5 6 5 5 5 5 5 5 5 5 5 5 5 5 5 5 5 5 5 5 5 5 5 5 5 5 5 5 5 5 5 5 5 5 5 5 5 5 5 5 5 6 5 6 5 5 5 5 5 5 5 5 5 5 5 5 5 5 5 5 5 5 5 5 5 5 5 5 5 5 5 5 5 5 5 5 5 5 5 5 5 5 5 5 6 5 5 6 5 5 5 5 5 6 5 6 5 5 6 5 5 5 5 5 5 6 5 5 5 5 5 5 5 5 5 5 5 6 5 5 6 6 5 6 5 5 6 5 5 5 5 6 5 5 5 5 5 5 5 5 5 6 5 6 5 5 5 5 5 5 5 6 5 6 5 5 5 5 5 5 5 5 5 6 5 6 5 5 5 5 5 5 5 5 5 5 6 5 5 5 6 5 5 6 5 5 6 5 5 5 5 6 5 5 5 6 5 5 5 5 5 5 5 5 5 5 5 5 5 5 6 5 5 5 5 5 5 6 5 6 5 6 5 5 5 6 5 5 5 5 5 5 5 5 6 5 5 5 5 5 6 5 5 6 5 5 5 5 5 5 5 5 5 6 5 5 5 6 5 5 5 5 5 5 6 5 5 5 5 5 5 5 5 5 5 5 5 5 5 5 5 5 5 5 5 5 5 5 5 5 5 5 5 5 5 5 6 5 5 5 5 5 6 5 5 6 6 5 5 5 5 6 5 5 5 5 5 6 5 5 5 5 5 5 5 5 5 5 5 5 5 5 5 5 6 5 5 5 5 5 5 5 5 6 6 5 5 5 5 5 5 6 5 5 5 5 6 5 5 5 5 5 5 5 5 5 5 5 5 5 5 5 5 5 5 5 5 5 5 5 5 6 5 5 6 5 5 5 5 5 5 5 5 5 5 5 5 5 5 5 5 5 5 5 5 5 5 5 5 5 5 5 6 5 6 5 5 5 5 5 6 5 5 5 5 5 5 5 5 5 5 5 5 5 5 5 5 5 5 5 5 6 6 5 6 5 5 5 5 5 5 5 5 5 5 5 5 5 5 5 5 6 5 5 5 6 5 5 5 5 5 5 5 5 5 5 5 5 5 6 5 5 5 5 5 5 5 5 5 5 5 5 5 5 5 5 5 5 5 5 5 5 6 5 5 5 5 5 5 5 5 5 5 5 5 5 6 5 6 5 5 6 6 5 5 5 5 5 5 5 5 5 5 5 5 5 5 5 5 5 5 5 5 6 5 5 6 5 5 5 6 5 5 5 5 5 5 6 5 5 5 6 5 5 5 5 5 5 5 5 6 5 5 6 5 5 6 5 6 5 5 5 5 6 6 5 5 6 6 5 5 6 5 5 5 5 6 5 5 6 6 5 6 5 5 5 5 5 5 5 5 5 5 5 5 5 5 5 5 5 5 5 5 6 5 5 5 5 6 5 5 5 5 6 6 5 5 5 5 5 5 5 5 5 5 5 5 6 5 5 5 6 5 5 5 5 5 5 5 6 5 5 5 6 5 5 6 6 5 5 5 6 5 5 5 6 5 5 5 5 5 5 5 5 5 5 5 5 5 5 5 5 5 5 6 5 5 5 5 5 5 5 5 5 5 5 5 5 5 5 5 5 5 6 6 5 5 5 5 5 6 6 5 6 5 5 5 5 5 5 5 5 5 6 5 5 5 6 5 5 5 5 5 5 5 5 5 5 5 5 5 5 6 5 5 5 5 5 5 5 6 5 5 6 5 5 5 5 5 5 6 5 5 5 5 6 5 5 5 5 5 5 6 5 5 5 5 5 5 5 5 6 6 5 5 5 6 6 5 5 5 5 5 6 5 5 5 5 5 5 6 5 5 5 5 6 5 5 5 5 5 6 5 5 5 5 6 5 5 5 5 5 5 5 5 5 5 5 5 5 5 5 5 5 5 5 5 5 5 5 5 5 6 5 5 5 5 6 5 6 5 6 5 5 6 5 5 6 5 5 6 5 5 5 5 5 5 6 5 5 6 5 6 6 6 5 5 6 5 6 6 5 5 5 6 5 6 5 5 5 5 5 5 6 5 5 5 6 5 5 5 5 5 5 5 6 5 5 5 6 5 6 6 5 5 5 5 5 5 5 6 5 5 5 5 5 5 5 5 6 6 5 5 5 5 6 5 5 6 5 5 5 6 5 5 5 6 6 5 5 5 5 6 5 5 5 5 5 6 6 5 5 5 5 5 5 5 5 5 5 5 5 5 5 5 5 5 5 5 5 5 5 5 5 5 5 5 5 5 5 5 6 5 5 5 6 5 5 5 5 5 5 5 5 5 5 5 5 5 5 5 6 5 6 6 5 5 6 5 5 5 5 5 5 5 5 5 5 5 5 5 5 5 5 5 5 5 5 5 5 5 6 5 5 6 6 5 5 5 5 5 5 5 6 5 5 5 6 5 5 5 5 6 6 5 5 5 5 5 5 5 6 5 5 5 5 6 5 5 5 5 6 5 5 5 5 5 5 5 5 5 5 5 5 5 5 5 5 5 5 5 6 5 5 5 5 5 5 5 5 5 5 5 5 5 5 5 5 6 5 5 5 6 5 5 5 5 5 5 5 5 5 6 5 5 5 5 5 5 5 5 5 5 5 5 5 5 5 5 5 5 5 5 5 6 5 5 5 5 5 5 5 5 5 5 5 5 5 5 5 5 5 6 5 5 5 5 5 6 5 5 5 5 5 5 5 5 5 5 5 5 5 5 5 5 5 5 5 5 5 5 5 5 5 5 5 6 5 5 6 5 5 5 6 5 5 5 5 5 5 5 5 5 5 5 5 5 5 5 6 5 6 5 5 5 5 5 5 5 5 5 6 5 5 5 5 5 5 5 5 5 6 6 5 5 5 5 5 5 5 5 5 5 5 5 5 5 5 5 5 5 5 5 5 5 5 5 5 5 5 5 5 5 5 5 5 5 5 5 5 5 5 5 5 5 5 5 5 5 5 5 5 5 5 5 5 5 5 5 5 5 5 5 5 5 5 5 5 5 5 5 5 5 5 6 5 5 5 5 5 5 6 5 5 5 5 5 5 5 5 5 6 5 6 5 5 5 5 5 5 5 5 5 5 5 5 5 5 5 5 5 5 5 5 5 5 5 5 5 5 5 5 5 5 5 5 5 5 6 5 5 5 6 6 5 5 5 5 5 5 5 5 5 5 5 5 5 5 5 5 5 5 5 5 5 5 6 6 5 5 5 5 5 5 5 5 6 5 5 5 5 5 5 6 5 5 5 5 5 6 5 5 5 5 6 5 5 5 6 5 5 5 6 5 5 6 5 5 5 5 5 5 5 5 5 5 5 5 5 6 5 5 5 5 5 5 5 5 6 5 5 5 5 5 5 5 5 5 5 5 6 5 5 5 6 5 5 5 5 6 5 5 5 5 5 5 5 5 6 5 6 5 5 6 5 5 5 5 5 6 5 5 5 5 5 5 5 5 5 5 5 5 6 5 5 5 5 5 5 5 5 5 6 5 5 5 5 5 5 6 5 5 5 5 5 5 5 6 5 5 5 5 5 6 5 5 5 5 5 5 5 5 5 5 5 5 5 5 5 5 5 5 5 5 5 5 5 5 5 5 5 5 5 5 5 5 5 5 5 5 5 5 5 5 5 5 5 5 5 5 5 6 5 6 5 5 5 5 5 5 5 5 5 5 5 5 5 5 6 5 5 5 5 5 5 5 5 5 5 5 5 5 5 5 6 5 5 6 5 6 5 5 5 5 5 6 5 5 5 5 5 5 5 5 5 5 5 5 5 5 5 5 5 5 5 5 6 5 5 5 5 5 5 5 5 5 5 5 6 5 6 5 5 6 5 6 5 5 5 5 5 5 5 6 5 6 5 5 5 5 6 5 5 5 5 6 6 5 5 6 5 5 5 5 5 5 5 5 5 5 5 5 5 5 5 5 6 5 5 5 5 5 5 5 5 5 5 5 5 5 5 6 5 6 5 5 5 5 5 5 5 6 5 6 5 5 5 5 5 5 5 5 5 6 6 5 5 5 6 5 5 5 5 6 5 6 5 5 6 5 6 6 6 5 5 6 5 5 5 6 6 6 5 5 5 5 5 5 5 5 5 5 5 6 5 5 5 5 5 5 6 5 5 5 6 5 5 5 5 5 5 5 5 6 5 5 5 6 5 5 5 5 5 5 5 5 5 5 5 5 5 5 5 5 5 5 5 5 5 5 5 5 5 5 5 5 5 5 5 5 5 5 5 5 5 5 5 5 5 5 5 5 5 5 5 5 5 5 5 5 5 5 5 5 5 5 5 5 6 5 5 5 5 5 6 5 5 5 5 6 5 5 5 6 5 5 5 5 5 5 5 5 5 5 5 5 5 5 5 5 5 5 5 5 5 5 5 5 5 5 5 5 5 5 5 5 5 5 5 5 5 5 5 5 6 5 5 6 5 5 5 5 5 5 5 6 5 5 5 5 5 5 5 5 5 5 5 6 5 5 6 5 6 5 5 5 6 5 5 5 5 5 5 5 5 6 5 5 5 5 6 5 5 5 5 6 5 6 5 5 5 5 5 5 5 5 5 5 5 5 6 5 6 5 5 5 5 5 5 5 5 5 5 5 5 5 6 5 5 5 5 5 5 5 5 5 6 5 5 5 6 5 5 5 5 5 5 5 5 5 5 5 5 5 5 5 5 5 5 5 5 5 5 5 5 5 5 5 5 5 5 5 5 5 5 5 6 5 5 6 5 5 5 5 6 5 5 5 5 5 5 5 5 5 5 5 5 5 5 5 6 5 5 5 5 5 5 5 5 5 6 5 6 5 5 5 5 5 5 5 6 5 5 5 5 5 5 5 5 5 5 5 5 5 5 6 5 5 5 5 5 5 5 5 5 5 5 6 5 5 5 5 5 5 5 5 5 5 5 5 5 5 5 5 5 5 5 5 5 5 5 6 5 6 5 5 5 5 5 5 6 5 6 5 5 5 6 5 5 5 6 5 5 5 6 5 5 6 5 5 5 5 5 5 5 6 5 5 5 5 5 5 5 6 5 5 5 5 5 5 5 5 5 5 5 5 5 6 5 5 5 5 5 5 5 5 6 5 5 5 5 5 5 5 5 5 5 5 5 5 5 5 5 5 5 5 5 6 5 5 5 5 5 5 5 5 5 5 5 5 5 5 5 5 5 5 5 5 5 5 5 5 5 5 5 5 5 5 5 5 5 5 5 5 5 5 5 5 5 5 5 5 5 5 5 5 5 5 6 5 6 5 5 5 6 5 5 6 6 5 6 5 5 5 5 5 5 5 5 5 5 5 5 5 5 5 5 5 5 5 5 5 5 5 5 5 5 5 5 5 5 5 5 5 5 5 6 5 5 5 5 6 5 5 6 5 5 5 6 5 5 5 5 6 5 6 6 5 5 5 5 6 5 5 5 6 5 5 5 6 5 5 5 5 5 5 6 5 5 5 5 5 5 5 5 5 5 5 5 5 5 5 5 5 5 5 5 6 5 5 5 5 5 5 5 5 5 5 5 5 5 5 5 5 5 5 6 5 5 6 5 5 6 5 5 5 5 5 5 5 5 5 5 5 6 5 5 5 5 6 5 5 5 5 6 5 5 5 6 5 5 5 5 5 5 5 5 5 5 5 5 5 5 5 5 5 5 5 5 5 5 5 5 5 6 5 5 5 5 5 5 5 5 6 5 5 5 6 5 5 5 5 5 5 5 5 5 5 5 5 5 5 5 5 5 5 5 5 5 5 5 5 6 5 5 5 6 5 5 5 5 5 5 5 5 6 5 5 6 5 5 5 5 6 5 5 5 5 5 5 5 6 5 6 5 5 6 5 5 6 6 5 5 5 5 5 5 5 5 5 5 5 5 5 5 5 5 5 5 5 5 5 6 5 5 5 5 6 5 5 5 5 5 5 5 5 5 5 5 5 5 6 5 5 6 5 5 5 5 5 5 5 5 5 5 5 5 5 5 5 5 5 5 5 5 5 5 5 5 5 5 5 5 5 5 5 5 5 5 5 5 5 5 5 5 5 5 5 5 5 5 5 5 5 5 5 5 5 5 5 5 5 5 5 5 5 5 5 5 5 5 5 5 5 5 5 5 5 5 5 5 5 5 5 5 5 5 5 5 5 5 5 5 5 5 5 5 5 5 5 5 5 5 5 5 5 5 5 5 5 5 5 5 5 5 5 5 5 5 5 5 5 5 5 5 5 5 5 5 5 5 5 5 6 5 5 5 5 5 5 5 6 5 5 5 5 5 5 5 5 5 6 5 6 5 5 5 6 5 5 6 5 5 5 5 5 5 5 5 5 5 5 5 5 5 5 5 5 5 5 5 5 5 5 5 5 5 5 5 5 5 5 5 5 5 5 5 5 6 5 5 6 6 5 5 6 5 5 6 5 5 5 6 5 5 5 5 5 5 5 5 5 6 5 5 5 5 5 5 6 5 5 5 5 5 5 5 5 5 5 5 5 5 5 5 5 5 5 5 5 5 5 5 5 5 5 5 5 5 5 5 6 5 5 5 5 5 5 5 5 5 5 5 5 5 5 5 5 5 5 5 5 5 5 5 5 5 5 5 5 5 5 5 5 5 5 5 5 5 5 5 5 5 5 5 5 5 5 6 5 6 5 5 5 5 6 5 5 5 5 6 5 5 5 5 6 5 5 5 5 5 5 5 5 6 5 5 6 5 6 5 5 5 5 6 5 5 6 6 5 5 5 5 5 5 6 5 5 5 5 5 5 5 5 5 5 6 6 5 5 5 5 5 6 5 5 6 5 5 5 5 6 5 5 6 5 5 5 5 5 5 5 5 5 5 5 5 5 5 5 5 5 5 5 5 5 5 5 5 5 5 5 5 5 6 5 6 5 5 5 5 5 5 5 5 5 5 5 5 5 6 5 5 5 5 6 6 5 5 5 5 5 5 5 5 5 5 5 5 5 5 5 5 5 5 5 5 5 5 5 5 5 5 5 5 5 5 5 5 5 5 5 5 5 5 5 5 5 5 6 5 5 5 6 5 5 5 5 5 5 5 5 5 5 5 5 5 5 5 5 5 5 5 5 6 5 5 6 5 5 5 5 5 5 5 5 5 6 5 5 5 5 5 6 5 5 5 5 5 6 5 6 5 5 5 5 5 5 5 5 5 5 5 5 5 6 5 5 5 6 6 5 5 5 5 5 5 5 5 6 5 5 6 5 5 6 6 5 5 5 5 5 6 5 5 5 5 5 5 5 6 5 5 6 6 5 5 5 5 5 5 6 6 5 5 5 6 5 5 5 5 5 5 5 6 5 5 5 5 5 5 5 5 5 5 5 5 5 5 5 5 5 5 5 5 5 5 5 5 5 5 6 5 5 5 5 5 5 5 6 5 5 5 5 5 5 5 5 5 5 5 6 5 5 5 5 5 5 5 5 6 5 5 5 5 5 5 5 5 5 5 5 5 5 5 5 5 6 5 5 5 6 5 5 5 5 5 6 5 5 5 5 5 5 5 5 5 5 5 5 5 5 6 5 5 5 5 6 5 5 6 5 5 5 5 5 6 5 5 5 5 5 5 5 5 5 5 5 5 5 5 6 5 6 5 5 5 6 5 6 5 6 5 5 5 5 5 5 6 6 5 5 5 5 5 5 6 5 6 5 5 5 5 5 5 5 5 5 5 5 5 5 5 5 5 5 6 5 5 5 6 6 5 5 5 5 5 6 5 5 6 6 5 5 5 5 5 5 5 5 5 5 5 5 5 5 5 5 5 5 5 5 5 5 5 5 5 5 5 5 5 5 5 5 5 5 5 5 5 5 5 5 5 5 5 5 6 5 5 6 6 6 5 5 5 5 5 5 6 5 5 5 5 5 5 5 5 5 6 5 5 5 6 5 5 5 5 5 5 5 5 5 5 5 5 5 5 5 5 5 5 5 5 6 5 5 5 5 6 5 5 5 5 5 5 5 5 5 5 5 5 5 5 5 5 5 5 5 5 5 5 5 5 5 5 5 5 5 5 5 5 5 5 6 5 6 5 5 5 5 5 5 5 5 6 5 5 5 6 5 6 5 5 5 5 5 5 5 5 6 5 5 5 5 6 5 5 5 5 6 5 5 5 5 5 5 5 6 5 5 5 5 6 5 5 5 5 5 5 5 5 5 5 5 5 5 5 5 5 5 5 5 5 5 5 5 5 5 5 5 5 5 5 5 5 5 5 5 5 5 5 5 5 5 5 5 5 5 5 6 5 5 5 5 6 6 5 5 6 6 5 5 5 5 5 5 5 5 5 5 5 5 5 5 5 5 5 5 5 6 5 5 5 6 6 5 5 5 5 5 5 5 5 5 5 5 5 5 5 5 5 5 5 5 5 5 5 5 5 5 5 5 6 5 5 5 5 5 5 5 6 5 5 5 5 5 5 5 5 5 5 5 5 5 5 5 6 5 5 5 5 5 5 5 5 6 5 6 6 5 5 5 5 5 5 5 5 5 5 5 5 6 5 5 5 5 5 5 5 5 5 5 5 5 5 5 5 5 5 5 6 5 5 5 6 5 5 5 5 5 5 5 5 6 5 5 5 5 5 5 5 5 5 5 5 5 5 5 5 6 5 5 5 6 5 5 5 5 5 5 5 5 5 5 5 5 5 5 5 5 5 5 5 5 5 5 5 5 5 5 5 5 5 5 5 5 5 6 5 6 5 5 5 5 5 5 5 5 6 5 5 5 5 5 5 5 5 5 6 5 5 6 5 5 5 5 5 6 5 5 5 5 6 5 5 5 5 6 5 5 5 6 5 6 5 5 6 5 5 5 5 5 5 5 5 5 5 5 5 5 5 6 5 5 6 5 6 5 5 5 6 5 5 6 5 5 5 5 6 5 6 5 5 5 5 5 5 6 5 6 5 5 5 5 5 6 5 5 5 5 6 5 5 5 5 5 5 6 5 5 5 5 5 5 5 5 5 5 5 5 5 5 5 5 5 5 5 5 5 5 5 5 5 5 5 5 5 5 5 5 5 6 6 5 5 5 5 5 5 5 5 5 5 6 5 5 6 6 5 6 5 5 5 5 5 5 5 6 5 5 5 5 5 5 5 5 5 5 5 5 6 5 5 5 5 6 5 5 5 5 5 5 5 5 5 5 5 5 6 5 5 5 5 5 5 5 5 5 5 5 5 5 5 5 5 5 6 5 5 5 5 5 6 5 5 5 6 5 5 5 5 5 5 6 5 6 5 5 5 6 5 5 5 5 5 5 5 5 5 6 5 5 6 5 5 5 5 5 5 5 6 5 5 5 5 5 5 5 5 5 5 5 5 5 6 5 5 6 5 5 5 5 5 5 6 5 5 5 5 5 5 6 5 5 5 5 5 5 5 6 5 5 5 5 5 5 5 5 5 5 5 5 5 5 5 5 5 5 5 5 5 5 6 5 5 5 5 5 5 5 5 5 5 6 5 5 5 5 6 6 5 5 5 5 6 5 5 5 5 5 5 5 5 5 6 5 5 5 5 5 5 5 5 5 5 5 6 5 5 5 6 5 5 5 6 5 5 5 5 5 5 5 5 5 5 5 5 6 5 5 5 5 5 6 5 5 6 5 5 5 5 5 5 5 5 5 5 5 5 5 5 6 5 5 5 5 5 5 5 6 5 5 5 6 5 5 5 5 5 6 5 5 5 5 5 5 5 5 5 6 5 5 5 5 5 5 5 5 6 5 5 5 5 5 6 5 5 5 5 5 5 5 6 5 5 5 5 5 5 5 5 5 5 5 5 5 5 5 5 5 5 5 5 5 5 5 5 5 5 5 5 5 5 5 5 5 5 5 5 5 5 5 5 5 5 5 5 5 5 5 5 6 5 5 5 5 5 5 5 6 5 5 5 5 5 5 5 5 5 5 5 5 5 5 5 5 5 5 5 5 5 5 6 6 5 5 6 6 5 5 5 5 5 5 5 6 5 5 5 5 5 5 5 5 5 5 5 5 5 5 6 5 5 5 5 5 5 5 5 6 5 5 6 5 5 5 6 5 5 5 5 5 5 5 5 5 5 5 5 5 5 5 5 5 5 5 5 5 5 5 5 5 5 5 5 6 5 5 5 5 5 5 5 5 6 5 5 5 5 5 5 6 6 5 5 5 5 6 5 5 6 5 5 6 5 5 5 5 5 5 6 5 5 5 5 5 5 5 5 6 5 5 5 5 5 5 5 5 5 5 5 6 5 5 6 5 5 5 5 5 5 5 6 5 5 5 6 5 6 5 6 5 5 5 5 5 5 5 5 5 5 5 5 5 5 5 5 5 6 5 6 5 5 5 5 5 5 5 5 5 5 6 5 5 5 5 5 5 5 6 5 5 5 6 5 6 6 5 5 6 5 5 5 5 6 5 5 5 6 5 5 5 6 5 6 6 5 5 5 5 5 5 6 5 5 5 5 5 5 5 5 6 6 6 5 6 5 5 6 6 5 5 6 5 5 5 5 5 5 5 5 5 5 5 6 5 5 5 5 5 5 5 5 5 5 5 5 5 6 6 5 5 5 5 6 5 5 5 6 5 5 5 5 5 6 6 5 5 5 6 5 5 5 5 5 5 5 5 5 5 5 5 5 5 5 6 5 5 5 6 5 5 5 6 5 5 5 5 5 5 6 5 5 5 5 5 6 5 5 5 5 5 5 5 5 6 5 5 5 5 5 5 5 5 5 6 5 5 5 5 6 5 6 5 5 6 5 6 5 5 5 5 5 5 6 5 6 6 5 5 5 5 5 5 5 5 6 5 6 5 6 5 6 5 5 5 5 5 5 5 5 5 5 5 6 5 5 5 6 5 5 5 5 5 5 5 5 6 5 5 5 5 5 5 5 5 5 6 5 5 5 5 6 5 5 6 5 5 5 5 5 5 5 5 5 6 5 5 5 6 5 5 5 5 5 5 5 5 5 5 5 5 5 5 5 5 5 5 5 6 5 5 5 5 5 5 5 5 5 5 6 5 5 5 5 5 5 5 5 5 5 5 5 5 5 5 5 5 5 5 5 5 5 5 5 5 5 5 5 5 5 5 5 5 5 5 5 5 5 5 5 5 5 5 5 5 6 6 5 5 5 5 5 5 5 5 5 5 5 5 5 6 6 5 5 5 6 5 5 6 5 5 5 6 5 5 5 6 5 5 5 5 5 5 5 5 6 5 5 6 5 6 6 5 5 5 5 5 5 6 5 6 6 6 5 5 6 5 5 6 6 5 5 5 5 5 5 5 5 5 5 5 5 5 5 5 5 5 5 5 5 5 6 5 5 5 5 5 5 5 5 5 6 5 5 5 5 5 5 5 6 6 5 5 5 5 5 5 5 5 5 5 5 5 5 5 5 5 5 5 5 5 5 5 5 6 5 6 5 5 5 5 5 5 5 6 5 5 5 6 6 5 5 6 5 5 5 5 6 5 5 5 6 5 5 5 6 5 5 5 5 5 5 5 5 5 6 6 5 5 5 5 5 6 5 5 6 6 6 5 5 5 5 5 6 5 5 5 5 5 5 5 5 5 6 5 6 5 5 5 5 5 5 5 5 5 5 5 5 5 5 5 5 5 5 5 5 5 5 5 5 6 5 5 5 5 6 6 5 5 5 6 5 5 5 5 5 5 5 5 5 5 5 5 5 5 5 5 6 5 5 5 6 5 5 6 5 5 5 5 5 5 5 5 5 5 5 5 5 6 5 5 6 5 5 5 6 5 6 5 6 5 6 6 6 5 5 5 5 5 5 5 5 6 5 5 5 5 5 5 5 5 6 5 5 6 5 5 5 5 5 5 5 5 5 5 5 5 5 5 5 5 5 5 5 5 5 6 5 5 5 5 5 5 5 5 5 5 6 5 6 5 5 6 5 6 5 6 5 5 6 5 6 5 5 6 5 5 5 6 5 5 5 5 5 5 5 5 5 5 5 5 5 5 5 5 5 5 5 5 5 5 5 5 5 5 5 5 5 5 5 5 5 5 5 5 5 5 5 5 5 5 5 5 5 5 5 5 5 5 5 5 5 5 5 5 5 5 5 5 5 6 5 5 6 5 5 5 5 5 5 6 6 5 5 5 5 5 5 5 5 5 5 5 5 5 5 5 5 5 5 6 5 5 5 6 5 5 5 5 5 5 5 5 5 5 5 5 5 5 5 5 6 5 5 5 5 5 5 5 6 5 5 5 5 5 5 5 5 6 5 6 5 5 5 5 5 5 5 5 5 5 5 5 5 5 5 5 6 5 5 5 5 5 5 5 6 5 5 5 5 6 5 5 5 5 5 5 5 6 5 5 6 6 5 5 6 5 5 5 5 5 5 6 5 5 5 5 5 5 5 5 5 6 5 5 6 5 5 6 5 5 6 5 5 5 5 5 6 5 5 5 5 5 5 5 5 6 5 5 5 5 5 5 5 6 5 5 5 5 5 5 5 5 5 5 5 5 6 5 5 5 5 5 5 5 6 6 5 6 5 6 5 5 5 5 5 5 5 5 5 5 5 5 5 5 5 6 5 6 5 5 5 5 5 5 5 5 6 5 6 5 6 5 6 5 6 5 5 6 5 5 5 5 5 6 5 5 5 5 5 5 5 5 6 5 5 5 5 5 6 5 5 6 5 6 6 5 5 5 5 5 5 5 5 6 5 5 5 5 5 5 5 5 5 5 5 5 5 6 5 5 5 5 5 5 5 6 5 5 5 6 5 5 5 5 5 5 5 5 5 5 5 5 5 5 5 5 5 6 5 5 5 5 5 5 5 6 5 5 6 5 5 5 5 5 5 5 5 5 5 5 5 5 5 5 6 5 5 5 5 6 5 5 5 5 5 5 5 5 5 5 5 5 5 5 5 5 5 5 5 5 5 5 5 5 5 6 5 5 5 5 5 5 6 5 5 5 5 5 5 5 5 5 6 6 5 5 5 6 5 6 5 5 5 5 5 5 5 5 5 5 5 5 5 5 5 6 5 5 5 5 5 5 5 5 5 5 5 5 6 6 5 5 5 5 5 5 5 5 6 5 5 6 5 5 6 6 5 5 5 5 5 5 5 6 5 5 5 5 5 5 5 5 5 6 5 5 5 6 5 5 5 5 5 6 5 5 5 5 5 5 5 5 5 5 5 5 6 5 5 5 6 5 5 5 6 5 5 5 5 5 5 5 5 5 5 5 5 5 5 5 5 5 5 5 5 5 5 5 5 5 5 5 5 5 5 5 5 6 5 5 5 5 5 5 5 5 5 5 5 5 5 5 5 5 5 5 5 5 5 5 5 5 6 5 6 5 5 6 5 5 5 5 5 5 5 5 5 6 5 5 5 5 5 5 5 5 5 5 5 5 5 5 6 5 5 5 5 6 5 5 5 6 5 5 5 5 5 5 5 5 5 5 5 5 5 5 5 5 5 5 5 5 5 5 5 5 5 5 5 5 5 5 5 5 5 5 5 5 5 5 5 5 5 5 5 5 5 5 5 5 5 5 5 5 5 5 5 5 5 5 5 5 5 5 5 5 5 5 5 5 5 5 5 5 5 5 5 5 5 5 5 5 5 5 5 5 5 5 5 5 5 5 5 5 5 5 5 5 5 5 5 5 5 5 5 5 5 5 5 5 5 5 5 5 5 5 5 5 5 5 5 5 5 5 5 5 5 5 5 5 5 5 5 5 5 5 5 5 5 5 5 5 5 5 5 5 5 5 5 5 5 5 5 5 5 5 5 5 5 5 5 5 5 5 5 5 5 5 5 5 5 5 5 5 5 5 5 5 5 5 5 5 5 5 5 5 5 5 5 5 5 6 5 5 5 5 5 5 5 5 5 5 5 5 5 5 5 5 6 5 5 5 5 5 5 5 5 6 5 5 5 5 6 5 5 5 5 5 5 5 5 5 5 5 5 5 5 5 5 5 5 5 5 5 5 6 5 5 5 5 5 5 5 5 5 5 5 5 5 6 6 5 5 5 5 5 6 5 6 5 5 5 5 5 5 5 5 5 5 5 6 5 5 5 5 5 5 5 6 5 5 5 5 5 5 5 5 5 5 5 5 5 5 5 6 6 5 5 5 5 5 5 5 5 5 5 5 5 6 5 5 5 5 5 5 5 5 5 5 5 5 5 5 5 5 6 5 5 5 5 5 5 5 6 5 5 5 5 5 5 5 5 5 5 6 6 5 5 5 5 5 5 5 5 5 5 5 5 5 5 5 5 5 5 5 5 5 5 5 5 5 5 5 5 5 5 6 5 5 5 5 5 6 5 5 5 5 5 5 5 5 5 5 6 5 5 5 5 6 5 5 5 5 5 5 5 5 5 5 6 5 6 5 5 5 5 5 5 5 5 5 5 5 5 5 5 5 5 5 5 5 5 5 5 5 5 5 5 5 5 5 5 5 6 5 5 5 5 5 6 5 5 5 5 5 5 5 5 5 5 5 5 5 5 5 5 5 5 6 5 5 6 5 5 5 6 5 5 5 5 5 6 5 5 5 5 5 5 5 5 5 5 6 5 5 5 5 5 5 6 5 5 5 5 5 6 6 5 5 6 5 5 6 5 5 5 5 5 5 5 5 5 5 6 5 5 6 5 5 6 5 5 6 5 5 6 5 5 6 5 5 5 5 5 5 6 5 5 5 5 5 5 5 5 5 5 5 6 5 5 5 5 5 5 5 6 5 5 5 5 6 5 5 5 6 5 5 5 5 5 5 5 5 5 5 5 6 5 5 5 5 5 5 5 5 5 5 5 5 5 5 5 5 5 5 5 5 5 5 5 5 6 5 5 5 5 5 6 5 5 5 5 5 5 5 5 5 5 5 5 5 5 6 5 5 6 5 6 5 5 5 5 6 5 6 6 5 6 5 5 5 5 5 5 5 6 5 6 5 5 5 5 5 5 6 5 5 5 5 5 5 6 5 5 5 5 6 5 5 5 5 5 6 5 5 6 5 5 5 5 6 5 5 5 5 6 5 5 5 5 5 5 6 5 5 5 5 5 5 5 5 5 6 5 5 5 5 5 5 6 5 5 5 5 6 5 5 5 5 5 5 5 5 5 5 5 5 5 5 5 5 6 5 5 5 6 5 5 6 5 5 5 5 5 5 5 5 5 5 5 5 5 5 5 5 6 5 6 5 5 5 5 5 5 5 5 5 5 5 5 5 5 5 5 5 5 5 5 5 5 5 5 5 5 6 5 5 6 5 5 5 5 5 5 5 5 5 5 6 5 5 5 5 6 5 5 5 5 6 5 5 5 5 5 5 5 5 5 6 5 5 5 5 5 5 5 5 5 5 5 5 5 5 5 5 5 5 5 5 5 5 5 5 5 5 5 5 
</DataArray>
<DataArray type="Float64" Name="stress" NumberOfComponents="9" format="ascii">
-3230861399.1847992 3236888678.699192 0 3236888678.699192 2310306.4311943054 0 0 0 0 -1513563439.3861313 3797182528.5049515 0 3797182528.5049515 -914135155.75296021 0 0 0 0 -741049.37244415283 3268669579.9261627 0 3268669579.9261627 -2323073280.7245789 0 0 0 0 -1145471966.1023026 2367563309.2553406 0 2367563309.2553406 -2909545524.5774536 0 0 0 0 -997117429.74490356 2995921142.2842102 0 2995921142.2842102 -2895189824.2096729 0 0 0 0 -7786070.6234063059 527381.0271166563 0 527381.0271166563 -797236.67167219147 0 0 0 0 -111468843.07595825 -542015411.96383667 0 -542015411.96383667 609438007.78977966 0 0 0 0 -1392803750.6526489 79385747.406600952 0 79385747.406600952 336844272.93597412 0 0 0 0 -3943629868.1721497 3007884601.5037231 0 3007884601.5037231 -1100886482.7333221 0 0 0 0 -3235837069.3320198 3750100178.0675659 0 3750100178.0675659 -3669623015.3475647 0 0 0 0 -1193616369.7892914 1194575245.8053207 0 1194575245.8053207 -600428918.22723961 0 0 0 0 -4919162275.347229 2378518214.5392303 0 2378518214.5392303 -253190840.24311829 0 0 0 0 3288245.9181213379 15748586.497951508 0 15748586.497951508 3762.4131774902344 0 0 0 0 -3651587.7201262787 334421.60283928365 0 334421.60283928365 -2521009.4882105142 0 0 0 0 -8273856.1515731812 15850568.556255341 0 15850568.556255341 -1207346.811920166 0 0 0 0 -9667976.8569793701 15471186.887115479 0 15471186.887115479 2455.1794804794267 0 0 0 0 -6367823.6358947754 10669243.18421936 0 10669243.18421936 845336.16442871094 0 0 0 0 -11857857.076660156 16823301.438766479 0 16823301.438766479 -530904.70477867126 0 0 0 0 -8087642.2375421599 3720563.5554321148 0 3720563.5554321148 -3083664.9834768176 0 0 0 0 -7218217.6879119873 17438845.168319702 0 17438845.168319702 -10507160.810195923 0 0 0 0 -9108608.5767059326 13585579.849197388 0 13585579.849197388 -2521217.7612609863 0 0 0 0 2181854.5190395266 14115258.584941342 0 14115258.584941342 -4579687.7561777905 0 0 0 0 153193801.85464478 -59535643.610366821 0 -59535643.610366821 38342028.608444214 0 0 0 0 305657563.97987366 -31780692.880630493 0 -31780692.880630493 -84308232.927886963 0 0 0 0 113454290.93006897 840029.46286010742 0 840029.46286010742 -4354774.4566802979 0 0 0 0 264640670.75619507 279534239.76448441 0 279534239.76448441 217679974.2698822 0 0 0 0 -22366993.138459206 22321456.849632334 0 22321456.849632334 -7545345.2929834425 0 0 0 0 -75414719.100982666 314742955.10055542 0 314742955.10055542 218347983.77124786 0 0 0 0 42765573.063201904 113218783.51968384 0 113218783.51968384 -7954388.7664337158 0 0 0 0 149721083.90437698 80632305.557277679 0 80632305.557277679 -124110427.32467651 0 0 0 0 -307703643.89486694 87174520.512191772 0 87174520.512191772 747657611.96361542 0 0 0 0 -23006643.118636325 5942786.9202985987 0 5942786.9202985987 337356.44554837048 0 0 0 0 -1401690920.3384094 1007883327.793293 0 1007883327.793293 -719321913.5005188 0 0 0 0 -182319323.03045654 73024209.502182007 0 73024209.502182007 -126108402.91069031 0 0 0 0 8759193.2280426025 351739763.22940063 0 351739763.22940063 -199711982.71713257 0 0 0 0 -355115532.13442993 502519674.23638153 0 502519674.23638153 379261698.85139465 0 0 0 0 174749254.28373337 138820111.99424735 0 138820111.99424735 -555203573.46730042 0 0 0 0 16666124.912986755 -21083909.754444122 0 -21083909.754444122 -564986512.57447815 0 0 0 0 67219112.822265625 214581780.34591675 0 214581780.34591675 -479978588.35482788 0 0 0 0 65958387.237548828 238348056.39993286 0 238348056.39993286 -484325676.7923584 0 0 0 0 175190409.24801576 243645995.37680495 0 243645995.37680495 -510706193.50360107 0 0 0 0 -78103906.159057617 201155488.01675415 0 201155488.01675415 -166819869.18228149 0 0 0 0 -331928421.93463135 -136693190.3842926 0 -136693190.3842926 -606836212.03930664 0 0 0 0 -497333204.65168762 317751029.43910217 0 317751029.43910217 -167971597.61315918 0 0 0 0 54234390.656158447 80661047.859054565 0 80661047.859054565 -694619507.50085449 0 0 0 0 283441.71021314524 1832675.29861518 0 1832675.29861518 -149013.93578121066 0 0 0 0 -417622270.0953064 378039090.91249084 0 378039090.91249084 -278917150.64221191 0 0 0 0 -361075027.44789124 -242632906.24556351 0 -242632906.24556351 -268469667.612854 0 0 0 0 -23481.428964436054 657436.51582311094 0 657436.51582311094 894039.34459927678 0 0 0 0 -118670634.86361694 337641894.39378357 0 337641894.39378357 -64260887.31451416 0 0 0 0 62279707.476806641 236867018.24972534 0 236867018.24972534 -451437224.47833252 0 0 0 0 155225264.61462402 416644681.62609863 0 416644681.62609863 -977872939.46575928 0 0 0 0 65912828.966918945 209833595.74972534 0 209833595.74972534 -452501715.52171993 0 0 0 0 6141204.8893432617 -982621.08157348633 0 -982621.08157348633 -5310240.9601593018 0 0 0 0 -2153429.0857360773 5923671.6440839395 0 5923671.6440839395 5688772.3502459228 0 0 0 0 101951329.01779175 18945090.075706482 0 18945090.075706482 -97398207.094589233 0 0 0 0 -48846894.878189087 -30923619.273834229 0 -30923619.273834229 -67339765.987594604 0 0 0 0 -59500818.595989227 74869921.256046295 0 74869921.256046295 -87000635.944396973 0 0 0 0 -13558615.70539093 91358616.564880371 0 91358616.564880371 -213649011.52825928 0 0 0 0 55681975.96774292 101589923.29920959 0 101589923.29920959 -230137485.36843872 0 0 0 0 502624186.32652283 343699841.57569122 0 343699841.57569122 -69263486.27053833 0 0 0 0 66320491.611579895 144158077.79978943 0 144158077.79978943 -10839269.110626221 0 0 0 0 -21325497.055986617 25379307.80108463 0 25379307.80108463 -8904922.752300784 0 0 0 0 233121525.09820557 69974645.650741577 0 69974645.650741577 40421500.805633545 0 0 0 0 360022771.57640076 68483441.822174072 0 68483441.822174072 -155460826.31677246 0 0 0 0 54751904.32800293 176492194.51904297 0 176492194.51904297 -119554259.92529297 0 0 0 0 -111310314.09262085 -138056111.26044464 0 -138056111.26044464 5904399.9154891968 0 0 0 0 3711574.0305033103 2384790.3035971746 0 2384790.3035971746 -2765189.6769547984 0 0 0 0 48232038.804595947 -106561385.56967163 0 -106561385.56967163 -191351954.36415863 0 0 0 0 -59220592.859344482 -25943267.326553345 0 -25943267.326553345 -116645702.06484985 0 0 0 0 185902102.77415466 122858563.37277985 0 122858563.37277985 -7709139.7634277344 0 0 0 0 278760764.05819702 79657901.827575684 0 79657901.827575684 -45547363.882774353 0 0 0 0 302871133.26865768 33475162.761745453 0 33475162.761745453 -14527115.466796875 0 0 0 0 307431293.78530884 46919602.184448242 0 46919602.184448242 -25723098.11126709 0 0 0 0 158561236.45065308 -110203322.74522018 0 -110203322.74522018 -72594240.884658813 0 0 0 0 268981796.82929993 57472408.128520966 0 57472408.128520966 -54410988.259155273 0 0 0 0 -85560506.454162598 63708045.681465149 0 63708045.681465149 82176297.113845825 0 0 0 0 6591131.4795575589 4787473.3453531712 0 4787473.3453531712 -1249243.2835857272 0 0 0 0 5540488.0180130005 10419338.785148621 0 10419338.785148621 2931104.523651123 0 0 0 0 2149104.0774078369 4513091.2693405151 0 4513091.2693405151 4632635.259765625 0 0 0 0 1385433.4594216347 7095665.1021401808 0 7095665.1021401808 427023.83705609408 0 0 0 0 73513131.508605957 36511611.286430359 0 36511611.286430359 -104447597.85083008 0 0 0 0 9474733.5210971832 20566042.243037224 0 20566042.243037224 -39577255.97253418 0 0 0 0 15473734.252731457 12405738.363006599 0 12405738.363006599 -4967685.1521270191 0 0 0 0 -8724079.4735412598 -126015847.88682556 0 -126015847.88682556 -29308961.13356781 0 0 0 0 6919413.1134338379 11065938.759780884 0 11065938.759780884 4821405.3920898438 0 0 0 0 -11776202.044403076 25604050.95092392 0 25604050.95092392 18651193.408004761 0 0 0 0 26355637.704437256 -14959996.029525757 0 -14959996.029525757 11790979.941894531 0 0 0 0 -1520544.4959968049 7743614.138563931 0 7743614.138563931 4334166.9444565922 0 0 0 0 -14769909.308532715 -3472577.672542572 0 -3472577.672542572 23522314.272216797 0 0 0 0 -341357.12049865723 14283246.744766235 0 14283246.744766235 -11678642.81593132 0 0 0 0 -5735929.3528900146 12535571.339515686 0 12535571.339515686 8770295.2745056152 0 0 0 0 897653.18276977539 8307261.3388137817 0 8307261.3388137817 -13672277.368946075 0 0 0 0 1305325.4111785889 9304284.1126785278 0 9304284.1126785278 -16104268.189666748 0 0 0 0 -1021609922.1298218 1214515130.9631958 0 1214515130.9631958 -1301744480.7696686 0 0 0 0 -11281126.376251221 -3614179.0239391327 0 -3614179.0239391327 18791936.005218506 0 0 0 0 -1126834.2020256668 -1104412.0634939149 0 -1104412.0634939149 -1141901.9311959296 0 0 0 0 55152.213497597724 369239.62102425098 0 369239.62102425098 -200087.62142235041 0 0 0 0 1608248.4893601835 5092474.8224608004 0 5092474.8224608004 -3916786.1152806282 0 0 0 0 -6346123.6077728271 7651790.4948272705 0 7651790.4948272705 -5193076.1131439209 0 0 0 0 -3665424.0051269531 5912012.9909286499 0 5912012.9909286499 -6276915.3527908325 0 0 0 0 1764545.7554744817 6423532.4768776 0 6423532.4768776 -4340771.147098273 0 0 0 0 -9071098.7458190918 12543803.981246948 0 12543803.981246948 -544002.86450195312 0 0 0 0 -7830904.9695129395 21711533.917449951 0 21711533.917449951 -2763007.2239379883 0 0 0 0 -1858071.3136901855 -16547217.823989868 0 -16547217.823989868 -6655989.8704223633 0 0 0 0 -5115771.8908843994 17287019.577316284 0 17287019.577316284 -25369307.442993164 0 0 0 0 -14424072.270355225 20611764.914489746 0 20611764.914489746 9536920.2935180664 0 0 0 0 1330028.7834999859 -1092672.3853859305 0 -1092672.3853859305 -2954205.9392250851 0 0 0 0 -8923597.7206726074 -4103357.1858825684 0 -4103357.1858825684 62294771.750846863 0 0 0 0 -1748164.7135467529 1409558782.7196159 0 1409558782.7196159 -2229240176.5734329 0 0 0 0 -716474455.3063736 1416327408.7552071 0 1416327408.7552071 -1754041801.6373596 0 0 0 0 -1183873082.9448395 2036829552.5677643 0 2036829552.5677643 -1667432135.0294523 0 0 0 0 -1909304.7769199233 2192977850.9054279 0 2192977850.9054279 -2254572950.205246 0 0 0 0 -1167894997.8423615 1863108714.1234283 0 1863108714.1234283 -1054378348.7207031 0 0 0 0 -2649088535.4724274 2902072142.8397141 0 2902072142.8397141 -1324874494.4882355 0 0 0 0 -2940301253.600914 1390888463.2237511 0 1390888463.2237511 -180928147.45635986 0 0 0 0 -897924177.81173706 457585284.4919281 0 457585284.4919281 -187086144.34976685 0 0 0 0 -250631507.50435829 537905546.31999302 0 537905546.31999302 -529403362.5848999 0 0 0 0 -312670871.21484375 -110389870.74905396 0 -110389870.74905396 -169495358.93409729 0 0 0 0 -75450581.131835938 196901724.26544189 0 196901724.26544189 -500616492.02105713 0 0 0 0 -862614122.20599365 377744970.55488586 0 377744970.55488586 -248906655.28407288 0 0 0 0 766819.81146594882 370072.23580592126 0 370072.23580592126 -1665158.1443248391 0 0 0 0 -525107580.96633911 890780458.06428528 0 890780458.06428528 -958832405.80210876 0 0 0 0 -788822688.5324707 770323426.62615967 0 770323426.62615967 -796133649.07946777 0 0 0 0 -1956928141.0991974 1390585525.2068329 0 1390585525.2068329 -537166084.50106812 0 0 0 0 9603270.7861200478 6656027.3520293981 0 6656027.3520293981 212680.46223312616 0 0 0 0 -223800462.71221161 -83139226.859782219 0 -83139226.859782219 532124260.2487793 0 0 0 0 -32402356.271728516 73493353.967460632 0 73493353.967460632 -26185267.701164246 0 0 0 0 16125335.437121868 47719191.74395895 0 47719191.74395895 -14763604.144729614 0 0 0 0 15263301.025794983 57873985.042945862 0 57873985.042945862 -82742182.791015625 0 0 0 0 9618456.2757644653 129171435.7419548 0 129171435.7419548 34042287.413513184 0 0 0 0 -35442984.330532074 60819080.195713043 0 60819080.195713043 -34656998.935882568 0 0 0 0 3121616.0466350853 83164.79678805545 0 83164.79678805545 30114.07355979085 0 0 0 0 -294402261.2636261 72689328.79233551 0 72689328.79233551 143757581.15988159 0 0 0 0 547655205.67298985 563489960.68796635 0 563489960.68796635 451821886.76629639 0 0 0 0 471705035.58880424 457839029.47950268 0 457839029.47950268 138138694.4548645 0 0 0 0 486138627.02138901 557723799.38072109 0 557723799.38072109 325406136.27822876 0 0 0 0 200737910.12902832 257781893.74199677 0 257781893.74199677 663148.89903259277 0 0 0 0 -92177695.844055176 261378132.38058472 0 261378132.38058472 309342133.84973145 0 0 0 0 32922470.492660522 131267174.37474823 0 131267174.37474823 33008283.753967285 0 0 0 0 89646092.817810059 156655800.91795349 0 156655800.91795349 5124852.4187011719 0 0 0 0 36446102.230804443 169902718.91213226 0 169902718.91213226 149143961.32696533 0 0 0 0 135603998.64777374 184136474.85577393 0 184136474.85577393 -36572.310302734375 0 0 0 0 166774973.23948669 247642380.69270325 0 247642380.69270325 127861376.74621582 0 0 0 0 163702724.37997437 116764243.47010803 0 116764243.47010803 82666473.016555786 0 0 0 0 198791164.50606537 156152932.12366486 0 156152932.12366486 -74433803.509002686 0 0 0 0 86357391.148529053 177938569.51550293 0 177938569.51550293 110487235.46300507 0 0 0 0 88632842.264808655 88040947.247253418 0 88040947.247253418 -71150983.823791504 0 0 0 0 87638337.481498718 19785965.191379547 0 19785965.191379547 -162750810.74420166 0 0 0 0 72833696.89100647 45277162.796432495 0 45277162.796432495 -90460628.526107788 0 0 0 0 121538643.24042511 89426321.500488281 0 89426321.500488281 -121386897.25717163 0 0 0 0 56355565.033866882 89834367.187072754 0 89834367.187072754 -62107657.396697998 0 0 0 0 73003486.911727905 130995679.75860596 0 130995679.75860596 14042764.2397995 0 0 0 0 43946384.089508057 88648385.055404663 0 88648385.055404663 -59320659.524269104 0 0 0 0 45123903.164565086 25568175.888268948 0 25568175.888268948 -103743427.29248047 0 0 0 0 30136977.938827515 20993495.842849731 0 20993495.842849731 -94113150.422851562 0 0 0 0 29485454.475646973 16994079.115646362 0 16994079.115646362 -34583354.068466187 0 0 0 0 16338198.522750854 -42680998.127746582 0 -42680998.127746582 -88812483.161117554 0 0 0 0 1492598.9813909009 1649520.6794106364 0 1649520.6794106364 976215.91205754876 0 0 0 0 -11896912.525482178 -22371062.214904785 0 -22371062.214904785 52864457.804028511 0 0 0 0 -6531298.1127319336 -92071680.03793335 0 -92071680.03793335 -188261310.51177979 0 0 0 0 -149041505.71364975 150432673.97278214 0 150432673.97278214 -108087926.89892578 0 0 0 0 56301.807452082634 4261015.6342010051 0 4261015.6342010051 846434.71859519929 0 0 0 0 -107988603.29904175 78613145.991912842 0 78613145.991912842 -122954063.87698364 0 0 0 0 -58414128.442169189 239233930.20619202 0 239233930.20619202 -106453420.49005127 0 0 0 0 1303331.8968206402 2682767.9527725428 0 2682767.9527725428 -2275601.1883439422 0 0 0 0 38034979.668533325 -50798951.245826721 0 -50798951.245826721 -234587981.07458496 0 0 0 0 -44940063.69631958 76386312.869567871 0 76386312.869567871 -243801833.43450928 0 0 0 0 -81977915.069831848 166877056.7098999 0 166877056.7098999 -182703181.20849609 0 0 0 0 139476572.36569214 106225167.88012695 0 106225167.88012695 -242194831.01916504 0 0 0 0 36299201.742523193 236808938.3870697 0 236808938.3870697 -186551351.98736572 0 0 0 0 83035129.405136108 37826211.4793396 0 37826211.4793396 -256859008.13742065 0 0 0 0 7301898.3639183044 28678856.389610291 0 28678856.389610291 -216002286.69348145 0 0 0 0 63548446.664047241 5047711.243637085 0 5047711.243637085 -164592771.96755981 0 0 0 0 75521557.408966064 11400634.033294678 0 11400634.033294678 -271432641.25863647 0 0 0 0 121011825.07479858 108399211.20391846 0 108399211.20391846 -185370007.95017624 0 0 0 0 11314318.846839905 99249916.141738892 0 99249916.141738892 64022537.239639282 0 0 0 0 -642628.13265511394 2047070.1195739806 0 2047070.1195739806 312417.16498626769 0 0 0 0 33096615.448623657 76671219.723388672 0 76671219.723388672 184713412.1384201 0 0 0 0 -65968312.76675415 324268127.50117493 0 324268127.50117493 -100230498.67766571 0 0 0 0 47593844.542602539 55201622.575119019 0 55201622.575119019 117138.63993651474 0 0 0 0 103804946.561203 112999348.03942871 0 112999348.03942871 45464571.216247559 0 0 0 0 133650403.58005524 158953256.75637054 0 158953256.75637054 116173531.21893311 0 0 0 0 -12065208.91166687 17393019.472640991 0 17393019.472640991 111057927.07306671 0 0 0 0 -12207982.12952143 -2220700.7926109731 0 -2220700.7926109731 23986911.386154175 0 0 0 0 17830929.495437622 49488475.752593994 0 49488475.752593994 42114784.156768799 0 0 0 0 -474794.32532979548 4094174.8441907391 0 4094174.8441907391 -422073.81443160027 0 0 0 0 -385965.21585083008 14647181.83644104 0 14647181.83644104 3618703.9948196411 0 0 0 0 -31482980.778366089 81001814.590164185 0 81001814.590164185 229876266.91885376 0 0 0 0 37361346.947509766 -164206637.13461304 0 -164206637.13461304 -678208159.9229126 0 0 0 0 15725083.355789185 -60243658.011016846 0 -60243658.011016846 -107757155.99143219 0 0 0 0 -5534567.4992446899 7116104.5948028564 0 7116104.5948028564 2201629.9456939697 0 0 0 0 -3158942.7634506226 19754916.264133453 0 19754916.264133453 9746.6978302001953 0 0 0 0 -8516510.8244628906 18101328.168334961 0 18101328.168334961 4935483.5314483643 0 0 0 0 -7121795.3486938477 15846597.552902222 0 15846597.552902222 -8418983.5722045898 0 0 0 0 1235936.3465921655 6236858.3920793086 0 6236858.3920793086 -2435727.0353981927 0 0 0 0 203018593.28151321 316345173.00138092 0 316345173.00138092 -286258552.99874878 0 0 0 0 -794872469.27008057 -294866649.51382446 0 -294866649.51382446 280266507.98193359 0 0 0 0 -402806795.60787964 279728795.93359375 0 279728795.93359375 -44493029.971832275 0 0 0 0 455158134.98480225 -48513783.77192688 0 -48513783.77192688 -625457403.59472656 0 0 0 0 329635223.05609131 265443236.80081177 0 265443236.80081177 -223896069.4694519 0 0 0 0 91488388.061706543 19324681.018432617 0 19324681.018432617 -380039034.95178223 0 0 0 0 -20917843.695251465 -20501114.296295166 0 -20501114.296295166 -259252714.18493652 0 0 0 0 -448551770.10693359 -62845464.786712646 0 -62845464.786712646 -7230416.9479064941 0 0 0 0 105603800.74136353 -320515317.6484375 0 -320515317.6484375 -577827813.45552063 0 0 0 0 133687.51776784658 1375935.1624905095 0 1375935.1624905095 -3599.8804548457265 0 0 0 0 -112256916.11105347 -17909674.921890259 0 -17909674.921890259 -14100636.504302979 0 0 0 0 -37133040.704437256 8464404.0040130615 0 8464404.0040130615 -109012583.19940186 0 0 0 0 -48597397.679336548 39707070.068271637 0 39707070.068271637 34442476.116790771 0 0 0 0 -17713120.997131348 -23935488.259460449 0 -23935488.259460449 55226646.109802246 0 0 0 0 -60078207.200500488 -19072452.537704468 0 -19072452.537704468 34672110.802062988 0 0 0 0 -100773461.44839478 -29763943.790496826 0 -29763943.790496826 47785515.314453125 0 0 0 0 -150512328.48912048 7956004.0974960327 0 7956004.0974960327 67051227.846496582 0 0 0 0 -86859167.75378418 87372817.200378418 0 87372817.200378418 57735898.896308899 0 0 0 0 -22992463.104919434 225959297.68437958 0 225959297.68437958 -38578434.631378174 0 0 0 0 -315769512.21231079 68491175.658355713 0 68491175.658355713 62815878.825485229 0 0 0 0 -13211186.033485413 55053601.268478394 0 55053601.268478394 38212447.871948242 0 0 0 0 -39158991.071868896 58662006.241744995 0 58662006.241744995 51962666.651092529 0 0 0 0 -43719276.87286377 35060838.472503662 0 35060838.472503662 37884140.946960449 0 0 0 0 -52146476.031463623 -3649735.1532058716 0 -3649735.1532058716 28507436.018096924 0 0 0 0 -98265396.769439697 18224082.565963745 0 18224082.565963745 57743720.416809082 0 0 0 0 -61931668.942581177 17786060.137298584 0 17786060.137298584 32237613.555969238 0 0 0 0 -50004217.997741699 10466966.666793823 0 10466966.666793823 11640726.25213623 0 0 0 0 -51082272.321960449 34294552.239730835 0 34294552.239730835 53029322.033180237 0 0 0 0 -36664144.961463928 44880266.578613281 0 44880266.578613281 44216368.03314209 0 0 0 0 -23788321.426712036 37875203.242630005 0 37875203.242630005 18217781.401550293 0 0 0 0 -40187839.405578613 31997551.662963867 0 31997551.662963867 29008074.266448975 0 0 0 0 -51352301.505554199 32431571.945159912 0 32431571.945159912 34158253.234016418 0 0 0 0 -48033861.007423401 35346427.364822388 0 35346427.364822388 2211426.4379882812 0 0 0 0 -380310.66467922926 834217.8035210371 0 834217.8035210371 1728322.9549795352 0 0 0 0 -35846841.925521851 34542640.344818115 0 34542640.344818115 30498140.592575073 0 0 0 0 -22698405.600990295 10405156.851623535 0 10405156.851623535 31824660.047607422 0 0 0 0 515841.73086547852 74128093.919952393 0 74128093.919952393 38550934.216964722 0 0 0 0 -20578793.776902258 29381609.198165923 0 29381609.198165923 -8123480.0997392684 0 0 0 0 -11195153.185089111 46877336.475067139 0 46877336.475067139 24593035.154174805 0 0 0 0 945634.09565405548 12078763.149556518 0 12078763.149556518 -946949.80389736826 0 0 0 0 99648421.192443848 180304953.59729004 0 180304953.59729004 157156555.62050438 0 0 0 0 -15938432.642630845 23302777.570116661 0 23302777.570116661 7791269.9677083045 0 0 0 0 35208119.436462402 86421154.496055603 0 86421154.496055603 28058533.860305786 0 0 0 0 30136304.076019287 68679019.721786499 0 68679019.721786499 29627885.229480743 0 0 0 0 22300877.396563962 24554701.560382068 0 24554701.560382068 -3235288.0881700502 0 0 0 0 57015852.230957031 71762732.658882141 0 71762732.658882141 -20472148.330383301 0 0 0 0 -6290262.2140655518 19407890.326915741 0 19407890.326915741 6748718.6557769775 0 0 0 0 -11784480.540458679 20791600.235084534 0 20791600.235084534 3407097.2343444824 0 0 0 0 -12758179.215608444 16211626.839407913 0 16211626.839407913 2338662.3563164026 0 0 0 0 -8130967.5681152344 20312046.723571777 0 20312046.723571777 -7086508.5544509888 0 0 0 0 -10434509.211260706 19205827.105323344 0 19205827.105323344 12055884.58710146 0 0 0 0 2842329.1079101562 11289238.065917969 0 11289238.065917969 1435495.0845985413 0 0 0 0 -17198.555766284466 23274080.524914108 0 23274080.524914108 4899946.4729769658 0 0 0 0 5662310.0135498047 13902458.19329834 0 13902458.19329834 -3075953.9731445312 0 0 0 0 -6653483.5489364788 23737651.66973903 0 23737651.66973903 6604032.9073421061 0 0 0 0 -11175020.236684531 23214860.06188345 0 23214860.06188345 1625245.6138345748 0 0 0 0 4122331.0365982056 20646602.156879425 0 20646602.156879425 1419132.6096038818 0 0 0 0 -3791006.5498459265 16478793.579562478 0 16478793.579562478 4779070.7089797845 0 0 0 0 -4801766.6815643311 22318371.953445435 0 22318371.953445435 2801090.0663452148 0 0 0 0 -9905403.1638793945 18317357.005012512 0 18317357.005012512 4951299.1504259109 0 0 0 0 -7102665.7775085941 22008586.589835025 0 22008586.589835025 9183055.1855384558 0 0 0 0 -9463703.6412811279 21567492.067382812 0 21567492.067382812 3486411.1510467529 0 0 0 0 -6715619.5363176093 18015833.064061657 0 18015833.064061657 302094.78086290509 0 0 0 0 -11572193.45703125 17365677.886917114 0 17365677.886917114 -3508595.4930114746 0 0 0 0 -5824201.5266113281 17027973.466217041 0 17027973.466217041 9131624.7090554237 0 0 0 0 -2138181.8996009827 21440495.903491974 0 21440495.903491974 -1307959.611831665 0 0 0 0 4100635.246152956 18556997.426982217 0 18556997.426982217 9868410.9804920405 0 0 0 0 -2866813.5862808228 16242686.484565735 0 16242686.484565735 6463860.980796814 0 0 0 0 1835332.9055456705 17222269.404802121 0 17222269.404802121 5161595.3966781348 0 0 0 0 49374.769700974226 14413003.5495096 0 14413003.5495096 276612.70019652275 0 0 0 0 1200107.5667572021 17504863.447151184 0 17504863.447151184 10404050.723831177 0 0 0 0 161301.91798400879 16187427.410797119 0 16187427.410797119 9971283.9398880005 0 0 0 0 -87500.665730699897 12967741.933271572 0 12967741.933271572 -2614343.5553028323 0 0 0 0 136360.15997314453 15989441.340293884 0 15989441.340293884 8544541.0803833008 0 0 0 0 -5702529.0299377441 14033838.357757568 0 14033838.357757568 4203046.9271240234 0 0 0 0 -3311797.8351898193 16612302.351638794 0 16612302.351638794 3749119.0906076431 0 0 0 0 -1196397.2834714726 14091919.30515486 0 14091919.30515486 6888105.7187641263 0 0 0 0 -2053290.3408660889 16081452.58972168 0 16081452.58972168 10344328.273422241 0 0 0 0 -16944106.747470044 16210126.834856816 0 16210126.834856816 11141342.505905509 0 0 0 0 -8092189.1524477322 11542673.610344149 0 11542673.610344149 7435127.1815016568 0 0 0 0 1916741.2304123268 10849611.66917266 0 10849611.66917266 4165091.5224164873 0 0 0 0 -4049102.2166137695 8862392.6856689453 0 8862392.6856689453 2016564.7565917969 0 0 0 0 -4240292.7994119823 11055761.633769788 0 11055761.633769788 4310692.8707010448 0 0 0 0 26556237.520507812 33389340.83416748 0 33389340.83416748 1934459.3620681763 0 0 0 0 1429212.4714794159 11426025.57233429 0 11426025.57233429 3320761.3907623291 0 0 0 0 -1116930.8418998718 9388906.0175170898 0 9388906.0175170898 3584750.1941986084 0 0 0 0 -500375.45072384551 3257053.6360075604 0 3257053.6360075604 2998423.7977222353 0 0 0 0 -5609453.8412475586 14511586.607910156 0 14511586.607910156 11074167.804534912 0 0 0 0 -4455189.1844540089 11484850.595618278 0 11484850.595618278 4570819.6584091783 0 0 0 0 7560605.3243882656 13183989.009632349 0 13183989.009632349 -1944771.1416240335 0 0 0 0 1440727.892049253 8283967.507051697 0 8283967.507051697 6711400.4816673696 0 0 0 0 4531098.9583892822 59192825.039031982 0 59192825.039031982 61941003.988996506 0 0 0 0 18517635.813476562 14624556.74797821 0 14624556.74797821 34221194.415161133 0 0 0 0 4375020.7116320804 18498337.004083693 0 18498337.004083693 -5681538.7292651013 0 0 0 0 5100825.3462137133 15286379.268029869 0 15286379.268029869 256240.13143054396 0 0 0 0 26081621.964241028 26013228.879600525 0 26013228.879600525 -40474741.876373291 0 0 0 0 4129744.1948699951 11776217.783981323 0 11776217.783981323 515278.19309997559 0 0 0 0 4330770.0045852661 21956924.921775818 0 21956924.921775818 9086449.8647766113 0 0 0 0 -21255138.781616211 61423792.45375061 0 61423792.45375061 -37588949.848358154 0 0 0 0 10256116.018886797 19907261.821583882 0 19907261.821583882 2261108.6330734789 0 0 0 0 1258041.6197128296 25932317.075553894 0 25932317.075553894 143765.5193939209 0 0 0 0 2395974.6898634182 6033657.5198253579 0 6033657.5198253579 -1231698.2003564984 0 0 0 0 27271888.757631302 19816504.023885727 0 19816504.023885727 -43008444.837356567 0 0 0 0 -1976913.3530807495 27305095.772575378 0 27305095.772575378 503365.37959289551 0 0 0 0 1856833.4845923744 13550104.06676282 0 13550104.06676282 3423390.6931061745 0 0 0 0 -99728.192401885986 28080464.241823196 0 28080464.241823196 474992.693359375 0 0 0 0 10817515.033187866 18057575.446472168 0 18057575.446472168 11130620.849182129 0 0 0 0 2446055.7368469238 12871579.332824707 0 12871579.332824707 3873941.8727111816 0 0 0 0 6527240.9809545875 10597023.048579523 0 10597023.048579523 4618690.1013109982 0 0 0 0 5064245.1331481934 17472604.723114014 0 17472604.723114014 8987426.3451919556 0 0 0 0 4684283.2130889781 14105037.839555684 0 14105037.839555684 10127023.906684533 0 0 0 0 4752027.8970493823 12704128.972844776 0 12704128.972844776 6581529.0429063365 0 0 0 0 4896758.8500514105 12438362.247622171 0 12438362.247622171 8357072.8326338083 0 0 0 0 4587973.1513366699 10687106.734130859 0 10687106.734130859 9068723.9027709961 0 0 0 0 -2092918.9992675781 14712621.373336792 0 14712621.373336792 3376235.0093383789 0 0 0 0 13219150.026672363 15786747.490783691 0 15786747.490783691 4713974.6163005829 0 0 0 0 3277849.5138792694 14645346.724310324 0 14645346.724310324 -86159.26260121353 0 0 0 0 3083171.1339416504 15104167.370132446 0 15104167.370132446 4039711.0770874023 0 0 0 0 5911122.8197708353 17204221.060086004 0 17204221.060086004 7764830.9855454713 0 0 0 0 -3735221.1090554474 20335256.07510962 0 20335256.07510962 9819523.978734076 0 0 0 0 695870.60059348494 21120396.322577782 0 21120396.322577782 5897948.5392422676 0 0 0 0 -2235341.7897965759 17528627.053749301 0 17528627.053749301 -3251897.8378109075 0 0 0 0 197749.09786987305 24149995.784454346 0 24149995.784454346 -1371083.8076934814 0 0 0 0 -7072788.4432678223 28159630.169723511 0 28159630.169723511 5801091.0765991211 0 0 0 0 6835943.5354614258 31236993.357955933 0 31236993.357955933 -11746396.674621582 0 0 0 0 19402089.633503515 21387809.50937853 0 21387809.50937853 -6212481.4286404774 0 0 0 0 321250.59774035215 425865.25553475879 0 425865.25553475879 331817.24211174995 0 0 0 0 3650741.3343505859 8602601.0595092773 0 8602601.0595092773 9889307.1596679688 0 0 0 0 4732937.901184082 10218519.308731079 0 10218519.308731079 1811042.2828369141 0 0 0 0 15748712.290491566 16577237.375673747 0 16577237.375673747 -2544668.7529691383 0 0 0 0 -2680060.6264094869 10961158.471699789 0 10961158.471699789 6375055.7358026877 0 0 0 0 6377193.4803458899 22124184.513320215 0 22124184.513320215 2726556.4765080931 0 0 0 0 657227.13005065918 30724520.605072021 0 30724520.605072021 8033377.1285400391 0 0 0 0 3046666.5487967059 22298302.35068145 0 22298302.35068145 4482006.3945143977 0 0 0 0 -13617667.272949219 33378201.092514038 0 33378201.092514038 14105871.991973877 0 0 0 0 11741649.709625244 30177383.222602844 0 30177383.222602844 6367830.8675537109 0 0 0 0 16540201.842788696 30592716.805465698 0 30592716.805465698 -5731997.5217895508 0 0 0 0 54040349.732627869 36484879.815729141 0 36484879.815729141 -16535102.371398926 0 0 0 0 1924762.3286339976 1114449.148273401 0 1114449.148273401 596585.38480686396 0 0 0 0 -12503622.278556824 37649794.704956055 0 37649794.704956055 9558283.7601318359 0 0 0 0 -6585245.4808044434 43369411.550476074 0 43369411.550476074 2493906.4649276733 0 0 0 0 -6755450.9880065918 42855841.563705444 0 42855841.563705444 6403110.8997192383 0 0 0 0 -20480138.831253052 46516122.486114502 0 46516122.486114502 8919110.383972168 0 0 0 0 -11887341.818222046 39092580.182037354 0 39092580.182037354 5226439.9455871582 0 0 0 0 -1172588.0493164062 36453121.414459229 0 36453121.414459229 11564441.474349976 0 0 0 0 -8333973.3359336853 45970801.823318481 0 45970801.823318481 2886348.7551574707 0 0 0 0 5285873.0352936164 24816007.496860385 0 24816007.496860385 5503687.4875421477 0 0 0 0 -23760302.117965698 24464408.514068604 0 24464408.514068604 -6403730.0933532715 0 0 0 0 -3569078.232635498 35478673.611694336 0 35478673.611694336 10455960.189575195 0 0 0 0 1204403.3933944702 37322220.413543701 0 37322220.413543701 10057264.601867676 0 0 0 0 21765052.467147827 20758660.025375366 0 20758660.025375366 16633498.853225708 0 0 0 0 -38368046.688568115 35191310.561553955 0 35191310.561553955 1510658.9058532715 0 0 0 0 47869132.930175781 -2106755.1074523926 0 -2106755.1074523926 -36631924.395629883 0 0 0 0 11447167.75784798 25734569.068313085 0 25734569.068313085 -6107805.9564353079 0 0 0 0 1293229.3608100563 331375.08792043477 0 331375.08792043477 -1054871.2410713881 0 0 0 0 4362445.0036621094 33302417.565475464 0 33302417.565475464 -9304075.1336669922 0 0 0 0 20934682.19017601 34945541.757318497 0 34945541.757318497 -13811213.096008301 0 0 0 0 10018544.896514893 25774099.212786674 0 25774099.212786674 -18826638.193511963 0 0 0 0 6153520.8132342771 25611528.901991829 0 25611528.901991829 4976728.9487726614 0 0 0 0 8259010.6240844727 26804910.495681763 0 26804910.495681763 4675992.7416572571 0 0 0 0 11096197.698730469 37085335.535217285 0 37085335.535217285 6141182.5644226074 0 0 0 0 42407069.336898804 10819826.980407715 0 10819826.980407715 -16537028.062866211 0 0 0 0 1809472.6882254714 3801228.6742136311 0 3801228.6742136311 1334553.9235156476 0 0 0 0 -24052062.129798889 40852922.681491852 0 40852922.681491852 12635087.926116943 0 0 0 0 8080572.9144624025 18485193.055637646 0 18485193.055637646 -648977.6683807997 0 0 0 0 -23651017.130545378 49305683.436592102 0 49305683.436592102 39915894.273574829 0 0 0 0 -15624417.84462855 7199677.3668081649 0 7199677.3668081649 5201197.2026007269 0 0 0 0 18210398.379332777 29090362.747683797 0 29090362.747683797 -7503666.0138050169 0 0 0 0 -84963925.955183029 84981461.713005066 0 84981461.713005066 111668524.38485718 0 0 0 0 -85642903.694648743 116989008.69795609 0 116989008.69795609 73114271.183670044 0 0 0 0 -25813096.788449526 67828100.848457336 0 67828100.848457336 -100587805.83955383 0 0 0 0 -113681654.89116669 11790510.967834473 0 11790510.967834473 20373211.009841919 0 0 0 0 1195996.4339746973 8806367.3062503189 0 8806367.3062503189 902889.24458458414 0 0 0 0 25829782.571937561 189116588.19474792 0 189116588.19474792 -312429206.8959198 0 0 0 0 107444881.83383179 4894109.1419067383 0 4894109.1419067383 -1750431.8666000366 0 0 0 0 19202317.320970885 27762906.312437348 0 27762906.312437348 -6792366.4440567791 0 0 0 0 19742424.102432251 23699577.960338593 0 23699577.960338593 -2998235.8805236816 0 0 0 0 7155158.3302001953 23995620.458755493 0 23995620.458755493 -2975608.0446691513 0 0 0 0 -78557036.161915779 34211761.233200073 0 34211761.233200073 -3509821.7639160156 0 0 0 0 -333303862.65052271 14943304.770200729 0 14943304.770200729 168743545.05743408 0 0 0 0 4484743.196810361 1249373.7890131869 0 1249373.7890131869 71081.517067357898 0 0 0 0 -311067263.15869141 77186527.753326416 0 77186527.753326416 -11490485.19342041 0 0 0 0 -1758461.34862653 -7000.6995856538415 0 -7000.6995856538415 385972.72687409818 0 0 0 0 5535713.3733825684 28431821.857452393 0 28431821.857452393 -2133646.748336792 0 0 0 0 13746696.905601501 27830696.105873108 0 27830696.105873108 -6746771.8249053955 0 0 0 0 265889.89926052094 29511057.854984283 0 29511057.854984283 -2336489.5654602051 0 0 0 0 8417608.307384491 22621416.910022736 0 22621416.910022736 -8707327.9029541016 0 0 0 0 10346149.463600159 25128296.430244446 0 25128296.430244446 -12996804.994628906 0 0 0 0 21252555.872318219 29170326.149655759 0 29170326.149655759 -8155217.7110790163 0 0 0 0 8521634.6441918463 22660336.660564877 0 22660336.660564877 4081206.9581400901 0 0 0 0 8897886.1811218262 26013234.716941833 0 26013234.716941833 -8090396.2543640137 0 0 0 0 -94979169.954960823 74922380.81615448 0 74922380.81615448 67374217.244506836 0 0 0 0 -1992408554.5344391 -271265340.06734467 0 -271265340.06734467 689228059.03184509 0 0 0 0 -847086225.02619171 -1105341.5422096252 0 -1105341.5422096252 438295229.93611145 0 0 0 0 -1475377185.1003342 31258679.141624451 0 31258679.141624451 526146192.25775146 0 0 0 0 -645903350.8020134 -227207089.33771133 0 -227207089.33771133 140730831.959198 0 0 0 0 -1851341486.678299 413690388.96912384 0 413690388.96912384 431130254.65252686 0 0 0 0 39299165.944591522 1170034.2585983276 0 1170034.2585983276 30237951.614089966 0 0 0 0 1111861.1431519948 4079563.8683983125 0 4079563.8683983125 975209.75431968272 0 0 0 0 -811458477.92617798 367205588.04649353 0 367205588.04649353 780295094.73962402 0 0 0 0 38520004.40799883 91267354.729954779 0 91267354.729954779 4208128.7300262451 0 0 0 0 89793410.236953735 -17751134.654354095 0 -17751134.654354095 -221001954.98618412 0 0 0 0 3800332.8723771721 5318249.6999397641 0 5318249.6999397641 2515550.8572973534 0 0 0 0 97239294.897924423 -33714356.923685074 0 -33714356.923685074 -187311199.09257507 0 0 0 0 -48720753.626686096 -18885448.300437927 0 -18885448.300437927 116046228.39616394 0 0 0 0 -5442869.9008379392 17094500.566744193 0 17094500.566744193 14545494.708063722 0 0 0 0 40958090.978889465 -46193132.973999023 0 -46193132.973999023 -84953856.110813141 0 0 0 0 -441388.39412162825 1108698.9147730023 0 1108698.9147730023 642416.58703430369 0 0 0 0 -977172695.17586517 -285147791.36495209 0 -285147791.36495209 -404231192.28633881 0 0 0 0 -1621325426.9419518 -589279783.92832947 0 -589279783.92832947 204069474.9848938 0 0 0 0 -1523860226.0549545 -232636329.48736572 0 -232636329.48736572 558393094.30523682 0 0 0 0 -727030939.18788147 168086959.06798553 0 168086959.06798553 106412286.49768066 0 0 0 0 -670228602.89192963 33964547.929452896 0 33964547.929452896 419682340.8714447 0 0 0 0 -680829024.03447342 388293034.54401398 0 388293034.54401398 -45922338.281700134 0 0 0 0 -409039165.03273392 687560176.08742523 0 687560176.08742523 360750249.93988037 0 0 0 0 -663525310.98819542 347765659.65216827 0 347765659.65216827 48922868.158569336 0 0 0 0 -271122722.76357651 386711301.84996414 0 386711301.84996414 -563404867.82289124 0 0 0 0 -305716596.55224228 591788216.8327179 0 591788216.8327179 -311722627.70066833 0 0 0 0 -529535032.56308746 492781149.11411285 0 492781149.11411285 80419509.028003693 0 0 0 0 -5201863.7971702777 19069905.906591054 0 19069905.906591054 9084853.1472194418 0 0 0 0 -1047796.6959991455 12986909.451705933 0 12986909.451705933 -2812175.7149209976 0 0 0 0 9569331.0473554861 17519718.858696103 0 17519718.858696103 3275325.206913963 0 0 0 0 85354782.32339859 -48568443.832077026 0 -48568443.832077026 -79182098.621902466 0 0 0 0 -461567.63297398761 20052477.733065985 0 20052477.733065985 38010.536744967103 0 0 0 0 -599753489.7101922 282634915.02948761 0 282634915.02948761 -178594366.10223389 0 0 0 0 -758286069.1456213 294902643.95228004 0 294902643.95228004 15510766.148666382 0 0 0 0 54938822.941568375 60745086.7100811 0 60745086.7100811 7022377.6542053223 0 0 0 0 6291195.0987279471 12539769.31990581 0 12539769.31990581 1921411.2763689384 0 0 0 0 33268453.881973267 13621500.655097961 0 13621500.655097961 2250114.4480285645 0 0 0 0 -1661341.2853997722 170318.9299996905 0 170318.9299996905 275437.26975942403 0 0 0 0 2193715.5488052368 17964875.862232208 0 17964875.862232208 4677675.7841854095 0 0 0 0 12224308.95325947 14181122.35345722 0 14181122.35345722 2109234.7495250702 0 0 0 0 -4653196.1251373291 16657321.339630127 0 16657321.339630127 5777247.5497808456 0 0 0 0 20836328.530105591 21273633.225959778 0 21273633.225959778 -2366656.8206329346 0 0 0 0 17252103.412185669 12036807.651512146 0 12036807.651512146 8754970.6622502804 0 0 0 0 6146499.837677002 23268720.703033447 0 23268720.703033447 4480610.4690756798 0 0 0 0 18076684.098724365 21841518.880241394 0 21841518.880241394 1011167.2529907227 0 0 0 0 -4665590.1194458008 18171290.022491455 0 18171290.022491455 9391207.9121704102 0 0 0 0 -2406693.4231640939 14588281.536290701 0 14588281.536290701 5126946.7312807068 0 0 0 0 5670929.6890335083 9311782.354637146 0 9311782.354637146 3951500.6614379883 0 0 0 0 9245537.8350733891 18099247.40199209 0 18099247.40199209 5191327.5532329157 0 0 0 0 26162013.210342407 38591017.171791077 0 38591017.171791077 13568957.916168213 0 0 0 0 -1042426.1524553299 35542652.970018387 0 35542652.970018387 15850783.359130859 0 0 0 0 16060484.83908844 20184026.100975037 0 20184026.100975037 4264182.2292973995 0 0 0 0 -3150535.7399794534 14378757.11388921 0 14378757.11388921 3361245.2870367318 0 0 0 0 41974642.979064941 32338474.93031311 0 32338474.93031311 15734276.313163757 0 0 0 0 38004298.152954102 31901673.871376038 0 31901673.871376038 15872158.047149658 0 0 0 0 55157147.992752075 19634300.129455566 0 19634300.129455566 19309089.768951416 0 0 0 0 -2150482.2500676531 18957340.115990795 0 18957340.115990795 10992433.910530895 0 0 0 0 392202.53601074219 12791181.795516968 0 12791181.795516968 3322760.5282897949 0 0 0 0 13643474.932804929 18051497.200534198 0 18051497.200534198 4418610.9020879865 0 0 0 0 17927182.633219302 21765010.753113836 0 21765010.753113836 -366968.0627436582 0 0 0 0 24670220.902877808 23487033.828155518 0 23487033.828155518 -8423488.8866500854 0 0 0 0 -20488086.773902893 13333155.147064209 0 13333155.147064209 20648777.264984131 0 0 0 0 -20917216.25573349 -63242.913494110107 0 -63242.913494110107 13500806.003250122 0 0 0 0 72897125.587127686 17839725.020141602 0 17839725.020141602 20947601.886543274 0 0 0 0 3512934.2168275677 16015663.216838267 0 16015663.216838267 10873087.230052494 0 0 0 0 63030546.099487305 17505324.199951172 0 17505324.199951172 25374304.746826172 0 0 0 0 85095196.869247437 38422661.359024048 0 38422661.359024048 48557227.760864258 0 0 0 0 95499513.191995621 -5297537.466217041 0 -5297537.466217041 -7157352.7957305908 0 0 0 0 -27047922.604873657 19508575.279678345 0 19508575.279678345 -811793.29149627686 0 0 0 0 12086923.652661778 28135768.882020295 0 28135768.882020295 6453977.7557213157 0 0 0 0 13071890.101763733 29106035.943805993 0 29106035.943805993 -1753480.6299579032 0 0 0 0 7319003.4944458008 14650982.399215698 0 14650982.399215698 672350.07470703125 0 0 0 0 20284366.535476685 20109383.691410065 0 20109383.691410065 3330483.2396087646 0 0 0 0 -788827.06834792346 21884411.167145506 0 21884411.167145506 4946569.9975806847 0 0 0 0 7972187.7943115234 15057163.749176025 0 15057163.749176025 9284965.3683776855 0 0 0 0 4532076.0606570123 12864409.250640593 0 12864409.250640593 1456322.5676549226 0 0 0 0 -15710097.838439941 30099104.55639267 0 30099104.55639267 6123798.5254135132 0 0 0 0 -8458572.2139764577 26768043.095530614 0 26768043.095530614 9221693.7322618384 0 0 0 0 -5692295.9144479185 29583669.224318571 0 29583669.224318571 7264440.7094354685 0 0 0 0 -12631507.100738525 42826460.67086792 0 42826460.67086792 15351866.706115723 0 0 0 0 -15703763.927307129 44000428.763129234 0 44000428.763129234 19562427.953231812 0 0 0 0 47336353.43579483 43933865.988426208 0 43933865.988426208 10987651.865570068 0 0 0 0 6007542.6782734692 4066202.3007017151 0 4066202.3007017151 2506965.8847365677 0 0 0 0 -20538169.42590332 32770845.063201904 0 32770845.063201904 36715578.49707222 0 0 0 0 36801578.748695374 48059450.265619278 0 48059450.265619278 9841888.8178863525 0 0 0 0 30346106.311515808 49444615.299758911 0 49444615.299758911 9680797.3592071533 0 0 0 0 4090585.8861541748 41673592.847129822 0 41673592.847129822 12145924.21395874 0 0 0 0 3111559.2797422595 21690233.073251925 0 21690233.073251925 -90960.202463462949 0 0 0 0 4241626.6007614136 40921891.770107269 0 40921891.770107269 12495680.607772827 0 0 0 0 -3317613.4201660156 42793082.721282959 0 42793082.721282959 12406963.537376404 0 0 0 0 -6748430.5886535645 40024476.423751831 0 40024476.423751831 17986389.481197834 0 0 0 0 -9529860.052280426 38677494.989555359 0 38677494.989555359 21551232.015655518 0 0 0 0 -1514825.7365722656 45792336.116546631 0 45792336.116546631 10984539.060569763 0 0 0 0 -32330315.448760986 48470197.227828979 0 48470197.227828979 19403959.286693573 0 0 0 0 -8084402.8623199463 48946951.044002533 0 48946951.044002533 20246101.280609131 0 0 0 0 -15696514.27293396 43573728.167175293 0 43573728.167175293 16714796.393386841 0 0 0 0 -11949530.522449493 57031508.525234222 0 57031508.525234222 10045624.934661865 0 0 0 0 5307952.3159942627 38226602.672569275 0 38226602.672569275 14669206.862586975 0 0 0 0 -1545033.3827514648 43011063.983184814 0 43011063.983184814 11350141.121902466 0 0 0 0 -1039786.8862046674 2886815.5770505555 0 2886815.5770505555 4346561.8905601054 0 0 0 0 18257502.500244141 53874457.800132751 0 53874457.800132751 6549002.8085365295 0 0 0 0 -5168741.0729980469 21208198.39276123 0 21208198.39276123 -9107384.9680595398 0 0 0 0 19070741.249328613 42177013.124176025 0 42177013.124176025 3820378.6131134033 0 0 0 0 -20106927.573085785 6569412.7452297211 0 6569412.7452297211 43199395.973815918 0 0 0 0 -6150961.5800002813 23096461.740817331 0 23096461.740817331 4969144.2505612075 0 0 0 0 -10024253.005615234 20157394.92590332 0 20157394.92590332 -7047706.1276855469 0 0 0 0 -4908436.1392822266 19996928.999084473 0 19996928.999084473 -3488034.2922363281 0 0 0 0 -36894007.409090042 17357928.035140991 0 17357928.035140991 37099255.625274658 0 0 0 0 15001534.371281311 18236202.489916615 0 18236202.489916615 2658861.708884038 0 0 0 0 45594024.937988281 41388272.600463867 0 41388272.600463867 1775041.3901367188 0 0 0 0 -12166557.227844667 9795236.541172795 0 9795236.541172795 1287433.5914493799 0 0 0 0 14104972.175446812 24227577.548796676 0 24227577.548796676 -12649865.977808952 0 0 0 0 771851.73433863744 1347223.568225421 0 1347223.568225421 -670019.25048328191 0 0 0 0 1231369.9922790527 19767225.665351868 0 19767225.665351868 -8790778.7101745605 0 0 0 0 11516271.863380432 36385840.342453003 0 36385840.342453003 11009726.409835815 0 0 0 0 10558139.289009094 32108806.566942215 0 32108806.566942215 8257918.8046188354 0 0 0 0 2568833.8577839136 25419184.327064253 0 25419184.327064253 -2375129.4788790606 0 0 0 0 -13311108.719937563 20594217.231834348 0 20594217.231834348 7857421.5744454339 0 0 0 0 6701305.8558120728 38817361.696004868 0 38817361.696004868 9935634.0127639771 0 0 0 0 -14947251.886378214 23850593.18797018 0 23850593.18797018 3587269.8293803632 0 0 0 0 14711472.013519287 48168307.472698212 0 48168307.472698212 -1498814.1002349854 0 0 0 0 -16016829.13722229 36896597.179141998 0 36896597.179141998 15494685.935171127 0 0 0 0 -9648505.1280049384 16301258.800844334 0 16301258.800844334 5736528.8792195246 0 0 0 0 -7499567.009979248 49347276.457008362 0 49347276.457008362 2721395.4270744324 0 0 0 0 -24942153.723724365 1462674.0864906311 0 1462674.0864906311 29788389.489196777 0 0 0 0 -39278701.91317749 20055070.119049072 0 20055070.119049072 5942284.8702259064 0 0 0 0 -49479075.220932007 12567078.225349426 0 12567078.225349426 28684868.716041565 0 0 0 0 -21829351.385844857 24859010.729426108 0 24859010.729426108 13449247.456956394 0 0 0 0 -43846779.625873566 18041904.520682335 0 18041904.520682335 25373042.391334534 0 0 0 0 -42986750.788658142 22182727.479402542 0 22182727.479402542 44895218.403030396 0 0 0 0 -94963342.321884155 45709373.0999403 0 45709373.0999403 40458493.253234863 0 0 0 0 -67130615.682811737 -58156082.983760834 0 -58156082.983760834 39023898.458450317 0 0 0 0 -218593658.08786011 -90078479.805076599 0 -90078479.805076599 39542573.22479248 0 0 0 0 -48101983.279418945 -2581446.7134017944 0 -2581446.7134017944 33819438.440530777 0 0 0 0 -176050580.09744263 30038502.988868713 0 30038502.988868713 45080911.607086182 0 0 0 0 -84764059.18888855 117782303.74529457 0 117782303.74529457 -18132274.66998291 0 0 0 0 -62059147.491165161 30715036.987739563 0 30715036.987739563 46451781.075675964 0 0 0 0 2769508.6114044189 42247946.44360733 0 42247946.44360733 32917607.977737427 0 0 0 0 -39038605.344680786 59644517.460289001 0 59644517.460289001 12751822.094478607 0 0 0 0 -14049235.041250668 28318092.492996357 0 28318092.492996357 8874167.7874681875 0 0 0 0 451604.08701469004 29391660.725872077 0 29391660.725872077 9460484.163669955 0 0 0 0 -16922379.26663208 52905552.347667694 0 52905552.347667694 11091317.318078995 0 0 0 0 7811624.4325561523 35840937.704544067 0 35840937.704544067 -4195598.9298706055 0 0 0 0 24480533.088125065 16916174.335701913 0 16916174.335701913 -6965108.1977663375 0 0 0 0 17212203.646133423 35015225.481613159 0 35015225.481613159 -3097359.678855896 0 0 0 0 7707348.4432277679 36459271.299562454 0 36459271.299562454 6203302.3138427734 0 0 0 0 82514590.684753418 25407547.306930542 0 25407547.306930542 -5979453.501739502 0 0 0 0 -2693847.0948160365 462857.80884554982 0 462857.80884554982 709019.78145637363 0 0 0 0 6022133.8940210342 37131330.511208057 0 37131330.511208057 -100327.62145996094 0 0 0 0 4204963.5169401169 49423260.988639355 0 49423260.988639355 18907034.696540833 0 0 0 0 6440811.4068527222 26910795.506874084 0 26910795.506874084 310873.12683486938 0 0 0 0 14540874.843658447 44048367.982906342 0 44048367.982906342 14284996.241089821 0 0 0 0 -7927163.6949920654 27925121.604781151 0 27925121.604781151 16100766.073501587 0 0 0 0 -11424221.210424423 13659631.834635735 0 13659631.834635735 -2524625.0535125732 0 0 0 0 -15824.202728000237 30939038.69551295 0 30939038.69551295 12941277.417506844 0 0 0 0 -33981616.083251953 27707631.713752747 0 27707631.713752747 8808092.5956039429 0 0 0 0 68540407.441673279 47000753.473493576 0 47000753.473493576 25345286.81879425 0 0 0 0 67216595.940914154 43966801.016098022 0 43966801.016098022 19699409.296440125 0 0 0 0 27879301.95280724 7034249.428527141 0 7034249.428527141 -7192310.6201022193 0 0 0 0 66754546.330993652 47552225.558654785 0 47552225.558654785 29613731.59463501 0 0 0 0 26299098.724014282 15224448.937812805 0 15224448.937812805 6718796.6925735474 0 0 0 0 233512044.70326233 79954988.763008118 0 79954988.763008118 -27527247.154632568 0 0 0 0 -2512111.9456381211 13842662.765700253 0 13842662.765700253 10235817.996065423 0 0 0 0 197262689.50343132 -38740870.318279266 0 -38740870.318279266 -77830313.614868164 0 0 0 0 65257647.673706055 45871287.557647705 0 45871287.557647705 31897837.583312988 0 0 0 0 66735316.312164307 43911052.89175415 0 43911052.89175415 34492462.46875 0 0 0 0 69441779.330810547 40101244.292938232 0 40101244.292938232 25470707.230026245 0 0 0 0 71164769.584289551 35679055.382476807 0 35679055.382476807 36781645.404613495 0 0 0 0 79636346.073051453 38138345.806632996 0 38138345.806632996 21714187.543739319 0 0 0 0 65060852.752349854 37057131.380470276 0 37057131.380470276 31729418.69241333 0 0 0 0 86020902.30960083 31212241.206115723 0 31212241.206115723 25605832.455993652 0 0 0 0 56077888.233459473 38555614.052261353 0 38555614.052261353 30698839.360488892 0 0 0 0 54530888.447654724 19621171.637489319 0 19621171.637489319 20173164.931968689 0 0 0 0 39644361.127599239 27598999.708848953 0 27598999.708848953 23545238.272003174 0 0 0 0 -4555888.435234746 26299210.868924908 0 26299210.868924908 12802049.678532794 0 0 0 0 66362679.336185455 31851448.55098772 0 31851448.55098772 12834311.046257019 0 0 0 0 -50594779.32270813 11481326.913154602 0 11481326.913154602 49766028.011276245 0 0 0 0 46896489.101608276 22094269.179592133 0 22094269.179592133 12041357.890003204 0 0 0 0 -13832837.438822765 24451229.760104783 0 24451229.760104783 12037179.441474296 0 0 0 0 43922392.149829865 36701978.332622528 0 36701978.332622528 -3578868.7506980896 0 0 0 0 50903161.872325897 17155321.807031631 0 17155321.807031631 -27529619.897670746 0 0 0 0 48325238.857379913 59022085.806308746 0 59022085.806308746 -61891112.723175049 0 0 0 0 44446176.153049469 36123079.146972656 0 36123079.146972656 18844985.667129517 0 0 0 0 60660750.815368652 30463096.304993629 0 30463096.304993629 18304690.386169434 0 0 0 0 30555636.909893036 27276784.963741302 0 27276784.963741302 28286875.785058975 0 0 0 0 49055351.30585289 62867358.118082523 0 62867358.118082523 48833166.196121216 0 0 0 0 1376547.1951155066 3007900.3975061597 0 3007900.3975061597 989606.03009172156 0 0 0 0 84526486.522697449 73518567.974778175 0 73518567.974778175 -150504238.60594559 0 0 0 0 -782944390.18769836 -436365481.87961197 0 -436365481.87961197 102247836.83767796 0 0 0 0 -273045075.96960449 -82368617.365074158 0 -82368617.365074158 8085084.8864593506 0 0 0 0 -470275979.30145264 -162412262.12244415 0 -162412262.12244415 33662351.777496338 0 0 0 0 90096058.510589838 70464883.276980877 0 70464883.276980877 29932578.255767822 0 0 0 0 8185752.2372972369 10242719.139915518 0 10242719.139915518 2387493.832735911 0 0 0 0 -352599173.12950802 100034841.0712719 0 100034841.0712719 30952326.347473145 0 0 0 0 -339893201.79588318 73441130.619457245 0 73441130.619457245 53586032.657699585 0 0 0 0 -678880591.4618988 134095315.5740509 0 134095315.5740509 66430556.46321106 0 0 0 0 -352260103.8759613 120140816.07418823 0 120140816.07418823 13662261.859985352 0 0 0 0 -261663705.29510498 120570671.30175781 0 120570671.30175781 1837912.7523498535 0 0 0 0 -603808812.77796173 314003831.01372528 0 314003831.01372528 -19117662.592697144 0 0 0 0 41185980.863082886 -52202008.116516113 0 -52202008.116516113 28746673.476982117 0 0 0 0 -223670710.63206863 48252060.476192474 0 48252060.476192474 8401842.2208557129 0 0 0 0 70341829.497695923 29882785.45867157 0 29882785.45867157 20306440.858428955 0 0 0 0 9288229.1627502441 -51740425.834831238 0 -51740425.834831238 -16436251.451044083 0 0 0 0 -49569729.674133301 99330733.191963196 0 99330733.191963196 -71821411.425018311 0 0 0 0 -271307410.4783783 200101568.12988281 0 200101568.12988281 -30716002.490142822 0 0 0 0 -992987553.83531189 324033167.15562439 0 324033167.15562439 -178198567.69740295 0 0 0 0 -494027214.35789871 -65289726.941520691 0 -65289726.941520691 -33908389.842060089 0 0 0 0 -823203935.2735858 245624481.9162426 0 245624481.9162426 -142961898.09230042 0 0 0 0 -854489815.17713165 233889970.70404053 0 233889970.70404053 141972915.76199341 0 0 0 0 -761966709.24830437 -416281297.54682446 0 -416281297.54682446 -472296821.73023987 0 0 0 0 -48398718.941604614 -16029462.816040039 0 -16029462.816040039 -6281640.4942588806 0 0 0 0 1291808.1962585449 147434440.76744843 0 147434440.76744843 -167036983.29733658 0 0 0 0 1982661.1943688989 143660.32617830485 0 143660.32617830485 -2553584.3887704983 0 0 0 0 -30852134.522724152 45086768.143079758 0 45086768.143079758 -39672575.247451782 0 0 0 0 50695260.947738647 -15242225.230384827 0 -15242225.230384827 233971184.89089966 0 0 0 0 46829345.59551239 822257.5751914978 0 822257.5751914978 167361158.78765869 0 0 0 0 -449245009.89712524 137955494.87984467 0 137955494.87984467 460905097.86917114 0 0 0 0 2749958.0256620944 -1009178.2955050468 0 -1009178.2955050468 -2184033.8966925517 0 0 0 0 -129531487.75907135 -109033227.12790298 0 -109033227.12790298 585645656.39770508 0 0 0 0 99267376.923461914 -286184429.49307251 0 -286184429.49307251 16992476.103179932 0 0 0 0 2817032.5860662758 -2025151.249230735 0 -2025151.249230735 -2382549.7469785176 0 0 0 0 -139439.57014465332 37924927.048694611 0 37924927.048694611 -34584878.456623077 0 0 0 0 98073359.754150391 10724517.862785339 0 10724517.862785339 -312757058.75086594 0 0 0 0 -10724726.644411087 13604306.713937759 0 13604306.713937759 -5805705.5142822266 0 0 0 0 77870333.307373047 -57872797.927375793 0 -57872797.927375793 -38024602.18107605 0 0 0 0 90161984.586242676 51083257.104198456 0 51083257.104198456 7927469.9830627441 0 0 0 0 -1281001.2625198364 77977704.338975906 0 77977704.338975906 151012036.81420898 0 0 0 0 -166401946.40136719 179536898.87807465 0 179536898.87807465 331079777.08309937 0 0 0 0 620378.31014800444 2040654.9984331504 0 2040654.9984331504 -395653.46115096658 0 0 0 0 18705667.062652588 18379274.397819519 0 18379274.397819519 -6309660.7911987305 0 0 0 0 23412812.466583252 44735264.100006104 0 44735264.100006104 7493482.2856445312 0 0 0 0 11848.992172241211 44746208.706764221 0 44746208.706764221 33333402.286567688 0 0 0 0 54105.246253022524 26494866.383244742 0 26494866.383244742 5056008.5168151855 0 0 0 0 6170118.4084777832 30369931.777290344 0 30369931.777290344 3317792.2324676514 0 0 0 0 -19155145.748138428 16734299.529273987 0 16734299.529273987 8825165.3500061035 0 0 0 0 -12232105.482452393 4356373.7910194397 0 4356373.7910194397 -1137979.5586547852 0 0 0 0 1854310.5258712769 35557749.12253952 0 35557749.12253952 7678272.5527038574 0 0 0 0 -39382.848838835955 174755.95100273192 0 174755.95100273192 -123380.95526273723 0 0 0 0 13271126.060546875 -17820962.956850052 0 -17820962.956850052 14613694.734161377 0 0 0 0 824428.20472887903 4841467.0832728893 0 4841467.0832728893 -381756.35611892492 0 0 0 0 -5353780.3394012451 17266137.618453979 0 17266137.618453979 18229962.004455566 0 0 0 0 -21506492.873641968 -1215268.4679832458 0 -1215268.4679832458 24861712.220504761 0 0 0 0 -4555729.2396070659 139592.0342432186 0 139592.0342432186 961390.91333351936 0 0 0 0 964395.38722229004 11032998.347080231 0 11032998.347080231 -1061636.997756958 0 0 0 0 -13601185.16204834 10396831.042282104 0 10396831.042282104 12280599.295522451 0 0 0 0 -2883007.5427703857 7910041.5150489807 0 7910041.5150489807 -2603713.0195541382 0 0 0 0 -2257722.7939792722 1982104.7877941877 0 1982104.7877941877 721673.70077405416 0 0 0 0 -5901787.3315124512 20112794.872245789 0 20112794.872245789 -14576778.185890198 0 0 0 0 1850244.1854000092 -29635167.822414875 0 -29635167.822414875 117757804.85202026 0 0 0 0 -147115.63742023706 2846047.4354336858 0 2846047.4354336858 -2950611.2477115169 0 0 0 0 -15260827.379699707 7179080.3043289185 0 7179080.3043289185 -1947965.4579696655 0 0 0 0 -1270823.2305221558 9348468.2502765656 0 9348468.2502765656 4243837.1852493286 0 0 0 0 -5545977.973815918 16139054.646629333 0 16139054.646629333 -2709040.4021639824 0 0 0 0 5622039.4615276903 12041375.692930013 0 12041375.692930013 3350451.2065345049 0 0 0 0 -2583182.432144165 8463588.8607254028 0 8463588.8607254028 4701972.064976573 0 0 0 0 -1423726.433105167 7672871.0155142099 0 7672871.0155142099 374245.65375045687 0 0 0 0 -35367499.802978516 21151222.202606201 0 21151222.202606201 49387080.196487427 0 0 0 0 -49334425.451179504 -26370371.341333389 0 -26370371.341333389 157540363.70272827 0 0 0 0 -440543.78037034534 576095.524497509 0 576095.524497509 185590.63919125497 0 0 0 0 -19463797.041290283 26890024.52514267 0 26890024.52514267 34122549.489059448 0 0 0 0 -13341031.756844997 6662424.8004971594 0 6662424.8004971594 3681637.2339102477 0 0 0 0 -32451458.207458496 17812934.031585693 0 17812934.031585693 51045454.13874054 0 0 0 0 -17145063.676589966 37599993.896831512 0 37599993.896831512 26002247.144729614 0 0 0 0 -31527427.469207764 56523643.708065033 0 56523643.708065033 3191087.4387359619 0 0 0 0 -41626627.967628479 36488408.5117836 0 36488408.5117836 62299474.242767334 0 0 0 0 -11140315.177642822 -5136019.6725559235 0 -5136019.6725559235 59800661.592010498 0 0 0 0 -38060059.959762573 34049617.356464386 0 34049617.356464386 49486490.688110352 0 0 0 0 -68562419.121917725 78602518.180618286 0 78602518.180618286 9868883.455657959 0 0 0 0 -30014189.835662842 43281768.370529175 0 43281768.370529175 58038924.346328735 0 0 0 0 -75128979.534770966 17361953.696949959 0 17361953.696949959 89764673.78616333 0 0 0 0 -27779651.168701172 72808980.657501221 0 72808980.657501221 -7588051.2265548706 0 0 0 0 -23109627.928466797 101906540.95883179 0 101906540.95883179 -263193097.60255432 0 0 0 0 -16968436.655776978 76737462.292613983 0 76737462.292613983 -74986968.633857727 0 0 0 0 -7528356.0922523439 34007489.07349623 0 34007489.07349623 7045437.8233947754 0 0 0 0 35553231.571105957 -54686108.258792877 0 -54686108.258792877 89068818.13381958 0 0 0 0 62894559.044372559 11031519.407722473 0 11031519.407722473 202463809.86863708 0 0 0 0 -63128269.48916626 -35275433.206008911 0 -35275433.206008911 119904879.74503326 0 0 0 0 -177154263.41325378 52398887.278102875 0 52398887.278102875 224209559.77568817 0 0 0 0 -126510490.84350586 158861402.41315079 0 158861402.41315079 -31220459.414627075 0 0 0 0 298147178.80299377 12229868.669933319 0 12229868.669933319 -121357225.85189819 0 0 0 0 -60520512.115346909 21262010.289246082 0 21262010.289246082 96155102.71635437 0 0 0 0 -99785260.007301331 251663510.32719612 0 251663510.32719612 191891288.34344482 0 0 0 0 245150104.70986938 278194218.85237503 0 278194218.85237503 113627462.39087296 0 0 0 0 -2807007.1244239286 2909300.4002143592 0 2909300.4002143592 2720448.2730292007 0 0 0 0 86367101.463829041 370664299.36161041 0 370664299.36161041 319812493.93786621 0 0 0 0 -2843863.2740665525 2323836.8384672105 0 2323836.8384672105 602889.35530868173 0 0 0 0 -11049978.599243164 19527040.872867584 0 19527040.872867584 25872619.084159851 0 0 0 0 -466649.78550240397 -427404.86366556585 0 -427404.86366556585 -267483.0813413281 0 0 0 0 -11033312.556060791 13703178.209533691 0 13703178.209533691 81524129.135284424 0 0 0 0 -11423391.052383423 8531351.8316860199 0 8531351.8316860199 57219101.892707825 0 0 0 0 -11927454.125396729 64732047.173660278 0 64732047.173660278 130903779.69099426 0 0 0 0 10506795.326141357 43903784.761787415 0 43903784.761787415 44995565.496976852 0 0 0 0 15170929.542816162 4399655.7070350647 0 4399655.7070350647 24977510.816680908 0 0 0 0 18737368.229582787 56572000.99758625 0 56572000.99758625 60137968.326385498 0 0 0 0 2201607.9307556152 10242013.523139954 0 10242013.523139954 32958550.515525818 0 0 0 0 65365121.861358643 127521324.07091522 0 127521324.07091522 79977639.559494019 0 0 0 0 43989208.55821228 82787021.002349854 0 82787021.002349854 -4499957.2384262085 0 0 0 0 410776195.26165771 12936148.746551514 0 12936148.746551514 -24561322.993751526 0 0 0 0 217159494.56718445 463386285.68809509 0 463386285.68809509 77820103.942192078 0 0 0 0 173452197.98175049 90515039.890457153 0 90515039.890457153 -11964255.197193146 0 0 0 0 139409956.62406921 -77774851.056549072 0 -77774851.056549072 -17571697.339752197 0 0 0 0 8789158.2720031738 -93149972.012199402 0 -93149972.012199402 46918035.682052612 0 0 0 0 38449908.748069763 144093341.9266758 0 144093341.9266758 119314388.20146942 0 0 0 0 -1669119.5598278195 1744266.7845064774 0 1744266.7845064774 1647853.9309926629 0 0 0 0 -228941094.45153809 187831572.91536331 0 187831572.91536331 121411809.43115234 0 0 0 0 684112839.74169922 624523318.45097733 0 624523318.45097733 344475536.55869675 0 0 0 0 -33861819.783752441 425218436.24424744 0 425218436.24424744 425184534.30548859 0 0 0 0 17810629.375808716 411026617.30721283 0 411026617.30721283 405303838.48928833 0 0 0 0 19481831.312057495 371204211.02569962 0 371204211.02569962 328530095.22154236 0 0 0 0 40392401.498184204 283444206.30454445 0 283444206.30454445 154734319.12783051 0 0 0 0 -86814322.240615845 290422403.61785889 0 290422403.61785889 371134184.7754097 0 0 0 0 -115860288.99325562 6037040.5700492859 0 6037040.5700492859 272261092.38653564 0 0 0 0 -43401543.147521973 157846008.19021606 0 157846008.19021606 435779409.81976318 0 0 0 0 -1575343.4655319154 1575284.2531930134 0 1575284.2531930134 1534040.5404894277 0 0 0 0 444666536.29356384 377429451.20282364 0 377429451.20282364 237046331.83222347 0 0 0 0 -507765179.19824219 -66237981.705757141 0 -66237981.705757141 396022713.99581909 0 0 0 0 -327049508.17175293 -66000342.7759552 0 -66000342.7759552 267066365.61964035 0 0 0 0 -38727196.572692871 26834881.802719116 0 26834881.802719116 1272230291.9192734 0 0 0 0 42973328.676475525 88614095.616527557 0 88614095.616527557 442524679.68515015 0 0 0 0 -65402642.404354095 368621249.17591572 0 368621249.17591572 605585144.87516785 0 0 0 0 21421531.569351196 290795907.69163132 0 290795907.69163132 533347573.20327759 0 0 0 0 376710.33444213867 362833058.66519928 0 362833058.66519928 635742354.17372894 0 0 0 0 -107925.9662322998 379587077.42869568 0 379587077.42869568 407043242.90876389 0 0 0 0 42767421.098724365 382059241.18318558 0 382059241.18318558 425909333.30895233 0 0 0 0 -65922878.172714233 368285403.32481003 0 368285403.32481003 428009250.42944717 0 0 0 0 22048822.105918884 347944419.00518036 0 347944419.00518036 318788355.01274872 0 0 0 0 -29360.347259521484 349030725.2948761 0 349030725.2948761 126626458.12248993 0 0 0 0 -76103313.679824829 304586378.72988129 0 304586378.72988129 320502715.55490243 0 0 0 0 -35485844.038032532 356762367.72622299 0 356762367.72622299 203448501.51564026 0 0 0 0 -128908272.90942383 277135302.24266434 0 277135302.24266434 178459055.910285 0 0 0 0 -78307989.529556274 178684207.32038879 0 178684207.32038879 51877622.504234314 0 0 0 0 82550461.628860474 457525562.50258255 0 457525562.50258255 325988951.9643631 0 0 0 0 -97028571.530975342 329880335.38978577 0 329880335.38978577 405732229.23499775 0 0 0 0 -46867337.045143127 282952046.69367981 0 282952046.69367981 -78657408.978317261 0 0 0 0 -208439103.97074127 305999786.87745667 0 305999786.87745667 370031974.91217804 0 0 0 0 -196920838.37575817 427902460.1844461 0 427902460.1844461 -200312269.43732452 0 0 0 0 -156751190.94177151 133912618.12556219 0 133912618.12556219 -161150324.014534 0 0 0 0 -107681038.70167542 365830510.80288315 0 365830510.80288315 -410968358.77471924 0 0 0 0 -45975.049942016602 311852944.83946228 0 311852944.83946228 -181139839.98778534 0 0 0 0 -47177108.705032349 186812697.30039215 0 186812697.30039215 -427692121.57872009 0 0 0 0 -64151463.310073853 213923578.21114731 0 213923578.21114731 -242049531.7639637 0 0 0 0 -5937.3126068115234 260601602.49475479 0 260601602.49475479 -455425913.20020294 0 0 0 0 -49540650.379547119 135967883.47227097 0 135967883.47227097 -627425504.61572266 0 0 0 0 -1689917.173102349 1663298.6701793447 0 1663298.6701793447 7887111.2537166812 0 0 0 0 -2867.3848571777344 4782761.8568687439 0 4782761.8568687439 3270845.8360977173 0 0 0 0 2591022.0750732422 31308731.336261749 0 31308731.336261749 118273487.61949158 0 0 0 0 1619038.0804773867 -931095.31043038517 0 -931095.31043038517 -714798.96895441413 0 0 0 0 -52900340.871429443 35947533.235279083 0 35947533.235279083 8995201.718900919 0 0 0 0 -44013232.914398193 17208261.31401062 0 17208261.31401062 8324311.110324502 0 0 0 0 4011227.446641922 20121133.757923603 0 20121133.757923603 73562527.798530579 0 0 0 0 -9233992.9373710454 755394.38643833809 0 755394.38643833809 8998830.4492741004 0 0 0 0 8167381.2672685832 4680915.749092631 0 4680915.749092631 775629.48010708764 0 0 0 0 -8495388.0397491455 236107985.10868645 0 236107985.10868645 -442996229.49182892 0 0 0 0 9579520.3220657706 3262860.570372887 0 3262860.570372887 -1333767.2704675272 0 0 0 0 -186177157.78785706 139026367.06736565 0 139026367.06736565 -68073491.62946701 0 0 0 0 -240425476.72601318 62891213.14731884 0 62891213.14731884 137768061.48586273 0 0 0 0 -200315061.07769775 1374088.3690261841 0 1374088.3690261841 68935083.53443718 0 0 0 0 -42575062.161376953 2224380.9864120483 0 2224380.9864120483 33787650.354893684 0 0 0 0 -57466378.047470093 23527124.763296127 0 23527124.763296127 34954556.074630737 0 0 0 0 -10314068.400508821 -777798.20142694935 0 -777798.20142694935 8973956.1607385017 0 0 0 0 12323988.37097168 53144605.426815033 0 53144605.426815033 51935809.126177788 0 0 0 0 -155163188.26684189 -60755237.395526409 0 -60755237.395526409 14540056.7943573 0 0 0 0 -156027180.52461243 -122786997.16324234 0 -122786997.16324234 -88164519.869734287 0 0 0 0 -158943940.63790131 -55716670.467309475 0 -55716670.467309475 110198745.69304657 0 0 0 0 -171487633.57971191 -263843249.82854271 0 -263843249.82854271 -111024351.3852191 0 0 0 0 -9908392.7069415599 -1421897.1179042608 0 -1421897.1179042608 8620202.7757230662 0 0 0 0 -31583498.689178467 -5766539.7449684143 0 -5766539.7449684143 39769570.157490253 0 0 0 0 67832204.274642944 60300094.254688263 0 60300094.254688263 -11113497.025981903 0 0 0 0 44218233.480560303 -11973094.967702866 0 -11973094.967702866 -82989804.607568741 0 0 0 0 51497311.725982666 126399750.42503357 0 126399750.42503357 134139279.9726162 0 0 0 0 -88776.167552198924 69438501.007733703 0 69438501.007733703 74423159.130149841 0 0 0 0 14549406.74810791 51438861.62638855 0 51438861.62638855 96335212.196899414 0 0 0 0 17799184.002574921 42900822.03526783 0 42900822.03526783 64451181.658752441 0 0 0 0 8854716.9705810547 22576339.198242188 0 22576339.198242188 51049147.506477356 0 0 0 0 124322286.70654297 -209308661.42989731 0 -209308661.42989731 493597624.68283558 0 0 0 0 472281743.8430481 -190461345.53483629 0 -190461345.53483629 5126610.0630340576 0 0 0 0 124285735.62799072 -117507215.07208633 0 -117507215.07208633 76180227.779052734 0 0 0 0 363636715.06450653 197153973.5631609 0 197153973.5631609 132731156.68468857 0 0 0 0 888689763.77734375 -122386021.97725105 0 -122386021.97725105 323885244.56355286 0 0 0 0 37293754.973358154 10426746.641836166 0 10426746.641836166 76081392.334873199 0 0 0 0 290063029.00218201 -100697952.94699287 0 -100697952.94699287 -311030575.88243484 0 0 0 0 124488193.15289307 -83140828.665086746 0 -83140828.665086746 -27220275.563911438 0 0 0 0 53256300.040664673 -243803949.74605179 0 -243803949.74605179 75652146.766792297 0 0 0 0 192970113.12962341 -184101628.47296143 0 -184101628.47296143 -214837126.87324524 0 0 0 0 65767082.214172363 -118103344.83816147 0 -118103344.83816147 -240458548.48900414 0 0 0 0 -7707614.0844726562 -215841104.63398361 0 -215841104.63398361 -168428802.29371038 0 0 0 0 19432881.271331787 -203274097.77962494 0 -203274097.77962494 -285526249.57110596 0 0 0 0 -71801049.424377441 -144694698.71992874 0 -144694698.71992874 -191923471.39685822 0 0 0 0 -28537315.942077637 -229125062.98249817 0 -229125062.98249817 -202897378.5115366 0 0 0 0 -18096016.118011475 -249409383.67814255 0 -249409383.67814255 -16767569.616226196 0 0 0 0 53589223.408447266 -172301244.13095093 0 -172301244.13095093 -168750376.93845332 0 0 0 0 -214438960.00769043 -125874896.51453781 0 -125874896.51453781 -152544326.65645981 0 0 0 0 -128297020.74281311 -233709596.28954697 0 -233709596.28954697 -28314209.779014587 0 0 0 0 -171872249.84895325 -101453293.92450142 0 -101453293.92450142 205682249.01903915 0 0 0 0 -66953202.674316406 -191948810.33869171 0 -191948810.33869171 -35863288.468895435 0 0 0 0 10107943.497329712 -235293905.34507465 0 -235293905.34507465 223690943.24111176 0 0 0 0 -62893310.795318604 -116783509.112854 0 -116783509.112854 59493931.033855438 0 0 0 0 -28305118.113113403 23068951.958187103 0 23068951.958187103 376124261.16482735 0 0 0 0 -67985226.786743164 -101336660.36230659 0 -101336660.36230659 176251856.86919022 0 0 0 0 -204294479.95846558 -21171385.438537598 0 -21171385.438537598 331952134.981884 0 0 0 0 -144373156.68922424 50737431.665279388 0 50737431.665279388 -40247928.19480896 0 0 0 0 -84872687.095855713 191142935.34999466 0 191142935.34999466 198510127.10042 0 0 0 0 10357379.852966309 25462516.235002518 0 25462516.235002518 275012791.96845245 0 0 0 0 512977225.58499146 223532130.27469254 0 223532130.27469254 583075646.67964172 0 0 0 0 435928005.33422852 336985551.4935894 0 336985551.4935894 454090017.36517334 0 0 0 0 913922036.24356079 675271351.06474304 0 675271351.06474304 322560876.06975937 0 0 0 0 75574048.083709717 -101499832.19551659 0 -101499832.19551659 513270720.39477158 0 0 0 0 399490604.35308838 73042278.251712799 0 73042278.251712799 411159623.36426163 0 0 0 0 703389984.42752838 683750820.23946095 0 683750820.23946095 2240013773.099411 0 0 0 0 847919263.02600098 464509791.69303131 0 464509791.69303131 656224439.13050842 0 0 0 0 294816251.8970108 233572604.17448044 0 233572604.17448044 1130330390.2991791 0 0 0 0 1582377058.1576233 1255447443.0065041 0 1255447443.0065041 617181580.0676651 0 0 0 0 712341239.39328003 608899139.30258179 0 608899139.30258179 894361261.83036041 0 0 0 0 1579807502.6511841 558183221.03582001 0 558183221.03582001 425672290.83526611 0 0 0 0 1709033491.3535919 971806276.28611279 0 971806276.28611279 -238715786.09339905 0 0 0 0 -711607.12691538781 1592092.3135784194 0 1592092.3135784194 215353.79521171749 0 0 0 0 49234272.572174072 283013441.29985428 0 283013441.29985428 703423082.06291199 0 0 0 0 1436798681.326622 377432196.70723915 0 377432196.70723915 -209605416.14846802 0 0 0 0 856881663.80696487 130678836.67054176 0 130678836.67054176 -290879364.44187927 0 0 0 0 1045924249.9935303 655166485.56605148 0 655166485.56605148 -39749165.870765686 0 0 0 0 1208692542.7902985 904439099.97285748 0 904439099.97285748 195629438.08273315 0 0 0 0 956282844.34460449 506208576.436306 0 506208576.436306 605305151.72073364 0 0 0 0 592511663.87986755 432237543.79138947 0 432237543.79138947 138931418.4377594 0 0 0 0 1045331272.4979143 666559541.3296988 0 666559541.3296988 -241069590.37207794 0 0 0 0 970059988.42352295 942008613.13884354 0 942008613.13884354 292130229.019104 0 0 0 0 1238899002.1515198 882551475.99975204 0 882551475.99975204 -138885107.43831062 0 0 0 0 687465127.96472168 523124050.8805275 0 523124050.8805275 -21349676.160705566 0 0 0 0 215480482.31282043 198148695.39835167 0 198148695.39835167 67305894.514968872 0 0 0 0 -19805522.788085938 154235450.28876495 0 154235450.28876495 -53223910.437942505 0 0 0 0 685224710.30059814 571786758.72375488 0 571786758.72375488 -165726497.33267212 0 0 0 0 990339648.24450684 744656148.46186066 0 744656148.46186066 -142653950.92835999 0 0 0 0 8461820.7045373023 2283700.6852924153 0 2283700.6852924153 -1770502.8218448684 0 0 0 0 -291527717.37501526 484035780.80686569 0 484035780.80686569 -202168416.35762787 0 0 0 0 -123209936.5388031 -21608055.811229706 0 -21608055.811229706 -109548921.0925293 0 0 0 0 608558498.33935547 413543666.33208466 0 413543666.33208466 106338849.82326508 0 0 0 0 1085048955.0868683 378627570.23971176 0 378627570.23971176 -592972215.66654968 0 0 0 0 4160922.6962873787 673967.49872198701 0 673967.49872198701 -1329926.5918181129 0 0 0 0 -20674459.263183594 202607295.7296524 0 202607295.7296524 -84304306.153829575 0 0 0 0 -298395846.20342255 353929214.84465981 0 353929214.84465981 937418775.46405029 0 0 0 0 504405348.38406372 894662582.48261833 0 894662582.48261833 604210549.98158646 0 0 0 0 -59010845.750160217 574728708.63858223 0 574728708.63858223 451211896.66743469 0 0 0 0 305392587.98402405 165436111.64458847 0 165436111.64458847 107914824.17433167 0 0 0 0 33480160.147033691 310815449.46640778 0 310815449.46640778 119578298.59918213 0 0 0 0 -198101004.15289307 104720453.82911682 0 104720453.82911682 208572891.8865509 0 0 0 0 813346319.39555359 -97940433.912448883 0 -97940433.912448883 233147619.63957214 0 0 0 0 495029537.78594971 662393338.47724533 0 662393338.47724533 719168999.82030487 0 0 0 0 287230733.84500122 61854515.523384094 0 61854515.523384094 702153941.93200707 0 0 0 0 1087223133.0831604 461986427.60796356 0 461986427.60796356 49087320.757919312 0 0 0 0 329122531.43008423 152156869.3759613 0 152156869.3759613 129287045.07394409 0 0 0 0 274277081.71263123 -92964214.607005119 0 -92964214.607005119 18327377.283996582 0 0 0 0 -11314449.822845459 43666331.776817322 0 43666331.776817322 259766393.50145721 0 0 0 0 104248727.75799561 27041484.147819519 0 27041484.147819519 3249607.5350646973 0 0 0 0 -134536340.68634033 67550404.435813904 0 67550404.435813904 -95296192.05973053 0 0 0 0 -51602803.565887451 -82098772.283248901 0 -82098772.283248901 74285943.011749268 0 0 0 0 -194830591.82669449 93943930.750683784 0 93943930.750683784 -105922740.68664551 0 0 0 0 -633960249.08807373 198827107.10719299 0 198827107.10719299 -65976545.212600708 0 0 0 0 -301591564.30578613 110227780.27992249 0 110227780.27992249 -158541688.94842529 0 0 0 0 -668568704.3572998 -40526833.152244568 0 -40526833.152244568 -84518547.56072998 0 0 0 0 -280280739.48673248 -31233155.376170158 0 -31233155.376170158 -68970094.432006836 0 0 0 0 -375315534.70251465 161542322.71910095 0 161542322.71910095 -15741816.976802826 0 0 0 0 -359440540.94226074 66852114.011029243 0 66852114.011029243 -213439553.89736938 0 0 0 0 -66875410.835998535 171337433.25914001 0 171337433.25914001 -33437154.898296356 0 0 0 0 -516227391.22271729 64855787.514877319 0 64855787.514877319 178390437.12632751 0 0 0 0 -287086789.9899292 256943942.32138062 0 256943942.32138062 151560020.22193909 0 0 0 0 -1223181.9274584725 8711210.0758068711 0 8711210.0758068711 3154324.7288250402 0 0 0 0 -147418189.86727905 66913978.897033691 0 66913978.897033691 -40659274.324066162 0 0 0 0 -548852429.16479492 244667042.48017502 0 244667042.48017502 88173255.006183624 0 0 0 0 -1445339.6399194151 4923381.3364399895 0 4923381.3364399895 4313139.5213473737 0 0 0 0 -2955820.8821105957 3105984.1955451965 0 3105984.1955451965 -533400.73936462402 0 0 0 0 -360706.2803837955 15805243.561499536 0 15805243.561499536 1060219.2457947731 0 0 0 0 -7238897.3214208558 6011020.3948233649 0 6011020.3948233649 -42610.457194600254 0 0 0 0 16275672.269939527 1728991.6599868387 0 1728991.6599868387 -2344328.1642853953 0 0 0 0 8802818.7919447497 25779160.878200129 0 25779160.878200129 418501.65066325665 0 0 0 0 56854609.338684082 -1339056.8832397461 0 -1339056.8832397461 -10354225.115188599 0 0 0 0 39261046.691688538 33826702.363202095 0 33826702.363202095 -40921251.099472046 0 0 0 0 3236408.1655854918 2605135.8495052159 0 2605135.8495052159 -1059153.0130997002 0 0 0 0 -900882503.12677002 134274737.8154068 0 134274737.8154068 36593401.441680908 0 0 0 0 -19590050.332061768 36466747.738189697 0 36466747.738189697 3482517.5969161987 0 0 0 0 -13478137.471633911 23273308.259693146 0 23273308.259693146 6124768.7491149902 0 0 0 0 31534418.222717285 30416134.260356903 0 30416134.260356903 855651.34538269043 0 0 0 0 2648107.4009933472 32631911.354511261 0 32631911.354511261 11159476.098754883 0 0 0 0 2632684.2529296875 32201817.063072205 0 32201817.063072205 6666243.4421539307 0 0 0 0 16285304.573242188 23316877.742511749 0 23316877.742511749 5342536.8790893555 0 0 0 0 13684253.758239746 30732605.91753006 0 30732605.91753006 661772.96075439453 0 0 0 0 14678079.711883545 39169719.44052887 0 39169719.44052887 13297291.893127441 0 0 0 0 3729058.6882019043 28369556.67713356 0 28369556.67713356 4558395.0751190186 0 0 0 0 3731957.0139770508 27502475.748451233 0 27502475.748451233 9302578.0693588257 0 0 0 0 3632766.8648071289 28304175.609767914 0 28304175.609767914 6353847.4298706055 0 0 0 0 2725831.3670959473 28183973.818565369 0 28183973.818565369 14221524.783483505 0 0 0 0 -10196222.118499756 24471551.31072998 0 24471551.31072998 -1569768.4831581116 0 0 0 0 18112346.004394531 29023181.172462463 0 29023181.172462463 26487879.185089111 0 0 0 0 -9946894.6044006348 23092399.36655426 0 23092399.36655426 10282654.267219543 0 0 0 0 -11226501.761749268 25021478.14037323 0 25021478.14037323 7524763.1034088135 0 0 0 0 -7701961.2981073707 15055172.674588755 0 15055172.674588755 4000548.0751883723 0 0 0 0 -12515281.3855896 19799211.306373596 0 19799211.306373596 5523902.3237457275 0 0 0 0 17951954.115341187 29167671.546165466 0 29167671.546165466 26887271.095321655 0 0 0 0 -9394639.7366789281 27931011.21803841 0 27931011.21803841 1775147.5387871857 0 0 0 0 7368880.4936523438 70942700.034202576 0 70942700.034202576 42005407.23336935 0 0 0 0 4120238.107442826 33640372.714724883 0 33640372.714724883 -2447108.5876756031 0 0 0 0 -9112113.6592712402 -10277836.774494171 0 -10277836.774494171 17756254.908400536 0 0 0 0 3536579.578918457 35500420.842441559 0 35500420.842441559 39108.927375793457 0 0 0 0 -14459565.368530273 28423780.489067078 0 28423780.489067078 7920580.1645584106 0 0 0 0 -97870623.813720703 1472905.4273681641 0 1472905.4273681641 -40146144.132080078 0 0 0 0 -26600565.898469076 16475559.281043245 0 16475559.281043245 10027308.919279445 0 0 0 0 -74771744.902404785 61344574.5181427 0 61344574.5181427 40680375.832366943 0 0 0 0 -9274748.4984844923 -1524876.5549899675 0 -1524876.5549899675 5935832.075567957 0 0 0 0 -22280024.646179199 16835390.76512146 0 16835390.76512146 11628364.105247498 0 0 0 0 55060458.909973145 -81890659.028053284 0 -81890659.028053284 4788745.4526443481 0 0 0 0 -6183708.4020118713 10134846.836424828 0 10134846.836424828 2962974.9126663208 0 0 0 0 -10483144.427246094 -4281610.6698112488 0 -4281610.6698112488 -9911766.7728881836 0 0 0 0 -6164858.4486265481 -146515.96422613412 0 -146515.96422613412 3624439.5133169442 0 0 0 0 6760154.6365356445 17396793.261405945 0 17396793.261405945 -10797701.194469452 0 0 0 0 -8437401.4851379395 7351047.7700881958 0 7351047.7700881958 23207573.960510254 0 0 0 0 -1136132.9034729004 7240738.8326454163 0 7240738.8326454163 3371654.8672704697 0 0 0 0 -3445166.0856764391 9921533.7266844213 0 9921533.7266844213 -1395358.6401225179 0 0 0 0 -5414783.5862884521 7447453.2369327545 0 7447453.2369327545 4093815.6169013977 0 0 0 0 -17142609.061645508 23835611.167633057 0 23835611.167633057 -16222025.468887329 0 0 0 0 -16011592.072143555 19308943.415855408 0 19308943.415855408 1868772.547077179 0 0 0 0 -24696113.653808594 9913639.051940918 0 9913639.051940918 -7784278.4275512695 0 0 0 0 -3146099.6779785156 4489012.8978271484 0 4489012.8978271484 -1768741.462280035 0 0 0 0 -9329006.2967229337 4253000.6294060946 0 4253000.6294060946 7562539.4537953297 0 0 0 0 -152730938.72497559 398886641.86336899 0 398886641.86336899 -236970144.20370483 0 0 0 0 -3758044.7943003029 3307647.1819550917 0 3307647.1819550917 2016203.9743062109 0 0 0 0 -433496221.70153809 354643283.02949524 0 354643283.02949524 -63085250.794052124 0 0 0 0 -156709997.03262329 59672453.143356323 0 59672453.143356323 -106362884.00061035 0 0 0 0 -3633353.2911951244 6150142.9943174124 0 6150142.9943174124 -730414.08033189178 0 0 0 0 1707022.7766384706 9221593.9299992323 0 9221593.9299992323 -1367165.6813830212 0 0 0 0 -2275617.6303405762 9004742.6873950958 0 9004742.6873950958 -2360982.6459960938 0 0 0 0 -3439964.0339262187 5722323.8323008269 0 5722323.8323008269 2220763.67703903 0 0 0 0 -4074235.9514160156 5151298.9757080078 0 5151298.9757080078 3551990.2440662384 0 0 0 0 -3099504.2968597412 6390220.7507553101 0 6390220.7507553101 3102813.3444900513 0 0 0 0 -200933133.32442284 40128557.528307915 0 40128557.528307915 164047268.46678925 0 0 0 0 -216903608.34915924 71815704.331851959 0 71815704.331851959 262717840.55426025 0 0 0 0 -166264537.01467133 264558531.71045494 0 264558531.71045494 -130891087.95389557 0 0 0 0 -2150934.0972175598 98536549.410272598 0 98536549.410272598 17113213.42552948 0 0 0 0 -28220818.045783997 114199758.03940201 0 114199758.03940201 21107120.367904663 0 0 0 0 -17843028.271661758 86196960.911289215 0 86196960.911289215 93715258.572883606 0 0 0 0 23341151.811534882 71314822.40568161 0 71314822.40568161 29246295.815498352 0 0 0 0 -9842309.9388961792 76393128.920349121 0 76393128.920349121 31100825.88889122 0 0 0 0 3497821.6996746063 100763850.87911224 0 100763850.87911224 -11450163.289207458 0 0 0 0 -11371485.371816531 30798982.807845913 0 30798982.807845913 5701712.932590615 0 0 0 0 28933185.193107605 71136448.793174744 0 71136448.793174744 7595847.5271725655 0 0 0 0 45454472.829064369 45439918.106905222 0 45439918.106905222 10534794.808204651 0 0 0 0 36429024.15694809 55240711.566876411 0 55240711.566876411 16088384.203765869 0 0 0 0 -17298458.911397237 28883299.42879384 0 28883299.42879384 7810843.5971379727 0 0 0 0 12665295.693954468 32417104.781982422 0 32417104.781982422 13816080.32491827 0 0 0 0 29957742.095626831 49694508.201971054 0 49694508.201971054 7218890.2288513184 0 0 0 0 24735144.182662964 43187521.093187332 0 43187521.093187332 -7131770.3538665771 0 0 0 0 3152403.5100409538 36208281.970616452 0 36208281.970616452 -2499503.1127797486 0 0 0 0 -12498454.633911133 26760069.696609497 0 26760069.696609497 36752941.983493328 0 0 0 0 21450986.095123291 75549152.434495926 0 75549152.434495926 -14312099.106689453 0 0 0 0 -19169827.250173066 25388522.883178398 0 25388522.883178398 -1985910.1515010893 0 0 0 0 -3663773.5400392115 26552850.280749887 0 26552850.280749887 3035401.6454579988 0 0 0 0 -927086.50014522299 6308823.7478718609 0 6308823.7478718609 704320.02898789197 0 0 0 0 -7207052.9904727936 44580555.195713043 0 44580555.195713043 12009816.724761963 0 0 0 0 -27749550.837017059 74408892.535198212 0 74408892.535198212 19169539.355165482 0 0 0 0 -40850408.640911102 26042598.233863831 0 26042598.233863831 47513899.948402405 0 0 0 0 -78956389.314212799 30605357.278795242 0 30605357.278795242 53625178.442474365 0 0 0 0 -153506162.35394764 32310688.225193977 0 32310688.225193977 80392994.61794281 0 0 0 0 -82650542.558387756 141449474.22276306 0 141449474.22276306 -112363489.50637817 0 0 0 0 -32778264.372758865 78240771.138759613 0 78240771.138759613 -94333691.246536255 0 0 0 0 -36398104.696746826 15226984.593933105 0 15226984.593933105 -61933723.665679932 0 0 0 0 -20383279.711631775 49458489.944267273 0 49458489.944267273 -110311606.87998199 0 0 0 0 -22016047.581033707 46004879.407029152 0 46004879.407029152 -50409530.060073853 0 0 0 0 -173290299.78397369 -15353934.807888031 0 -15353934.807888031 125734318.03308105 0 0 0 0 -8366686.7668971261 6392660.4664887954 0 6392660.4664887954 2983524.8678731322 0 0 0 0 -104857030.85620689 42517911.625237703 0 42517911.625237703 34085688.015724182 0 0 0 0 -110646900.05327606 98657410.978187561 0 98657410.978187561 -41003324.694602966 0 0 0 0 -53216895.171739578 44056045.055905342 0 44056045.055905342 10113904.076293945 0 0 0 0 -77814791.636541367 31591016.82462883 0 31591016.82462883 42766105.93598938 0 0 0 0 -70442510.846343994 48876412.209255219 0 48876412.209255219 14897287.166625977 0 0 0 0 -91224971.415802002 24770990.349088669 0 24770990.349088669 39319267.349700928 0 0 0 0 -44743232.799884796 25118165.765884399 0 25118165.765884399 35996953.325653076 0 0 0 0 21202788.985977173 36384785.804153442 0 36384785.804153442 54026101.36100769 0 0 0 0 -24574668.614704315 24302013.933276482 0 24302013.933276482 -33039.197745755315 0 0 0 0 -11740065.409673721 37394991.558908679 0 37394991.558908679 -2692606.2884070594 0 0 0 0 -36948065.112588406 28079115.496876072 0 28079115.496876072 9752092.1626971327 0 0 0 0 57685146.26210022 96720740.652366638 0 96720740.652366638 61519939.33404541 0 0 0 0 -137532519.1229248 547784250.98786926 0 547784250.98786926 209373844.44700241 0 0 0 0 -850684411.4710083 -321264358.35214233 0 -321264358.35214233 -81422354.995000839 0 0 0 0 78415322.544555664 78046529.370864868 0 78046529.370864868 199862366.06565857 0 0 0 0 -329317410.9152832 -417854950.24594116 0 -417854950.24594116 206750377.34179688 0 0 0 0 369672813.65936279 -42676725.088687897 0 -42676725.088687897 -234935113.81830788 0 0 0 0 26230289.622406006 89060799.853809357 0 89060799.853809357 44486566.186928272 0 0 0 0 -381804444.71826172 259898802.63708878 0 259898802.63708878 351670654.57459259 0 0 0 0 -28043941.815853715 23432708.189074498 0 23432708.189074498 6320239.3703728877 0 0 0 0 -456125.32560949028 -699324.87032779679 0 -699324.87032779679 464385.89077962982 0 0 0 0 46659059.297241211 -150812249.17316055 0 -150812249.17316055 36772251.78175503 0 0 0 0 13245376.991241455 44503368.388736725 0 44503368.388736725 -78092881.890457153 0 0 0 0 -127791080.05993652 39274866.375564575 0 39274866.375564575 18691464.911071777 0 0 0 0 -5989297.7728960514 -3547405.3438580744 0 -3547405.3438580744 8253307.0778589211 0 0 0 0 5796526.2208137512 98343354.014999866 0 98343354.014999866 221354053.90898132 0 0 0 0 2101563.1903076172 54487290.365587234 0 54487290.365587234 193272394.3745575 0 0 0 0 -6920241.897654593 1500038.5061578825 0 1500038.5061578825 4265619.0593848377 0 0 0 0 -454998021.43112946 -95437692.633090973 0 -95437692.633090973 -9933923.4062805176 0 0 0 0 165537891.60153198 220155438.21985626 0 220155438.21985626 143425441.2202034 0 0 0 0 33712638.390640259 136853634.65464115 0 136853634.65464115 274553045.92276001 0 0 0 0 34517436.6537323 147021633.02860308 0 147021633.02860308 125670536.6140213 0 0 0 0 49276960.666099548 244269764.06877851 0 244269764.06877851 294475877.32912064 0 0 0 0 153646880.14309692 495382759.0731926 0 495382759.0731926 211963581.15238142 0 0 0 0 -109266734.90716553 496097314.41052055 0 496097314.41052055 136080911.54286957 0 0 0 0 55941326.332923889 256315551.42595387 0 256315551.42595387 -120931028.75856781 0 0 0 0 -486393398.42053223 411457195.73099327 0 411457195.73099327 185432749.82436371 0 0 0 0 -154454934.92520142 66316180.985149384 0 66316180.985149384 100464285.34152603 0 0 0 0 72687195.161914349 357985826.33657479 0 357985826.33657479 189565376.96578217 0 0 0 0 -2426443.278592214 481515.26207833737 0 481515.26207833737 1591386.3753381725 0 0 0 0 -137941176.00958252 117635334.42762375 0 117635334.42762375 325914795.3836441 0 0 0 0 -462595989.12580872 475043048.02197075 0 475043048.02197075 -29902860.860626221 0 0 0 0 504734956.32843018 75315835.099781036 0 75315835.099781036 -90215887.706031799 0 0 0 0 109658219.86398315 6054233.8976097107 0 6054233.8976097107 34929317.332992554 0 0 0 0 16938711.993835449 182989399.22273445 0 182989399.22273445 -140448005.76177979 0 0 0 0 -210228068.34008789 -39362343.953887939 0 -39362343.953887939 -138004448.63797569 0 0 0 0 -587651310.51638794 256716318.87449265 0 256716318.87449265 23475618.465759277 0 0 0 0 -178132528.84738159 211588035.73657227 0 211588035.73657227 -110917477.92471313 0 0 0 0 1347660.4623016119 2531399.3047129959 0 2531399.3047129959 1550483.4570280537 0 0 0 0 47517769.32208252 50091673.661308289 0 50091673.661308289 -30320483.000320435 0 0 0 0 169261309.98834229 379353.5075378418 0 379353.5075378418 -14750950.485074997 0 0 0 0 41427285.751037598 8914993.1227855682 0 8914993.1227855682 47133802.296543121 0 0 0 0 129958600.0362854 69266939.901088715 0 69266939.901088715 7530645.9770584106 0 0 0 0 67435797.101745605 -28131178.272872925 0 -28131178.272872925 -42616384.464355469 0 0 0 0 204675639.95220947 35547453.120376587 0 35547453.120376587 -37417119.824583054 0 0 0 0 349738177.4090271 144155437.66461945 0 144155437.66461945 15467295.30091095 0 0 0 0 164380032.07440186 14490357.90071106 0 14490357.90071106 25067982.881000519 0 0 0 0 155202964.24169922 62321367.228417397 0 62321367.228417397 99090685.933815002 0 0 0 0 209198587.60635376 177295605.02148819 0 177295605.02148819 36948186.985380173 0 0 0 0 -6254783.7630812228 7059800.4474218562 0 7059800.4474218562 5319481.144474715 0 0 0 0 -9344111.5923919678 12863100.425873578 0 12863100.425873578 10539543.051813126 0 0 0 0 -33862297.021577418 33984438.033711627 0 33984438.033711627 15544560.827924868 0 0 0 0 -46795400.038585104 40086820.872431621 0 40086820.872431621 30049973.29345794 0 0 0 0 5944725.9352686033 18097080.86030712 0 18097080.86030712 9786317.8110105246 0 0 0 0 359749051.72412109 116378820.30789185 0 116378820.30789185 -28942770.389770508 0 0 0 0 426507637.08447266 56693841.297855377 0 56693841.297855377 24175474.75541687 0 0 0 0 15994531.139678955 30222135.809798479 0 30222135.809798479 17105312.182394028 0 0 0 0 338278608.70922852 137363332.66781998 0 137363332.66781998 -79129704.132364273 0 0 0 0 328539096.11090088 115557365.24230194 0 115557365.24230194 78868359.561546326 0 0 0 0 36508716.818847656 32967631.680847168 0 32967631.680847168 16682224.223968506 0 0 0 0 566352088.19790649 328845793.30970764 0 328845793.30970764 16364329.840118408 0 0 0 0 -27042196.61221607 38396839.215322852 0 38396839.215322852 12755681.004151318 0 0 0 0 1488357.4757689685 36277168.623716541 0 36277168.623716541 -5176786.7626360916 0 0 0 0 -36895931.589675903 28518526.945224762 0 28518526.945224762 -25638023.604171753 0 0 0 0 -30093677.637590345 16941856.885062046 0 16941856.885062046 12833201.491704434 0 0 0 0 51155187.450271606 383031463.27489853 0 383031463.27489853 704638119.16946793 0 0 0 0 -64167450.54800415 355319652.34321976 0 355319652.34321976 933163642.69838333 0 0 0 0 298117731.55206299 1038111731.9915199 0 1038111731.9915199 2014378196.5193939 0 0 0 0 1963652557.8262329 246853077.48739052 0 246853077.48739052 665473499.40415955 0 0 0 0 -58380831.149749756 -235261864.72674561 0 -235261864.72674561 989179417.34980774 0 0 0 0 -797472.46732369065 3067155.5823622942 0 3067155.5823622942 1941742.9771306366 0 0 0 0 1926772730.4261322 361968560.1498642 0 361968560.1498642 62093265.669189453 0 0 0 0 91313.580686226487 1239341.9388903379 0 1239341.9388903379 -330382.32743273489 0 0 0 0 -7589349.7854393721 2711290.4240782438 0 2711290.4240782438 2818191.2759542577 0 0 0 0 -4044557.6847839355 10518197.749801636 0 10518197.749801636 7638899.6519203186 0 0 0 0 232423919.00325012 -111766211.10538673 0 -111766211.10538673 -57942191.851856232 0 0 0 0 56888805.158233643 125658714.00642967 0 125658714.00642967 249112840.2030344 0 0 0 0 -7914512.1853344589 2749668.1850937735 0 2749668.1850937735 1759662.883771806 0 0 0 0 -3974453.7279663086 25815890.84185791 0 25815890.84185791 36271416.120506287 0 0 0 0 -8773689.3509175032 2552535.1969574746 0 2552535.1969574746 1616527.781889488 0 0 0 0 -135135975.8302002 28851693.304084778 0 28851693.304084778 34486856.191955566 0 0 0 0 63548459.267242432 44203315.587997437 0 44203315.587997437 101700672.27996826 0 0 0 0 -16246065.119995117 -25005608.410720825 0 -25005608.410720825 29168787.976074219 0 0 0 0 -1416209.8397827148 -30015341.657028198 0 -30015341.657028198 30562965.283607483 0 0 0 0 -1729129.4231554568 -73720.91014572978 0 -73720.91014572978 977088.76610109955 0 0 0 0 32796826.510681152 2746373.5525131226 0 2746373.5525131226 15106588.733131409 0 0 0 0 -12241134.402923584 34968759.141345978 0 34968759.141345978 285095796.9621582 0 0 0 0 60094096.277404785 191157247.10422134 0 191157247.10422134 344657493.53600883 0 0 0 0 51944200.961700439 91945464.54334259 0 91945464.54334259 215212009.53829956 0 0 0 0 -80038795.347724915 133158399.65617573 0 133158399.65617573 431206423.32963181 0 0 0 0 206896369.89752197 465054127.6848011 0 465054127.6848011 605948739.72652435 0 0 0 0 141813248.0083313 314827692.09344292 0 314827692.09344292 391938198.52052879 0 0 0 0 140210690.57245636 197453866.28234434 0 197453866.28234434 289984860.33834076 0 0 0 0 441191158.112854 237336180.41983604 0 237336180.41983604 353272420.54336166 0 0 0 0 615640476.935215 670182961.63971758 0 670182961.63971758 354606032.91398621 0 0 0 0 231500039.40786743 834495859.03390598 0 834495859.03390598 369235791.46442986 0 0 0 0 217126179.22712708 791341245.03733253 0 791341245.03733253 862693234.0532074 0 0 0 0 161478932.97119141 622439859.73451424 0 622439859.73451424 362150472.10096741 0 0 0 0 737819717.15003967 647673012.15868855 0 647673012.15868855 263828416.92561722 0 0 0 0 474780318.54226685 568375620.25239944 0 568375620.25239944 604014891.62575626 0 0 0 0 463467779.66888428 118795777.5197258 0 118795777.5197258 -529022922.78461075 0 0 0 0 -148896945.61206055 295267000.70772552 0 295267000.70772552 236747628.87472808 0 0 0 0 3953740.1861895025 -1538756.2509143539 0 -1538756.2509143539 -1072742.1123285107 0 0 0 0 -42448505.309776306 50029410.897418022 0 50029410.897418022 -38054889.474002838 0 0 0 0 61988011.303436279 412188725.67745018 0 412188725.67745018 -656258964.99382973 0 0 0 0 -60147282.379302979 -4375403.1511554718 0 -4375403.1511554718 24091370.848419189 0 0 0 0 -1869522.6984884888 -1102703.5799645018 0 -1102703.5799645018 2110236.5893487348 0 0 0 0 906075.2658996582 1861881.6810073853 0 1861881.6810073853 18282615.27216959 0 0 0 0 261420328.87275696 124098858.42668819 0 124098858.42668819 57260427.004365921 0 0 0 0 -21582414.24118042 -51478164.843138695 0 -51478164.843138695 80682374.749889374 0 0 0 0 -84741097.503250122 25167696.929512978 0 25167696.929512978 90057993.532527924 0 0 0 0 389408399.4977417 -29777423.523870468 0 -29777423.523870468 -88057528.563450813 0 0 0 0 1924268.372106865 -785285.40006885678 0 -785285.40006885678 -599481.03009209223 0 0 0 0 796074587.28193665 439314306.06284904 0 439314306.06284904 100298950.82236862 0 0 0 0 310830805.90570068 609824196.7373867 0 609824196.7373867 564202750.89762402 0 0 0 0 199925255.64660645 425197943.9285574 0 425197943.9285574 266629932.32582092 0 0 0 0 234234367.30337524 523349598.63640976 0 523349598.63640976 313453457.30410767 0 0 0 0 313924331.15107727 428267463.69953918 0 428267463.69953918 418326555.59864616 0 0 0 0 205694125.37744141 161154174.39208603 0 161154174.39208603 57372836.753181458 0 0 0 0 -1248542.9290725142 -1480423.508212463 0 -1480423.508212463 1436902.755230011 0 0 0 0 43910949.767852783 91517308.501833916 0 91517308.501833916 -156548908.19896364 0 0 0 0 -590391.48451669514 -925235.36913977005 0 -925235.36913977005 681293.83826226834 0 0 0 0 32189090.339046478 19026300.810210466 0 19026300.810210466 -507498697.2641468 0 0 0 0 154725092.40605164 567138257.20183372 0 567138257.20183372 657331188.71711922 0 0 0 0 -40693124.75769043 313773239.92437649 0 313773239.92437649 -264004379.85548019 0 0 0 0 75865417.719512939 234282702.56189156 0 234282702.56189156 -50586422.386059284 0 0 0 0 28036545.482948303 234807885.80217123 0 234807885.80217123 199689001.27384186 0 0 0 0 65443535.336257935 192974254.42077923 0 192974254.42077923 117148878.50050926 0 0 0 0 6367669.6258354187 150607588.64701009 0 150607588.64701009 173030213.0069046 0 0 0 0 -19958087.793701172 60427896.392332077 0 60427896.392332077 6914836.091047287 0 0 0 0 7319696.8746034056 7647470.8257216886 0 7647470.8257216886 3314115.7511430066 0 0 0 0 114213087.28240204 70179107.882197678 0 70179107.882197678 22697563.366127014 0 0 0 0 119980143.55213928 64814496.466906548 0 64814496.466906548 27668545.781158447 0 0 0 0 113597804.05468082 37354424.419887125 0 37354424.419887125 19143265.35308075 0 0 0 0 -46140067.708174229 22413482.389142819 0 22413482.389142819 16894083.721792944 0 0 0 0 134568559.84857178 38639085.247272491 0 38639085.247272491 19183824.308956146 0 0 0 0 263460266.48698425 292444411.02699089 0 292444411.02699089 170482164.49940872 0 0 0 0 259245062.53479004 343021090.24975967 0 343021090.24975967 138076385.42045212 0 0 0 0 143270366.56704712 522206884.3144722 0 522206884.3144722 157160123.66212368 0 0 0 0 18985488.448516846 406775058.80285358 0 406775058.80285358 283503549.76267242 0 0 0 0 -264500535.52304077 211334313.54841518 0 211334313.54841518 235465259.08761597 0 0 0 0 121063930.20654297 256165030.38404655 0 256165030.38404655 235700343.7514801 0 0 0 0 87825809.277832031 461187245.3132267 0 461187245.3132267 269152402.81624794 0 0 0 0 6128770.6099243164 371804934.48091221 0 371804934.48091221 253344833.9593277 0 0 0 0 180800423.05865479 611640026.98218155 0 611640026.98218155 366671093.5121336 0 0 0 0 142428516.90727234 408460214.18273926 0 408460214.18273926 309644797.02916718 0 0 0 0 20955843.98261261 396401664.96544766 0 396401664.96544766 54210352.11372757 0 0 0 0 8731863.140827179 431929440.58357024 0 431929440.58357024 -25233235.721761703 0 0 0 0 268236088.77523804 471932290.70072079 0 471932290.70072079 -9078080.646935463 0 0 0 0 275895322.98925781 398186656.06314754 0 398186656.06314754 -1586872.5041737556 0 0 0 0 224858723.7612915 412572810.66936493 0 412572810.66936493 14747994.959100723 0 0 0 0 213706282.89945984 394588447.12762976 0 394588447.12762976 101574382.05975342 0 0 0 0 421853130.80609131 389003960.24154186 0 389003960.24154186 -14480744.336780548 0 0 0 0 397324627.25809097 271153301.32719517 0 271153301.32719517 -9767628.6798324585 0 0 0 0 744052411.59820557 224951631.52305889 0 224951631.52305889 -139961165.27565861 0 0 0 0 469411482.00723267 232800303.71254349 0 232800303.71254349 -101731411.64952183 0 0 0 0 498735350.49941635 117949187.27697897 0 117949187.27697897 21602536.613723755 0 0 0 0 279261997.85993958 11467641.171305656 0 11467641.171305656 -15247452.97923851 0 0 0 0 346115571.89474106 154005298.79272628 0 154005298.79272628 13259886.926858902 0 0 0 0 371095415.33624268 236736604.42070198 0 236736604.42070198 78585025.291593552 0 0 0 0 21952626.970443517 14062828.38190721 0 14062828.38190721 2987810.3670701832 0 0 0 0 2721671.355458308 12267279.401215799 0 12267279.401215799 -2633742.7808288084 0 0 0 0 -8994501.0028256178 17487461.253827453 0 17487461.253827453 23969828.653401904 0 0 0 0 -185420738.74014282 110182941.18633652 0 110182941.18633652 111279797.75315094 0 0 0 0 -15755294.261230469 12540654.492378235 0 12540654.492378235 -6078272.3571166992 0 0 0 0 777725497.10224915 51073839.892196536 0 51073839.892196536 332916064.88387299 0 0 0 0 -107917572.23672485 -86722537.893676758 0 -86722537.893676758 -539932833.85113525 0 0 0 0 12719568.438616585 5345598.1139589176 0 5345598.1139589176 -11751721.102347108 0 0 0 0 1751039240.1914978 -100679736.14684558 0 -100679736.14684558 -237340109.31731582 0 0 0 0 1966952386.6890259 302866597.92942095 0 302866597.92942095 -22477344.193790436 0 0 0 0 861405180.96035767 -957988389.92459393 0 -957988389.92459393 1323747108.7913694 0 0 0 0 1078026031.2832756 -86736385.057411909 0 -86736385.057411909 -193691587.6031189 0 0 0 0 11875299.654944733 11324812.282162063 0 11324812.282162063 -20175433.865529872 0 0 0 0 739324909.85116005 -129027859.65070224 0 -129027859.65070224 -192917266.21181107 0 0 0 0 704568544.67809105 206983476.46942341 0 206983476.46942341 -123675220.72464752 0 0 0 0 1036018265.097744 272029279.91785288 0 272029279.91785288 -112286673.1532402 0 0 0 0 1207548513.5891113 164658885.45341873 0 164658885.45341873 -47033894.917768478 0 0 0 0 906529988.71865845 707080115.99120808 0 707080115.99120808 237576760.7084465 0 0 0 0 663340339.78813171 437670083.81224871 0 437670083.81224871 -17049605.1685009 0 0 0 0 562018366.02805328 541354405.81083035 0 541354405.81083035 -31766920.360099792 0 0 0 0 3120508.3019293547 -775416.53710604832 0 -775416.53710604832 -460545.02196831012 0 0 0 0 1898203111.1751709 -224025289.18332911 0 -224025289.18332911 -1742447862.6674879 0 0 0 0 539466275.07247925 743328670.33883333 0 743328670.33883333 655994481.51020813 0 0 0 0 1514832362.6841431 794919196.50279045 0 794919196.50279045 250116116.19152641 0 0 0 0 9448978.4170227051 480219047.01387453 0 480219047.01387453 557126485.39231873 0 0 0 0 -59061218.841598511 121061821.06099987 0 121061821.06099987 -99182460.417404175 0 0 0 0 -86483233.022575378 224151860.22677982 0 224151860.22677982 -129136116.83023071 0 0 0 0 -23508580.000091553 435376570.47731018 0 435376570.47731018 149154776.42889977 0 0 0 0 -2266254.2323150635 260852168.39369082 0 260852168.39369082 -454184334.80053234 0 0 0 0 5043209.7306685597 -283571.86653994769 0 -283571.86653994769 -527453.81081162835 0 0 0 0 455098067.01573181 1219104289.8039594 0 1219104289.8039594 -772904915.07139635 0 0 0 0 97880812.264022827 691475024.22756016 0 691475024.22756016 -32998869.383423805 0 0 0 0 15032609.840301514 1287856888.0481458 0 1287856888.0481458 975447070.89620852 0 0 0 0 571283665.89849854 831593929.88698578 0 831593929.88698578 1065841161.7827184 0 0 0 0 1193460130.5448151 315292418.8061797 0 315292418.8061797 224870981.40552241 0 0 0 0 1848732440.2164917 391113134.43297005 0 391113134.43297005 1269402808.149096 0 0 0 0 2057013901.554718 1004558099.6802762 0 1004558099.6802762 774523503.5414629 0 0 0 0 -607157169.46699524 561161118.67591691 0 561161118.67591691 194069626.64736485 0 0 0 0 1377889862.7471924 -814147244.95704651 0 -814147244.95704651 -1141011653.6902721 0 0 0 0 1640159496.8039551 -304135526.84105515 0 -304135526.84105515 139606488.4396944 0 0 0 0 2063939763.6177979 -50820815.81447795 0 -50820815.81447795 -464620379.78617191 0 0 0 0 2592106487.2373962 -782013875.64055681 0 -782013875.64055681 81633247.206300735 0 0 0 0 -220241.28176498413 3284251.5402069166 0 3284251.5402069166 6154480.6811231561 0 0 0 0 4583377318.4394226 -223713504.93152857 0 -223713504.93152857 589858054.89462471 0 0 0 0 2385767681.3891602 -449379184.53946877 0 -449379184.53946877 -347981764.99774599 0 0 0 0 2248561099.5465088 -1064725525.58067 0 -1064725525.58067 628459191.80710125 0 0 0 0 1894246695.5146179 -693888057.99989867 0 -693888057.99989867 593320668.49178076 0 0 0 0 465198576.6578064 -718584517.26536846 0 -718584517.26536846 1033159442.3310585 0 0 0 0 173900580.39578247 -749786402.23981667 0 -749786402.23981667 -545182351.67762232 0 0 0 0 -5869556.8326566443 1161253.1043001711 0 1161253.1043001711 466904.41800626367 0 0 0 0 286290574.69348145 -691532104.64932632 0 -691532104.64932632 1645570253.6472511 0 0 0 0 84774756.320007324 -294830821.86008835 0 -294830821.86008835 617586158.70133972 0 0 0 0 169726758.98150635 -587971095.48050117 0 -587971095.48050117 1115440063.1041946 0 0 0 0 274263255.92324829 -481131620.27058792 0 -481131620.27058792 838669861.10430908 0 0 0 0 425773654.22705078 -639621380.51834869 0 -639621380.51834869 644883845.86837769 0 0 0 0 423327967.25366211 -427855641.69628525 0 -427855641.69628525 112206365.87447357 0 0 0 0 565323604.45544434 -584034278.59867477 0 -584034278.59867477 28108180.26134491 0 0 0 0 485074744.32769775 -693518066.05091095 0 -693518066.05091095 268552701.17713928 0 0 0 0 11307853.873049825 13066374.465372466 0 13066374.465372466 -8386005.0371804107 0 0 0 0 -429588468.87063599 373161168.85871887 0 373161168.85871887 267452502.48419189 0 0 0 0 -55331879.515522003 1935417.9288673401 0 1935417.9288673401 12177531.49405098 0 0 0 0 1661271168.4472046 -406294713.57085919 0 -406294713.57085919 -744815689.50611115 0 0 0 0 -2092149.3066156209 10686274.295670934 0 10686274.295670934 16297929.879097413 0 0 0 0 302394546.8765564 728994932.96375465 0 728994932.96375465 -61110032.857648849 0 0 0 0 370320654.67179871 795729544.13349748 0 795729544.13349748 152906229.76988244 0 0 0 0 -46672029.767059326 694483032.69327974 0 694483032.69327974 1002412415.7194099 0 0 0 0 -101926960.03374481 505446997.50340867 0 505446997.50340867 431609893.43878174 0 0 0 0 32331523.897323608 424701575.19861746 0 424701575.19861746 431565036.05923271 0 0 0 0 177627828.88848877 430489931.82390118 0 430489931.82390118 148010991.04872131 0 0 0 0 86507640.833435059 285773105.84706187 0 285773105.84706187 -6625384.0563087463 0 0 0 0 -6782735.2683258057 298848419.11069441 0 298848419.11069441 52339629.113302231 0 0 0 0 -20531459.373157501 236309445.09307456 0 236309445.09307456 -134916832.63391304 0 0 0 0 -135620467.48558044 158437377.9302218 0 158437377.9302218 -187383103.72416782 0 0 0 0 -173704249.26275635 246184117.19157648 0 246184117.19157648 -125961570.18938971 0 0 0 0 257310470.32313538 433559658.94473863 0 433559658.94473863 -924331550.26556158 0 0 0 0 2055584.0579409301 -149714.67633375153 0 -149714.67633375153 -150201.16417603602 0 0 0 0 -348865895.65280151 1088717820.7146926 0 1088717820.7146926 1912952738.5752187 0 0 0 0 -168890170.39015198 975129313.58589518 0 975129313.58589518 917257173.30051827 0 0 0 0 -103896553.1333313 1006326882.9626958 0 1006326882.9626958 929673274.0816021 0 0 0 0 250575939.1403656 754259514.70372438 0 754259514.70372438 741573536.27025342 0 0 0 0 -289264721.81970215 241506909.02993107 0 241506909.02993107 914790395.10093498 0 0 0 0 -133356851.86556244 203614613.47183305 0 203614613.47183305 543087837.73998785 0 0 0 0 641411.98239135742 251038239.64105415 0 251038239.64105415 420194699.55527717 0 0 0 0 273576383.90060425 283651317.07356554 0 283651317.07356554 415053759.14716196 0 0 0 0 106736982.35627747 341318615.90398788 0 341318615.90398788 472332339.82757854 0 0 0 0 -81161293.119346619 266599193.15385616 0 266599193.15385616 607678669.33121777 0 0 0 0 -9669250.9013061523 404865366.18744946 0 404865366.18744946 467514311.75339127 0 0 0 0 -57425666.767852783 416996662.85499716 0 416996662.85499716 606693040.51521564 0 0 0 0 3292869.9413986206 379561513.97462881 0 379561513.97462881 462449384.80029583 0 0 0 0 612636.26847839355 355370974.29546738 0 355370974.29546738 468924092.95235252 0 0 0 0 5766373.3014221191 362412368.25788021 0 362412368.25788021 473068655.77096117 0 0 0 0 20284002.843986511 391097448.59731102 0 391097448.59731102 352535030.67051125 0 0 0 0 75893179.536819458 490266127.19584036 0 490266127.19584036 627536478.7000351 0 0 0 0 13697961.667572021 360388079.36509228 0 360388079.36509228 613503312.3054285 0 0 0 0 36131718.825042725 358545716.85216808 0 358545716.85216808 687724392.37420225 0 0 0 0 9712763.8309173584 375283729.09105015 0 375283729.09105015 563238913.09204483 0 0 0 0 -2648856.1924438477 349024159.76483536 0 349024159.76483536 512323271.39734924 0 0 0 0 39659811.710083008 422032361.41387749 0 422032361.41387749 511799089.13550085 0 0 0 0 48062223.555343628 409951801.7243185 0 409951801.7243185 468901972.34567308 0 0 0 0 68385174.894989014 462966059.40962601 0 462966059.40962601 530983303.85078716 0 0 0 0 117871055.93218994 373482753.65471792 0 373482753.65471792 320272323.12674141 0 0 0 0 57712859.338241577 432132694.62360573 0 432132694.62360573 453594256.0752182 0 0 0 0 90852534.606292725 387235045.32053947 0 387235045.32053947 344915521.48694658 0 0 0 0 -9296183.0871734619 262332004.79652196 0 262332004.79652196 469978449.09544998 0 0 0 0 29747299.680465698 172422785.4300209 0 172422785.4300209 142459051.70281377 0 0 0 0 167793234.51974487 244757422.34149075 0 244757422.34149075 101355557.1281743 0 0 0 0 121311734.14334869 137930615.07840979 0 137930615.07840979 107583116.6680212 0 0 0 0 154433963.28033447 207773972.39845705 0 207773972.39845705 141122581.50775719 0 0 0 0 237529182.61763 191977300.22970223 0 191977300.22970223 129693303.65987778 0 0 0 0 202765638.98088074 284515985.30019891 0 284515985.30019891 261314722.02037621 0 0 0 0 80415927.78302002 337726410.19224453 0 337726410.19224453 347246601.52652645 0 0 0 0 67672797.12979126 384663284.61580753 0 384663284.61580753 319565518.20774889 0 0 0 0 31842706.741638184 349872744.41363335 0 349872744.41363335 346542403.15165901 0 0 0 0 -2488632.7700805664 9011539.2164547443 0 9011539.2164547443 584213.06104749441 0 0 0 0 262193900.3263855 115130303.04557419 0 115130303.04557419 111368908.225811 0 0 0 0 435794559.7880249 49675861.329169273 0 49675861.329169273 76792480.783922195 0 0 0 0 283288290.97714233 141486271.45201349 0 141486271.45201349 -75757492.199853659 0 0 0 0 292325777.88787842 179640387.14942169 0 179640387.14942169 117755688.85877514 0 0 0 0 421276786.78778076 180714537.09784603 0 180714537.09784603 104393212.15857506 0 0 0 0 289669517.17531586 135291245.40963736 0 135291245.40963736 88871911.369487762 0 0 0 0 -232619720.95542908 62191016.107688904 0 62191016.107688904 -9218821.657289505 0 0 0 0 571012425.7749176 175413501.48665905 0 175413501.48665905 -38864411.510442734 0 0 0 0 -503563.02055358887 423091719.36416864 0 423091719.36416864 -276584141.07208633 0 0 0 0 -687211.0648676753 2075505.1738995686 0 2075505.1738995686 104311.26892122533 0 0 0 0 421337468.4543457 295263779.64852047 0 295263779.64852047 -125600027.38360977 0 0 0 0 183943758.86029053 386951372.81879902 0 386951372.81879902 199218131.83829844 0 0 0 0 -242743211.52346802 391143222.97521973 0 391143222.97521973 199382901.19924164 0 0 0 0 142394870.72299194 572584283.31018066 0 572584283.31018066 -142105260.61404991 0 0 0 0 168081098.21841431 558226086.32732868 0 558226086.32732868 226802694.56137973 0 0 0 0 300933350.29541016 331161196.44550896 0 331161196.44550896 224205631.92473787 0 0 0 0 362110888.86784744 266157192.23955429 0 266157192.23955429 2102783.6995429993 0 0 0 0 355959986.95776367 301032209.17929935 0 301032209.17929935 206451478.81856728 0 0 0 0 363338456.88143921 476790368.78687906 0 476790368.78687906 297203055.59181786 0 0 0 0 242225479.02005768 369779887.74225855 0 369779887.74225855 568452603.19594955 0 0 0 0 468980122.35302734 395209085.83711815 0 395209085.83711815 569174699.09796667 0 0 0 0 297162.76776123047 441788217.3099699 0 441788217.3099699 711439281.163908 0 0 0 0 213176966.39584351 452171197.23813629 0 452171197.23813629 418404480.35196972 0 0 0 0 189600059.55569458 423667756.68226337 0 423667756.68226337 443170403.33859634 0 0 0 0 171018209.88792419 383228576.65963078 0 383228576.65963078 402841131.86239433 0 0 0 0 295956839.06622314 332182473.94664192 0 332182473.94664192 242134573.10225725 0 0 0 0 277483815.11053467 301594923.5766964 0 301594923.5766964 264053836.83420753 0 0 0 0 290021984.46633911 460842979.34546089 0 460842979.34546089 408237486.50683534 0 0 0 0 339790785.82247925 379096591.97205067 0 379096591.97205067 642227518.64500761 0 0 0 0 253383869.96697998 458183456.26338482 0 458183456.26338482 626673796.77724075 0 0 0 0 338735586.68395996 511018862.47170639 0 511018862.47170639 626119505.74887514 0 0 0 0 194410388.48522949 467373014.53624535 0 467373014.53624535 619023224.42434692 0 0 0 0 75109140.749359131 481284139.7331543 0 481284139.7331543 1061859113.0170631 0 0 0 0 33651368.783462524 279310114.30391788 0 279310114.30391788 2257679107.7211189 0 0 0 0 2443595.3840425014 -579227.57260302082 0 -579227.57260302082 -391479.04619801603 0 0 0 0 42405568.198509216 131150077.34446478 0 131150077.34446478 877958139.13629913 0 0 0 0 -3566816.8193206787 103099658.7233057 0 103099658.7233057 975607836.40044689 0 0 0 0 5730344.5949249268 329781098.31261063 0 329781098.31261063 1013985077.2625027 0 0 0 0 245662837.1542511 461902526.38981342 0 461902526.38981342 958637678.03329277 0 0 0 0 652098495.96984863 667873042.82455635 0 667873042.82455635 1016102805.8666506 0 0 0 0 433622835.31887817 168890117.83153343 0 168890117.83153343 1041756425.5713122 0 0 0 0 -290361.89436340332 274601710.46296978 0 274601710.46296978 1369742692.8779221 0 0 0 0 373112334.80319214 754994814.72872734 0 754994814.72872734 820876950.83127213 0 0 0 0 552484142.33992386 313533734.18382549 0 313533734.18382549 -2192956.0020980835 0 0 0 0 279953706.78171539 59571666.028154373 0 59571666.028154373 36437261.124507904 0 0 0 0 -1122227.6016448438 -1928059.4933076007 0 -1928059.4933076007 1439975.3235275522 0 0 0 0 10490196.599472046 205505714.40643215 0 205505714.40643215 482223493.07090759 0 0 0 0 514612.60543823242 111918255.88163471 0 111918255.88163471 145659851.36284351 0 0 0 0 5863223.9750978649 -9629.8568181544542 0 -9629.8568181544542 -506487.94112416357 0 0 0 0 34408205.183654785 -19053308.306396484 0 -19053308.306396484 -6152836.0378570557 0 0 0 0 -65869719.608558655 83430315.56402874 0 83430315.56402874 -61428263.759944916 0 0 0 0 281107125.69549561 49547731.266891479 0 49547731.266891479 -193350984.84470558 0 0 0 0 -120762103.01184082 8722201.1916370392 0 8722201.1916370392 105226645.66086578 0 0 0 0 20190832.501251221 81764464.817016602 0 81764464.817016602 218572118.84324074 0 0 0 0 -13186147.727722168 -51921053.330038071 0 -51921053.330038071 73263347.801803589 0 0 0 0 29424052.820968628 19759278.474867821 0 19759278.474867821 -24200539.244335175 0 0 0 0 -78809496.551681519 -7070225.8635787964 0 -7070225.8635787964 52294673.59709549 0 0 0 0 -12275782.242126465 22955472.541599274 0 22955472.541599274 59472219.793754578 0 0 0 0 -2283891.4461883754 -2761803.5292665758 0 -2761803.5292665758 3202768.0450391788 0 0 0 0 18839243.873390198 28010606.192061424 0 28010606.192061424 2564185.3848686218 0 0 0 0 -1919501.2655229568 311480.10313205514 0 311480.10313205514 4224036.0379113052 0 0 0 0 -34818717.755004883 -164494078.87974167 0 -164494078.87974167 -348503516.72483063 0 0 0 0 -19591237.732849121 36744681.964212418 0 36744681.964212418 26958839.56187439 0 0 0 0 33394326.279968262 76444912.952095032 0 76444912.952095032 373061889.01223755 0 0 0 0 14181313.470703125 5241311.782409668 0 5241311.782409668 -4645082.8177032471 0 0 0 0 7625204.2002601475 2277521.7728599794 0 2277521.7728599794 64110.224606147036 0 0 0 0 -6448119.0010375977 57325659.95807457 0 57325659.95807457 404209771.17775345 0 0 0 0 -174372489.95385742 -28051996.084960938 0 -28051996.084960938 -238905994.86798859 0 0 0 0 -1581074.6629577726 -403172.62949626893 0 -403172.62949626893 4463463.9607220832 0 0 0 0 -277788.1494140625 317255.45701599121 0 317255.45701599121 2802569.1218719482 0 0 0 0 -5209532.0775108039 2676815.5472713821 0 2676815.5472713821 6333969.8466806337 0 0 0 0 -7216920.4198608398 -244499983.96709442 0 -244499983.96709442 -355725056.08309555 0 0 0 0 -175211378.03878784 -135210379.68623161 0 -135210379.68623161 -330024018.47749329 0 0 0 0 -69542386.575744629 -117418542.86460114 0 -117418542.86460114 -358298802.82244873 0 0 0 0 -60245512.216796875 -249217898.90737915 0 -249217898.90737915 -344550130.15762329 0 0 0 0 -158514001.43011475 -89452676.227096558 0 -89452676.227096558 -336127636.48034668 0 0 0 0 -8864489.3093669266 -1332405.2365571372 0 -1332405.2365571372 8189656.9528218899 0 0 0 0 -134004217.12756348 -137669567.47966003 0 -137669567.47966003 -354166206.70783997 0 0 0 0 -34646650.701965332 -160858321.23118973 0 -160858321.23118973 -313018798.32856274 0 0 0 0 -1084744.3798522949 -185047299.91424561 0 -185047299.91424561 -340567844.61251068 0 0 0 0 -60161506.872619629 -220070724.84089661 0 -220070724.84089661 -282439747.58740997 0 0 0 0 78096220.623596191 -173386960.74195862 0 -173386960.74195862 -318931226.60083008 0 0 0 0 100681491.72845459 91179198.716075897 0 91179198.716075897 -679572087.49122334 0 0 0 0 79750356.329650879 -209544125.77531052 0 -209544125.77531052 -304124822.20018768 0 0 0 0 188170241.92303467 -27801672.49206543 0 -27801672.49206543 -690984750.43332672 0 0 0 0 3212789.2433825731 -1059469.3447437175 0 -1059469.3447437175 -179302.56788808201 0 0 0 0 18832876.350830078 -64790237.77904892 0 -64790237.77904892 -431146735.09689331 0 0 0 0 164346718.6895752 -108352194.03120995 0 -108352194.03120995 -492142820.98407745 0 0 0 0 39733436.289978027 19590225.701004028 0 19590225.701004028 -520391825.5527029 0 0 0 0 -194155223.80419922 22898293.946609497 0 22898293.946609497 -353647526.64497757 0 0 0 0 -34417923.700073242 -47061479.468017578 0 -47061479.468017578 -416230193.92344666 0 0 0 0 -94541367.165771484 27982835.907646179 0 27982835.907646179 -480281411.25616837 0 0 0 0 -167170032.71484375 88706085.768959045 0 88706085.768959045 -435294308.97655487 0 0 0 0 52653581.912769318 -62743379.843029022 0 -62743379.843029022 -443731690.22034454 0 0 0 0 41049840.46673584 -180969554.37914848 0 -180969554.37914848 -531522376.9418869 0 0 0 0 77545115.780456543 -29178701.188644409 0 -29178701.188644409 -320807222.4081068 0 0 0 0 -4273114.8977241516 21768517.663036585 0 21768517.663036585 9568400.677022934 0 0 0 0 -87868.130004882812 4223092.6344871521 0 4223092.6344871521 15829318.831478119 0 0 0 0 9811930.8250427246 -19002403.755199432 0 -19002403.755199432 -1228462.0255241394 0 0 0 0 2437314.1165771484 4904703.3721199036 0 4904703.3721199036 15878107.96693325 0 0 0 0 -2248709.28321594 350346.02140256576 0 350346.02140256576 3111235.2023899015 0 0 0 0 1112080.8284912109 5068651.7496109009 0 5068651.7496109009 16583163.849593163 0 0 0 0 1173195.1266575605 2232606.1153027415 0 2232606.1153027415 1636729.372233009 0 0 0 0 -1419199.3651353568 300340.54946205765 0 300340.54946205765 4577527.8736231783 0 0 0 0 11085988.142852783 21843109.757446289 0 21843109.757446289 262525935.47676849 0 0 0 0 -19629629.917022705 149095953.91915894 0 149095953.91915894 477877111.27759552 0 0 0 0 38689038.379608154 170732953.15045929 0 170732953.15045929 315717241.4756918 0 0 0 0 57684926.34752655 216031967.09147835 0 216031967.09147835 402447473.20690918 0 0 0 0 27557283.235168457 222966333.09228325 0 222966333.09228325 406017053.76264191 0 0 0 0 -755703.1165869832 -36095.04671793431 0 -36095.04671793431 1759184.5078520048 0 0 0 0 22420172.929885864 241126476.79817009 0 241126476.79817009 386014943.11913681 0 0 0 0 51537591.685928345 225779908.37457705 0 225779908.37457705 368659375.46088409 0 0 0 0 46509427.108520508 243039992.20588875 0 243039992.20588875 343615546.1324892 0 0 0 0 -8292989.5102539062 235572209.23774815 0 235572209.23774815 469242325.56376076 0 0 0 0 8462072.2383422852 249287435.24437952 0 249287435.24437952 467575660.15991592 0 0 0 0 -37922218.432186127 232449269.77157807 0 232449269.77157807 559180847.69138336 0 0 0 0 -28024405.396911621 244934795.75990295 0 244934795.75990295 570771638.65152836 0 0 0 0 -51776506.591888428 257695241.09479523 0 257695241.09479523 867574449.42569542 0 0 0 0 31816899.759002686 375947415.44288492 0 375947415.44288492 617582517.48031616 0 0 0 0 -9928014.5741195679 42046409.519989967 0 42046409.519989967 587801754.96506119 0 0 0 0 22254827.906005859 39322662.135644913 0 39322662.135644913 408715871.36611557 0 0 0 0 -16936967.710723877 102443788.06001091 0 102443788.06001091 616046240.0470314 0 0 0 0 -11091446.32611084 131303387.35785103 0 131303387.35785103 397520712.21526456 0 0 0 0 331270460.4513998 -164091195.77512646 0 -164091195.77512646 -1281663612.8912201 0 0 0 0 117420082.33068085 45438681.958713531 0 45438681.958713531 -793807329.0655632 0 0 0 0 -2128376.7650685981 -360110.03912501037 0 -360110.03912501037 1742042.0087035242 0 0 0 0 -878377312.90655899 -756674397.26204872 0 -756674397.26204872 -790471577.98740959 0 0 0 0 -503249409.35509872 -1479816771.2525291 0 -1479816771.2525291 -1829219300.8075333 0 0 0 0 268120578.72859192 -108115179.17297363 0 -108115179.17297363 -1145605670.1267242 0 0 0 0 -61742633.593200684 -37330229.388656616 0 -37330229.388656616 -862579500.1268692 0 0 0 0 -111674765.80929422 -508575507.58240867 0 -508575507.58240867 -1138055245.9937973 0 0 0 0 115361652.14697266 -317620143.21971893 0 -317620143.21971893 -1557384546.0174503 0 0 0 0 44911390.882843018 61853048.124473572 0 61853048.124473572 -795847061.54893494 0 0 0 0 112171555.21133804 -299500060.43227005 0 -299500060.43227005 -521636032.47459412 0 0 0 0 109402669.18156433 217055482.42914581 0 217055482.42914581 -155097578.55086899 0 0 0 0 174798663.53968287 -165212448.93876266 0 -165212448.93876266 271402171.54558182 0 0 0 0 281091997.96385956 -199850065.99508286 0 -199850065.99508286 -980458914.28804016 0 0 0 0 -338199684.95300961 82420013.591495514 0 82420013.591495514 -30579076.009562492 0 0 0 0 827463020.36558151 243171496.33714676 0 243171496.33714676 -180247270.74266624 0 0 0 0 725476.61364078522 399120757.35164642 0 399120757.35164642 238288123.22554398 0 0 0 0 233698403.92598736 379881927.05725801 0 379881927.05725801 -835434656.37160873 0 0 0 0 80079541.073390007 665872923.11263847 0 665872923.11263847 -210836757.88285255 0 0 0 0 -864800.78967443295 3376827.3463978227 0 3376827.3463978227 370880.69616504386 0 0 0 0 1333091823.2658033 -196077503.15762901 0 -196077503.15762901 -1033713796.4729481 0 0 0 0 -121672367.82028389 -167743950.84453392 0 -167743950.84453392 -472671741.55108452 0 0 0 0 -187197126.01290798 -327105595.23633671 0 -327105595.23633671 -859713663.01841736 0 0 0 0 170921308.01749229 45834841.726726532 0 45834841.726726532 -877507642.1785872 0 0 0 0 -6938302.4697475433 -86427739.739582062 0 -86427739.739582062 -443377588.21029997 0 0 0 0 -3746982.1974364948 3303751.3437997568 0 3303751.3437997568 -675009.13264402468 0 0 0 0 -3453706.0770810656 1577970.9489726815 0 1577970.9489726815 3917827.5324755814 0 0 0 0 12414066.66302681 -164187154.19235384 0 -164187154.19235384 60955661.896853566 0 0 0 0 501562710.79691696 417643213.11256313 0 417643213.11256313 57330077.0835495 0 0 0 0 -3184528.9144065641 912276.36627844721 0 912276.36627844721 961951.34435564652 0 0 0 0 45129288.925956726 -522154393.77514172 0 -522154393.77514172 -1245330984.3816338 0 0 0 0 472583583.11698914 507242864.48843765 0 507242864.48843765 805041894.76209641 0 0 0 0 935038907.78656387 858215399.30327415 0 858215399.30327415 1070190278.4719906 0 0 0 0 1053812080.8548851 476771236.43089199 0 476771236.43089199 406207060.8578825 0 0 0 0 1462258258.9794426 1442274649.0384791 0 1442274649.0384791 770333763.02022576 0 0 0 0 972280855.18026733 853676131.66906548 0 853676131.66906548 791814160.48711753 0 0 0 0 720698339.03810883 519271897.34960431 0 519271897.34960431 828516379.37839484 0 0 0 0 -2376095215.6298857 -274966991.74429435 0 -274966991.74429435 428529295.07864857 0 0 0 0 848517645.277565 159566733.05896437 0 159566733.05896437 318487747.37752724 0 0 0 0 -3529210423.718832 1476380689.6371341 0 1476380689.6371341 -1754479832.3452339 0 0 0 0 -3006417.6237188652 1536483.4141747355 0 1536483.4141747355 2399985.8361773626 0 0 0 0 -2514025300.471756 1031909935.9969199 0 1031909935.9969199 -82363055.149997294 0 0 0 0 1482184667.8740692 552561062.69709969 0 552561062.69709969 -83233473.55320549 0 0 0 0 -2584992619.4852753 -1382954841.841135 0 -1382954841.841135 1716919668.3012543 0 0 0 0 -3832582235.7228775 331307438.62230492 0 331307438.62230492 479545103.84913826 0 0 0 0 1077770974.0075595 -1365901097.47123 0 -1365901097.47123 494954638.88779259 0 0 0 0 1247574031.6833267 1745061633.6591587 0 1745061633.6591587 -124912880.00588036 0 0 0 0 1172703510.4182091 677488258.61075783 0 677488258.61075783 585140760.77967834 0 0 0 0 1113876463.2295227 760074933.48733711 0 760074933.48733711 660726172.10964203 0 0 0 0 866155261.94044495 671872980.04550171 0 671872980.04550171 704099069.43235207 0 0 0 0 -6994235.6240735017 3749454.8244701652 0 3749454.8244701652 2760903.4092585128 0 0 0 0 1184387985.1934586 693922045.76194763 0 693922045.76194763 572637641.45508194 0 0 0 0 35775129.436903745 45159993.585767798 0 45159993.585767798 23870238.094509006 0 0 0 0 -67167763.269050598 263261942.79434252 0 263261942.79434252 -274111857.83005524 0 0 0 0 56885165.216436386 -1912798.1059338897 0 -1912798.1059338897 -123625351.18404007 0 0 0 0 -86839298.481369019 215234761.56631893 0 215234761.56631893 -383365076.61422741 0 0 0 0 -235609274.03960419 1051910865.8470099 0 1051910865.8470099 -1123355205.9363914 0 0 0 0 -371071446.7986145 538045388.44273114 0 538045388.44273114 -471348636.62266922 0 0 0 0 6400902.9200744927 6015325.0122677032 0 6015325.0122677032 659364.51447329763 0 0 0 0 12422374.849216461 -65225677.96950984 0 -65225677.96950984 127559727.48135662 0 0 0 0 328417860.10204315 483272407.92185259 0 483272407.92185259 -627509856.86011171 0 0 0 0 296995200.58157349 79073051.105565548 0 79073051.105565548 -382533560.57906485 0 0 0 0 -174407738.64219475 104233083.70148563 0 104233083.70148563 45551998.461540222 0 0 0 0 33783418.920729071 45069967.199813887 0 45069967.199813887 19502745.963825341 0 0 0 0 -164502545.209589 70957754.963312149 0 70957754.963312149 73698262.582649231 0 0 0 0 -138197147.48001099 52088677.758777618 0 52088677.758777618 85071897.922332764 0 0 0 0 -133111722.43360901 60482846.963722229 0 60482846.963722229 -7991943.7110519409 0 0 0 0 24259758.390359685 17223556.564361252 0 17223556.564361252 -1194648.7370976219 0 0 0 0 -1107957722.3868561 1697915053.4144135 0 1697915053.4144135 1276734868.2546997 0 0 0 0 93799057.518135071 29714069.861666679 0 29714069.861666679 175268030.91486883 0 0 0 0 119573800.58085632 45677468.976707458 0 45677468.976707458 -10291699.771400452 0 0 0 0 24701347.607824795 50243402.088507682 0 50243402.088507682 385703.43281291425 0 0 0 0 158088760.68250275 418199674.49288368 0 418199674.49288368 -818969104.13247108 0 0 0 0 -1152918714.7562485 -1103294705.3533974 0 -1103294705.3533974 -359003515.02435875 0 0 0 0 33588662.071615413 7778431.8681448735 0 7778431.8681448735 -761400.82902207598 0 0 0 0 -116333811.82139587 19473769.046413422 0 19473769.046413422 18825806.544523239 0 0 0 0 -126253488.16981506 9830228.8496303558 0 9830228.8496303558 33532373.42578125 0 0 0 0 -132019913.55981445 10939080.512119293 0 10939080.512119293 33922620.142402649 0 0 0 0 1432788327.2464218 1346245903.2012482 0 1346245903.2012482 725139458.59504318 0 0 0 0 73536823.184432983 -1506622868.7941284 0 -1506622868.7941284 -2706295734.9310684 0 0 0 0 2046271563.4960938 1164211416.5860596 0 1164211416.5860596 -225345311.13923645 0 0 0 0 1616213201.593399 848223652.96562195 0 848223652.96562195 -284320135.01994324 0 0 0 0 1026904015.2548141 660823573.35669708 0 660823573.35669708 -325065605.8934021 0 0 0 0 1950241280.1171417 77809788.109016418 0 77809788.109016418 -1224441371.622467 0 0 0 0 2375745345.5211334 721019734.64299011 0 721019734.64299011 -865370959.86712646 0 0 0 0 1049302997.7437668 514918935.00790787 0 514918935.00790787 -71960522.046150208 0 0 0 0 1526827742.2511978 1024296642.9051018 0 1024296642.9051018 454056163.45394897 0 0 0 0 1130838448.1360397 602078095.92674351 0 602078095.92674351 422093401.03751373 0 0 0 0 421653774.89700127 188848566.09719801 0 188848566.09719801 37630147.351638794 0 0 0 0 -1065134273.062233 1632417334.0925865 0 1632417334.0925865 774409738.6794939 0 0 0 0 397780403.56253052 322411941.08064651 0 322411941.08064651 -488941330.0491333 0 0 0 0 -5070657.4745944031 2161813.7886982355 0 2161813.7886982355 2437214.6118666474 0 0 0 0 910622607.66015625 674438756.85331726 0 674438756.85331726 25677041.352916718 0 0 0 0 452015700.57235718 321567768.62997437 0 321567768.62997437 410550892.83101654 0 0 0 0 353414523.62960815 604446862.72980499 0 604446862.72980499 -737103726.14564514 0 0 0 0 520655921.75094604 537639826.77387619 0 537639826.77387619 -508027919.99701786 0 0 0 0 790625757.70822144 412969868.03279114 0 412969868.03279114 -530449126.48543549 0 0 0 0 884446862.86002827 471396091.2900095 0 471396091.2900095 -1109843134.2116089 0 0 0 0 878810943.24179077 399370735.59918213 0 399370735.59918213 -775872394.50610352 0 0 0 0 12072411.765886413 5473885.1262521893 0 5473885.1262521893 -23853.534727849066 0 0 0 0 990031334.49829102 656621669.33562469 0 656621669.33562469 -1347142484.9287949 0 0 0 0 150907357.44032288 256092858.03833771 0 256092858.03833771 -940578720.55633545 0 0 0 0 513342099.37904549 444552934.28573608 0 444552934.28573608 -263059099.46363831 0 0 0 0 354387939.66516113 26757966.69852066 0 26757966.69852066 -1256704432.2167759 0 0 0 0 535851707.90907288 476336687.3423233 0 476336687.3423233 -918186657.60004425 0 0 0 0 572092304.3101387 312288707.19528008 0 312288707.19528008 -994127150.21934509 0 0 0 0 382044124.94288158 196459435.89904881 0 196459435.89904881 -1396337136.4002686 0 0 0 0 394676901.17281723 -85304766.273502588 0 -85304766.273502588 -1820804379.6599579 0 0 0 0 253934956.79089355 -188995209.93009949 0 -188995209.93009949 -2027881410.963028 0 0 0 0 207720488.65657043 268818918.81026459 0 268818918.81026459 -2274820954.2576294 0 0 0 0 560062652.05010986 -340831527.35417175 0 -340831527.35417175 -1203791773.5661774 0 0 0 0 -69394747.102340698 -1033967.2448806763 0 -1033967.2448806763 -1379113469.2871704 0 0 0 0 871013584.01641846 831360742.59889221 0 831360742.59889221 -988909984.84896088 0 0 0 0 147159634.08441925 -536120443.3757782 0 -536120443.3757782 -2126919067.891243 0 0 0 0 614007228.19410706 -206686976.33422089 0 -206686976.33422089 -3072962859.2523155 0 0 0 0 119653021.16989136 71954151.773422241 0 71954151.773422241 -1274639152.4746399 0 0 0 0 -113593346.81022644 -104355940.78940964 0 -104355940.78940964 -547617673.1776123 0 0 0 0 46896964.353271484 -46691232.622612 0 -46691232.622612 -1254354345.365427 0 0 0 0 18084391.463516235 90665106.180084229 0 90665106.180084229 -463673513.73086548 0 0 0 0 -35081114.681722641 106189096.03515339 0 106189096.03515339 -350624680.70698547 0 0 0 0 24744996.975105286 -73794749.654655457 0 -73794749.654655457 -544753939.97441101 0 0 0 0 49807477.656758308 -1478446.2918252945 0 -1478446.2918252945 -8327623.3540802002 0 0 0 0 12786621.286624908 -159567329.99194717 0 -159567329.99194717 86970905.125617981 0 0 0 0 134360147.31215668 -44334322.58549881 0 -44334322.58549881 -179834046.14337158 0 0 0 0 -21590009.753993988 -39716808.859958649 0 -39716808.859958649 -126819727.6083374 0 0 0 0 138328690.10407448 4661024.4818162918 0 4661024.4818162918 236346866.86862946 0 0 0 0 172071224.80110931 -175949234.1134758 0 -175949234.1134758 106396674.37995911 0 0 0 0 7510761.0470223268 33622357.706333369 0 33622357.706333369 22072615.844239369 0 0 0 0 6847666.4968109131 93109106.565338135 0 93109106.565338135 27461812.10005188 0 0 0 0 134325602.27510262 -88998651.569910049 0 -88998651.569910049 114814353.08457947 0 0 0 0 81491550.994445801 -44921189.350265503 0 -44921189.350265503 79351008.91381073 0 0 0 0 -89303115.455200195 -19745687.678100586 0 -19745687.678100586 -10814320.249101877 0 0 0 0 9729508.8342702501 2511610.2770693712 0 2511610.2770693712 -137627.06054572016 0 0 0 0 -106861690.89335632 -20065348.89201355 0 -20065348.89201355 -10795723.551010132 0 0 0 0 224641469.55594635 76530682.825458527 0 76530682.825458527 -3080504.7166395187 0 0 0 0 7802988.3347911835 86299213.450942993 0 86299213.450942993 55585221.95980835 0 0 0 0 3869468.4320020452 40280847.336464234 0 40280847.336464234 -21243153.771157462 0 0 0 0 175871029.0778389 -36966548.382573128 0 -36966548.382573128 -40086324.60546875 0 0 0 0 -206720498.64448166 118449528.06728935 0 118449528.06728935 -149757988.56363678 0 0 0 0 -173643287.81604004 454774368.31787872 0 454774368.31787872 104205374.61308861 0 0 0 0 -161426120.48880005 122143686.3046875 0 122143686.3046875 17148162.256332397 0 0 0 0 20576666.520355225 72008024.202354431 0 72008024.202354431 -166528769.81564331 0 0 0 0 31196168.58392334 139938875.8898468 0 139938875.8898468 -195730452.70023346 0 0 0 0 196794906.23156738 168740948.3605957 0 168740948.3605957 62709226.670654297 0 0 0 0 128350454.46090698 414770447.42987061 0 414770447.42987061 48090378.102508545 0 0 0 0 105700359.79552078 201079352.93426514 0 201079352.93426514 153674493.83583069 0 0 0 0 -6707756.3475722931 31416745.793293945 0 31416745.793293945 -21970777.868789867 0 0 0 0 245759356.89715576 360557129.71429443 0 360557129.71429443 444127387.50631714 0 0 0 0 1077573.1552286744 590157.48462160677 0 590157.48462160677 -1445121.6236607432 0 0 0 0 160738504.01178741 11652803.854364395 0 11652803.854364395 182233811.3956604 0 0 0 0 17144322.783752441 82737928.967704773 0 82737928.967704773 148605322.54145813 0 0 0 0 231228889.53591156 124670255.48932266 0 124670255.48932266 65385795.970214844 0 0 0 0 136666623.94543457 195549882.78070068 0 195549882.78070068 25672634.817489624 0 0 0 0 28528716.904899597 105184464.3114624 0 105184464.3114624 172411328.81404114 0 0 0 0 68226182.273614883 70389118.233976364 0 70389118.233976364 32524155.123275757 0 0 0 0 -15301785.596128464 85023279.734306335 0 85023279.734306335 116786568.75398254 0 0 0 0 -18414694.971820831 -8214792.9233398438 0 -8214792.9233398438 -35770829.535232544 0 0 0 0 -83340262.856479645 19061077.676269531 0 19061077.676269531 61871741.858383179 0 0 0 0 -55398910.10866189 -2169324.0711326599 0 -2169324.0711326599 77411973.0184021 0 0 0 0 -31515737.575959206 108756809.23058319 0 108756809.23058319 204339678.38536072 0 0 0 0 -40462924.238779068 167975231.15790558 0 167975231.15790558 221646114.85598755 0 0 0 0 -162665864.68424988 -71657054.018127441 0 -71657054.018127441 117164154.87315369 0 0 0 0 93619702.715332031 149790950.56795502 0 149790950.56795502 144663628.26470947 0 0 0 0 77380027.948188782 263961987.78908539 0 263961987.78908539 499201052.50805664 0 0 0 0 200996238.36985779 144119531.22665405 0 144119531.22665405 177596586.82385254 0 0 0 0 248202263.97900391 347079148.46563721 0 347079148.46563721 377048249.85992432 0 0 0 0 339723419.25358963 522534554.20402527 0 522534554.20402527 512716937.85229492 0 0 0 0 -3628599.1916946936 1123491.9567675628 0 1123491.9567675628 3859459.6793882549 0 0 0 0 8091776.7435054164 21311114.219059199 0 21311114.219059199 16663303.325872734 0 0 0 0 47711878.432739258 9134942.1167984009 0 9134942.1167984009 121946653.23126602 0 0 0 0 -52778620.835666656 17628722.191184998 0 17628722.191184998 40296679.801301956 0 0 0 0 -60996739.605532646 24751810.295604706 0 24751810.295604706 43110988.695831299 0 0 0 0 3843941.0493121557 10031888.055097548 0 10031888.055097548 3740616.327390559 0 0 0 0 -65840261.019462585 -27378496.9164505 0 -27378496.9164505 10356563.230407715 0 0 0 0 155458720.91539729 -170177790.7559433 0 -170177790.7559433 254767159.37709045 0 0 0 0 1905738.0531412396 8055015.0777267059 0 8055015.0777267059 13467830.367805012 0 0 0 0 824066743.81546783 336597471.97633362 0 336597471.97633362 184362446.72114563 0 0 0 0 1079990771.2780113 776052871.35115814 0 776052871.35115814 -57487318.011318207 0 0 0 0 9367330.4467924945 3102349.694715701 0 3102349.694715701 4332256.2311706096 0 0 0 0 1016101043.2550049 204577418.18160248 0 204577418.18160248 69261117.782505035 0 0 0 0 1915099106.6890125 884126726.34754944 0 884126726.34754944 740874376.4651947 0 0 0 0 2383584614.3229141 699776335.84421539 0 699776335.84421539 -122874925.09425354 0 0 0 0 -714990.05366767687 3604087.5479046144 0 3604087.5479046144 663438.82915840298 0 0 0 0 1437043824.1719246 1872197084.929451 0 1872197084.929451 783704743.88965607 0 0 0 0 582438487.12717295 97922624.772748947 0 97922624.772748947 1912470307.3566895 0 0 0 0 2324658.6868734788 215682.12906721234 0 215682.12906721234 2312974.9487650227 0 0 0 0 151621343.22993851 -397836817.22907257 0 -397836817.22907257 642855616.75876999 0 0 0 0 150235592.60157013 14897839.15379715 0 14897839.15379715 115385877.46146393 0 0 0 0 81404308.877882957 -60822965.1210289 0 -60822965.1210289 33126836.52154541 0 0 0 0 73909613.745743752 -53825921.993292809 0 -53825921.993292809 259260831.34028625 0 0 0 0 225878401.14393616 -154308951.063694 0 -154308951.063694 124329551.71545792 0 0 0 0 363657088.81631851 109459372.88234329 0 109459372.88234329 -45839449.66758728 0 0 0 0 1275699004.538269 -400429997.77851868 0 -400429997.77851868 -88776939.443695068 0 0 0 0 1468122121.4587712 68429150.568906784 0 68429150.568906784 -411106583.14601135 0 0 0 0 914000712.81546783 347538352.80915642 0 347538352.80915642 -476017955.3840332 0 0 0 0 773493246.14858627 -138755259.20837784 0 -138755259.20837784 -140231570.01579762 0 0 0 0 556311637.92002869 677766846.25572968 0 677766846.25572968 60685447.933538437 0 0 0 0 1262992385.4534702 568069839.62308121 0 568069839.62308121 -355738679.92195892 0 0 0 0 523211384.37125349 143448695.37969184 0 143448695.37969184 -273859683.02363586 0 0 0 0 -4109908.4714202881 -105026251.83174515 0 -105026251.83174515 -110669608.20958328 0 0 0 0 135484032.9753418 149521416.06215668 0 149521416.06215668 -192814422.20367432 0 0 0 0 -29286263.339073181 -124825345.2379837 0 -124825345.2379837 -358025703.22084045 0 0 0 0 194698597.01446915 57773282.113510132 0 57773282.113510132 -50662732.83240509 0 0 0 0 463412985.83762574 1068281744.5678911 0 1068281744.5678911 884932004.22634125 0 0 0 0 -52852367.894223213 -158927922.03429031 0 -158927922.03429031 1523153646.8250713 0 0 0 0 691473931.1673317 676402026.68498993 0 676402026.68498993 884529358.11872864 0 0 0 0 -1459998.8472233422 6440914.9505175278 0 6440914.9505175278 820559.16452592239 0 0 0 0 74550954.128667831 1271301535.1151276 0 1271301535.1151276 312295281.64522552 0 0 0 0 1026097.137557561 2189262.2661984023 0 2189262.2661984023 -595407.51388019696 0 0 0 0 98480797.767460376 1603779954.4890089 0 1603779954.4890089 -737181386.56932068 0 0 0 0 -1090759964.8525925 415674280.50257874 0 415674280.50257874 287545650.67929268 0 0 0 0 588806250.99120963 535404464.09605491 0 535404464.09605491 -1068658652.5678024 0 0 0 0 2282567922.4335299 1091199599.4126463 0 1091199599.4126463 -121680335.81038666 0 0 0 0 600370000.16662979 169491179.03869247 0 169491179.03869247 51147778.694712639 0 0 0 0 196446703.1116066 582073398.28499222 0 582073398.28499222 876133666.10171509 0 0 0 0 519934670.39509201 353233742.91646576 0 353233742.91646576 681764942.30672455 0 0 0 0 52612649.90261364 109842442.31718445 0 109842442.31718445 23223565.022293091 0 0 0 0 -601391828.85608101 402896730.17444611 0 402896730.17444611 496129976.97164154 0 0 0 0 -54788095.072347641 -20272916.274213791 0 -20272916.274213791 166727197.15814209 0 0 0 0 -520349778.42261696 457650374.67287827 0 457650374.67287827 -393263931.74433327 0 0 0 0 -3784012.8444177271 4823770.6481547114 0 4823770.6481547114 1536156.4722592011 0 0 0 0 -1204513108.4150829 1200538385.9935532 0 1200538385.9935532 -288293190.15119982 0 0 0 0 -26888580.751071259 5292947.6085472815 0 5292947.6085472815 14849483.570679057 0 0 0 0 -71431708.083927989 -8775621.5788230896 0 -8775621.5788230896 9581880.7650308609 0 0 0 0 -52701877.269271851 142994523.40240097 0 142994523.40240097 166695335.72572422 0 0 0 0 192486308.66812134 316738788.13549995 0 316738788.13549995 256553885.50197983 0 0 0 0 -35415932.138003349 37207013.528986543 0 37207013.528986543 14960925.570557671 0 0 0 0 -88187760.035101414 -11272960.182914734 0 -11272960.182914734 62228555.323654175 0 0 0 0 -38773699.9496696 22706469.815877914 0 22706469.815877914 15508938.289516926 0 0 0 0 -93514881.399597168 73233622.738285065 0 73233622.738285065 109285077.09977341 0 0 0 0 -85264928.3588202 137020247.12324524 0 137020247.12324524 46467823.205211639 0 0 0 0 -60331425.396349907 145469281.20619011 0 145469281.20619011 -33528926.149208069 0 0 0 0 -22733425.920156859 16561830.140327819 0 16561830.140327819 15451684.2824452 0 0 0 0 -97882749.159607291 114673393.02523804 0 114673393.02523804 328806071.07004929 0 0 0 0 -117944820.39772367 264252718.15709114 0 264252718.15709114 221589230.01624107 0 0 0 0 -118845370.7754209 299053993.31752968 0 299053993.31752968 672558564.24900246 0 0 0 0 -32015709.701798916 84185649.945165634 0 84185649.945165634 161947036.67939758 0 0 0 0 -60465444.928057671 -27223851.766368866 0 -27223851.766368866 400715649.21168709 0 0 0 0 -41029526.276031494 47733184.02072525 0 47733184.02072525 -89375.681092500687 0 0 0 0 -33553434.563257873 2908600.0907856449 0 2908600.0907856449 9663960.063377453 0 0 0 0 299767547.07244873 10203509.968177795 0 10203509.968177795 -190388338.36660004 0 0 0 0 -142810718.86912155 -192918033.27775049 0 -192918033.27775049 587772350.01383209 0 0 0 0 -112117364.66842651 -23554469.906702042 0 -23554469.906702042 372302718.5552597 0 0 0 0 91148263.494257927 -407674116.87503445 0 -407674116.87503445 685047191.08757019 0 0 0 0 -113456872.77947998 -126323396.38079262 0 -126323396.38079262 975586331.86848831 0 0 0 0 -186041862.37460327 -216402840.82727242 0 -216402840.82727242 1094635120.4999046 0 0 0 0 -209475918.44473267 -42339007.826505661 0 -42339007.826505661 660801751.68103313 0 0 0 0 -195047605.39508057 30995871.160488129 0 30995871.160488129 611887778.39837646 0 0 0 0 -258974597.92224121 -83255322.003944397 0 -83255322.003944397 839790567.66700172 0 0 0 0 -80358361.904586792 -139848310.01561356 0 -139848310.01561356 215188677.78398132 0 0 0 0 -65720881.479827881 39831592.261117935 0 39831592.261117935 113507121.8737545 0 0 0 0 -31338112.107939564 10224487.815730821 0 10224487.815730821 11251786.740424138 0 0 0 0 -76300016.050079346 -40800902.677684784 0 -40800902.677684784 114087628.50244522 0 0 0 0 -86853324.178649902 113172389.07185936 0 113172389.07185936 300900221.69482803 0 0 0 0 -195250602.65529585 24240688.987826765 0 24240688.987826765 431150824.19193268 0 0 0 0 -260216689.33920288 208376093.49351597 0 208376093.49351597 726307608.50120735 0 0 0 0 -253085942.72380066 205681924.15696812 0 205681924.15696812 423677508.50646591 0 0 0 0 -31261128.538803101 224916666.9070816 0 224916666.9070816 348467383.21777153 0 0 0 0 -93352780.603841782 51399857.864055395 0 51399857.864055395 83969094.75730896 0 0 0 0 -67584841.537521362 71498225.438770294 0 71498225.438770294 -211379.58399963379 0 0 0 0 -41403573.335696422 42652099.751022086 0 42652099.751022086 11176421.624021761 0 0 0 0 -107171202.50082397 13558534.998651505 0 13558534.998651505 83962460.997882158 0 0 0 0 -106937856.8202467 -7427038.3809432983 0 -7427038.3809432983 91292345.929931641 0 0 0 0 -84518978.095511436 54552552.53521347 0 54552552.53521347 219472205.6075325 0 0 0 0 -45474532.264760748 34265563.510193497 0 34265563.510193497 26733931.94233989 0 0 0 0 96825632.759002686 69455818.193174839 0 69455818.193174839 -12343133.357855558 0 0 0 0 9781678.8703460693 2615795.540307045 0 2615795.540307045 57281961.190847397 0 0 0 0 -46619897.216470301 29237231.735127077 0 29237231.735127077 26728971.53365808 0 0 0 0 -68443354.839286804 56237629.07668972 0 56237629.07668972 4222813.097328186 0 0 0 0 8069020.7799835205 14471523.162134647 0 14471523.162134647 22328785.627641678 0 0 0 0 -49008412.280380249 -3073176.7350411415 0 -3073176.7350411415 72745142.719567776 0 0 0 0 -100645523.37220764 -23200795.787820816 0 -23200795.787820816 36592385.091547966 0 0 0 0 23425182.46055603 65169989.595026493 0 65169989.595026493 -74056226.678564548 0 0 0 0 11178655.036596563 14068186.960514121 0 14068186.960514121 -1226137.911710463 0 0 0 0 -23962547.037101746 20307546.84999986 0 20307546.84999986 -5010305.4506480694 0 0 0 0 -105612808.10714769 77554710.653550699 0 77554710.653550699 7432027.6933336258 0 0 0 0 -23000275.135253906 4144941.3163318634 0 4144941.3163318634 -76840.667846679688 0 0 0 0 -59094623.96963501 30045268.877821922 0 30045268.877821922 36465407.18405056 0 0 0 0 -26320070.651290894 26203132.990348816 0 26203132.990348816 13477371.982002258 0 0 0 0 -71892082.035087585 49135587.952558041 0 49135587.952558041 26386052.005741119 0 0 0 0 93667655.389099121 51029776.875118256 0 51029776.875118256 26022496.671852112 0 0 0 0 -182277160.17797852 126212883.30901623 0 126212883.30901623 56124504.866290793 0 0 0 0 -152871542.05546951 56060567.364568591 0 56060567.364568591 33462091.609388351 0 0 0 0 -6219058.6308642626 -1983693.2383008301 0 -1983693.2383008301 1498276.3585619349 0 0 0 0 -64463127.738220215 -5616455.9006795883 0 -5616455.9006795883 -8254615.234588623 0 0 0 0 -142034951.00775146 -64630758.530881882 0 -64630758.530881882 12135647.241393089 0 0 0 0 -20671884.758705668 29617808.600322686 0 29617808.600322686 16571590.475644074 0 0 0 0 -14667046.125274658 10180558.381679684 0 10180558.381679684 -1969664.0674705505 0 0 0 0 86140.252031601965 20308174.110709846 0 20308174.110709846 7184650.275844764 0 0 0 0 -13050495.3359375 6965724.3097405434 0 6965724.3097405434 -1663888.6268043518 0 0 0 0 10900103.776563361 25382513.293030307 0 25382513.293030307 13565642.690702608 0 0 0 0 3326512.4102863334 23284812.585076153 0 23284812.585076153 -2399723.1575035648 0 0 0 0 -12374875.649395056 7408200.4881633818 0 7408200.4881633818 -1290342.8958015093 0 0 0 0 58541336.723815918 9109031.156703949 0 9109031.156703949 3899415.6973381042 0 0 0 0 6936559.5284757763 1473402.2668216191 0 1473402.2668216191 -1719928.6585251461 0 0 0 0 108025628.39089203 172691077.78108823 0 172691077.78108823 -27492236.583436966 0 0 0 0 -46983320.79524231 118285439.27518606 0 118285439.27518606 -128657847.84564781 0 0 0 0 -11512499.703018188 28794304.140640259 0 28794304.140640259 96827850.420332909 0 0 0 0 -226955523.64984131 -57723456.613470793 0 -57723456.613470793 44531759.121341705 0 0 0 0 -8902800.5604248047 -52015611.518523574 0 -52015611.518523574 75286463.143270969 0 0 0 0 -179037834.49853516 108108046.60659182 0 108108046.60659182 115685034.49457419 0 0 0 0 -39724432.238213621 35081375.54908666 0 35081375.54908666 22819518.242863193 0 0 0 0 95180416.745211601 -2934934.8123664856 0 -2934934.8123664856 52604262.727506638 0 0 0 0 -53903312.403726578 2497415.1721191406 0 2497415.1721191406 66976380.756887436 0 0 0 0 12621982.84292841 143036101.68171692 0 143036101.68171692 17423828.114356995 0 0 0 0 -16442467.557589531 123864016.29647064 0 123864016.29647064 4786543.8671512604 0 0 0 0 103160482.82112968 257914743.47571993 0 257914743.47571993 61960984.535701752 0 0 0 0 210257538.5492363 127206655.49838066 0 127206655.49838066 6418462.9954147339 0 0 0 0 2386611.6587445303 371902.79268428031 0 371902.79268428031 -2457258.4755046368 0 0 0 0 44541880.9781847 2820499.6000499725 0 2820499.6000499725 -11582363.823419571 0 0 0 0 303167210.72561866 -28472456.852871418 0 -28472456.852871418 -11171582.288089752 0 0 0 0 69871682.680013657 114166908.53393173 0 114166908.53393173 22674158.121520996 0 0 0 0 44585901.061649323 103234215.45900345 0 103234215.45900345 21190520.260846138 0 0 0 0 -2398831.892370224 153956583.92885399 0 153956583.92885399 202462899.36692429 0 0 0 0 201216537.67823362 216575152.44026566 0 216575152.44026566 89963500.485649109 0 0 0 0 84018468.622268677 146732968.88114041 0 146732968.88114041 -51507017.134640455 0 0 0 0 -34152077.712723657 38716220.271534786 0 38716220.271534786 22402323.029787917 0 0 0 0 -48087675.870733261 69506632.038012028 0 69506632.038012028 119571069.18590927 0 0 0 0 29356647.026699066 113488145.61420441 0 113488145.61420441 48862901.98453331 0 0 0 0 46700050.383568764 146081896.70321798 0 146081896.70321798 79702516.409950256 0 0 0 0 -108998210.12867737 32234021.853395462 0 32234021.853395462 67329332.634316444 0 0 0 0 -22328430.304995604 44841343.20482564 0 44841343.20482564 23338505.814360164 0 0 0 0 -42464526.811401367 75191576.673313141 0 75191576.673313141 46403367.381959915 0 0 0 0 41458157.372962952 125394716.54868221 0 125394716.54868221 30631682.633869171 0 0 0 0 -96609206.969345093 80525615.999420047 0 80525615.999420047 89157578.362214327 0 0 0 0 84858230.401489258 54086601.159099579 0 54086601.159099579 25749916.667293549 0 0 0 0 -137529785.38523865 -43125347.718697131 0 -43125347.718697131 -3610444.7131295204 0 0 0 0 -30015512.164007124 23430182.822721735 0 23430182.822721735 18035985.972025372 0 0 0 0 -87181295.473937988 -89497287.532480776 0 -89497287.532480776 36099417.56236285 0 0 0 0 -4871028.5344844852 -2085013.1485522538 0 -2085013.1485522538 945540.69884651038 0 0 0 0 76307547.118418217 346803914.57871246 0 346803914.57871246 -34718210.299158096 0 0 0 0 244481206.94339013 470683992.199211 0 470683992.199211 -448137650.42058563 0 0 0 0 60308963.565291882 326548955.10687828 0 326548955.10687828 25829584.30020237 0 0 0 0 143436894.39412868 597670256.63022041 0 597670256.63022041 133390639.41793823 0 0 0 0 -60663958.197621584 242113159.96537399 0 242113159.96537399 181613169.68279648 0 0 0 0 -61717936.200311184 256808610.80457497 0 256808610.80457497 99597314.685453415 0 0 0 0 -11151703.419864655 184146206.62762833 0 184146206.62762833 189274348.02051163 0 0 0 0 18039762.156556129 133485393.9971323 0 133485393.9971323 -124544644.20937729 0 0 0 0 -104692556.78936243 229113215.67943573 0 229113215.67943573 108362971.48558426 0 0 0 0 3210383.6039373069 115017145.50253296 0 115017145.50253296 -143948417.06081009 0 0 0 0 4984924.3282011561 1415052.485385987 0 1415052.485385987 -5837241.7539888378 0 0 0 0 -5141037.7489795685 134956698.21087837 0 134956698.21087837 -152640498.53505516 0 0 0 0 8743551.367521584 77568697.571055412 0 77568697.571055412 -188736811.38555717 0 0 0 0 118922948.8384409 122768472.28442001 0 122768472.28442001 -172649460.76511002 0 0 0 0 122229997.47920942 47882343.919879913 0 47882343.919879913 -401150905.16038704 0 0 0 0 153754521.06275463 104739866.07338572 0 104739866.07338572 -343417549.04899597 0 0 0 0 -3110870.5410089493 -54732254.434566498 0 -54732254.434566498 -185722182.77711868 0 0 0 0 5027032.2507134676 8703576.899181962 0 8703576.899181962 -130147374.0182972 0 0 0 0 -3471353.0811130963 5933259.6619917052 0 5933259.6619917052 -1225721.2120736628 0 0 0 0 57529232.88701725 77067382.146733642 0 77067382.146733642 75936479.844753265 0 0 0 0 50637865.352378845 85839024.338290215 0 85839024.338290215 65579033.165459275 0 0 0 0 51740228.12469101 2432272.8449668884 0 2432272.8449668884 18197316.728480339 0 0 0 0 12971046.814928174 33623200.324935198 0 33623200.324935198 53773308.579452515 0 0 0 0 88087205.753643036 43215702.232410431 0 43215702.232410431 19269870.565696716 0 0 0 0 80724254.833183289 68695389.545038223 0 68695389.545038223 40509476.11455965 0 0 0 0 838942.65039634705 72462808.341754913 0 72462808.341754913 174071532.62602425 0 0 0 0 -112489.02761105215 174958.99415900907 0 174958.99415900907 -209019.91760092881 0 0 0 0 5010776.9018223323 8337241.7065508366 0 8337241.7065508366 -110086788.89467239 0 0 0 0 8423086.6097096801 2752508.0035501672 0 2752508.0035501672 -11643828.239345416 0 0 0 0 15368553.819055557 4516466.6989746094 0 4516466.6989746094 -23573402.741277695 0 0 0 0 50371455.147071362 -3672008.0250587463 0 -3672008.0250587463 -22130887.771888733 0 0 0 0 21104423.478007317 21029145.773224831 0 21029145.773224831 -48834307.372467041 0 0 0 0 34346413.895612717 6181099.3984661102 0 6181099.3984661102 -38841569.622880936 0 0 0 0 9883570.8611738682 16232788.607420921 0 16232788.607420921 -25506407.511625409 0 0 0 0 13032740.304353714 5402499.7485380173 0 5402499.7485380173 -18287163.717082977 0 0 0 0 10645804.888175011 13692185.290179253 0 13692185.290179253 -18432221.720320448 0 0 0 0 13028399.574133873 7329696.1849155426 0 7329696.1849155426 -26955333.961326599 0 0 0 0 21553976.030414399 17141630.284421168 0 17141630.284421168 -2387035.7403986938 0 0 0 0 8401830.031478405 44099035.702833176 0 44099035.702833176 25726480.453905106 0 0 0 0 47764812.588294983 15392758.840644836 0 15392758.840644836 50329473.518936157 0 0 0 0 -5697637.5739212036 18785789.608131409 0 18785789.608131409 50366093.449638367 0 0 0 0 18210811.073001485 25848500.405762795 0 25848500.405762795 11623673.489796979 0 0 0 0 861548.28443557024 2926585.2571301423 0 2926585.2571301423 6589797.1087111346 0 0 0 0 30135264.955875397 -36722240.862651825 0 -36722240.862651825 42026909.159561157 0 0 0 0 20550224.268024445 18477853.567955017 0 18477853.567955017 92182359.386764526 0 0 0 0 19300463.640482903 9777891.5991597176 0 9777891.5991597176 31624731.585708618 0 0 0 0 24524946.736045837 -16051370.539302826 0 -16051370.539302826 70225776.532352448 0 0 0 0 45571442.002017975 15621497.064758301 0 15621497.064758301 25481063.524200439 0 0 0 0 17377275.788542926 16276756.332227359 0 16276756.332227359 -114932.80994096678 0 0 0 0 590708.831568297 2425883.7470078925 0 2425883.7470078925 3903831.2204826288 0 0 0 0 166425127.70352554 345710957.99599743 0 345710957.99599743 640308442.82816315 0 0 0 0 20867690.602296039 7176316.1719525699 0 7176316.1719525699 -5289415.5600185879 0 0 0 0 67499492.0046978 405331.69295072556 0 405331.69295072556 -36927614.284930229 0 0 0 0 4047141.1785564423 -16725195.503723264 0 -16725195.503723264 -17347328.151196003 0 0 0 0 -4309521.0327438936 13005128.951929169 0 13005128.951929169 3872998.2278364692 0 0 0 0 18455046.099522591 -806641.27884578705 0 -806641.27884578705 21482868.466119766 0 0 0 0 29272975.199626684 36980397.908765554 0 36980397.908765554 5600712.2826461792 0 0 0 0 -726987.47343200445 16673531.974748531 0 16673531.974748531 14553412.049454752 0 0 0 0 13606570.978067398 42745647.635141373 0 42745647.635141373 25919170.988254547 0 0 0 0 55769725.388245106 25040368.931743622 0 25040368.931743622 10232175.363939285 0 0 0 0 36368537.930352688 45782388.205478668 0 45782388.205478668 29531326.447315216 0 0 0 0 37683227.785410643 51509414.915160179 0 51509414.915160179 15549526.625558853 0 0 0 0 7753288.0355753899 32921681.844667435 0 32921681.844667435 12185826.750580311 0 0 0 0 26825886.352945328 36963111.550735235 0 36963111.550735235 -36728879.37571907 0 0 0 0 30670057.636160731 20435176.921059608 0 20435176.921059608 -18195273.939123154 0 0 0 0 -22932222.525840759 42566548.525520325 0 42566548.525520325 -27159843.399697781 0 0 0 0 -2730386.023029808 38172844.944202669 0 38172844.944202669 -130605.30907644704 0 0 0 0 -19794670.212809563 50263548.766025066 0 50263548.766025066 -36605868.083831787 0 0 0 0 -13548194.960479736 39275994.019508362 0 39275994.019508362 -35780945.49347496 0 0 0 0 -18611320.598846436 41259707.016147614 0 41259707.016147614 -35445715.294482231 0 0 0 0 5601165.0266189575 31136288.807346344 0 31136288.807346344 18440154.509597778 0 0 0 0 27408495.582706451 96128686.752628326 0 96128686.752628326 50427540.127019882 0 0 0 0 33022130.233903412 61480347.878086291 0 61480347.878086291 -4111414.6989877801 0 0 0 0 46524.657196044922 -25890279.677619934 0 -25890279.677619934 -32747582.32970047 0 0 0 0 586317.2982711792 105162617.6953001 0 105162617.6953001 650875.5366973877 0 0 0 0 35584857.979682922 128941353.19588184 0 128941353.19588184 -42026019.579391479 0 0 0 0 60355261.51889801 122035226.67469978 0 122035226.67469978 5329146.664478302 0 0 0 0 10854883.747080278 50148578.148847915 0 50148578.148847915 19624446.581561111 0 0 0 0 -14079148.730991364 62100431.150108337 0 62100431.150108337 -32480705.830337524 0 0 0 0 -8646032.1642913818 59256405.494476318 0 59256405.494476318 -36661394.848155975 0 0 0 0 20159415.001586303 32420809.951858699 0 32420809.951858699 12318102.802303787 0 0 0 0 79436140.662778854 78941995.334874153 0 78941995.334874153 -103077762.66633034 0 0 0 0 -11675679.037677765 71015533.617118835 0 71015533.617118835 -605440.08052825928 0 0 0 0 40842642.118095398 48338202.122692108 0 48338202.122692108 -68535873.761083603 0 0 0 0 120534980.2842705 104350363.3018623 0 104350363.3018623 -31057155.935295105 0 0 0 0 122395929.84105721 16254540.650980249 0 16254540.650980249 -45210700.671367645 0 0 0 0 14630574.876840591 45324522.971784592 0 45324522.971784592 -51194421.842564106 0 0 0 0 -107940490.0882473 94816742.232248306 0 94816742.232248306 42012534.954456329 0 0 0 0 1809722.5636816025 48485573.626241684 0 48485573.626241684 16705158.579025269 0 0 0 0 -35230808.483863831 30239095.890968323 0 30239095.890968323 89829251.664581299 0 0 0 0 -76221400.020172119 143151689.04985809 0 143151689.04985809 45097712.285522461 0 0 0 0 -91117.99955368042 138235308.0427475 0 138235308.0427475 -4569406.0774898529 0 0 0 0 -99512255.26607132 183460978.25971222 0 183460978.25971222 -77958422.608718872 0 0 0 0 -95647044.497428894 150263699.81529999 0 150263699.81529999 -1218091.0852928162 0 0 0 0 101147034.49222183 230165427.52421761 0 230165427.52421761 -131853482.75854492 0 0 0 0 6586084.3142700195 80087743.566635132 0 80087743.566635132 -17109135.906448364 0 0 0 0 126655.33436393738 58842512.845618248 0 58842512.845618248 -41573289.936431885 0 0 0 0 1876939.0861358643 55397236.943077087 0 55397236.943077087 -35968301.602771759 0 0 0 0 41182035.29309845 73952933.861644745 0 73952933.861644745 -37248179.495658875 0 0 0 0 11837923.136162758 94617913.5595541 0 94617913.5595541 -30978954.380447388 0 0 0 0 24532257.429534912 92242562.88186264 0 92242562.88186264 -51817426.960151672 0 0 0 0 167663065.87628937 62091480.559337616 0 62091480.559337616 -54626191.210763931 0 0 0 0 56851009.78937149 33159390.518947601 0 33159390.518947601 -6031414.596780777 0 0 0 0 -1775519.3653030396 51034797.764678955 0 51034797.764678955 -11384265.953731537 0 0 0 0 -33911154.618263245 42607987.257347107 0 42607987.257347107 13014954.847320557 0 0 0 0 -8130913.2683029175 33312066.130142212 0 33312066.130142212 1309330.3019561768 0 0 0 0 -45318067.00349617 67963354.28580761 0 67963354.28580761 -30905025.379745483 0 0 0 0 -9145725.7199249268 38824684.302085876 0 38824684.302085876 -49962597.951702118 0 0 0 0 18841684.426803589 40554295.864753723 0 40554295.864753723 -35177270.827461243 0 0 0 0 -2868751.2083511353 52210601.641220093 0 52210601.641220093 -39141147.943008423 0 0 0 0 -7145687.3907699585 40731170.893440247 0 40731170.893440247 -45911653.648162842 0 0 0 0 -16220344.013931274 30260406.87562561 0 30260406.87562561 -53950594.968338013 0 0 0 0 72791043.59815979 -12164227.91267395 0 -12164227.91267395 35887699.597938538 0 0 0 0 -38382756.67628479 17316649.245487213 0 17316649.245487213 51063772.980426788 0 0 0 0 -47477318.403533936 802961.25074386597 0 802961.25074386597 71466904.643165588 0 0 0 0 -38185867.801965714 34595819.244373322 0 34595819.244373322 72019786.528739929 0 0 0 0 6121660.9833145142 4978098.0270347595 0 4978098.0270347595 42641720.258575439 0 0 0 0 57507850.919168472 28330940.765122414 0 28330940.765122414 29462593.354469299 0 0 0 0 307116607.79039764 54897297.863613129 0 54897297.863613129 12777251.752918243 0 0 0 0 298779068.95217896 -49807630.989982605 0 -49807630.989982605 -39625436.084018707 0 0 0 0 72101572.717370987 -12006327.836681366 0 -12006327.836681366 50946826.236297607 0 0 0 0 -1936067.0629425049 -11964375.254720688 0 -11964375.254720688 -40805210.800411224 0 0 0 0 1098583.6297666878 17036.835509583354 0 17036.835509583354 -3067297.0111855716 0 0 0 0 307102446.78379822 -32652263.58801651 0 -32652263.58801651 -10670482.7632761 0 0 0 0 314208926.27172744 -118289668.41309524 0 -118289668.41309524 28741030.171386719 0 0 0 0 583301.83984173276 60059.726303704083 0 60059.726303704083 -454415.77234721556 0 0 0 0 -172995134.95950317 298874905.96657562 0 298874905.96657562 -149074374.2599411 0 0 0 0 -206875980.65148735 119453603.57438564 0 119453603.57438564 -110588823.53286743 0 0 0 0 -141158278.75209332 64600929.086969376 0 64600929.086969376 -29014624.174362183 0 0 0 0 -134969905.48574066 160175974.73300552 0 160175974.73300552 -286072684.96692657 0 0 0 0 -190056717.57652473 152877587.1013279 0 152877587.1013279 -50247940.427688599 0 0 0 0 1853657.1931431442 2373860.9730136245 0 2373860.9730136245 1146843.0510262586 0 0 0 0 -306470660.13777924 201203618.96681213 0 201203618.96681213 -120714564.62153625 0 0 0 0 -209087627.06465912 318104399.95801163 0 318104399.95801163 -278414927.61361408 0 0 0 0 74707266.71228981 -39121779.215568542 0 -39121779.215568542 -32557668.201248169 0 0 0 0 76513021.607017517 -91468069.911266327 0 -91468069.911266327 43491450.692905426 0 0 0 0 796784.99458721839 -36197.202328819782 0 -36197.202328819782 -2800563.0739698149 0 0 0 0 -84589174.512748718 -24585636.933286667 0 -24585636.933286667 33711531.404541016 0 0 0 0 111498863.6133728 -121179105.55263138 0 -121179105.55263138 -24606271.906497955 0 0 0 0 501048793.47231293 -16369357.09223938 0 -16369357.09223938 -44191768.554887295 0 0 0 0 -87816392.313605309 -341880689.27476597 0 -341880689.27476597 -49443005.994503021 0 0 0 0 -473403355.69841385 96574316.239471436 0 96574316.239471436 152442282.46896172 0 0 0 0 407829224.91791165 525158654.09933782 0 525158654.09933782 281891464.94376373 0 0 0 0 386793119.95949936 417605083.67547607 0 417605083.67547607 137124497.25463104 0 0 0 0 351625447.24102354 612293108.72823095 0 612293108.72823095 589918384.05513763 0 0 0 0 96240981.27290535 104449333.65106869 0 104449333.65106869 195172494.04727936 0 0 0 0 208198918.86479759 114585755.82256317 0 114585755.82256317 40173392.616043091 0 0 0 0 115964879.74017715 242867964.02725983 0 242867964.02725983 358878408.55658722 0 0 0 0 145675714.41230774 38656883.659841537 0 38656883.659841537 -25179078.148826599 0 0 0 0 70104219.736755371 40001725.177223206 0 40001725.177223206 106890595.81378174 0 0 0 0 13417569.708644867 -24394883.242380142 0 -24394883.242380142 60389527.296180725 0 0 0 0 -28602186.562906265 52752091.824370384 0 52752091.824370384 -22103050.162628174 0 0 0 0 -110905389.30739594 38127202.740463257 0 38127202.740463257 -13022242.195800781 0 0 0 0 -67284236.664409637 131651233.18184662 0 131651233.18184662 -146619154.56137848 0 0 0 0 -108522575.67115021 90464064.424884796 0 90464064.424884796 -197710895.76776886 0 0 0 0 -29221002.395412445 163036801.33769989 0 163036801.33769989 -132328610.90498734 0 0 0 0 431096680.01799011 239464291.16162491 0 239464291.16162491 -135155839.40571594 0 0 0 0 -31997687.508125305 71311956.222236633 0 71311956.222236633 38124628.792732239 0 0 0 0 876595663.20215607 482626828.16134644 0 482626828.16134644 -302420125.11859894 0 0 0 0 -43377922.121818542 51893300.601667404 0 51893300.601667404 -157479688.79922485 0 0 0 0 -179321211.2222023 379741504.03356934 0 379741504.03356934 -253808911.03854465 0 0 0 0 1593650.2611662485 2015863.7019636482 0 2015863.7019636482 1294131.6686026938 0 0 0 0 1226884.1569757462 82497048.080891609 0 82497048.080891609 -18250265.243080139 0 0 0 0 248405269.48509979 88799925.588638306 0 88799925.588638306 -36930556.8638134 0 0 0 0 61893104.691951752 147654471.64732552 0 147654471.64732552 282442343.83665466 0 0 0 0 744356.31242047623 866944.58314672485 0 866944.58314672485 582976.53755450621 0 0 0 0 251417879.82784271 768650839.23677063 0 768650839.23677063 948698815.28190613 0 0 0 0 598867201.44276714 951492395.80836487 0 951492395.80836487 628394931.6216507 0 0 0 0 475628220.72076035 656902669.86437988 0 656902669.86437988 170717613.52166367 0 0 0 0 476003148.73423386 650202206.48206532 0 650202206.48206532 238026907.80104065 0 0 0 0 624535972.82242584 520437169.01695251 0 520437169.01695251 351040871.9616642 0 0 0 0 486398988.50676918 298568887.96537781 0 298568887.96537781 24478150.532989502 0 0 0 0 518245.50890368782 228632.62897466496 0 228632.62897466496 -154888.49086163193 0 0 0 0 658041651.69624233 54392835.356345177 0 54392835.356345177 37909082.99206543 0 0 0 0 1023963441.9874954 304237415.59512901 0 304237415.59512901 -514494308.49940491 0 0 0 0 1238171384.296402 -27433545.848777771 0 -27433545.848777771 -471225356.71456146 0 0 0 0 1146931205.4241409 589399148.87141037 0 589399148.87141037 31073548.828267992 0 0 0 0 824840078.01177979 849320640.56284332 0 849320640.56284332 338436378.29747009 0 0 0 0 69343145.39440918 -11816170.666511536 0 -11816170.666511536 38692083.659290314 0 0 0 0 56292309.830722809 -40030082.408630371 0 -40030082.408630371 -20727867.170471191 0 0 0 0 6343452.4480323792 26650665.911235809 0 26650665.911235809 30300008.419079781 0 0 0 0 175963404.39874649 38219591.393756866 0 38219591.393756866 30711551.100460052 0 0 0 0 31289589.340118408 -75716600.459903717 0 -75716600.459903717 2139642.5619659424 0 0 0 0 90797813.275793076 -25086339.320865631 0 -25086339.320865631 17635029.727649689 0 0 0 0 2007765.4658445679 6347344.9488118328 0 6347344.9488118328 6843572.3943782635 0 0 0 0 2706262.1297216415 16892872.6067276 0 16892872.6067276 49578653.74118042 0 0 0 0 -5614908.3632198051 -1235172.6497017983 0 -1235172.6497017983 6208812.4975850303 0 0 0 0 3504678.8324898127 6813112.8957521748 0 6813112.8957521748 471901.25469048135 0 0 0 0 358083.85045719147 2813753.310977459 0 2813753.310977459 -762282.85069656372 0 0 0 0 -89601295.214675903 -57747134.717338562 0 -57747134.717338562 103682085.27661514 0 0 0 0 3119485.7239640816 11073920.00086496 0 11073920.00086496 -707300.70579894632 0 0 0 0 -126266834.650527 166405076.65882778 0 166405076.65882778 198729014.76075745 0 0 0 0 18322028.397254944 -1653370621.3921051 0 -1653370621.3921051 -732373934.96942902 0 0 0 0 -307713982.98355865 -207992227.31494141 0 -207992227.31494141 14278469.044542313 0 0 0 0 7014634.290063858 -734882147.16387939 0 -734882147.16387939 -876498428.66844177 0 0 0 0 -479489483.92499542 181519867.60824394 0 181519867.60824394 -81710809.560424805 0 0 0 0 2255825150.0591202 -163033033.36654663 0 -163033033.36654663 -1609217726.8617935 0 0 0 0 234453038.99605942 -48299646.900082111 0 -48299646.900082111 -136779551.97747803 0 0 0 0 671029625.02993393 1603490882.6322021 0 1603490882.6322021 4180170837.4084473 0 0 0 0 2863072724.0956612 -1506416048.0160141 0 -1506416048.0160141 674592564.3013916 0 0 0 0 -1249821808.2799721 376924944.45988083 0 376924944.45988083 816360722.96899414 0 0 0 0 14709009.234164238 -10344286.822271824 0 -10344286.822271824 18939863.980537415 0 0 0 0 -3002296.4656854169 13283537.630811546 0 13283537.630811546 14388974.727820203 0 0 0 0 1606114903.8946762 842822428.6102066 0 842822428.6102066 -155678551.16859436 0 0 0 0 3409868680.0142593 1319883130.0097313 0 1319883130.0097313 -680619673.13916397 0 0 0 0 8343851.0985897128 1628189.0824141167 0 1628189.0824141167 -2149537.1764267813 0 0 0 0 815993426.95951271 1718251926.9636726 0 1718251926.9636726 2933960379.5851059 0 0 0 0 309181624.62846375 430981162.16324234 0 430981162.16324234 409238491.72636795 0 0 0 0 -28450857.760170937 80611668.263923645 0 80611668.263923645 237835561.19427586 0 0 0 0 -27581183.253791332 45128800.043404579 0 45128800.043404579 -4434501.6250834465 0 0 0 0 1334301415.4657784 825078291.88689387 0 825078291.88689387 -83312011.365913391 0 0 0 0 1780611929.6026535 1253529244.7084942 0 1253529244.7084942 100585472.89787674 0 0 0 0 1335132125.5952229 826611763.44743872 0 826611763.44743872 -286619802.48060608 0 0 0 0 1983158370.3585777 878657320.62951279 0 878657320.62951279 -633487249.48045349 0 0 0 0 2482175212.9760818 -591235409.9465313 0 -591235409.9465313 -196691936.84057426 0 0 0 0 3537697064.4894466 1371905884.1201477 0 1371905884.1201477 -536717134.4156723 0 0 0 0 543285591.24738312 1570607130.3451004 0 1570607130.3451004 457167072.81100464 0 0 0 0 1929614755.9741993 735196552.66203022 0 735196552.66203022 -877256369.3766861 0 0 0 0 52211138.699365616 -11896946.899597645 0 -11896946.899597645 -3715688.1758060455 0 0 0 0 -619293988.26593018 383929859.40818977 0 383929859.40818977 -207821280.3644104 0 0 0 0 2497561.7993431091 -9794016.1867733002 0 -9794016.1867733002 19926867.22636795 0 0 0 0 -393704.43638471607 13427000.790041819 0 13427000.790041819 8436702.5810253546 0 0 0 0 49394242.091739655 -4913557.9271650314 0 -4913557.9271650314 -20628193.717529297 0 0 0 0 57434707.998180389 63410341.777029991 0 63410341.777029991 9512768.3059411049 0 0 0 0 20145544.303970337 26592584.217715263 0 26592584.217715263 -9107610.0516624451 0 0 0 0 29086669.408378601 7056416.6607494354 0 7056416.6607494354 33555047.95409584 0 0 0 0 4291933155.0115547 494207873.18773174 0 494207873.18773174 -129181276.81395769 0 0 0 0 2477884425.5091019 1318858228.3759727 0 1318858228.3759727 -695903554.29678345 0 0 0 0 1836332536.430069 537081016.03071213 0 537081016.03071213 261605336.75828552 0 0 0 0 -181017.81375944801 646379.70886589633 0 646379.70886589633 840338.89269793592 0 0 0 0 1814380677.412468 1091426541.1804028 0 1091426541.1804028 202716817.96463776 0 0 0 0 421935.59489601664 2590502.8013996892 0 2590502.8013996892 2761064.6964089097 0 0 0 0 2012381675.8018513 -545141575.85425472 0 -545141575.85425472 1802095642.3837776 0 0 0 0 1776106865.026207 1885779042.1246786 0 1885779042.1246786 1614495904.683836 0 0 0 0 3551487317.219017 1755017651.6094923 0 1755017651.6094923 334933776.90720844 0 0 0 0 11954276.389017105 174662849.44264996 0 174662849.44264996 1488560418.6849775 0 0 0 0 -5827420.6877593733 4810731.1088716863 0 4810731.1088716863 7791935.8434612993 0 0 0 0 1141499102.0629311 2147591915.1203032 0 2147591915.1203032 1032189928.0724277 0 0 0 0 -3407008.9227144178 1694149.7900784556 0 1694149.7900784556 1854253.3948289999 0 0 0 0 963845121.10358429 385138846.5662297 0 385138846.5662297 -282945436.28297138 0 0 0 0 1153051483.9786072 991358131.28458118 0 991358131.28458118 -575885491.27654314 0 0 0 0 1579687654.7967706 817492706.26211107 0 817492706.26211107 -62567441.488769054 0 0 0 0 919167212.08228302 1001781906.0592489 0 1001781906.0592489 -49754284.945017517 0 0 0 0 64626872.234166503 185023656.97728193 0 185023656.97728193 62467642.831463337 0 0 0 0 13715465.231877327 -50316505.425119162 0 -50316505.425119162 -7281052.7060267925 0 0 0 0 66193155.6553936 77468654.603033543 0 77468654.603033543 -13829024.955635071 0 0 0 0 397714359.855793 -669794928.87357521 0 -669794928.87357521 665641655.75893974 0 0 0 0 1219057774.4737129 521084408.78768444 0 521084408.78768444 -253275737.50742245 0 0 0 0 -6308240.2184996475 5608401.1248993231 0 5608401.1248993231 6284494.3632663982 0 0 0 0 850182544.12736511 602331502.32885742 0 602331502.32885742 635528564.89819431 0 0 0 0 -641805417.79079437 226875828.31159687 0 226875828.31159687 225974389.71867752 0 0 0 0 -819812230.90123749 286318963.73148203 0 286318963.73148203 220592471.28784275 0 0 0 0 -653910947.48233414 262336009.41144657 0 262336009.41144657 190812937.67332458 0 0 0 0 -386480661.85807419 158809748.00475836 0 158809748.00475836 43452496.755651474 0 0 0 0 -408428532.79492569 129844928.54379272 0 129844928.54379272 124583635.85197067 0 0 0 0 -566110632.13307953 288432407.62230277 0 288432407.62230277 139868448.29208374 0 0 0 0 -308790913.39803314 310971806.442101 0 310971806.442101 21595842.600739241 0 0 0 0 -78645125.03213501 197253515.95215368 0 197253515.95215368 -21325492.935339928 0 0 0 0 -303178283.72632599 318895300.85699284 0 318895300.85699284 17025131.788241386 0 0 0 0 -589184811.77590942 635723846.00645304 0 635723846.00645304 -269827721.46456504 0 0 0 0 -651660798.73780823 319245295.69998693 0 319245295.69998693 129152558.76868582 0 0 0 0 -657646533.44512033 361544776.70618248 0 361544776.70618248 203906839.46742439 0 0 0 0 -931243187.87931061 607793884.35416436 0 607793884.35416436 19729182.121185541 0 0 0 0 -840465097.47031021 464844448.25899601 0 464844448.25899601 196942197.81302929 0 0 0 0 -1746356376.3961735 -392605539.62414032 0 -392605539.62414032 449982824.27814913 0 0 0 0 -210428046.12530899 -322366859.8699193 0 -322366859.8699193 263132942.5700779 0 0 0 0 -5295109.3467261605 3514175.5887463605 0 3514175.5887463605 5019477.5903237192 0 0 0 0 14767262.461948395 47171186.602061272 0 47171186.602061272 37838327.840849876 0 0 0 0 1150399640.5730438 1067466485.9532571 0 1067466485.9532571 126148412.81431198 0 0 0 0 942410459.38730621 422037251.70077646 0 422037251.70077646 417906234.54172885 0 0 0 0 -83398609.865890503 -21889848.041360855 0 -21889848.041360855 35466177.421228558 0 0 0 0 62823526.223700047 25147895.911058962 0 25147895.911058962 -41784891.607265472 0 0 0 0 -240733461.42240524 24129333.157608032 0 24129333.157608032 103997283.39009666 0 0 0 0 -818416932.86815977 12798543.590781992 0 12798543.590781992 215033332.97997093 0 0 0 0 -233343219.59463644 58664021.70683825 0 58664021.70683825 37760404.698137283 0 0 0 0 -509652371.12334061 236690373.63857079 0 236690373.63857079 8080164.6347808838 0 0 0 0 -282643577.12779617 169580010.4807024 0 169580010.4807024 23897414.09251976 0 0 0 0 -47748035.466819763 40882188.221426964 0 40882188.221426964 -53359881.59046936 0 0 0 0 -17993274.380622864 -9415289.8729543686 0 -9415289.8729543686 -4384248.1032381058 0 0 0 0 -83560816.726329803 2194509.9190235138 0 2194509.9190235138 -9619379.3396587372 0 0 0 0 2778069.9950637817 9144590.0200653076 0 9144590.0200653076 -38063645.532896042 0 0 0 0 -161823805.26390076 -13569359.822983742 0 -13569359.822983742 17532887.174926758 0 0 0 0 -122024648.34565258 144040263.42838645 0 144040263.42838645 -166675628.46394348 0 0 0 0 26033644.249206543 188073397.26383209 0 188073397.26383209 -384687426.11347699 0 0 0 0 -1122613092.2825165 355449742.25012779 0 355449742.25012779 221722839.07476711 0 0 0 0 -597132363.38139343 578535618.38665342 0 578535618.38665342 -308859376.88355255 0 0 0 0 -686448584.15592957 283266784.09652042 0 283266784.09652042 177910697.17900658 0 0 0 0 -392733827.50290394 -2296967.0619834661 0 -2296967.0619834661 48745020.097579956 0 0 0 0 -394008740.66018677 -16309236.81817627 0 -16309236.81817627 141030321.9106617 0 0 0 0 -731736439.49200439 85804568.62695694 0 85804568.62695694 146706967.61826706 0 0 0 0 -987734219.11722565 -19364069.207780838 0 -19364069.207780838 226270738.20318508 0 0 0 0 21639931.039649963 354571211.89370823 0 354571211.89370823 -820241939.18009567 0 0 0 0 -5914958.7100275494 -549499.82872160804 0 -549499.82872160804 2361845.0157708274 0 0 0 0 -228817.23111448064 4345388.1351761827 0 4345388.1351761827 2534458.3407825981 0 0 0 0 -3377665045.1246109 509987562.62356377 0 509987562.62356377 322478680.38010597 0 0 0 0 -465984025.41307831 -166306778.76366425 0 -166306778.76366425 170747395.19433212 0 0 0 0 -1904845566.8874352 -381230996.91505969 0 -381230996.91505969 614229891.84107971 0 0 0 0 -2097058286.4000359 1330150746.8462164 0 1330150746.8462164 -262357869.17871857 0 0 0 0 -651180808.21870899 -653874782.06810474 0 -653874782.06810474 568682822.40327454 0 0 0 0 -1534242125.1855812 386336352.30138683 0 386336352.30138683 149739855.44187546 0 0 0 0 -491669785.68081665 -660681130.57245636 0 -660681130.57245636 299802086.7422123 0 0 0 0 -478992091.92977142 -802462078.29405212 0 -802462078.29405212 226569305.26296997 0 0 0 0 -517206506.60869598 -807975167.58877563 0 -807975167.58877563 349703442.76317596 0 0 0 0 -442291346.44164276 -759450934.36499023 0 -759450934.36499023 100724625.0846405 0 0 0 0 -374675037.34912872 1210658810.5585022 0 1210658810.5585022 -1895746574.3486214 0 0 0 0 -5294095.7189171743 -2201001.7912843749 0 -2201001.7912843749 -365094.65041103866 0 0 0 0 -2841111964.8050976 1407057147.5702744 0 1407057147.5702744 349629668.16915894 0 0 0 0 -355332506.87734985 -578256336.5970459 0 -578256336.5970459 23418949.004947662 0 0 0 0 -902601320.36826324 -225211575.1367321 0 -225211575.1367321 191146665.34857178 0 0 0 0 256016875.60190582 -101448657.56774139 0 -101448657.56774139 197120401.19504547 0 0 0 0 -13699313.980523523 6402652.6327748299 0 6402652.6327748299 5843725.202510667 0 0 0 0 -10952263.351844788 -5804498.027671814 0 -5804498.027671814 70319095.955879211 0 0 0 0 385105336.66685104 220939172.46633148 0 220939172.46633148 194538905.55339432 0 0 0 0 -10676395.642189026 -42270205.598997116 0 -42270205.598997116 10647344.448719025 0 0 0 0 -62813880.672203064 81382464.071937561 0 81382464.071937561 80216651.134549141 0 0 0 0 -12724763.251753712 1526050.4826862477 0 1526050.4826862477 4749611.3415590785 0 0 0 0 -1082530415.4790406 1143048579.551007 0 1143048579.551007 824194029.65079498 0 0 0 0 1055799928.916481 -837101503.09748077 0 -837101503.09748077 -1059056334.0400038 0 0 0 0 736912375.76186371 407487871.03129578 0 407487871.03129578 -1208157755.6260948 0 0 0 0 424529679.54219437 -526171757.31167603 0 -526171757.31167603 287124781.22157097 0 0 0 0 330032216.75324249 23710829.595932007 0 23710829.595932007 4432127.1690139771 0 0 0 0 780866145.14148581 124578787.36534262 0 124578787.36534262 858005.92639160156 0 0 0 0 16751271.274734497 8267547.0916538239 0 8267547.0916538239 -1404313.023727417 0 0 0 0 1521040.995141983 9417066.7852859497 0 9417066.7852859497 17176739.552623749 0 0 0 0 7400833.778115184 4131543.2797905579 0 4131543.2797905579 -252773.27773861028 0 0 0 0 -4453464.290058136 22126486.912899017 0 22126486.912899017 9057002.1283512115 0 0 0 0 12990494.030553818 8946747.9056043625 0 8946747.9056043625 -50564919.713302612 0 0 0 0 -43434217.653812408 -75132570.790622711 0 -75132570.790622711 -75542285.641038895 0 0 0 0 -22542751.875907898 -20974886.440311432 0 -20974886.440311432 5535032.4916706085 0 0 0 0 14683122.53534317 15292595.794599533 0 15292595.794599533 -24528069.293804169 0 0 0 0 -272829363.73805237 245180943.21382141 0 245180943.21382141 -247193056.48711491 0 0 0 0 -202205557.67448425 735913524.82767105 0 735913524.82767105 -309177265.11402893 0 0 0 0 445223858.4012413 39851093.733203888 0 39851093.733203888 -1539713735.3504868 0 0 0 0 -1579965408.5264435 -30288859.093833923 0 -30288859.093833923 829865489.38853455 0 0 0 0 1626323.5050768182 286814.57162812911 0 286814.57162812911 -340620.17737661116 0 0 0 0 -87806629.657726288 -94027421.813362122 0 -94027421.813362122 -95940981.004938126 0 0 0 0 -337836207.82995605 -49673768.421600342 0 -49673768.421600342 -41219536.039772034 0 0 0 0 -128068209.32668686 -117001403.62495041 0 -117001403.62495041 -64982955.964997292 0 0 0 0 -425982761.76908684 169673136.65619755 0 169673136.65619755 -225645746.2161026 0 0 0 0 -265889736.05539131 -61086128.664272308 0 -61086128.664272308 -106521853.6394577 0 0 0 0 -179191763.40592194 -43257416.900699615 0 -43257416.900699615 94975210.006782532 0 0 0 0 -266582134.79800797 16957661.253967285 0 16957661.253967285 58002191.840408325 0 0 0 0 -85229968.356582642 -53567756.119768143 0 -53567756.119768143 26020129.850627899 0 0 0 0 -104995157.69484138 -71388369.704180717 0 -71388369.704180717 22429138.68454361 0 0 0 0 -126564001.28540611 -42084294.386793137 0 -42084294.386793137 95342446.006660461 0 0 0 0 -105014688.47344971 6003739.3706359863 0 6003739.3706359863 137861847.58651352 0 0 0 0 53423886.94821167 80173787.754074097 0 80173787.754074097 116049355.86949921 0 0 0 0 -95650704.27914381 67295324.112631321 0 67295324.112631321 190796740.84643555 0 0 0 0 -25733280.304840088 70023964.039682388 0 70023964.039682388 168429902.12815094 0 0 0 0 -7439012.1942863464 50766052.43840313 0 50766052.43840313 89930668.525665283 0 0 0 0 -62133445.937904358 46304307.390010834 0 46304307.390010834 121578521.61037064 0 0 0 0 61672586.915869951 89263216.345722198 0 89263216.345722198 34474062.512710571 0 0 0 0 -19487226.399009705 52967188.735294342 0 52967188.735294342 52660805.209006071 0 0 0 0 235730512.64093018 116129218.88080597 0 116129218.88080597 -23807275.424484253 0 0 0 0 54800273.922277451 173110256.76205826 0 173110256.76205826 155363069.21854687 0 0 0 0 -19989155.816951662 33657020.133683048 0 33657020.133683048 -34126805.733972207 0 0 0 0 205777885.28773499 -17943932.781005859 0 -17943932.781005859 -142430765.08026886 0 0 0 0 31197579.30670166 91454317.616153717 0 91454317.616153717 -16392063.328277588 0 0 0 0 33628874.7840271 79539627.309738159 0 79539627.309738159 -61423478.422912598 0 0 0 0 161393090.73965168 158161417.38741112 0 158161417.38741112 -16613445.291091919 0 0 0 0 17254819.056045532 56435187.300712585 0 56435187.300712585 -10051076.747400284 0 0 0 0 -1291873.9562683105 -85128958.71697998 0 -85128958.71697998 -118081165.64269638 0 0 0 0 13774135.351745605 12862842.583686829 0 12862842.583686829 -58368065.838752747 0 0 0 0 93053421.188400269 45884180.849639893 0 45884180.849639893 -45381633.464263916 0 0 0 0 -26908369.232303619 75189518.692405701 0 75189518.692405701 -9659338.7842216492 0 0 0 0 -104225878.83044434 -14485599.461414337 0 -14485599.461414337 28863827.619367599 0 0 0 0 -58473049.864219666 17661714.851753235 0 17661714.851753235 41543274.129936218 0 0 0 0 -142561632.30428314 -3880336.022315979 0 -3880336.022315979 66900606.757575989 0 0 0 0 -112639533.20801544 28574159.439044952 0 28574159.439044952 77509002.852058411 0 0 0 0 -156676322.1970768 26324650.84975338 0 26324650.84975338 70004827.317687988 0 0 0 0 -4045641.1472343747 6905525.1280449554 0 6905525.1280449554 12461769.875144925 0 0 0 0 175311566.56886148 -60385118.904663086 0 -60385118.904663086 16389572.566223145 0 0 0 0 406538.52902731672 216028.05966641009 0 216028.05966641009 -93827.277489017695 0 0 0 0 189394359.77239227 100967567.15454102 0 100967567.15454102 91564886.575065613 0 0 0 0 -27842973.1469841 166143031.60864639 0 166143031.60864639 -13125870.402175903 0 0 0 0 -78166189.725063324 -37641692.91374588 0 -37641692.91374588 54928789.071669102 0 0 0 0 -78486149.795532227 -24623944.765674591 0 -24623944.765674591 18924007.501609623 0 0 0 0 -94629442.314170837 -10452534.890258789 0 -10452534.890258789 78298709.063848972 0 0 0 0 -78337165.336452484 -10822810.300453186 0 -10822810.300453186 50149498.474769592 0 0 0 0 -111516053.62234497 23254404.495426178 0 23254404.495426178 20220141.915512085 0 0 0 0 134859015.76511955 -31830535.901394844 0 -31830535.901394844 -16998115.821556091 0 0 0 0 -1075885.54825895 4299247.447327964 0 4299247.447327964 10625235.937239211 0 0 0 0 -41620316.447138309 -34559281.326722145 0 -34559281.326722145 -3992737.4767227173 0 0 0 0 62817273.25188446 12320358.883972168 0 12320358.883972168 11648899.839466095 0 0 0 0 828999.88429483585 429512.23773540929 0 429512.23773540929 -168933.84621130675 0 0 0 0 91926650.457519293 -9513087.3136818409 0 -9513087.3136818409 4911611.5661315918 0 0 0 0 197554604.57336426 -82705834.470680237 0 -82705834.470680237 -46484348.296390533 0 0 0 0 95926533.753363371 31197504.675499201 0 31197504.675499201 -71605203.580055237 0 0 0 0 57276703.748523712 -49488116.449516296 0 -49488116.449516296 15421249.490791321 0 0 0 0 112129595.36902618 -38398221.204025269 0 -38398221.204025269 -86625846.027690887 0 0 0 0 233204740.27138519 227755147.31933975 0 227755147.31933975 220603526.02524948 0 0 0 0 456419855.73670578 170624651.96762848 0 170624651.96762848 80567702.720081329 0 0 0 0 226752697.89081192 -84851397.86806488 0 -84851397.86806488 8887276.5815792084 0 0 0 0 248606682.40180588 -65816120.336378098 0 -65816120.336378098 -120364347.80876923 0 0 0 0 236227556.26981544 19297073.653615952 0 19297073.653615952 -96656311.926818848 0 0 0 0 156553094.8407135 -23441118.832508087 0 -23441118.832508087 19994377.194252014 0 0 0 0 -111797460.94917679 38131937.654384613 0 38131937.654384613 -80151375.246339798 0 0 0 0 241591472.80595398 -49619598.208633423 0 -49619598.208633423 -124848824.48006439 0 0 0 0 276171380.38549042 -124601151.28284454 0 -124601151.28284454 -96227973.137435913 0 0 0 0 809601009.61155701 108970401.71424866 0 108970401.71424866 -77984163.271813393 0 0 0 0 103002729.34632874 -44407659.421909332 0 -44407659.421909332 -71891082.975524902 0 0 0 0 123422369.11606884 -43720417.879164696 0 -43720417.879164696 -214521961.6869278 0 0 0 0 -59671352.560527802 123448665.89518547 0 123448665.89518547 31733108.518463135 0 0 0 0 -32021086.494334221 4448723.6446218491 0 4448723.6446218491 -23776612.905136108 0 0 0 0 150096687.30910492 129384072.28944397 0 129384072.28944397 -5601220.2682647705 0 0 0 0 141403846.81921768 -12561060.822284698 0 -12561060.822284698 -99489935.773681641 0 0 0 0 225351650.21514511 -22367427.92934227 0 -22367427.92934227 -128373911.74298859 0 0 0 0 214298728.45296478 -21438148.962921143 0 -21438148.962921143 -100761566.27893925 0 0 0 0 248690491.03368759 255416885.06093597 0 255416885.06093597 80383707.421722412 0 0 0 0 525764065.76683044 34235003.376686096 0 34235003.376686096 -122279316.7095232 0 0 0 0 -34849266.44367981 147932478.64446259 0 147932478.64446259 113581590.34493446 0 0 0 0 14769556.247253418 50338172.096656799 0 50338172.096656799 -7640805.8632965088 0 0 0 0 40575453.937408447 109660203.7521286 0 109660203.7521286 13207292.182502747 0 0 0 0 32802231.443300247 120675684.01825714 0 120675684.01825714 38991131.575180054 0 0 0 0 20697706.316497803 100105464.48861694 0 100105464.48861694 4048468.3071136475 0 0 0 0 1455209.8792266846 54360305.181838989 0 54360305.181838989 30995906.176782608 0 0 0 0 13065225.635017395 58307900.57559967 0 58307900.57559967 -8188538.9471130371 0 0 0 0 -9015745.2042770386 30763555.630683899 0 30763555.630683899 -24437401.365921021 0 0 0 0 -3202714.2094535828 30265922.058162689 0 30265922.058162689 -37614217.756256104 0 0 0 0 -28614805.575820923 34221062.088531494 0 34221062.088531494 -27742174.471427917 0 0 0 0 -723697.45373916626 56511122.76704216 0 56511122.76704216 -9968841.4359588623 0 0 0 0 -1147718.1603993522 4267373.8847261984 0 4267373.8847261984 -891973.56429833174 0 0 0 0 640616124.71113586 281643576.50826263 0 281643576.50826263 86192391.458847046 0 0 0 0 -142154342.74139023 69579884.229759216 0 69579884.229759216 56693301.566551208 0 0 0 0 -440903.80002387613 1124402.9638192952 0 1124402.9638192952 -1125049.1288606934 0 0 0 0 -26949953.731151581 37161651.717142105 0 37161651.717142105 -48376046.199035645 0 0 0 0 557999632.88400269 -307194113.83590698 0 -307194113.83590698 -334623841.12425995 0 0 0 0 259496395.87970543 360722526.0423584 0 360722526.0423584 803011705.88072205 0 0 0 0 6704032.3212013245 9513566.5278015137 0 9513566.5278015137 -13272433.798789978 0 0 0 0 2961518.3056241302 7373035.6053407192 0 7373035.6053407192 -14021773.555715129 0 0 0 0 -13630574.463264465 28870420.864677429 0 28870420.864677429 -31858795.246856689 0 0 0 0 -5856739.9602964241 12222210.262596563 0 12222210.262596563 -3142371.4198022112 0 0 0 0 -19518524.19692421 29456751.465120316 0 29456751.465120316 -31915689.054412842 0 0 0 0 -28413168.037734985 54638956.308868408 0 54638956.308868408 -48825068.50874722 0 0 0 0 -5710923.678937288 8516184.6511828043 0 8516184.6511828043 -526879.43597196043 0 0 0 0 -31200616.850120544 52025608.915283203 0 52025608.915283203 -37609658.396022797 0 0 0 0 2521200.3718522303 2022768.5796811581 0 2022768.5796811581 881713.47480246425 0 0 0 0 -176872500.59452057 296076874.24107027 0 296076874.24107027 -245304638.51713562 0 0 0 0 -149539717.01028633 253837195.01560974 0 253837195.01560974 -311341984.99299622 0 0 0 0 45687245.06533432 -211692810.53933334 0 -211692810.53933334 4096455.2828521729 0 0 0 0 -137719349.16575623 253757392.7287178 0 253757392.7287178 287420232.93576813 0 0 0 0 763407063.65476799 166395216.41669846 0 166395216.41669846 -278994564.31519318 0 0 0 0 1213361.2401503623 825733.15133018792 0 825733.15133018792 286793.07228072733 0 0 0 0 -192167646.5300169 84967406.782978058 0 84967406.782978058 106082646.91384888 0 0 0 0 -188397153.55506897 61130300.664633751 0 61130300.664633751 77365977.848075867 0 0 0 0 -12801243.02280426 160789146.16165924 0 160789146.16165924 42649273.971916199 0 0 0 0 -218647768.24633789 136326110.38510895 0 136326110.38510895 167105891.54744339 0 0 0 0 -10763283.875769377 252150134.78434855 0 252150134.78434855 -4342868.1927490234 0 0 0 0 290491957.26590729 508923815.06510925 0 508923815.06510925 208423207.93039513 0 0 0 0 282617011.2730484 171958209.26164246 0 171958209.26164246 -54490335.008796692 0 0 0 0 44342553.038654327 102717839.62984562 0 102717839.62984562 6784114.2434539795 0 0 0 0 54137644.87597084 115966503.66351318 0 115966503.66351318 -66157634.390274048 0 0 0 0 -94211748.949613571 66039372.33916378 0 66039372.33916378 34062866.209182739 0 0 0 0 -63907859.069915771 140111678.3396492 0 140111678.3396492 34738741.85144043 0 0 0 0 8840349.0510368347 7808679.0334434509 0 7808679.0334434509 -5266882.8307380676 0 0 0 0 -2202605.1094912123 16307852.490749829 0 16307852.490749829 -9882934.6891221851 0 0 0 0 6288338.2916526794 11733166.33575058 0 11733166.33575058 -4843810.8003540039 0 0 0 0 -95244.937644958496 13903000.109060764 0 13903000.109060764 -5285889.8889007568 0 0 0 0 692045.35352182388 7996570.6457872391 0 7996570.6457872391 -4062745.4761657715 0 0 0 0 2069390.5464493842 14676700.89579575 0 14676700.89579575 -18774251.483524144 0 0 0 0 17870547.239971161 -19665623.015598297 0 -19665623.015598297 -81522177.350761414 0 0 0 0 937943084.04280853 226190343.49687195 0 226190343.49687195 -528195248.46504211 0 0 0 0 200945371.0304184 -52400651.132003784 0 -52400651.132003784 -326197335.48338318 0 0 0 0 104734394.65809631 64062044.355487823 0 64062044.355487823 -15074725.045120239 0 0 0 0 -7881113.0011062622 44481910.923461914 0 44481910.923461914 -11807668.16256094 0 0 0 0 844988.26447105408 23877900.95223999 0 23877900.95223999 -11401533.115057707 0 0 0 0 -9971941.2384523153 22439758.397127151 0 22439758.397127151 -1332822.686126709 0 0 0 0 -42666821.984674454 36694085.846954346 0 36694085.846954346 -8834077.2418823242 0 0 0 0 -18320500.656881332 35056754.020217896 0 35056754.020217896 -14129655.918197632 0 0 0 0 -2059696.0724108825 13558350.837703668 0 13558350.837703668 -3486779.7425443456 0 0 0 0 1556608.6434841156 14892523.201477051 0 14892523.201477051 -8127625.9807662964 0 0 0 0 7682013.8737106323 34947534.055358887 0 34947534.055358887 -25144172.274414062 0 0 0 0 9370018.3072605133 8737151.5216903687 0 8737151.5216903687 -7009211.6849441528 0 0 0 0 583578.72719764709 7622938.6574020386 0 7622938.6574020386 -3340851.599822998 0 0 0 0 -3280597.6316554416 10280069.09878473 0 10280069.09878473 379701.59212885052 0 0 0 0 4796525.6541918116 7237701.9700578712 0 7237701.9700578712 -11301664.266556203 0 0 0 0 5898991.3411579132 12310806.530971527 0 12310806.530971527 -14967374.411277771 0 0 0 0 -17890065.28022784 13405507.500386238 0 13405507.500386238 -621151.13812255859 0 0 0 0 28345975.15228653 -37562202.77671814 0 -37562202.77671814 10425717.359512329 0 0 0 0 35365693.258615494 8758144.0088729858 0 8758144.0088729858 -28378569.764091492 0 0 0 0 -32280946.710155487 -29496931.894035339 0 -29496931.894035339 -12209248.000946045 0 0 0 0 49976953.647500038 -3333714.6155319214 0 -3333714.6155319214 -40504384.641479492 0 0 0 0 -23062790.477333069 -1361577.4510498047 0 -1361577.4510498047 29723215.871368408 0 0 0 0 30081133.841028214 -11148991.223800659 0 -11148991.223800659 -103313358.30085754 0 0 0 0 -441892.12796277087 1291688.6495004296 0 1291688.6495004296 611706.49584403634 0 0 0 0 97509033.056513786 94897835.02444458 0 94897835.02444458 -4082564.565246582 0 0 0 0 24441236.18491745 79179229.106262207 0 79179229.106262207 4775453.6362075806 0 0 0 0 83308341.915088654 54485330.294563293 0 54485330.294563293 -34394057.623062134 0 0 0 0 23741938.354248047 40290993.034072876 0 40290993.034072876 -33892993.018264771 0 0 0 0 -19543216.739944458 3536114.5414886475 0 3536114.5414886475 -59518091.260421753 0 0 0 0 27072155.544339739 20786898.158285022 0 20786898.158285022 -13021565.955310464 0 0 0 0 15620823.361421585 36871922.113304138 0 36871922.113304138 -33500031.028068542 0 0 0 0 12382044.538249016 58853725.817306519 0 58853725.817306519 -67998717.036773682 0 0 0 0 40473230.745319366 60337721.614841461 0 60337721.614841461 -49412240.052459717 0 0 0 0 16159379.205317073 21189336.783509776 0 21189336.783509776 -14516533.111561865 0 0 0 0 53649828.35149765 7498737.9258079529 0 7498737.9258079529 -46155857.33744812 0 0 0 0 15827357.597824097 44903693.7993927 0 44903693.7993927 -34614400.236618042 0 0 0 0 63638416.295188904 44521861.121009827 0 44521861.121009827 -25574296.622306824 0 0 0 0 -14511774.95833333 35617979.072932124 0 35617979.072932124 -29897686.570018645 0 0 0 0 55480162.50500679 36578810.98386097 0 36578810.98386097 -33281156.651733398 0 0 0 0 47311088.969724655 62822813.690221786 0 62822813.690221786 -33172203.495559692 0 0 0 0 -50354888.651695251 97692155.41857338 0 97692155.41857338 37024537.989057541 0 0 0 0 -80373854.828575134 -1130227.3598442078 0 -1130227.3598442078 -16125435.221687317 0 0 0 0 -7056868.1242111977 20512394.704950199 0 20512394.704950199 8999934.8091903478 0 0 0 0 -47362970.833436966 89820671.12310791 0 89820671.12310791 54477650.540854812 0 0 0 0 -49402519.707983255 32163987.446613431 0 32163987.446613431 -23796889.39781189 0 0 0 0 -48258899.654866934 6976603.6290280819 0 6976603.6290280819 -32420776.22442627 0 0 0 0 -16176176.783752441 17100146.897491455 0 17100146.897491455 -30988669.034698486 0 0 0 0 -13606507.335708618 22867638.624633789 0 22867638.624633789 -32031616.49054718 0 0 0 0 5300369.6051902771 37722756.235420227 0 37722756.235420227 -33038300.862075806 0 0 0 0 -5479374.5098571777 31325709.859786987 0 31325709.859786987 -26861508.208534241 0 0 0 0 -39202962.877972603 37513346.925097942 0 37513346.925097942 -29341386.780685425 0 0 0 0 -18009459.257034302 27075217.719108582 0 27075217.719108582 -33950251.428344727 0 0 0 0 -36727153.915710449 17528480.166954041 0 17528480.166954041 -28503900.508850098 0 0 0 0 -23364685.731750488 27325242.78237915 0 27325242.78237915 -33961900.423538208 0 0 0 0 -32401426.65296936 31834056.394821167 0 31834056.394821167 -30937121.176391602 0 0 0 0 5549602.6419639587 10821314.050392151 0 10821314.050392151 -5960326.0461578369 0 0 0 0 -10576606.631439209 25053647.559310913 0 25053647.559310913 -25903675.905929565 0 0 0 0 -1439966.7558354624 18962264.394453503 0 18962264.394453503 -8884612.3450711817 0 0 0 0 -20882257.134292603 32974795.713218689 0 32974795.713218689 -31818132.407314301 0 0 0 0 -13505204.575319648 32848338.47212404 0 32848338.47212404 -29363066.498603821 0 0 0 0 -14549543.865867615 30889862.683448792 0 30889862.683448792 -37393544.767166138 0 0 0 0 -14353383.811599731 28802582.442008972 0 28802582.442008972 -35405677.599723816 0 0 0 0 5027025.3946914673 10171138.850341797 0 10171138.850341797 3610132.3340454102 0 0 0 0 -12978816.275726318 15850397.922973633 0 15850397.922973633 -28432686.308868408 0 0 0 0 5384058.0817387737 11189874.151168436 0 11189874.151168436 -13674482.770422615 0 0 0 0 -25406951.562866211 37876539.370517731 0 37876539.370517731 -35204736.785064697 0 0 0 0 -6035581.343551877 21318525.087622475 0 21318525.087622475 259960.35108292848 0 0 0 0 -1547816.7729469426 1770286.8280061074 0 1770286.8280061074 -984989.53117414378 0 0 0 0 -30980375.358703613 28037279.450195312 0 28037279.450195312 -38897101.080657959 0 0 0 0 -441771.94889879681 25256816.141594402 0 25256816.141594402 -17606024.082694866 0 0 0 0 -294302.69548034668 8257337.4917297363 0 8257337.4917297363 -1697707.2319335938 0 0 0 0 -1863118.9200186776 12309447.614427362 0 12309447.614427362 -13379751.33525791 0 0 0 0 -384494216.06210327 -454020916.7212801 0 -454020916.7212801 -8225684.0834503174 0 0 0 0 632226100.21608734 -171330291.44987869 0 -171330291.44987869 -167157258.6879921 0 0 0 0 -56260483.814853668 -149410814.06660843 0 -149410814.06660843 -57380045.420387268 0 0 0 0 -375704922.31861877 14918792.367805481 0 14918792.367805481 -96184446.059301376 0 0 0 0 33339.960321068764 511237.17687724251 0 511237.17687724251 -550764.86258472502 0 0 0 0 584760379.84325027 407086149.6812458 0 407086149.6812458 -90231911.255096436 0 0 0 0 -5631242.0231838226 -103078577.46392059 0 -103078577.46392059 -97352060.160751343 0 0 0 0 -86369994.47826004 -215198264.23248672 0 -215198264.23248672 -104453455.93104553 0 0 0 0 -182456337.04139614 372377574.64517593 0 372377574.64517593 -199430596.07738876 0 0 0 0 370603.47959672194 499344.91353752092 0 499344.91353752092 -1867738.0545515046 0 0 0 0 766448658.31985855 -44970821.328716278 0 -44970821.328716278 -215861801.64184189 0 0 0 0 -920991.42996883392 4039402.0950050354 0 4039402.0950050354 46504223.579795837 0 0 0 0 346504029.16245651 264238677.92403412 0 264238677.92403412 117233115.69485998 0 0 0 0 540059338.07367134 483919705.8898716 0 483919705.8898716 -176025858.98486328 0 0 0 0 1406587751.6543694 962791132.96217728 0 962791132.96217728 66672443.046516418 0 0 0 0 1573843641.1062508 123721994.33032227 0 123721994.33032227 -396821141.11241722 0 0 0 0 570833341.53427124 377757341.75374985 0 377757341.75374985 85777238.376999855 0 0 0 0 489549597.72031021 450773349.48917389 0 450773349.48917389 -91888649.930753708 0 0 0 0 -100398977.58111572 91573082.807403564 0 91573082.807403564 98625351.397224426 0 0 0 0 1228821.2940609455 1020905.4016952179 0 1020905.4016952179 503265.28711549565 0 0 0 0 775902841.00793219 164043784.20395422 0 164043784.20395422 -521095518.92607117 0 0 0 0 660678715.785923 775480713.44752312 0 775480713.44752312 387969426.07537079 0 0 0 0 896684387.10546875 765062663.64647293 0 765062663.64647293 24206315.160071373 0 0 0 0 332466518.87853813 224156551.2582798 0 224156551.2582798 381217737.41716766 0 0 0 0 863458876.19260788 594222398.57959366 0 594222398.57959366 379566523.39335728 0 0 0 0 760129033.88632393 821823492.42217445 0 821823492.42217445 300532123.8680191 0 0 0 0 -72150878.963329315 699035812.32836342 0 699035812.32836342 656977868.3442173 0 0 0 0 791974799.36997318 860106296.75330353 0 860106296.75330353 331440269.01251221 0 0 0 0 415539332.93473053 337795493.31276703 0 337795493.31276703 645671755.5710429 0 0 0 0 415614250.60919762 433833895.61321259 0 433833895.61321259 318423137.91557312 0 0 0 0 -12524915.746189117 188120069.95702744 0 188120069.95702744 359355891.92126656 0 0 0 0 -17214732.965705872 347710708.21837234 0 347710708.21837234 -383119053.31547165 0 0 0 0 22173788.921989441 14735602.460914612 0 14735602.460914612 -63232873.224960327 0 0 0 0 -112444522.01461411 351905428.25211334 0 351905428.25211334 -362791519.13012695 0 0 0 0 2616097.1407391243 2192354.3916207254 0 2192354.3916207254 1024065.9331866875 0 0 0 0 -203194823.82863045 259469965.43991089 0 259469965.43991089 46557379.712402344 0 0 0 0 -131069665.35103989 25398277.947330475 0 25398277.947330475 -451289.4017829895 0 0 0 0 -26241798.840995789 134997542.44160461 0 134997542.44160461 112613470.21423721 0 0 0 0 437446.02647297457 3785846.5457048453 0 3785846.5457048453 1944145.3694651872 0 0 0 0 -260588527.89587402 6645474.4919891357 0 6645474.4919891357 71575201.57875824 0 0 0 0 -79326428.698799133 55599170.099769592 0 55599170.099769592 23622098.455604553 0 0 0 0 -99648656.780975342 46825919.107797623 0 46825919.107797623 38783183.969009399 0 0 0 0 -2315005.8631670522 17343692.994187891 0 17343692.994187891 10855513.833019074 0 0 0 0 23337256.903186798 71967409.488864899 0 71967409.488864899 26702287.868793488 0 0 0 0 7968237.7349006068 4453969.6254992299 0 4453969.6254992299 -12279005.907783736 0 0 0 0 125966328.67808723 30948890.367877007 0 30948890.367877007 -43518900.321548462 0 0 0 0 154403251.44119263 136192500.58237171 0 136192500.58237171 90035196.099906921 0 0 0 0 89544178.422637939 69170994.302707672 0 69170994.302707672 20877564.853057861 0 0 0 0 91396093.801147461 61262293.144893646 0 61262293.144893646 33093022.182266235 0 0 0 0 103989945.91637421 75805391.991493225 0 75805391.991493225 -34432253.604629517 0 0 0 0 93042270.72069931 46808335.73163414 0 46808335.73163414 -3720334.723449707 0 0 0 0 57736134.732513428 53520858.84362793 0 53520858.84362793 -67997706.325698853 0 0 0 0 66620992.229442596 83745403.245153427 0 83745403.245153427 16508840.098045349 0 0 0 0 123803107.25564575 46649978.126846313 0 46649978.126846313 12887268.715621948 0 0 0 0 15920949.371898651 63417782.400123596 0 63417782.400123596 185622644.48416901 0 0 0 0 256955961.4032402 183526590.7322998 0 183526590.7322998 151459764.48584747 0 0 0 0 -56116.354482650757 30077176.989023685 0 30077176.989023685 151568957.80438232 0 0 0 0 101076741.53858948 11262752.259277344 0 11262752.259277344 98783386.091209412 0 0 0 0 229868334.4397049 123787053.98444176 0 123787053.98444176 -62314770.075065613 0 0 0 0 184187537.57256508 276648597.61500263 0 276648597.61500263 356654559.84796143 0 0 0 0 696182555.8314786 1094508238.0836878 0 1094508238.0836878 726537087.00687408 0 0 0 0 879544.51271587797 3527222.8865213376 0 3527222.8865213376 3233092.2064682022 0 0 0 0 -616413003.12034225 -26137484.410053253 0 -26137484.410053253 562403854.21349335 0 0 0 0 4669918068.7517757 607617162.57975149 0 607617162.57975149 159428400.49901581 0 0 0 0 -139557757.84228516 531478443.96463013 0 531478443.96463013 1019205298.2392635 0 0 0 0 -93299507.387426376 209682846.25631332 0 209682846.25631332 -50481126.414001465 0 0 0 0 103572274.11523628 74853229.312971115 0 74853229.312971115 -75143876.420425415 0 0 0 0 -355809232.44492722 100278162.56637955 0 100278162.56637955 18879210.197244644 0 0 0 0 1391791.862308847 10104785.154920962 0 10104785.154920962 10685642.461280555 0 0 0 0 4423530258.6707497 -980384887.82811642 0 -980384887.82811642 -651169087.07862854 0 0 0 0 608846716.74603271 -1008704674.6848297 0 -1008704674.6848297 1091925905.8253479 0 0 0 0 1383814182.1648979 -64755636.983932495 0 -64755636.983932495 755262441.37781525 0 0 0 0 2309068797.5642548 595601648.5266571 0 595601648.5266571 169684857.48522949 0 0 0 0 542283838.80883026 72957320.054229736 0 72957320.054229736 226384564.75843811 0 0 0 0 640289858.74966431 1517386756.467659 0 1517386756.467659 -932842032.48220062 0 0 0 0 702233577.95955086 181087562.97104073 0 181087562.97104073 -1485559118.0224609 0 0 0 0 -412209131.73767853 470116743.59825134 0 470116743.59825134 40700839.011823654 0 0 0 0 1077359080.7338257 915475214.76459503 0 915475214.76459503 400759982.65852356 0 0 0 0 109154053.21935272 208854041.62319183 0 208854041.62319183 60623175.267924786 0 0 0 0 -149542441.2963295 320452718.94779205 0 320452718.94779205 415902480.11711121 0 0 0 0 -717796715.10166168 -227913617.04743195 0 -227913617.04743195 624542243.19493866 0 0 0 0 -133058323.08132553 199953407.22380733 0 199953407.22380733 1180958109.1248779 0 0 0 0 1104341290.6754799 837787897.22198868 0 837787897.22198868 1444365820.3307953 0 0 0 0 559618057.27403259 -220252177.79549789 0 -220252177.79549789 580329829.51569366 0 0 0 0 647596313.24424744 -351865374.96658516 0 -351865374.96658516 805056827.48475647 0 0 0 0 -83169818.96282196 -430234669.86119461 0 -430234669.86119461 455417717.84568787 0 0 0 0 -23125290.773506165 215974517.51702118 0 215974517.51702118 491374949.46710968 0 0 0 0 31926521.871320788 9978921.7495729849 0 9978921.7495729849 -7868257.7423676774 0 0 0 0 437273104.18378067 -125562796.22123718 0 -125562796.22123718 -15672136.825302124 0 0 0 0 615982200.66183472 183541389.11811829 0 183541389.11811829 -288566606.49048233 0 0 0 0 -22553579.810894012 21076845.890441895 0 21076845.890441895 10860883.983398438 0 0 0 0 816965055.89246368 104647509.5222168 0 104647509.5222168 -280828637.68262672 0 0 0 0 926030882.45896149 -188835301.06533813 0 -188835301.06533813 -879974643.3621521 0 0 0 0 439677649.51676559 -2098959272.2992554 0 -2098959272.2992554 2711884843.6454773 0 0 0 0 1813818579.677124 -4025465892.1413574 0 -4025465892.1413574 -2394990561.6430092 0 0 0 0 1035517407.311264 1201171349.4018707 0 1201171349.4018707 -369024333.11730957 0 0 0 0 1571226472.7170258 1082700233.1089478 0 1082700233.1089478 -1844780083.5552711 0 0 0 0 1847362290.2305031 415079801.09069061 0 415079801.09069061 -524286099.87530518 0 0 0 0 1019034864.7580109 438392851.35900879 0 438392851.35900879 -484809554.99946594 0 0 0 0 1172808859.3370819 651553407.81837463 0 651553407.81837463 -220087219.39324951 0 0 0 0 802664784.20609283 425281804.60219574 0 425281804.60219574 -137405824.26434326 0 0 0 0 1173528244.0899885 556221437.78200209 0 556221437.78200209 14204275.797424316 0 0 0 0 1158878413.1170959 778703800.6137085 0 778703800.6137085 -363699830.24005127 0 0 0 0 1275193369.1748886 768622726.47238159 0 768622726.47238159 268568961.91159058 0 0 0 0 1252411923.0755615 594289071.80032349 0 594289071.80032349 30583017.049224854 0 0 0 0 1424171898.7094078 422675877.50385284 0 422675877.50385284 153605870.29107666 0 0 0 0 837532481.63735199 550304169.43078613 0 550304169.43078613 159818814.40466309 0 0 0 0 474669535.8849411 537009408.26889038 0 537009408.26889038 250805596.79414368 0 0 0 0 955546730.75745201 499621034.98000336 0 499621034.98000336 -131318336.77966309 0 0 0 0 263289154.08385658 170919923.49462891 0 170919923.49462891 -69184157.433837891 0 0 0 0 204387524.96244049 25906041.164230347 0 25906041.164230347 -24380650.322418213 0 0 0 0 431022919.88246918 328106270.42488861 0 328106270.42488861 -41564046.81451416 0 0 0 0 58705125.036621094 233975550.87846375 0 233975550.87846375 -45463971.411315918 0 0 0 0 -73961698.982917786 18730690.599487305 0 18730690.599487305 -84448261.580886841 0 0 0 0 -2940423.1251335144 238350482.77848816 0 238350482.77848816 169194194.93273926 0 0 0 0 -92238247.635288239 100231461.81484985 0 100231461.81484985 -21125895.018463135 0 0 0 0 44615013.338806152 -22409180.801681519 0 -22409180.801681519 74927344.028213501 0 0 0 0 31131281.833786011 161423444.0980072 0 161423444.0980072 428085881.1181488 0 0 0 0 -148096216.72745395 186885001.27451038 0 186885001.27451038 227827869.89050293 0 0 0 0 -139687068.24014664 315028501.09962463 0 315028501.09962463 -68955933.74079895 0 0 0 0 -46613447.231264114 49707004.369110107 0 49707004.369110107 116136638.14926147 0 0 0 0 -119445564.57170105 -34421246.838302612 0 -34421246.838302612 347575653.99584961 0 0 0 0 -4665363.2067808211 -3169561.9515112825 0 -3169561.9515112825 1138930.8394883494 0 0 0 0 259446893.40606689 256630334.16560364 0 256630334.16560364 571084481.35905123 0 0 0 0 1188019390.736351 925923378.90667725 0 925923378.90667725 -2289250716.2143478 0 0 0 0 1084487348.3954773 204969565.77031708 0 204969565.77031708 133898497.27163696 0 0 0 0 501746779.48126221 650580397.75859833 0 650580397.75859833 933936347.24865723 0 0 0 0 400058.55726661161 -1771207.7422335595 0 -1771207.7422335595 524529.41884524189 0 0 0 0 1169167567.4965744 652111846.99859619 0 652111846.99859619 144466537.8318634 0 0 0 0 638504626.71069336 -5173877.5246734619 0 -5173877.5246734619 -668827627.6212616 0 0 0 0 1324441267.6294556 417857506.18412781 0 417857506.18412781 321600176.83495331 0 0 0 0 1534193784.5792313 199643849.7104187 0 199643849.7104187 383063006.22293854 0 0 0 0 1379760179.9073181 439585041.10391998 0 439585041.10391998 211994109.0725708 0 0 0 0 -188162935.50775909 90094964.776105881 0 90094964.776105881 39956256.449417114 0 0 0 0 3707866396.1817455 426771631.76788139 0 426771631.76788139 -811791190.02084351 0 0 0 0 -64112.033223302104 17608986.779930204 0 17608986.779930204 22894206.966430567 0 0 0 0 1981105564.0363159 1952474827.0626373 0 1952474827.0626373 -1271437400.9154739 0 0 0 0 -57039046.741287231 72326471.945604324 0 72326471.945604324 -8237940.038772583 0 0 0 0 -79967110.688827515 110766026.18746185 0 110766026.18746185 -14726107.648029327 0 0 0 0 -26423420.889019012 99109430.779006958 0 99109430.779006958 -11284965.838943481 0 0 0 0 -98503777.97580719 25165223.445167542 0 25165223.445167542 24361322.348388672 0 0 0 0 -18899159.750984192 59814606.869377136 0 59814606.869377136 14060184.146446228 0 0 0 0 -19470705.716129303 47235513.006811142 0 47235513.006811142 73544421.854431152 0 0 0 0 -32157914.784626007 81377109.660606384 0 81377109.660606384 60908314.162620544 0 0 0 0 695587427.33940887 -260483868.63867188 0 -260483868.63867188 317274051.52632427 0 0 0 0 4127990.5853469521 24246668.288308866 0 24246668.288308866 -27463411.590084493 0 0 0 0 -36889287.806686401 80645809.11964798 0 80645809.11964798 84665438.407150269 0 0 0 0 1408058128.5118027 398345522.80583954 0 398345522.80583954 198642732.55337524 0 0 0 0 -4018881.9780318886 28033570.277252667 0 28033570.277252667 39313965.679093011 0 0 0 0 1312051298.9637909 407577732.43331909 0 407577732.43331909 215243169.22592163 0 0 0 0 1261643535.1965637 538813964.98751831 0 538813964.98751831 79034626.180725098 0 0 0 0 1220387295.8429108 566022885.62545776 0 566022885.62545776 187905301.31115723 0 0 0 0 1306305314.7763519 420300249.57253265 0 420300249.57253265 360150079.61935425 0 0 0 0 -334123663.22947693 1412754805.1342621 0 1412754805.1342621 -855530776.75518799 0 0 0 0 1438259.4658110933 4559020.5744661316 0 4559020.5744661316 -880554.64425851405 0 0 0 0 -460188088.87194824 -1194081299.039978 0 -1194081299.039978 -3168894143.9040527 0 0 0 0 2957584212.4121246 269498222.47424316 0 269498222.47424316 -4834514736.0233154 0 0 0 0 1052367209.8971863 1061787365.8404541 0 1061787365.8404541 -126656540.36383057 0 0 0 0 -4511223.8140311241 6278380.0683915913 0 6278380.0683915913 5970931.2935792655 0 0 0 0 1145743772.7179184 856585329.56477356 0 856585329.56477356 299662179.87380981 0 0 0 0 6335688083.4369507 3175553091.4604492 0 3175553091.4604492 -3623848033.2698364 0 0 0 0 1381305.8905877676 -798670.85689157434 0 -798670.85689157434 905568.78064474463 0 0 0 0 -288348128.82775116 178920331.38058472 0 178920331.38058472 14440332.000915527 0 0 0 0 -302714197.16796112 1733576865.0886993 0 1733576865.0886993 -652453176.22648621 0 0 0 0 -310811025.63677025 51506841.075178146 0 51506841.075178146 -10243405.096923828 0 0 0 0 -528639792.490448 800791026.54681396 0 800791026.54681396 240712282.8538208 0 0 0 0 -165369738.20661926 157927041.08029175 0 157927041.08029175 9138971.5476531982 0 0 0 0 -198490382.12989044 280924563.33204651 0 280924563.33204651 130209974.67108154 0 0 0 0 -171548599.37818146 159439766.920578 0 159439766.920578 -86381394.087539673 0 0 0 0 -245638577.07397461 208852967.25878906 0 208852967.25878906 -22706721.042694092 0 0 0 0 -219049628.51412392 125563124.56881714 0 125563124.56881714 -14877926.16192627 0 0 0 0 -418203435.34423828 178387601.98052979 0 178387601.98052979 -23520218.38973999 0 0 0 0 -386015622.43525696 -14570896.768951416 0 -14570896.768951416 -33892652.594761848 0 0 0 0 -183071141.71921921 15112155.391891479 0 15112155.391891479 -33352416.016113281 0 0 0 0 -291665477.70330048 115314146.10806274 0 115314146.10806274 30788466.851013184 0 0 0 0 -91518770.14604187 101111744.25924683 0 101111744.25924683 14552542.71434021 0 0 0 0 -175966613.04655075 19461724.879241943 0 19461724.879241943 44476094.973327637 0 0 0 0 -88825046.654251099 193681989.6703949 0 193681989.6703949 84120174.633605957 0 0 0 0 -194638329.07545471 200026335.30584717 0 200026335.30584717 104096262.30093384 0 0 0 0 -19501826.138664246 349357553.78392029 0 349357553.78392029 100295725.69372559 0 0 0 0 68804102.83669281 92590071.218875885 0 92590071.218875885 9666186.199432373 0 0 0 0 43791817.629869461 128012104.9769249 0 128012104.9769249 26137709.560447693 0 0 0 0 6378149.6610814556 26778879.570940264 0 26778879.570940264 -30727128.016796418 0 0 0 0 -18834684.713172913 120666699.71041107 0 120666699.71041107 -28135429.03799057 0 0 0 0 48535617.911729813 101121390.07749176 0 101121390.07749176 -33658022.23614502 0 0 0 0 54509443.062822342 83145826.374940872 0 83145826.374940872 18809476.106491089 0 0 0 0 -18819556.927879333 83482376.997291565 0 83482376.997291565 17802700.687084198 0 0 0 0 56295678.117515564 73325512.580680847 0 73325512.580680847 -30863577.673618317 0 0 0 0 80158865.51424408 33754534.535531998 0 33754534.535531998 -41913304.401977539 0 0 0 0 57129880.645565987 44559225.217723846 0 44559225.217723846 17119666.03012085 0 0 0 0 -9464493.5239334106 256606229.51498413 0 256606229.51498413 108301036.4258194 0 0 0 0 -45215810.263988495 74276480.604400635 0 74276480.604400635 143320814.87722778 0 0 0 0 43716441.236003876 100249485.41844177 0 100249485.41844177 6624657.7541351318 0 0 0 0 -1111511.8910389999 26241804.636944838 0 26241804.636944838 21328443.7520459 0 0 0 0 4056057.8173700757 28308255.813685115 0 28308255.813685115 -26410969.532446757 0 0 0 0 -34833944.728523254 43558196.228004456 0 43558196.228004456 37557248.318786621 0 0 0 0 277254.82206508145 28390238.086584862 0 28390238.086584862 29344551.549489189 0 0 0 0 -55295651.237983704 79152350.186897278 0 79152350.186897278 37045304.300197601 0 0 0 0 -65138561.915855408 36176227.098945618 0 36176227.098945618 36019184.908721924 0 0 0 0 -39867004.825250626 57865212.087561607 0 57865212.087561607 32246894.08656311 0 0 0 0 -55836660.547214508 40062697.069129944 0 40062697.069129944 109980186.2374115 0 0 0 0 -52945927.314098358 57429930.211499214 0 57429930.211499214 40400047.996673584 0 0 0 0 2072301.6404782534 32896959.594062366 0 32896959.594062366 26844385.116537996 0 0 0 0 -33485350.510246277 14990593.188213348 0 14990593.188213348 16390125.124511719 0 0 0 0 14039160.009605408 -29039049.041107178 0 -29039049.041107178 17628650.046112061 0 0 0 0 -13446618.6873703 -28446277.581520081 0 -28446277.581520081 97848246.33946228 0 0 0 0 -38977332.059120178 9955657.3342285156 0 9955657.3342285156 51174484.908966064 0 0 0 0 1375361.1995815262 5608192.3840714991 0 5608192.3840714991 8257680.6322864294 0 0 0 0 -187472188.7421875 32939499.586837769 0 32939499.586837769 28688652.475189209 0 0 0 0 18925005.676216125 -41874191.095428467 0 -41874191.095428467 51303018.630279541 0 0 0 0 285930154.77628326 474313240.88921356 0 474313240.88921356 61052980.785675049 0 0 0 0 619151074.53909302 -530932831.19033813 0 -530932831.19033813 140042318.55273438 0 0 0 0 -339064371.87171936 -32337673.807525635 0 -32337673.807525635 546656671.65478516 0 0 0 0 -248290.4017451182 3128299.5228581987 0 3128299.5228581987 5517458.5972635001 0 0 0 0 -329068909.55812073 56683666.416595459 0 56683666.416595459 70455083.464050293 0 0 0 0 854588.05638520047 2328855.8381772414 0 2328855.8381772414 3603700.0142382309 0 0 0 0 39971936.234298706 80261574.900695801 0 80261574.900695801 10149583.157043457 0 0 0 0 53194525.839416504 53150968.588485718 0 53150968.588485718 64692592.60144043 0 0 0 0 -2634363.0607344899 11625295.143198058 0 11625295.143198058 8868971.9733633697 0 0 0 0 13034297.712432861 27495630.528442383 0 27495630.528442383 20019002.381919861 0 0 0 0 29995541.83758831 -14400225.82986927 0 -14400225.82986927 -233920081.95944214 0 0 0 0 2095295.7736282349 54258505.633163452 0 54258505.633163452 18704819.875152588 0 0 0 0 14423318.632461548 36230293.429992676 0 36230293.429992676 15235788.191829681 0 0 0 0 34850867.772143841 29238270.480134964 0 29238270.480134964 12629847.237854004 0 0 0 0 -244298345.54556274 -95303435.804702759 0 -95303435.804702759 66318200.255752563 0 0 0 0 -289752516.20956421 -38383071.718292236 0 -38383071.718292236 43088820.805511475 0 0 0 0 70791968.106674194 379344343.76403809 0 379344343.76403809 -413716801.5736084 0 0 0 0 87475.619485870004 3359094.7486568876 0 3359094.7486568876 1202443.2606815845 0 0 0 0 193505464.06812286 1435837612.405323 0 1435837612.405323 -885987660.84472656 0 0 0 0 -552848313.76152039 513537902.43547058 0 513537902.43547058 -252364054.07933044 0 0 0 0 -671426450.27292061 -52807681.128229141 0 -52807681.128229141 451261479.13027954 0 0 0 0 -537133565.94582367 425107596.99953461 0 425107596.99953461 -60919066.441192627 0 0 0 0 -393197465.11638069 840639243.30437279 0 840639243.30437279 -316459452.9307251 0 0 0 0 -6582532.15858078 -30904669.482299805 0 -30904669.482299805 147178225.08756638 0 0 0 0 -2336957.5277527273 196646.22133460641 0 196646.22133460641 2062527.6124386936 0 0 0 0 -9595043.4598464966 110379069.72537231 0 110379069.72537231 195222511.12719727 0 0 0 0 5348818.054485321 659050163.21617126 0 659050163.21617126 -477099641.54780579 0 0 0 0 163606824.2894516 281172351.01212311 0 281172351.01212311 709618.3091583252 0 0 0 0 -488665579.94786072 82727565.491500854 0 82727565.491500854 179653948.81066895 0 0 0 0 82863513.91708374 215542404.11159515 0 215542404.11159515 346795375.8301239 0 0 0 0 137783969.41108704 274443477.20124817 0 274443477.20124817 -287075787.40673065 0 0 0 0 -123046.13335909694 1529751.9826164022 0 1529751.9826164022 842657.97314532474 0 0 0 0 -105115182.57666397 63843788.839103699 0 63843788.839103699 -65835906.08972168 0 0 0 0 25745251.168937683 58615733.318832397 0 58615733.318832397 -125242128.5090332 0 0 0 0 22486421.803291321 3221322.7924499512 0 3221322.7924499512 -139026850.89306641 0 0 0 0 -53861113.901504517 34080556.830322266 0 34080556.830322266 -17471854.391304016 0 0 0 0 535984.4127275683 3349570.2966489792 0 3349570.2966489792 1545023.6598322764 0 0 0 0 28977193.931789398 76313460.125839233 0 76313460.125839233 98101.556747436523 0 0 0 0 64821455.579818726 42664693.496002197 0 42664693.496002197 26485799.745956421 0 0 0 0 1056923.735392197 -3342614.6495215669 0 -3342614.6495215669 1041997.2078997493 0 0 0 0 -43389377.093658447 31880698.972194672 0 31880698.972194672 -12102569.233215332 0 0 0 0 1955299.6956964061 3802153.9797959328 0 3802153.9797959328 2752021.5240870044 0 0 0 0 11281386.239836693 7725930.3444824219 0 7725930.3444824219 5269980.4741210938 0 0 0 0 -180853685.85035706 59659086.633041382 0 59659086.633041382 6538200.1362304688 0 0 0 0 979159.3824618347 -1126428.527174212 0 -1126428.527174212 366863.196439147 0 0 0 0 -11817597.051233292 36604326.831420898 0 36604326.831420898 -68476693.447937012 0 0 0 0 98915385.522979736 88275416.744232178 0 88275416.744232178 -115929808.12277985 0 0 0 0 89405568.31338501 23908518.1068573 0 23908518.1068573 -139658268.2934103 0 0 0 0 -102210016.84100342 272357201.07887268 0 272357201.07887268 -282852551.22494507 0 0 0 0 -455822668.20357513 390967574.84100342 0 390967574.84100342 -159582230.78060913 0 0 0 0 -773597075.09810829 105607349.52820969 0 105607349.52820969 35434423.404663086 0 0 0 0 658992.25531002134 1151844.9295076029 0 1151844.9295076029 1872729.6392485946 0 0 0 0 1107634240.6105347 667866350.57685471 0 667866350.57685471 -705995374.0776062 0 0 0 0 -234361014.04231262 217776835.00588989 0 217776835.00588989 -136696265.27719116 0 0 0 0 -171910977.16526484 146434716.03377247 0 146434716.03377247 -24936933.118225098 0 0 0 0 50981834.259975433 6388027.3721427917 0 6388027.3721427917 -11378477.801055908 0 0 0 0 227089.53519522306 -585328.64787332714 0 -585328.64787332714 150571.52819752693 0 0 0 0 -211096895.09572601 189202667.84457397 0 189202667.84457397 -170016517.08435059 0 0 0 0 -306651455.64056015 184159557.78905487 0 184159557.78905487 -124510063.02703857 0 0 0 0 -101820083.74252319 123727205.62348938 0 123727205.62348938 -100736314.79956055 0 0 0 0 -45973948.090736389 -27896399.815856934 0 -27896399.815856934 13541284.542175293 0 0 0 0 10712364.947509766 6219294.377822876 0 6219294.377822876 -8836388.1495056152 0 0 0 0 -1181078762.5717316 -163178364.61079407 0 -163178364.61079407 1524010323.1773682 0 0 0 0 1123055523.7356644 3551341295.8909607 0 3551341295.8909607 2192548177.493866 0 0 0 0 3555684338.4680023 -2182412167.6878357 0 -2182412167.6878357 2042072631.6007142 0 0 0 0 4319903.4087928813 -1624500.1544874907 0 -1624500.1544874907 -191666.96273753047 0 0 0 0 3728629.5588515438 4311818.049726896 0 4311818.049726896 2466739.5458731055 0 0 0 0 -3048393.4634628296 -5455431.7373199463 0 -5455431.7373199463 7121622.4650268555 0 0 0 0 -5747279.969078064 13935661.821838379 0 13935661.821838379 4332345.742805481 0 0 0 0 1451115.2311325073 15621119.704650879 0 15621119.704650879 -16759272.670509338 0 0 0 0 6312959.2701377869 21140365.804180145 0 21140365.804180145 -55678728.702819824 0 0 0 0 15383012.141777039 44760417.561347961 0 44760417.561347961 -36500532.895233154 0 0 0 0 -13191773.892051697 51524899.799453735 0 51524899.799453735 -600360.12922226451 0 0 0 0 49374713.408958435 -86088105.124687195 0 -86088105.124687195 -384477863.7540741 0 0 0 0 16364819.852231026 46444268.430566788 0 46444268.430566788 -79362649.017608643 0 0 0 0 5270592.1004857086 -1397221.1854316648 0 -1397221.1854316648 -2690197.2064634115 0 0 0 0 12140163.633239746 -5517934.7629852295 0 -5517934.7629852295 -70529209.652404785 0 0 0 0 6049929.8869171143 2883851.9061431885 0 2883851.9061431885 -10740811.171737671 0 0 0 0 530000081.51860046 -442697028.49653625 0 -442697028.49653625 266388756.92263794 0 0 0 0 1381257495.0895081 448213633.80275726 0 448213633.80275726 -227058121.33010864 0 0 0 0 1251383623.3269501 466639610.25158691 0 466639610.25158691 -167834156.25354004 0 0 0 0 1387900825.2436981 305138046.67271423 0 305138046.67271423 -54649268.531677246 0 0 0 0 2311005.69118388 -1010893.2243917342 0 -1010893.2243917342 -1355430.2965736836 0 0 0 0 1352696159.4342461 253791020.62959671 0 253791020.62959671 16294310.022338867 0 0 0 0 1030142818.3508453 318589874.05607605 0 318589874.05607605 328026512.22561169 0 0 0 0 1330677212.941597 435052586.05052185 0 435052586.05052185 29659481.436852455 0 0 0 0 1166539568.5770569 698725262.46477509 0 698725262.46477509 272626197.51435852 0 0 0 0 742820671.02610016 316844240.66543579 0 316844240.66543579 -66167917.768814087 0 0 0 0 1140391987.1189194 1329928778.6763687 0 1329928778.6763687 1732215221.9377747 0 0 0 0 1566452045.1357727 -501233885.47529602 0 -501233885.47529602 138251429.67825317 0 0 0 0 1643027.5050342754 2068069.4363723472 0 2068069.4363723472 1304896.9348850138 0 0 0 0 2626627788.2424011 459932303.37611389 0 459932303.37611389 -229288504.74169922 0 0 0 0 2203304863.627533 1840461001.4179611 0 1840461001.4179611 186480672.26867676 0 0 0 0 1467891751.8792114 1644456668.4079895 0 1644456668.4079895 410904179.72116089 0 0 0 0 11520009.113192704 1883912.8465650231 0 1883912.8465650231 -2649060.6538601033 0 0 0 0 1385049097.8525162 2105649598.3609276 0 2105649598.3609276 1348789033.6064148 0 0 0 0 529608690.98093414 -226525402.72715759 0 -226525402.72715759 215903102.87210083 0 0 0 0 438153240.80504608 42493188.382072449 0 42493188.382072449 -397667029.3293457 0 0 0 0 -91742793.81722641 17386371.687408447 0 17386371.687408447 18261772.151096344 0 0 0 0 -59889018.208498001 46861204.718490601 0 46861204.718490601 28209125.941333771 0 0 0 0 -74290540.597923279 8892208.7839813232 0 8892208.7839813232 -1294083.0498046875 0 0 0 0 -36535696.084681988 40003600.866462708 0 40003600.866462708 21333192.546905518 0 0 0 0 -39270215.141175747 47382161.27230835 0 47382161.27230835 5965877.129699707 0 0 0 0 -109574942.99364471 25735684.342216492 0 25735684.342216492 6913123.2892336845 0 0 0 0 -12710052.399744034 60319283.366142273 0 60319283.366142273 -29553424.359802246 0 0 0 0 -96695385.320899963 27470174.026916504 0 27470174.026916504 -1971496.8884887695 0 0 0 0 -107341617.24978256 -6712603.0252990723 0 -6712603.0252990723 -26820262.391326904 0 0 0 0 -6297711.4927854836 11433343.649557773 0 11433343.649557773 -1367370.0045211166 0 0 0 0 80338222.014924526 36560490.890216827 0 36560490.890216827 -21858096.777053833 0 0 0 0 92147285.047477722 69604182.79901123 0 69604182.79901123 203233573.14840698 0 0 0 0 133876054.35770798 -114762093.61750793 0 -114762093.61750793 52587925.146965027 0 0 0 0 23364662.27723217 44087499.89377594 0 44087499.89377594 7805708.6822814941 0 0 0 0 9074967.7205154281 13128548.669920519 0 13128548.669920519 -13930419.942940533 0 0 0 0 90664583.015512377 37149960.325313568 0 37149960.325313568 -53710364.93196106 0 0 0 0 53633946.544514656 -8727561.9868850708 0 -8727561.9868850708 -39829057.859863281 0 0 0 0 16004334.624804124 -3107054.8961171955 0 -3107054.8961171955 -14932353.230121829 0 0 0 0 55636370.186019897 22223432.019897461 0 22223432.019897461 -43617893.077789307 0 0 0 0 66788478.735198975 -3529532.3405685425 0 -3529532.3405685425 7732716.8129272461 0 0 0 0 52627205.34519577 56450100.944869995 0 56450100.944869995 76443580.909896851 0 0 0 0 56183153.893721342 9276592.4670171738 0 9276592.4670171738 -12966073.869934082 0 0 0 0 -1477698.9374113404 2198928.494470574 0 2198928.494470574 2697698.1301784962 0 0 0 0 -126760627.63936043 50167.5368309021 0 50167.5368309021 14683825.472137451 0 0 0 0 129355975.37560654 87258225.317901611 0 87258225.317901611 52207120.05859375 0 0 0 0 550039847.63363647 75938863.780532837 0 75938863.780532837 -147059230.15682983 0 0 0 0 -10615.010549035156 397788.81745253876 0 397788.81745253876 -55411.015040636063 0 0 0 0 -1845314.8621563627 4669172.5316182487 0 4669172.5316182487 1699844.1009167135 0 0 0 0 78986.344299793243 -9597247.830324173 0 -9597247.830324173 -9106229.6072692871 0 0 0 0 -66768582.185211182 25182121.479614258 0 25182121.479614258 17888286.498352051 0 0 0 0 229044630.31795692 95109294.800552368 0 95109294.800552368 -21663913.136245728 0 0 0 0 -106182.34251870494 2044698.321608481 0 2044698.321608481 846186.96484440565 0 0 0 0 -603589.29171943665 171834421.68334961 0 171834421.68334961 59690076.49823761 0 0 0 0 165995435.21741104 93015452.676132202 0 93015452.676132202 -9818361.5826950073 0 0 0 0 -8441601.6771046519 -14314603.170537472 0 -14314603.170537472 47291415.780487061 0 0 0 0 -5367596.5035136612 14242670.932140902 0 14242670.932140902 -5098135.2616693974 0 0 0 0 188024843.87143135 33946014.980422974 0 33946014.980422974 -51977164.069885254 0 0 0 0 104635078.6482296 10231727.546829224 0 10231727.546829224 -40843015.974456787 0 0 0 0 126139287.84284973 -30925391.04233551 0 -30925391.04233551 29479975.809020996 0 0 0 0 47097712.829043388 63567624.291030884 0 63567624.291030884 76498405.665985107 0 0 0 0 61891930.217421055 83638418.299858093 0 83638418.299858093 61034387.957397461 0 0 0 0 7905803.9385700226 100794247.15016937 0 100794247.15016937 1749082.6028442383 0 0 0 0 45806415.729248047 56339290.501861572 0 56339290.501861572 45022687.6171875 0 0 0 0 64985154.147800446 77932935.688247681 0 77932935.688247681 -865549.68804931641 0 0 0 0 8521705.6184196472 25575227.404399872 0 25575227.404399872 -4271425.7959289551 0 0 0 0 -1928739.1180776916 8874815.8811292816 0 8874815.8811292816 1432979.3768986613 0 0 0 0 43328841.678722382 -3787967.0467071533 0 -3787967.0467071533 -35295912.032348633 0 0 0 0 60014858.298362732 49941918.622802734 0 49941918.622802734 16427916.607727051 0 0 0 0 32258213.725219727 -48728321.256164551 0 -48728321.256164551 5819016.6705322266 0 0 0 0 -256544.00913300924 602238.61202805117 0 602238.61202805117 -930405.64744108915 0 0 0 0 -42412821.340415001 54499707.253608704 0 54499707.253608704 -11509916.144302368 0 0 0 0 -31113795.573284149 31767789.307037354 0 31767789.307037354 -3779703.5232505798 0 0 0 0 -28731092.647284985 29217560.064811707 0 29217560.064811707 -1772403.0830993652 0 0 0 0 -24682302.596956253 32827165.655342102 0 32827165.655342102 -22572040.496612549 0 0 0 0 -49154779.757184982 51310725.688919067 0 51310725.688919067 29862940.862213135 0 0 0 0 -62657410.61987114 26112716.369812012 0 26112716.369812012 2827737.7892074585 0 0 0 0 -85783955.33257103 22661656.434265137 0 22661656.434265137 23582344.073425293 0 0 0 0 -31448447.653329849 81511948.015930176 0 81511948.015930176 52774350.773029327 0 0 0 0 -19583159.565125465 58930288.26486969 0 58930288.26486969 43134349.09362793 0 0 0 0 -39714581.631523132 31974299.042518616 0 31974299.042518616 34300487.628417969 0 0 0 0 -16188085.149211884 58983879.051239014 0 58983879.051239014 -68212453.286407471 0 0 0 0 24064131.070955276 17703654.52166748 0 17703654.52166748 -80535786.281654358 0 0 0 0 -4345356.4625210445 21136340.667050987 0 21136340.667050987 -8047240.6735849828 0 0 0 0 -20067392.25246048 65921282.807571411 0 65921282.807571411 72645103.851242065 0 0 0 0 3232301.9951818539 2513398.5264877193 0 2513398.5264877193 -3338748.9833170846 0 0 0 0 24595704.503162384 11375913.792526245 0 11375913.792526245 -59387530.163818359 0 0 0 0 14232821.62015295 33110173.68074894 0 33110173.68074894 21440666.768478394 0 0 0 0 6263398.4563664868 18483088.47310641 0 18483088.47310641 -21173796.184115663 0 0 0 0 57619501.359897614 83933194.044132233 0 83933194.044132233 -21281169.143463135 0 0 0 0 27706839.131103516 6904735.161315918 0 6904735.161315918 15779213.709495544 0 0 0 0 -10252370.901420774 8817548.3070132621 0 8817548.3070132621 7323832.0455986559 0 0 0 0 14802406.640213013 35635824.038787842 0 35635824.038787842 10029764.118293762 0 0 0 0 988308.35024833679 44155890.479125977 0 44155890.479125977 -22397164.112792969 0 0 0 0 50376447.529117584 85205539.801956177 0 85205539.801956177 8610308.5558776855 0 0 0 0 61537827.833137512 31349558.636627197 0 31349558.636627197 29734195.503570557 0 0 0 0 -4359093.7795028687 32767814.572143555 0 32767814.572143555 87792825.9063797 0 0 0 0 83518763.323265076 73469605.761993408 0 73469605.761993408 69215842.727096558 0 0 0 0 -33716760.533500671 17087911.251342773 0 17087911.251342773 99971488.414428711 0 0 0 0 -661317.39824017521 726515.29339651577 0 726515.29339651577 -154701.94496247172 0 0 0 0 -15252600.747737885 64072861.93447113 0 64072861.93447113 29969160.161827087 0 0 0 0 -13285517.386581421 99124856.883651733 0 99124856.883651733 6615807.3289899826 0 0 0 0 48500377.078277588 57436819.804363251 0 57436819.804363251 26419229.09980011 0 0 0 0 -12048403.233686447 21173860.600608826 0 21173860.600608826 48564287.849411011 0 0 0 0 28912721.590436339 70044954.074785471 0 70044954.074785471 20032523.51322937 0 0 0 0 -784021.53205065615 1777580.1058146283 0 1777580.1058146283 3737650.5590863228 0 0 0 0 6786501.9043540955 66333040.544277191 0 66333040.544277191 16841905.12197113 0 0 0 0 -4550236.3356988598 24423846.159955233 0 24423846.159955233 -4597357.1119447537 0 0 0 0 1801904.0447883606 87355065.117305756 0 87355065.117305756 25114483.295968533 0 0 0 0 40299297.959014893 48513339.684020996 0 48513339.684020996 46365293.061676025 0 0 0 0 433762.81433105469 4681925.1066589355 0 4681925.1066589355 5306208.9199829102 0 0 0 0 -4487376.1425955333 7495477.9295683503 0 7495477.9295683503 21369292.924684092 0 0 0 0 8804584.742562063 7528272.0606851876 0 7528272.0606851876 1295487.1336181164 0 0 0 0 17437717.003173828 4742932.4960327148 0 4742932.4960327148 19093305.882324219 0 0 0 0 -160586.30991601013 18250993.245844346 0 18250993.245844346 -10900472.529841676 0 0 0 0 4125052.2669546688 18140987.546948235 0 18140987.546948235 10778224.343440413 0 0 0 0 -477534563.89833641 54586121.452835083 0 54586121.452835083 2346851.4730224609 0 0 0 0 -5763031.8407401228 11788462.421606407 0 11788462.421606407 6991395.0937409252 0 0 0 0 45964753.002719879 354176818.49000549 0 354176818.49000549 -14453891.026580811 0 0 0 0 367458533.83452225 -173885895.15122986 0 -173885895.15122986 -89787993.463180542 0 0 0 0 -38290562.375912666 -56731530.04989624 0 -56731530.04989624 180685997.34807968 0 0 0 0 -153904310.25686646 51798374.717773438 0 51798374.717773438 163673799.16165161 0 0 0 0 -12541480.809427261 91660634.822113037 0 91660634.822113037 -44332096.396901131 0 0 0 0 50075689.158302151 -125186931.30823767 0 -125186931.30823767 -35658392.487197876 0 0 0 0 1541675.2955113575 617647.29693681747 0 617647.29693681747 -1292491.056315586 0 0 0 0 5560212.5644035339 42931706.669647217 0 42931706.669647217 2704514.2645568848 0 0 0 0 3858716.5541261099 22088753.188884798 0 22088753.188884798 13225319.041100994 0 0 0 0 5899028.3739089966 40632380.156707764 0 40632380.156707764 16278545.455993652 0 0 0 0 -2550233.574005127 26344298.844177246 0 26344298.844177246 5047265.8940658569 0 0 0 0 4554138.0077590942 35947262.784423828 0 35947262.784423828 17775728.708587646 0 0 0 0 6252093.0753135681 38249446.210327148 0 38249446.210327148 27139290.8139534 0 0 0 0 5522200.4187850952 48636007.520484924 0 48636007.520484924 -14535065.64730835 0 0 0 0 8220876.7156963348 36904718.851028442 0 36904718.851028442 18543476.274337769 0 0 0 0 1671075.5539431572 55510434.146842957 0 55510434.146842957 21874849.627105713 0 0 0 0 21271186.488464355 66470726.278343201 0 66470726.278343201 21475744.512634277 0 0 0 0 493337.41258239746 24172892.880889893 0 24172892.880889893 54663191.053913116 0 0 0 0 -21311904.879323959 75951160.146583557 0 75951160.146583557 73783302.001983643 0 0 0 0 -9654062.0615081787 90013343.841674805 0 90013343.841674805 21017025.730545044 0 0 0 0 -66852965.97564888 137011601.19902039 0 137011601.19902039 -8048513.7421512604 0 0 0 0 4846972.4020881653 31170642.177268982 0 31170642.177268982 8029028.3608703613 0 0 0 0 -544726.21991541144 2335384.403743308 0 2335384.403743308 2636148.5592300296 0 0 0 0 7850044.9628314972 12057003.226257324 0 12057003.226257324 19639793.146289825 0 0 0 0 8536965.9382390976 12199350.579994202 0 12199350.579994202 -8083991.639248848 0 0 0 0 -59141.261926241219 9586673.0702794418 0 9586673.0702794418 2359264.1399807259 0 0 0 0 6233802.4644699097 21820752.033790588 0 21820752.033790588 -18422002.155548573 0 0 0 0 5159112.4820163846 2040938.9836784489 0 2040938.9836784489 -4611753.5584668666 0 0 0 0 38260737.062620163 -5955746.2445831299 0 -5955746.2445831299 -17559390.968536377 0 0 0 0 -17485230.664253116 15968060.622330427 0 15968060.622330427 14605056.809173584 0 0 0 0 2149014.4692130778 14047266.035245568 0 14047266.035245568 11873897.887507215 0 0 0 0 -9671200.00831604 8023621.2618408203 0 8023621.2618408203 19250562.977020264 0 0 0 0 117817.0656671524 10219373.542423248 0 10219373.542423248 -3575762.3505706787 0 0 0 0 1478501.1581459045 5988344.8394622803 0 5988344.8394622803 -2480739.6653442383 0 0 0 0 1455403.3816242954 3697470.9916059896 0 3697470.9916059896 -1048584.1790395379 0 0 0 0 7768835.2492821505 11496979.8901904 0 11496979.8901904 463646.07560029626 0 0 0 0 6733647.9082145691 29022512.287475586 0 29022512.287475586 18844237.576843262 0 0 0 0 -8126351.912361145 37658746.601119995 0 37658746.601119995 30244500.152984619 0 0 0 0 3880721.4004079625 17353233.096921459 0 17353233.096921459 13405673.185740247 0 0 0 0 -22375941.299442291 40094368.743888855 0 40094368.743888855 9333990.3885498047 0 0 0 0 -21814359.670085907 27419990.521118164 0 27419990.521118164 24085790.832641602 0 0 0 0 -17710581.589225769 18382840.187149048 0 18382840.187149048 19068706.410240173 0 0 0 0 -17526057.533694506 14483343.176438332 0 14483343.176438332 30281621.343780518 0 0 0 0 -16753116.73563385 3966353.5913391113 0 3966353.5913391113 20548134.962097168 0 0 0 0 -13433394.942649841 -3416933.3339691162 0 -3416933.3339691162 44373784.83536911 0 0 0 0 -18504518.293130875 19259986.320491791 0 19259986.320491791 41742658.328704834 0 0 0 0 1907626.5340118408 -22619761.920379639 0 -22619761.920379639 57059815.915145874 0 0 0 0 -14808436.035797119 19893234.851959229 0 19893234.851959229 32066535.221483231 0 0 0 0 -10750872.495994568 38001093.93497467 0 38001093.93497467 90514736.907196045 0 0 0 0 -4250216.3135223389 2933639.8866577148 0 2933639.8866577148 6401255.3078231812 0 0 0 0 -3177633.6050033569 -5552772.720741272 0 -5552772.720741272 9909166.1103820801 0 0 0 0 -8112802.6807861328 -532214.03912353516 0 -532214.03912353516 11645749.042266846 0 0 0 0 -15700600.060466766 4654264.5667724609 0 4654264.5667724609 16470985.194152832 0 0 0 0 -19526923.917884827 7509389.3667907715 0 7509389.3667907715 17020737.932922363 0 0 0 0 -12924928.506744385 3668970.8771362305 0 3668970.8771362305 16810547.53314209 0 0 0 0 -14296955.31595993 7823569.5578918457 0 7823569.5578918457 9368924.3815917969 0 0 0 0 -8763486.1603374481 2013286.661190033 0 2013286.661190033 8898245.3033447266 0 0 0 0 -12412507.963638306 5495398.4996948242 0 5495398.4996948242 5723822.8703613281 0 0 0 0 -8465164.9991455078 2855230.9355316162 0 2855230.9355316162 7185804.7674255371 0 0 0 0 -6224594.0722541809 2934141.9979000092 0 2934141.9979000092 6276473.4990539551 0 0 0 0 -7623348.5799751282 -1441298.3678283691 0 -1441298.3678283691 -3040803.625 0 0 0 0 -864793399.27548218 1625502953.7574158 0 1625502953.7574158 -3038162503.7825928 0 0 0 0 -1944440.593491599 5548377.8112948015 0 5548377.8112948015 2319949.6735672923 0 0 0 0 7139369.3576094341 4115283.5552730188 0 4115283.5552730188 2263793.6661390811 0 0 0 0 -627751732.69732761 363027997.8849926 0 363027997.8849926 494104239.44952393 0 0 0 0 -5692982.5468124337 99148.534492962062 0 99148.534492962062 3754969.3268579543 0 0 0 0 2341978.9852905273 5893483.6529388428 0 5893483.6529388428 2274607.3022155762 0 0 0 0 1255775.4324031454 4454059.6664246395 0 4454059.6664246395 1269344.3129890375 0 0 0 0 5336289.0672454834 8777670.9309387207 0 8777670.9309387207 3169835.6405792236 0 0 0 0 -1128448.4124794006 6665516.9857788086 0 6665516.9857788086 6445027.7618408203 0 0 0 0 357702.53712854721 153636.09943323582 0 153636.09943323582 -477379.48734351993 0 0 0 0 3322819.716349192 6067005.9954668004 0 6067005.9954668004 7134581.8844994456 0 0 0 0 2036245.387386322 3901437.6195449829 0 3901437.6195449829 -285003.67668151855 0 0 0 0 -16562129.778148651 -1740429.8336982727 0 -1740429.8336982727 13489981.922790527 0 0 0 0 293877.16240497306 1325957.3778603524 0 1325957.3778603524 267790.53410287015 0 0 0 0 2910461.2311592102 6986417.3260650635 0 6986417.3260650635 3583418.6980247498 0 0 0 0 1194053.215921402 5279836.2360610962 0 5279836.2360610962 -1701.0023956298828 0 0 0 0 3131692.6158797592 5992222.0344242156 0 5992222.0344242156 86024.703951845877 0 0 0 0 989383.15672302246 5059718.5439453125 0 5059718.5439453125 -34190.691856384277 0 0 0 0 4331922.0180015564 7078163.5108184814 0 7078163.5108184814 2960790.2028808594 0 0 0 0 4625850.4099688698 5804391.3431292176 0 5804391.3431292176 3387623.7152955532 0 0 0 0 984452.03487205505 5047230.1133956909 0 5047230.1133956909 4957.6945648193359 0 0 0 0 668085.78628847748 5036550.5599325746 0 5036550.5599325746 -242450.86223329138 0 0 0 0 4527880.3184223175 6493844.0176696777 0 6493844.0176696777 874339.47393798828 0 0 0 0 2891161.9329178333 6384038.9436569214 0 6384038.9436569214 2070083.6842346191 0 0 0 0 -1636268.9337081909 6080678.4618835449 0 6080678.4618835449 373700.72178649902 0 0 0 0 2391819.4353256226 4672378.6276092529 0 4672378.6276092529 245091.9045715332 0 0 0 0 664301.82178345602 1054755.5347679742 0 1054755.5347679742 1462118.3746729493 0 0 0 0 -144566550.19779205 417514488.26422119 0 417514488.26422119 831313.56285626057 0 0 0 0 2104318.3767204285 5903391.8847198486 0 5903391.8847198486 1235290.6577453613 0 0 0 0 6128417.0914189816 -26948496.186397552 0 -26948496.186397552 26192157.363983154 0 0 0 0 4273042.9004535675 7838973.2614898682 0 7838973.2614898682 -338162.6630859375 0 0 0 0 2583027.9902528003 2758990.2713585645 0 2758990.2713585645 -1106000.2755419314 0 0 0 0 10228185.809850693 13789071.561782837 0 13789071.561782837 26185.761703491211 0 0 0 0 4323235.1858688602 4309905.2993305176 0 4309905.2993305176 -1670585.1931205988 0 0 0 0 -1348324.1436806805 4281752.9682622775 0 4281752.9682622775 -2362944.5667946488 0 0 0 0 4375485.2465114594 5219641.5633926392 0 5219641.5633926392 -311329.07852172852 0 0 0 0 645687.75159760471 5304210.5071276948 0 5304210.5071276948 -4833480.519153364 0 0 0 0 2075335.3696155548 2567413.0396270752 0 2567413.0396270752 -4137051.2533874512 0 0 0 0 -1064795876.8503647 331390057.71516418 0 331390057.71516418 894591632.77011108 0 0 0 0 1328424.0828482555 9938677.8642437682 0 9938677.8642437682 -7181833.7454947606 0 0 0 0 4674440.033388814 4010745.9941856079 0 4010745.9941856079 -2513825.0085637569 0 0 0 0 -740890.50736999512 1599579.2911071777 0 1599579.2911071777 -4012847.5710449219 0 0 0 0 6357356.0072431564 7921378.9940643311 0 7921378.9940643311 -1629654.8548278809 0 0 0 0 3029359.1485214233 5744654.7209777832 0 5744654.7209777832 280212.69190979004 0 0 0 0 2640647.420180399 5905205.2396531105 0 5905205.2396531105 -1013257.5156140216 0 0 0 0 4974960.5386939049 6219156.7929849625 0 6219156.7929849625 391045.27655029297 0 0 0 0 136223.70480155945 8315526.8529052734 0 8315526.8529052734 -6283360.137046814 0 0 0 0 42843634.270545959 106621195.47576904 0 106621195.47576904 -29091075.095909119 0 0 0 0 161947312.57328796 -181410539.49784851 0 -181410539.49784851 48601299.231048584 0 0 0 0 1548233.0901887743 9977805.0721636489 0 9977805.0721636489 -1665796.6546510756 0 0 0 0 3251602.2605795255 542327.44021335803 0 542327.44021335803 -2510913.9653494954 0 0 0 0 -276824044.72084427 -112997752.67841625 0 -112997752.67841625 328669342.20587158 0 0 0 0 -66585858.874414444 -389651869.32226562 0 -389651869.32226562 -105474588.02667236 0 0 0 0 328352456.72034073 114962687.75688934 0 114962687.75688934 -669602704.6803894 0 0 0 0 547942933.4008522 -40331654.124237061 0 -40331654.124237061 -587945967.91485596 0 0 0 0 -297822311.25640869 205731143.11408997 0 205731143.11408997 41864630.839370728 0 0 0 0 -478876.81126353936 745150.34293180332 0 745150.34293180332 843168.3161970675 0 0 0 0 -112208626.2237339 147608307.57395935 0 147608307.57395935 46196393.351097107 0 0 0 0 -310365734.17893934 1891887.8871307373 0 1891887.8871307373 51771019.924743652 0 0 0 0 -105737937.71294695 42127757.789384842 0 42127757.789384842 15577498.71685791 0 0 0 0 -20421615.210267067 34763185.258735657 0 34763185.258735657 7141418.137512207 0 0 0 0 47693220.253381729 -31720835.424514771 0 -31720835.424514771 11572377.988098145 0 0 0 0 11927540.956024647 -4527573.2927856445 0 -4527573.2927856445 -19425767.878479004 0 0 0 0 37555191.980004117 21776515.389678955 0 21776515.389678955 -33770815.749145508 0 0 0 0 35564853.079399139 -195002.61403656006 0 -195002.61403656006 -39620261.662078857 0 0 0 0 -13050450.99668026 -73072453.348114014 0 -73072453.348114014 -4079399.8984069824 0 0 0 0 402819753.84128857 194592402.44048309 0 194592402.44048309 -213353659.19204712 0 0 0 0 115065633.82135963 95921623.78730011 0 95921623.78730011 -94572240.725902557 0 0 0 0 17079696.312189385 -3386797.4713995904 0 -3386797.4713995904 -11791981.242803022 0 0 0 0 42286856.101634979 8018561.7817840576 0 8018561.7817840576 18324093.638679504 0 0 0 0 -6245336.3663293505 10492177.150179807 0 10492177.150179807 1451741.370708555 0 0 0 0 157681907.27770233 273626844.57086182 0 273626844.57086182 -97204074.623779297 0 0 0 0 7098015.8040542519 11925760.868714493 0 11925760.868714493 -15477724.851159215 0 0 0 0 10023745.650990486 3424260.7958831787 0 3424260.7958831787 -36152449.873596191 0 0 0 0 25237372.25151825 26817113.204406738 0 26817113.204406738 -19112916.225830078 0 0 0 0 1715047.3621589202 -538247.68258769065 0 -538247.68258769065 -2374298.0539114624 0 0 0 0 -92552451.27936995 -107362676.58367443 0 -107362676.58367443 34796934.928039551 0 0 0 0 6682966.3786441945 12528998.363324232 0 12528998.363324232 -15232856.316312775 0 0 0 0 506728022.45843124 408545695.27360535 0 408545695.27360535 133898433.48179626 0 0 0 0 7125149.470279336 18315469.106063843 0 18315469.106063843 -22752582.812194824 0 0 0 0 6018145.7725372836 14073060.623840332 0 14073060.623840332 -32359555.933776855 0 0 0 0 8194122.3464844525 -8222975.8084764481 0 -8222975.8084764481 -38824227.85836792 0 0 0 0 4405237.8735444099 6678175.1046257019 0 6678175.1046257019 -9875164.014465332 0 0 0 0 1149552.9980375767 -1177775.6737251282 0 -1177775.6737251282 -3416172.548828125 0 0 0 0 17034011.80260478 43646499.7885952 0 43646499.7885952 49819621.932403564 0 0 0 0 2264105.6238861084 5713284.437286377 0 5713284.437286377 -3229828.5301642418 0 0 0 0 3742894.6408830672 4613442.5735790059 0 4613442.5735790059 -5061057.95475474 0 0 0 0 4233545.0910797119 3023534.7005004883 0 3023534.7005004883 -10681071.47114563 0 0 0 0 23102176.322254181 27286503.379669189 0 27286503.379669189 18632558.559936523 0 0 0 0 3527131.8857223289 2234221.469062306 0 2234221.469062306 -5954863.9401669428 0 0 0 0 1251785.1908912659 5846330.7291259766 0 5846330.7291259766 -6555001.6815490723 0 0 0 0 5166496.6845779419 4269485.8490753174 0 4269485.8490753174 -6061768.6393661499 0 0 0 0 3771301.6249847412 324214.10638427734 0 324214.10638427734 -4002971.9346344471 0 0 0 0 14910297.751621246 31309917.176956177 0 31309917.176956177 27308941.89743042 0 0 0 0 -129899.73990825424 112619.3243855536 0 112619.3243855536 -88435.889694221318 0 0 0 0 16464186.697020173 26111238.551404953 0 26111238.551404953 22557065.920257568 0 0 0 0 72555361.917591751 51435358.71762085 0 51435358.71762085 13265079.8802948 0 0 0 0 43485301.513924599 31590693.628829956 0 31590693.628829956 33871.179168701172 0 0 0 0 23010605.604909897 25094950.384414673 0 25094950.384414673 22573781.126678467 0 0 0 0 74862402.744426847 68121963.95249176 0 68121963.95249176 35175337.762268066 0 0 0 0 157291976.88787365 75747730.278564453 0 75747730.278564453 8196848.3566741943 0 0 0 0 119006545.63034964 55021996.352630615 0 55021996.352630615 10525.421524047852 0 0 0 0 99300264.677586555 83618193.17640686 0 83618193.17640686 47781975.511505127 0 0 0 0 127082799.73624039 89092329.665374756 0 89092329.665374756 48685505.190063477 0 0 0 0 51683838.714783192 52200199.52960968 0 52200199.52960968 50236840.942092896 0 0 0 0 40602457.5852108 56503915.407394409 0 56503915.407394409 69758639.193359375 0 0 0 0 63631867.288667679 91994025.347381592 0 91994025.347381592 104367479.80914307 0 0 0 0 1985474.779831653 4707502.6208306625 0 4707502.6208306625 -4430948.579704985 0 0 0 0 97080733.481441453 70807972.383148193 0 70807972.383148193 33723285.641052246 0 0 0 0 26805633.083641052 -26647106.083587646 0 -26647106.083587646 -24450148.539123535 0 0 0 0 144690597.14830875 48621011.756275177 0 48621011.756275177 -9336826.3811950684 0 0 0 0 134611855.59191513 55052157.771614075 0 55052157.771614075 -60497.577231238953 0 0 0 0 248643888.02955627 106610425.23912048 0 106610425.23912048 5635495.24168396 0 0 0 0 138847707.53415203 54582671.273845673 0 54582671.273845673 -5604325.6364898682 0 0 0 0 -40833972.138315201 -75507097.81098938 0 -75507097.81098938 -25808183.970594168 0 0 0 0 214819504.51091766 123955548.32814789 0 123955548.32814789 -30041980.688079834 0 0 0 0 154329347.84693527 25057280.682266235 0 25057280.682266235 29761435.489379883 0 0 0 0 375171781.53505516 118326824.36715698 0 118326824.36715698 -30808406.109817505 0 0 0 0 309679933.13517165 304657382.06831932 0 304657382.06831932 249436293.75076294 0 0 0 0 1924549.4472482214 957491.3524441272 0 957491.3524441272 -1950624.9230164811 0 0 0 0 212120291.79718971 139377755.54373169 0 139377755.54373169 161547608.04833984 0 0 0 0 215247465.12546444 -915970.09657669067 0 -915970.09657669067 -72457354.161682129 0 0 0 0 301285540.24208164 150641142.38769531 0 150641142.38769531 6863383.8652954102 0 0 0 0 236517382.54969788 30618890.653335571 0 30618890.653335571 -46400964.787712097 0 0 0 0 -37702831.511548996 105309401.81228638 0 105309401.81228638 56324062.066565692 0 0 0 0 74439409.328304291 187130457.30410767 0 187130457.30410767 55910929.117085695 0 0 0 0 -2011774.3011573125 234998.72736153379 0 234998.72736153379 2221816.6869063079 0 0 0 0 15617839.470576286 -5366780.7836914062 0 -5366780.7836914062 -56073685.751159668 0 0 0 0 3974318.760431949 985709.75241179764 0 985709.75241179764 -3938143.7509900741 0 0 0 0 -4800247.0191841125 -11152170.163955688 0 -11152170.163955688 -46444759.915938377 0 0 0 0 105954912.64955521 131697261.31459045 0 131697261.31459045 132623307.88188171 0 0 0 0 5019142.1445075069 2367602.6037943885 0 2367602.6037943885 -5240034.6654525399 0 0 0 0 145408721.70601273 113810028.2651062 0 113810028.2651062 75948319.16506958 0 0 0 0 145105382.7150898 111852784.35133362 0 111852784.35133362 97677015.261749268 0 0 0 0 12164580.273077011 -25609635.637382507 0 -25609635.637382507 -83946123.335205078 0 0 0 0 22839979.785657883 10424218.347915649 0 10424218.347915649 -68438198.015853882 0 0 0 0 9742086.9789218903 -69878582.897598267 0 -69878582.897598267 -95574884.89541626 0 0 0 0 17902978.348899841 -8038296.7230224609 0 -8038296.7230224609 -27309628.377288818 0 0 0 0 11478468.420093536 5670404.3851623535 0 5670404.3851623535 -25572411.111541748 0 0 0 0 6795559.766248703 11777254.088424683 0 11777254.088424683 -13385658.054199219 0 0 0 0 10811457.672133446 3854926.0821838379 0 3854926.0821838379 -27926231.473098755 0 0 0 0 818610.94020271301 4014452.7568664551 0 4014452.7568664551 -27865293.512115479 0 0 0 0 13335117.026288033 6102654.140625 0 6102654.140625 -45927092.503022194 0 0 0 0 70522634.731624603 28323586.172637939 0 28323586.172637939 -37480401.195617676 0 0 0 0 29874825.810026169 110546304.36401367 0 110546304.36401367 -12782155.082565308 0 0 0 0 22988985.770372391 -13262941.674934387 0 -13262941.674934387 -57878644.518463135 0 0 0 0 -3284943.5680503845 16070399.629959106 0 16070399.629959106 21941613.677947998 0 0 0 0 38778223.778900146 42269324.75340271 0 42269324.75340271 52241750.170227051 0 0 0 0 -1603112.3517112732 -40478922.708847046 0 -40478922.708847046 -13468086.873443604 0 0 0 0 4653870.7852452304 5482682.6016988084 0 5482682.6016988084 3565883.2904634625 0 0 0 0 14253763.273805143 6157111.4963437617 0 6157111.4963437617 -27983744.548005708 0 0 0 0 35863800.497093201 8354477.3686218262 0 8354477.3686218262 -35395356.031364441 0 0 0 0 85996236.141403198 54712054.628250122 0 54712054.628250122 23874798.568740845 0 0 0 0 -12432818.919756889 22580228.898605347 0 22580228.898605347 54660755.315795898 0 0 0 0 300251.57534327544 4172091.2881464809 0 4172091.2881464809 3542051.4922259599 0 0 0 0 52151419.065646172 -17584255.892024994 0 -17584255.892024994 -57115039.6199646 0 0 0 0 46738251.241355896 77799524.813049316 0 77799524.813049316 41335652.806926727 0 0 0 0 11700250.056111313 6905122.6447612792 0 6905122.6447612792 -27019924.133240908 0 0 0 0 96703752.077703953 -8185088.1148490906 0 -8185088.1148490906 -97855030.697570801 0 0 0 0 -73940381.069189072 5897722.9074859619 0 5897722.9074859619 -25550502.01751709 0 0 0 0 58211736.951583862 40348842.803955078 0 40348842.803955078 -100284649.96589088 0 0 0 0 90244230.874441147 -1323010.4730987549 0 -1323010.4730987549 -61694364.093200684 0 0 0 0 195084163.83743382 59726421.050880432 0 59726421.050880432 -65095843.131134033 0 0 0 0 145195332.70722198 33902768.972625732 0 33902768.972625732 -63339485.476917267 0 0 0 0 168739505.60258102 -9110145.9475708008 0 -9110145.9475708008 -66672745.518432617 0 0 0 0 179356736.21342659 42680129.357498169 0 42680129.357498169 -78520129.631713867 0 0 0 0 164636259.9225235 18795217.758575439 0 18795217.758575439 -87608914.855499268 0 0 0 0 91705795.234261036 6472517.498588562 0 6472517.498588562 -66784928.025878906 0 0 0 0 113155922.41135406 122020906.25463867 0 122020906.25463867 -39719961.284418106 0 0 0 0 253884316.54867268 155006902.15813828 0 155006902.15813828 -42047095.413726807 0 0 0 0 161251037.23218155 109478599.22201538 0 109478599.22201538 -57344350.608428955 0 0 0 0 57719431.049968243 123654552.91305351 0 123654552.91305351 2924537.2538757324 0 0 0 0 63409781.659564972 100928449.59114075 0 100928449.59114075 -25506167.933197021 0 0 0 0 49725928.369445801 66168426.448394775 0 66168426.448394775 -21248519.648696899 0 0 0 0 106824441.99077225 88531986.866699219 0 88531986.866699219 -44642972.129486084 0 0 0 0 91928042.787982941 77852998.239868164 0 77852998.239868164 -41650332.140960693 0 0 0 0 119222109.42738724 14898085.838729858 0 14898085.838729858 -71066644.118652344 0 0 0 0 117048497.67831039 44154409.309799194 0 44154409.309799194 -60662746.397094727 0 0 0 0 87396582.75982666 41561337.894256592 0 41561337.894256592 -36279661.519775391 0 0 0 0 103399361.5126996 46761440.205131531 0 46761440.205131531 -42352077.905090332 0 0 0 0 95124389.717176437 32405316.385742188 0 32405316.385742188 -28065429.846496582 0 0 0 0 114376997.6591568 69453438.4375 0 69453438.4375 4988593.800994873 0 0 0 0 58737318.107112169 26388842.063474655 0 26388842.063474655 -27895128.546691895 0 0 0 0 460482.88575211726 -477219.98443250358 0 -477219.98443250358 -2163074.6606632173 0 0 0 0 14287978.925374795 9378579.5845851414 0 9378579.5845851414 -23619614.442923486 0 0 0 0 79980811.909561157 178987279.30296326 0 178987279.30296326 -112412142.88214111 0 0 0 0 91586719.527006149 21105113.867935181 0 21105113.867935181 -35948313.209777832 0 0 0 0 75794857.810516357 42343178.833679199 0 42343178.833679199 -14762234.8646698 0 0 0 0 69007605.516143799 52422519.301361084 0 52422519.301361084 -25292491.973342896 0 0 0 0 78576603.633365631 48312678.685974121 0 48312678.685974121 -21481236.358184814 0 0 0 0 70791133.361092567 56470542.634513855 0 56470542.634513855 -17805460.177947998 0 0 0 0 42788617.168437958 61539859.955459595 0 61539859.955459595 -15934927.111663818 0 0 0 0 33541171.827957153 55693415.568504333 0 55693415.568504333 -4633151.1245117188 0 0 0 0 39776064.636676788 37605558.64302063 0 37605558.64302063 -16480087.110351562 0 0 0 0 27036706.935634613 52857617.619125366 0 52857617.619125366 -4787849.4949169159 0 0 0 0 119443151.88924599 -20841670.246712685 0 -20841670.246712685 -12809928.556304932 0 0 0 0 14594802.84838691 14157257.877203453 0 14157257.877203453 -22189453.555672571 0 0 0 0 48460588.642568588 47912786.781707764 0 47912786.781707764 -15241635.985427856 0 0 0 0 19146491.575336456 -73381205.578308105 0 -73381205.578308105 24931694.848480225 0 0 0 0 116923330.50045776 -42665114.189834595 0 -42665114.189834595 -54991927.281799316 0 0 0 0 65219928.098562241 42355844.865234375 0 42355844.865234375 -13484103.441558838 0 0 0 0 94077940.9998703 -25016476.261535645 0 -25016476.261535645 15192289.184158325 0 0 0 0 72529008.461257935 -44741859.428581238 0 -44741859.428581238 -34221492.077026367 0 0 0 0 71842218.335411072 -40484299.119766235 0 -40484299.119766235 6265951.7403564453 0 0 0 0 -2542007.9853744507 9444534.0043792725 0 9444534.0043792725 -44390768.096496582 0 0 0 0 20202633.120018005 47583154.090942383 0 47583154.090942383 -117589721.95628357 0 0 0 0 93817067.914924622 -43765382.574523926 0 -43765382.574523926 -20317876.914993286 0 0 0 0 -24961677.792991638 37483652.141143799 0 37483652.141143799 -23926954.113433838 0 0 0 0 -90296223.068084717 94968891.695297241 0 94968891.695297241 -71626538.053741455 0 0 0 0 -82593121.084098816 2577659.4695129395 0 2577659.4695129395 5330827.1725845337 0 0 0 0 -20847209.789413452 102176264.39759827 0 102176264.39759827 -144801278.5796814 0 0 0 0 -16114974.333450317 96855626.415679932 0 96855626.415679932 -88596152.641220093 0 0 0 0 -20446215.937889099 80838214.293243408 0 80838214.293243408 -97175877.528930664 0 0 0 0 11344584.76922226 107508748.78352356 0 107508748.78352356 -120400698.76930237 0 0 0 0 65825611.738861084 167481082.63623047 0 167481082.63623047 -47790465.521026611 0 0 0 0 -16556507.122062683 107239318.92687988 0 107239318.92687988 219242932.93936157 0 0 0 0 85892224.64490509 -66781712.040313721 0 -66781712.040313721 83456798.443634033 0 0 0 0 -10797696.553813457 152267040.5733242 0 152267040.5733242 -12989558.097229004 0 0 0 0 13770675.143058777 129579893.65713501 0 129579893.65713501 -105797235.86994934 0 0 0 0 2171754.5700531006 10702909.675109863 0 10702909.675109863 65446547.61164856 0 0 0 0 -19335138.82714653 90174433.154014587 0 90174433.154014587 -27796794.669250488 0 0 0 0 -15863333.225151062 2563837.4558105469 0 2563837.4558105469 -16811202.521911621 0 0 0 0 -3591151.0124206543 49932991.901916504 0 49932991.901916504 -71872361.383666992 0 0 0 0 39534550.180603027 -31063635.526367188 0 -31063635.526367188 -7051468.140411377 0 0 0 0 31583788.745182037 -10539702.216545105 0 -10539702.216545105 -52493108.682739258 0 0 0 0 175638270.41085434 -36694708.448455811 0 -36694708.448455811 -29260422.867431641 0 0 0 0 69832971.141174316 6321377.4013671875 0 6321377.4013671875 -17954116.731384277 0 0 0 0 59623113.956914902 -11084852.651237488 0 -11084852.651237488 -31625820.019287109 0 0 0 0 98205243.802505493 31310247.080947876 0 31310247.080947876 -27615318.7394104 0 0 0 0 -54268858.517871857 -14602666.279159546 0 -14602666.279159546 -4984640.1753540039 0 0 0 0 1784416.0440760069 1483723.1534398384 0 1483723.1534398384 632118.84847514331 0 0 0 0 41120761.327049255 12031067.236938477 0 12031067.236938477 58820638.464168549 0 0 0 0 -47870213.680740356 -56995975.964675903 0 -56995975.964675903 -76095694.077331543 0 0 0 0 -10999450.637535095 10495299.976104736 0 10495299.976104736 -158521602.76977921 0 0 0 0 -18111411.735626221 35706716.416122437 0 35706716.416122437 -418333.34372138977 0 0 0 0 -35961299.528778076 -28527559.645683289 0 -28527559.645683289 17168309.400054932 0 0 0 0 -1929172.9924079478 4141996.5115589574 0 4141996.5115589574 1491450.1545755584 0 0 0 0 17329179.608383179 65624849.296096802 0 65624849.296096802 -35443037.529727936 0 0 0 0 -38888705.5184021 259422.9681930542 0 259422.9681930542 5870582.0835723877 0 0 0 0 -5852446.9928220622 2379575.6639091857 0 2379575.6639091857 2296649.0060686618 0 0 0 0 -83656908.529792786 31934719.006507874 0 31934719.006507874 25554441.728210449 0 0 0 0 -10429272.690689087 62853958.015655518 0 62853958.015655518 7032313.8607635498 0 0 0 0 -19528415.152195536 12467398.661668308 0 12467398.661668308 14489208.135890374 0 0 0 0 9011891.4224402979 26823647.468723886 0 26823647.468723886 24243881.169469863 0 0 0 0 15693867.677360535 46995358.899200439 0 46995358.899200439 12665587.802078247 0 0 0 0 -6082075.9961662292 55949428.275154114 0 55949428.275154114 10018048.535217285 0 0 0 0 -8748107.6351623535 71953993.627838135 0 71953993.627838135 -125359.32972717285 0 0 0 0 24303763.702770233 67104140.625991821 0 67104140.625991821 -267035.7135925293 0 0 0 0 -6713963.4814987183 57769601.148727417 0 57769601.148727417 3067365.7320785522 0 0 0 0 -69759711.33836174 68632187.809677124 0 68632187.809677124 16847110.428222656 0 0 0 0 -7401423.1693000793 86553038.556427002 0 86553038.556427002 -4600452.4687957764 0 0 0 0 43519267.718615055 90380956.628440857 0 90380956.628440857 -13329986.34979248 0 0 0 0 -46917412.934566498 61331533.171661377 0 61331533.171661377 1005210.5910415649 0 0 0 0 -13917568.03900528 101524573.52729416 0 101524573.52729416 -8731084.9014282227 0 0 0 0 -3526661.5845527649 91633462.127288818 0 91633462.127288818 5681025.0019226074 0 0 0 0 -122199277.74173355 62953868.860031128 0 62953868.860031128 8118619.317943573 0 0 0 0 -225716231.60189056 64878153.746116638 0 64878153.746116638 124480608.09037781 0 0 0 0 7660200.4431268349 19329496.762010515 0 19329496.762010515 24158389.670714259 0 0 0 0 -74768932.575958252 80352409.451446533 0 80352409.451446533 2862473.8254699707 0 0 0 0 17116021.420963287 -113316899.94886303 0 -113316899.94886303 203281158.91992188 0 0 0 0 -1000289.8998995163 914319.66211390123 0 914319.66211390123 109497.20756409317 0 0 0 0 -2480589.3458862305 139835917.00333405 0 139835917.00333405 292076158.81503296 0 0 0 0 -42114210.181838989 18683158.257957458 0 18683158.257957458 -8504129.1598358154 0 0 0 0 47725404.908569336 175866314.878479 0 175866314.878479 -31975290.1614151 0 0 0 0 64001570.977966309 71045619.015126228 0 71045619.015126228 -92478437.857574463 0 0 0 0 3049321.2815475464 15810838.179515839 0 15810838.179515839 -50814518.90927124 0 0 0 0 -116037575.91270447 139833315.2272644 0 139833315.2272644 -9986363.7887115479 0 0 0 0 -1584420.3449544571 1261307.811717689 0 1261307.811717689 1800073.08366514 0 0 0 0 -145839798.94207954 105005927.46472168 0 105005927.46472168 -26150152.573944092 0 0 0 0 -168625422.51903534 69958601.140045166 0 69958601.140045166 11490165.618408203 0 0 0 0 7482440.7541137617 15639508.718951151 0 15639508.718951151 20483047.469922751 0 0 0 0 -102994456.75883865 99567853.402145386 0 99567853.402145386 -69227485.482910156 0 0 0 0 -95824534.370388031 79415180.771270752 0 79415180.771270752 -40451074.48828125 0 0 0 0 -111592883.31710815 94112015.132263184 0 94112015.132263184 -60352996.34375 0 0 0 0 -211712594.68313599 139333816.93487549 0 139333816.93487549 -68123666.290992737 0 0 0 0 -86191218.312171936 94897205.345993042 0 94897205.345993042 -150201473.81433105 0 0 0 0 -93484948.826339722 89367353.299865723 0 89367353.299865723 -89114147.575805664 0 0 0 0 -141637532.2197876 92610209.646850586 0 92610209.646850586 -99776918.19317627 0 0 0 0 -49636538.176099777 54125215.046215057 0 54125215.046215057 -91922565.426147461 0 0 0 0 -78643962.273849487 75478273.86505127 0 75478273.86505127 -78137272.567077637 0 0 0 0 -75881094.58782959 76569569.563690186 0 76569569.563690186 -87036664.854827881 0 0 0 0 -55253928.972442627 76242142.07875061 0 76242142.07875061 -111915855.25157166 0 0 0 0 -91566797.275947571 75162640.3487854 0 75162640.3487854 -79108738.190795898 0 0 0 0 -70382770.410453796 94709658.547485352 0 94709658.547485352 -107420695.67773438 0 0 0 0 21233436.886380561 14487415.458407182 0 14487415.458407182 6510432.3287782893 0 0 0 0 -70250196.38038826 109940255.04254532 0 109940255.04254532 -113525320.15939331 0 0 0 0 -85472034.79120636 85965075.089263916 0 85965075.089263916 -89148580.208679199 0 0 0 0 -71365497.838699341 120389373.13916016 0 120389373.13916016 -96947067.70123291 0 0 0 0 3446550.9890441895 83709201.252624512 0 83709201.252624512 -169998775.35290527 0 0 0 0 -44687537.895000458 130476810.14360809 0 130476810.14360809 -131385042.90478516 0 0 0 0 -228243783.78336716 265158916.75075531 0 265158916.75075531 -218561066.41687012 0 0 0 0 -250450939.2901001 272030960.18206787 0 272030960.18206787 -212290166.29854584 0 0 0 0 1688760.6852696054 1160426.3596411347 0 1160426.3596411347 -1133006.2404867858 0 0 0 0 -79134667.949165344 142603814.65060425 0 142603814.65060425 -220573999.78808594 0 0 0 0 -53814412.281059265 33923996.358337402 0 33923996.358337402 -17986596.124824524 0 0 0 0 -34427552.694049835 102768343.17965698 0 102768343.17965698 31373118.587310791 0 0 0 0 -65132865.26902771 74770948.566848755 0 74770948.566848755 -41980311.445526123 0 0 0 0 -62756478.678089142 83727278.082809448 0 83727278.082809448 -30653578.162628174 0 0 0 0 -46954589.920280457 41726656.177383423 0 41726656.177383423 -32367515.892862797 0 0 0 0 -60755884.116973877 59650768.682556152 0 59650768.682556152 -65631761.814819336 0 0 0 0 -56694674.338287354 62595533.616104126 0 62595533.616104126 -76787485.174316406 0 0 0 0 -59280858.735458374 52633341.041481018 0 52633341.041481018 -66172097.226074219 0 0 0 0 -32962330.135822296 42979481.178436279 0 42979481.178436279 -73640918.746670723 0 0 0 0 -34415365.040050507 36244070.552642822 0 36244070.552642822 -73228048.152679443 0 0 0 0 -51135264.04861939 89695127.968383551 0 89695127.968383551 -25864936.537094116 0 0 0 0 -3459413.6027718149 388317.9293840453 0 388317.9293840453 3775873.7786806375 0 0 0 0 -32383743.935512543 51967768.591636658 0 51967768.591636658 -71963164.8695755 0 0 0 0 -58780681.992778778 11902267.935134888 0 11902267.935134888 -14139512.946439743 0 0 0 0 -2135048.2214020863 183563.83520374447 0 183563.83520374447 2241189.5124087334 0 0 0 0 -43168276.576702118 45438915.234077454 0 45438915.234077454 4923360.6748962402 0 0 0 0 -237162.51157093048 43793739.375333786 0 43793739.375333786 25664.112396240234 0 0 0 0 -52297552.025634766 112463436.36856842 0 112463436.36856842 -30578866.973754883 0 0 0 0 -29080477.745025635 94370952.993713379 0 94370952.993713379 -54477611.348114014 0 0 0 0 -55488442.552558899 98011856.065296173 0 98011856.065296173 -42810393.043487549 0 0 0 0 -64196464.583183289 85462442.065093994 0 85462442.065093994 -56325737.802734375 0 0 0 0 -54757910.082450867 99017241.500549316 0 99017241.500549316 -84149075.708984375 0 0 0 0 -48553916.599655151 100273418.71786499 0 100273418.71786499 -92101380.323486328 0 0 0 0 -27659603.027160645 77948498.455169678 0 77948498.455169678 -69192138.435852051 0 0 0 0 -44849374.301937103 33752407.97718811 0 33752407.97718811 -34161186.862380981 0 0 0 0 -60088395.874755859 59593424.412506104 0 59593424.412506104 -77959074.168872833 0 0 0 0 -45730918.449337006 67810773.641036987 0 67810773.641036987 -37349472.636032104 0 0 0 0 26051052.125035286 95591380.289459229 0 95591380.289459229 -29971323.877319336 0 0 0 0 10988854.483581543 22039371.872116089 0 22039371.872116089 -38501295.652179718 0 0 0 0 44255969.526885986 49909762.949005127 0 49909762.949005127 55277.473434448242 0 0 0 0 -41098421.134269714 100198971.10197449 0 100198971.10197449 20821025.942825317 0 0 0 0 -42370925.93678093 89656022.049274445 0 89656022.049274445 -20880291.430557251 0 0 0 0 -57717673.856170654 89878471.279434204 0 89878471.279434204 12503.703125 0 0 0 0 -33157931.732765198 93550496.562179565 0 93550496.562179565 -106470114.38002014 0 0 0 0 -29455909.587776184 79261571.951034546 0 79261571.951034546 -51322747.44720459 0 0 0 0 16280244.660977416 12027638.286077663 0 12027638.286077663 6424146.8661305308 0 0 0 0 -49476858.929145813 72792860.422473907 0 72792860.422473907 -44571187.353370667 0 0 0 0 -45202922.668815613 57368719.173286438 0 57368719.173286438 -106219.04876853173 0 0 0 0 7938037.624359034 -780611.76004877128 0 -780611.76004877128 -1845236.4628121108 0 0 0 0 96597628.968485832 -33492373.760363579 0 -33492373.760363579 -100537632.25325012 0 0 0 0 6319636.5987881608 2447493.2734334394 0 2447493.2734334394 -1256037.8018336594 0 0 0 0 7388005.6776733398 79093701.096206665 0 79093701.096206665 177088.18690490723 0 0 0 0 25767363.833282471 30964430.902290344 0 30964430.902290344 -57795898.136993408 0 0 0 0 66489593.661956787 122416175.59564209 0 122416175.59564209 -86798538.296569824 0 0 0 0 938577.90666530281 684383.33071027696 0 684383.33071027696 190310.37847183645 0 0 0 0 5269619.5120239258 -10268712.804992676 0 -10268712.804992676 -137007909.66837311 0 0 0 0 335402699.48551178 -8849002.4318847656 0 -8849002.4318847656 -83912886.467559814 0 0 0 0 5573002.2432963829 2768470.8996039815 0 2768470.8996039815 -6435218.952261433 0 0 0 0 30338740.763952255 -9244686.8992137909 0 -9244686.8992137909 22117762.001113892 0 0 0 0 11660947.956388235 9827991.8629264347 0 9827991.8629264347 1783075.0692848116 0 0 0 0 16520793.705329895 9791747.7196044922 0 9791747.7196044922 -5490850.5737686157 0 0 0 0 22659231.351036072 14351418.321456909 0 14351418.321456909 -13325475.691055298 0 0 0 0 21761481.536598206 -3581073.1276016235 0 -3581073.1276016235 -12930694.577713013 0 0 0 0 3791048.8115582205 2993542.5124348998 0 2993542.5124348998 -7352263.9573934674 0 0 0 0 21234606.218887329 -3499440.0227737427 0 -3499440.0227737427 -10795627.7622509 0 0 0 0 19778088.660377502 -1032451.1567153931 0 -1032451.1567153931 -14974105.326751709 0 0 0 0 -15815967.63973999 22247393.298431396 0 22247393.298431396 -47718285.091920853 0 0 0 0 20774591.989437103 -1791678.7300033569 0 -1791678.7300033569 -37061142.961257935 0 0 0 0 2452663.4683323726 305074.77893795073 0 305074.77893795073 -1629191.537912026 0 0 0 0 121101492.89016724 62382787.044517517 0 62382787.044517517 -95842746.570358276 0 0 0 0 -21340834.661425591 117660430.28312206 0 117660430.28312206 -96584188.932250977 0 0 0 0 163579283.21839905 -72128069.257423401 0 -72128069.257423401 -36504575.925376892 0 0 0 0 48355424.282836914 70762850.560386658 0 70762850.560386658 -85909704.822547913 0 0 0 0 -20429466.162490845 9437811.0687789917 0 9437811.0687789917 31421528.989624023 0 0 0 0 10522274.625934601 22453932.585769653 0 22453932.585769653 -28151875.256759644 0 0 0 0 63700416.036056519 5503177.490234375 0 5503177.490234375 -59796951.780570984 0 0 0 0 10171763.452037707 1879829.9487425983 0 1879829.9487425983 -7085827.9601035863 0 0 0 0 410339369.86071777 -438355169.13337708 0 -438355169.13337708 183025212.66729736 0 0 0 0 312216945.32910156 104962512.06819153 0 104962512.06819153 -383364862.70393372 0 0 0 0 -439572176.65338898 129076865.59177399 0 129076865.59177399 -137400467.73831177 0 0 0 0 -2675634.6037647501 2144765.4984805733 0 2144765.4984805733 -224000.20441075135 0 0 0 0 -683275859.04718018 701836452.19029999 0 701836452.19029999 -650221544.28385925 0 0 0 0 -459775788.51654053 -88422571.958572388 0 -88422571.958572388 627780473.27767944 0 0 0 0 -1233979405.7781601 851409686.43000031 0 851409686.43000031 2415656.8975982666 0 0 0 0 -605592626.88292694 1298140856.3635406 0 1298140856.3635406 -508325354.76089478 0 0 0 0 -1311173522.8470993 495029650.04426575 0 495029650.04426575 258310491.79930115 0 0 0 0 -408691617.19882202 261300237.66962051 0 261300237.66962051 115359731.27587891 0 0 0 0 -466333325.27532959 552523759.68302917 0 552523759.68302917 -134563673.94284058 0 0 0 0 -438804780.5236969 406789042.48085022 0 406789042.48085022 -355393579.01911926 0 0 0 0 645431345.85800552 -236433889.42032814 0 -236433889.42032814 -10894320.3359375 0 0 0 0 1093525497.3330383 587350691.83657837 0 587350691.83657837 -460464457.35588074 0 0 0 0 1705427684.5917816 815600217.68803406 0 815600217.68803406 -915455634.40231323 0 0 0 0 2036457913.9491167 -1264303426.7205629 0 -1264303426.7205629 396522102.36993408 0 0 0 0 1488589.0321238413 1476234.053697966 0 1476234.053697966 -160921.10864230245 0 0 0 0 -15693260.648925781 30733910.13973999 0 30733910.13973999 -140299.85067804504 0 0 0 0 -13432741.618621826 28493678.765380859 0 28493678.765380859 -55727488.757629395 0 0 0 0 511800459.0128479 -195847666.34406281 0 -195847666.34406281 84080889.820075989 0 0 0 0 531174147.11286926 -63199705.159103394 0 -63199705.159103394 -260537235.06285095 0 0 0 0 463636138.21086121 133979247.5953064 0 133979247.5953064 -239866929.86440754 0 0 0 0 450148169.94260406 85963147.627182007 0 85963147.627182007 -83538367.263031006 0 0 0 0 152251173.95709229 170168965.03145599 0 170168965.03145599 174979089.65687561 0 0 0 0 209536297.3613205 266862864.90569305 0 266862864.90569305 -40843429.216087341 0 0 0 0 1988823.3296525553 257182.04241918027 0 257182.04241918027 -1277718.5234919935 0 0 0 0 -311519956.50611115 558438149.1140976 0 558438149.1140976 2011984557.3816528 0 0 0 0 170830327.4584198 423431879.73794556 0 423431879.73794556 208013406.58010864 0 0 0 0 461184633.03582335 443648443.65736055 0 443648443.65736055 -1575406493.9981689 0 0 0 0 477783948.89157104 739229692.37010193 0 739229692.37010193 -358737931.2026062 0 0 0 0 516138960.05815887 120080420.75141907 0 120080420.75141907 -659661563.54888916 0 0 0 0 226209813.42720032 368029836.47660065 0 368029836.47660065 -434111048.52059937 0 0 0 0 -111513822.9296875 313921851.93125916 0 313921851.93125916 -419987706.06368256 0 0 0 0 -758292843.97358036 711098458.81895638 0 711098458.81895638 -656173322.28005981 0 0 0 0 -604455254.24160767 -134671320.24235535 0 -134671320.24235535 -718916938.90008545 0 0 0 0 -59973493.147857666 1480879789.9442291 0 1480879789.9442291 -174688210.22576904 0 0 0 0 32151915.704193115 581223436.73164368 0 581223436.73164368 703063636.96590042 0 0 0 0 -2200250.2549150437 1720460.3788004667 0 1720460.3788004667 -527226.00334128737 0 0 0 0 -482293423.70433235 -32244727.976091385 0 -32244727.976091385 790799026.61096191 0 0 0 0 -94083545.594963074 -32704449.75453949 0 -32704449.75453949 6031232.7339782715 0 0 0 0 97645506.017448425 -15606458.831878662 0 -15606458.831878662 -322592174.9375 0 0 0 0 81568745.770301819 123578088.17823029 0 123578088.17823029 -918221714.64105225 0 0 0 0 81203664.638046265 113127657.70518494 0 113127657.70518494 -577386566.67016602 0 0 0 0 29773803.689926147 394700339.93563843 0 394700339.93563843 -622742983.58776855 0 0 0 0 -144807757.01844406 378663056.49093628 0 378663056.49093628 -492757402.02545166 0 0 0 0 146402203.15820599 407527959.373034 0 407527959.373034 375726120.02845764 0 0 0 0 159058151.7310791 280031294.69740295 0 280031294.69740295 51795870.273895264 0 0 0 0 239903180.58759594 612896750.89897823 0 612896750.89897823 516846333.17657471 0 0 0 0 209376379.07549858 459697198.39296341 0 459697198.39296341 366064637.90667725 0 0 0 0 241644516.92619324 544791534.00748444 0 544791534.00748444 74872586.465682983 0 0 0 0 53704038.186393738 690154341.01311493 0 690154341.01311493 382491395.66104126 0 0 0 0 -88686791.938789368 232147756.8751297 0 232147756.8751297 213293454.06546021 0 0 0 0 -113789555.31945038 307380923.40666199 0 307380923.40666199 -6557622.4041442871 0 0 0 0 -338676388.45976257 161769723.5177536 0 161769723.5177536 32130247.346115112 0 0 0 0 18360832.992557526 504085390.32166672 0 504085390.32166672 -524326073.00671387 0 0 0 0 -257014140.08827972 248718570.41272736 0 248718570.41272736 55418724.574264526 0 0 0 0 -277187948.62026978 188755311.2545166 0 188755311.2545166 -114901184.95452881 0 0 0 0 5235208.3307070732 1327293.8234658837 0 1327293.8234658837 -3688849.4893715084 0 0 0 0 467392.32830949873 3592629.8527658284 0 3592629.8527658284 -3026811.1297196001 0 0 0 0 -310687230.9757843 115841540.65636444 0 115841540.65636444 -23712863.804428101 0 0 0 0 -315588937.15396881 135691048.98468781 0 135691048.98468781 38985855.916473389 0 0 0 0 -933426679.61504364 85328496.714019775 0 85328496.714019775 63774737.084798813 0 0 0 0 -149769.85268441215 1580973.0381523259 0 1580973.0381523259 -829222.66239511967 0 0 0 0 -84257409.529239655 -110601233.7932663 0 -110601233.7932663 -122955157.50804138 0 0 0 0 -75016479.859481812 -335160701.10681534 0 -335160701.10681534 193472547.3527298 0 0 0 0 18681107.097724915 -192462818.10050964 0 -192462818.10050964 -398143930.43448639 0 0 0 0 -233177577.35055542 79674651.778926849 0 79674651.778926849 37484141.511581421 0 0 0 0 -399705596.75930023 396331784.31556702 0 396331784.31556702 -268151971.5375061 0 0 0 0 -91590542.2245121 70230069.778207779 0 70230069.778207779 207264919.84289551 0 0 0 0 -84058086.232643127 62248275.381828308 0 62248275.381828308 -195568246.49217224 0 0 0 0 70255769.677471161 162889640.91317749 0 162889640.91317749 -187001146.48477173 0 0 0 0 -395937186.28367615 39097260.843048096 0 39097260.843048096 244969424.19113159 0 0 0 0 27210900.397369385 175949644.07255554 0 175949644.07255554 278835449.6519165 0 0 0 0 28910192.445960999 185430735.58500671 0 185430735.58500671 247689415.51371765 0 0 0 0 95073658.58093071 -53525047.390611649 0 -53525047.390611649 34848981.943389893 0 0 0 0 868139.10945783556 -360159.73323615268 0 -360159.73323615268 -1128795.5051336847 0 0 0 0 64976739.577514648 121804387.5187149 0 121804387.5187149 88730088.712875366 0 0 0 0 97850400.245254517 136307472.11003113 0 136307472.11003113 231492360.7180481 0 0 0 0 174709061.64246368 112164531.32927704 0 112164531.32927704 217724242.835495 0 0 0 0 178769625.78066826 -87311989.297266006 0 -87311989.297266006 -16187190.982391357 0 0 0 0 224307420.9074707 207960465.37963867 0 207960465.37963867 14852016.010665894 0 0 0 0 96824853.260025024 67053794.176269531 0 67053794.176269531 -150591950.61101532 0 0 0 0 96401832.786987305 -45706725.741226196 0 -45706725.741226196 -57525572.075437546 0 0 0 0 20528148.399383545 -32417432.93888092 0 -32417432.93888092 29510069.942398071 0 0 0 0 15308474.766242981 -16465055.748039246 0 -16465055.748039246 -17038317.182781219 0 0 0 0 2425381.2217820883 -980777.17260036618 0 -980777.17260036618 -3731003.3831942976 0 0 0 0 16569972.910675049 -10917857.542518616 0 -10917857.542518616 1522832.2980957031 0 0 0 0 34304622.212539673 -16025863.290237427 0 -16025863.290237427 -48336237.420791626 0 0 0 0 -1305558.1674499512 -11661071.986862183 0 -11661071.986862183 -47230699.501541138 0 0 0 0 167927573.16949463 134286316.52297974 0 134286316.52297974 -112547060.61260605 0 0 0 0 2338773.9644737244 11504721.223937988 0 11504721.223937988 -48179404.209976196 0 0 0 0 136415616.43659973 277699524.67601776 0 277699524.67601776 90202782.363739014 0 0 0 0 142377638.01741028 201228686.10515976 0 201228686.10515976 -325545340.07290268 0 0 0 0 91660246.141654968 91555054.616695404 0 91555054.616695404 -35005522.518005371 0 0 0 0 68478811.958709717 124611674.34928131 0 124611674.34928131 83934030.708946228 0 0 0 0 132585600.23825836 192085724.32415581 0 192085724.32415581 7132740.3300628662 0 0 0 0 158990099.4549408 188693903.27848816 0 188693903.27848816 -4864123.8585968018 0 0 0 0 63235122.70904541 126294006.64331818 0 126294006.64331818 20947681.057144165 0 0 0 0 106182705.04975128 107212385.98457336 0 107212385.98457336 26744252.276031494 0 0 0 0 25137853.437164307 -24212460.034965515 0 -24212460.034965515 -9395387.9983215332 0 0 0 0 204799470.0439682 94953876.36133194 0 94953876.36133194 6316953.2499694824 0 0 0 0 -48874593.554695129 37882109.190536499 0 37882109.190536499 153572690.61929321 0 0 0 0 -11675434.474465728 4330526.3889766783 0 4330526.3889766783 1618871.2442704216 0 0 0 0 -300002857.0193634 329805126.84106445 0 329805126.84106445 -513082928.86960602 0 0 0 0 -14076.895349849015 859153.76809344441 0 859153.76809344441 -1347652.3885026127 0 0 0 0 32456465.354148865 -119337153.45524597 0 -119337153.45524597 -774412770.23940277 0 0 0 0 -41906867.472824097 466919263.20367432 0 466919263.20367432 89374025.38494873 0 0 0 0 103911133.0211792 52077068.939079285 0 52077068.939079285 -853992390.88258743 0 0 0 0 24889268.452732086 54972565.21761322 0 54972565.21761322 -565804522.45998383 0 0 0 0 26425735.144748688 187846361.28384399 0 187846361.28384399 427937883.13005066 0 0 0 0 -8879561.4824554548 3039446.2150641754 0 3039446.2150641754 452786.236918699 0 0 0 0 -147949448.2582016 -16392475.477092743 0 -16392475.477092743 -394527977.31343079 0 0 0 0 115607046.28957367 73481569.934555054 0 73481569.934555054 -831780013.04932976 0 0 0 0 -23397076.570575714 144519739.79676342 0 144519739.79676342 -68560592.94619751 0 0 0 0 75805598.224075317 142195774.3891449 0 142195774.3891449 -362368371.19972229 0 0 0 0 -906122.02815663069 1752312.5821524672 0 1752312.5821524672 -303498.29706871882 0 0 0 0 -70334350.578596115 -40765804.197027206 0 -40765804.197027206 75452634.155426025 0 0 0 0 -99483308.619293213 8074501.3984680176 0 8074501.3984680176 -3493620.487991333 0 0 0 0 -265429585.14819336 -71369370.874832153 0 -71369370.874832153 8732926.6815795898 0 0 0 0 -41554.21033538878 171442.32470230013 0 171442.32470230013 -59511.703450500965 0 0 0 0 286274894.637043 197314360.86270905 0 197314360.86270905 -4988572.969543457 0 0 0 0 273328424.42545319 286151098.26091766 0 286151098.26091766 163678437.08299255 0 0 0 0 352243395.13118362 231162672.4945488 0 231162672.4945488 145059780.00075912 0 0 0 0 -177056.90399169177 2213052.4696404934 0 2213052.4696404934 -2855236.8520667478 0 0 0 0 103049601.24389267 56694406.891525269 0 56694406.891525269 161351680.83816528 0 0 0 0 212051.03174209595 175031637.29178238 0 175031637.29178238 84773490.571609497 0 0 0 0 -57176745.308166504 188972667.48631287 0 188972667.48631287 259837657.2940979 0 0 0 0 49713273.026252747 -226233640.46446228 0 -226233640.46446228 -364780028.84259033 0 0 0 0 -560521167.21526337 -208517660.87209988 0 -208517660.87209988 -531903088.35716248 0 0 0 0 22949012.49729538 239449384.52056885 0 239449384.52056885 -503499432.09429932 0 0 0 0 -257842784.57046127 494633047.7260437 0 494633047.7260437 -518454941.35456848 0 0 0 0 -557594282.70407867 184166715.01477051 0 184166715.01477051 122596177.72869873 0 0 0 0 -367595885.69064903 -196430383.91609001 0 -196430383.91609001 737292021.79124451 0 0 0 0 -2192954.1792402193 -206249.17534021288 0 -206249.17534021288 -37859.891070075799 0 0 0 0 -743646067.0375061 553735938.10686493 0 553735938.10686493 -444808357.63597107 0 0 0 0 217142409.73340607 214726963.11642456 0 214726963.11642456 -1676665089.9055481 0 0 0 0 -273802230.2160759 -83764153.594596863 0 -83764153.594596863 -626364192.53970337 0 0 0 0 -5909875.2486311644 1238177.9825179726 0 1238177.9825179726 53407.378201408777 0 0 0 0 -494016755.02402496 248766637.81878281 0 248766637.81878281 916240599.47138214 0 0 0 0 195664007.18178558 91040913.61971283 0 91040913.61971283 -1107078772.1423011 0 0 0 0 -1332349.4072829485 735238.66927566007 0 735238.66927566007 -102937.54212279245 0 0 0 0 -155262433.71770859 -104968649.17536926 0 -104968649.17536926 230056887.01763916 0 0 0 0 -155513416.10626221 296196627.15239716 0 296196627.15239716 -271984185.46901703 0 0 0 0 -102966807.1659317 178997638.40885162 0 178997638.40885162 -97597994.085235596 0 0 0 0 -228040086.73858643 245405847.68287659 0 245405847.68287659 -177834852.61782837 0 0 0 0 272676986.57688141 242662879.77910614 0 242662879.77910614 -532548548.53763199 0 0 0 0 -429159317.29356003 -319811375.95508575 0 -319811375.95508575 338497432.5632019 0 0 0 0 -544170.552008003 42542.64638146013 0 42542.64638146013 -186438.84019755572 0 0 0 0 -221799188.54588318 521895100.45708466 0 521895100.45708466 -779303816.14942932 0 0 0 0 -649661805.45171356 283136774.75335693 0 283136774.75335693 29485029.741548538 0 0 0 0 -64257140.904937744 -8274225.2660827637 0 -8274225.2660827637 -70430479.887702942 0 0 0 0 -80343766.313232422 -174499820.5178566 0 -174499820.5178566 -385258226.66500854 0 0 0 0 -54094260.984144211 -126797023.43835068 0 -126797023.43835068 176860512.48599243 0 0 0 0 -125841801.18137741 37015630.294189453 0 37015630.294189453 171796357.80932617 0 0 0 0 -140577606.74877167 74718955.317783356 0 74718955.317783356 220721840.48887634 0 0 0 0 -293133574.5276947 1892817.9712219238 0 1892817.9712219238 185959781.028862 0 0 0 0 -654391.58958105743 -5664.5757552906871 0 -5664.5757552906871 69717.454805210233 0 0 0 0 74370922.787467957 42867070.335845947 0 42867070.335845947 -40181824.592971802 0 0 0 0 -35100445.240745544 -86759360.791481018 0 -86759360.791481018 -24172740.151908875 0 0 0 0 56316701.667545319 201410553.1024704 0 201410553.1024704 -235849941.54164124 0 0 0 0 -463182.84908427298 57517.658004149795 0 57517.658004149795 21321.634847320616 0 0 0 0 -159598932.28383636 368206007.90979004 0 368206007.90979004 -293611492.72000122 0 0 0 0 -539491839.01797485 357106624.57730103 0 357106624.57730103 -97686938.468343198 0 0 0 0 -553237714.07897949 530386767.47665405 0 530386767.47665405 -245209401.25366211 0 0 0 0 -312023361.18468475 151931608.32685089 0 151931608.32685089 228829000.22776031 0 0 0 0 -393151408.08946991 -86067613.563468933 0 -86067613.563468933 -174144806.15393066 0 0 0 0 -308739041.45335388 14781587.426551819 0 14781587.426551819 14209981.718414307 0 0 0 0 -107066408.70094299 104686483.68340302 0 104686483.68340302 -81592515.558181763 0 0 0 0 -29640025.679429054 111393774.85079479 0 111393774.85079479 35213174.64276123 0 0 0 0 -48631600.490947723 13819701.31230545 0 13819701.31230545 130138999.02010345 0 0 0 0 44005517.978557587 -72057924.211919785 0 -72057924.211919785 -33949871.915649414 0 0 0 0 97427194.063079834 12431467.075611115 0 12431467.075611115 -53888582.252258301 0 0 0 0 -2419917.1379089355 28535350.979820251 0 28535350.979820251 4656491.8502502441 0 0 0 0 22748856.828502655 10415211.463420868 0 10415211.463420868 12177716.705108643 0 0 0 0 23665677.281467438 -14927961.739585876 0 -14927961.739585876 126154900.46353149 0 0 0 0 12265931.424911499 11302171.289489746 0 11302171.289489746 51497337.262901306 0 0 0 0 42657144.606399536 974617.7253036499 0 974617.7253036499 9035283.0202331543 0 0 0 0 -10000879.346905708 -9014717.2943401337 0 -9014717.2943401337 8351779.5030670166 0 0 0 0 197393651.85987854 93820467.544784546 0 93820467.544784546 -176440211.17366028 0 0 0 0 155015781.19551086 107814657.51560974 0 107814657.51560974 -95412990.827552795 0 0 0 0 137253665.19412231 5978106.6295623779 0 5978106.6295623779 -114688005.74106598 0 0 0 0 30390671.408092499 57874935.610374451 0 57874935.610374451 -103045677.73069763 0 0 0 0 21173520.981494904 126316170.89413834 0 126316170.89413834 -37682617.413146973 0 0 0 0 172910473.20082092 19989857.95866394 0 19989857.95866394 32127640.179466248 0 0 0 0 153778238.94636536 97380722.162963867 0 97380722.162963867 127031063.88183975 0 0 0 0 160520115.43881226 221576961.52709961 0 221576961.52709961 339877494.55809021 0 0 0 0 171907307.86256409 53652180.460494995 0 53652180.460494995 -21209493.046852112 0 0 0 0 366622503.86267853 157585323.88453674 0 157585323.88453674 12465542.206375122 0 0 0 0 -1467566.077221103 1367587.7095739245 0 1367587.7095739245 -384472.42028674483 0 0 0 0 76348020.374206543 73185351.138839722 0 73185351.138839722 -24084164.632564545 0 0 0 0 162330811.92679787 227558987.41915321 0 227558987.41915321 168033152.33953857 0 0 0 0 159655935.89988708 158725499.86875916 0 158725499.86875916 205007626.84667969 0 0 0 0 239658969.75511169 89432248.922401428 0 89432248.922401428 -101635574.02471924 0 0 0 0 7761952.6259460449 -47755385.091033936 0 -47755385.091033936 -37207847.434288025 0 0 0 0 -622923586.58061218 255007474.6118927 0 255007474.6118927 -82046263.337905884 0 0 0 0 -331430473.62451935 -123536441.67733002 0 -123536441.67733002 87783917.800857544 0 0 0 0 -511951.13884397596 539333.04535475373 0 539333.04535475373 -296699.93519553542 0 0 0 0 177442002.25318909 179021701.52926636 0 179021701.52926636 -401825820.6043396 0 0 0 0 -122549398.5549469 515474340.22486877 0 515474340.22486877 -441798219.74106789 0 0 0 0 32492087.044975281 237783786.93791962 0 237783786.93791962 -193875278.75396729 0 0 0 0 -685495081.650177 266488827.34828186 0 266488827.34828186 -38232787.772918701 0 0 0 0 165752983.56364441 84191187.35168457 0 84191187.35168457 -99853663.819587708 0 0 0 0 176046606.30029678 25092564.023100376 0 25092564.023100376 -53086389.856689453 0 0 0 0 205856813.4829483 188295097.93992615 0 188295097.93992615 -348477050.51913452 0 0 0 0 92860220.02456665 228368313.09518242 0 228368313.09518242 -196616965.69451904 0 0 0 0 66527274.454059601 149220758.46873093 0 149220758.46873093 -152523918.93693542 0 0 0 0 -147280834.0295639 256004528.07240295 0 256004528.07240295 -40267954.342285156 0 0 0 0 -117003508.57228851 209186103.48556519 0 209186103.48556519 -44107251.306470871 0 0 0 0 -26568974.393249512 148362232.03035736 0 148362232.03035736 -873407.27331161499 0 0 0 0 -27148766.68334198 143499226.79036713 0 143499226.79036713 -41432041.981361389 0 0 0 0 46339817.651138306 120495335.06926727 0 120495335.06926727 -100578851.83165741 0 0 0 0 51154166.846786499 76712423.982691288 0 76712423.982691288 -41239752.836776733 0 0 0 0 15333888.447986603 30927178.962165833 0 30927178.962165833 -98636713.798942566 0 0 0 0 -2642983.7985610962 93800419.018974304 0 93800419.018974304 -42422948.492018223 0 0 0 0 8193340.2503967285 65925713.881599426 0 65925713.881599426 -16439007.273406982 0 0 0 0 530319.56776046753 63155404.304206848 0 63155404.304206848 16586370.510986328 0 0 0 0 -32721391.369020462 90341097.928131104 0 90341097.928131104 4372552.9543304443 0 0 0 0 -11716857.03679657 9965644.2472305298 0 9965644.2472305298 -109795677.24290466 0 0 0 0 -14586063.162353516 60859947.188743591 0 60859947.188743591 -11155009.665245056 0 0 0 0 -4897458.0350494385 2407258.898639679 0 2407258.898639679 -183471097.11126709 0 0 0 0 -74130286.283668518 64130355.99420166 0 64130355.99420166 -131689225.29882812 0 0 0 0 16590387.890930176 109975026.56586075 0 109975026.56586075 -328811927.86437988 0 0 0 0 -920170.61908850446 531443.80393751338 0 531443.80393751338 105771.98415247351 0 0 0 0 38957227.855270386 146157387.62041759 0 146157387.62041759 -298332231.44647217 0 0 0 0 -277853.11163942516 235509.64971466735 0 235509.64971466735 44566.598641280085 0 0 0 0 48407204.320583344 167392890.84638977 0 167392890.84638977 -210215839.59931946 0 0 0 0 -25674313.260482788 101068226.13967896 0 101068226.13967896 -240929362.64276123 0 0 0 0 -69991402.400886536 107044739.14450073 0 107044739.14450073 -120289801.33435059 0 0 0 0 -69125913.920661926 107179257.44211578 0 107179257.44211578 -169092814.07717896 0 0 0 0 12371297.913734436 -26759354.500297546 0 -26759354.500297546 -169624085.57583618 0 0 0 0 139724122.69058228 125139415.08343506 0 125139415.08343506 -242490725.95993042 0 0 0 0 -2068338.3479024433 580898.17935632914 0 580898.17935632914 206102.8518403098 0 0 0 0 168633865.83496094 -2429417.5054016113 0 -2429417.5054016113 -218504678.6836586 0 0 0 0 19819878.532056093 253508980.68883646 0 253508980.68883646 -93665953.96383667 0 0 0 0 441929737.08680344 147802807.27550125 0 147802807.27550125 -108962171.71897125 0 0 0 0 -928975.08085190877 329713.55415375158 0 329713.55415375158 118023.68693804741 0 0 0 0 16796966.845733643 105760178.87272644 0 105760178.87272644 66379850.084457397 0 0 0 0 83946234.492546082 75839749.16822052 0 75839749.16822052 -5206547.8758392334 0 0 0 0 -4255908.4872738449 3290463.2686167918 0 3290463.2686167918 1426537.9149264544 0 0 0 0 252917851.65362549 152473483.24225616 0 152473483.24225616 4688910.829826355 0 0 0 0 87564660.995449543 128861072.45175123 0 128861072.45175123 112711365.41807556 0 0 0 0 -193503276.71914291 71269926.825027466 0 71269926.825027466 154988634.81356812 0 0 0 0 -141729945.48770142 18562561.299552917 0 18562561.299552917 -132337898.11613464 0 0 0 0 70408743.887884617 212886893.7636385 0 212886893.7636385 39126701.802780151 0 0 0 0 -105133702.27606964 7686461.8768692017 0 7686461.8768692017 -55316193.373710632 0 0 0 0 -228718020.25209045 54012097.167037964 0 54012097.167037964 -72676032.933242798 0 0 0 0 -508551149.29509735 -7181628.0779037476 0 -7181628.0779037476 99498591.054954529 0 0 0 0 -133778164.96667123 191428250.88787508 0 191428250.88787508 85462450.195175171 0 0 0 0 -127218253.81891632 122601642.28375816 0 122601642.28375816 241743275.71831512 0 0 0 0 157170506.42626572 705283423.25276756 0 705283423.25276756 321949652.70460725 0 0 0 0 6632481.1574110985 590538574.48012877 0 590538574.48012877 336568780.62228394 0 0 0 0 -23279526.43388743 33092552.675145209 0 33092552.675145209 -36397963.637831099 0 0 0 0 462486847.9145236 194908950.86825609 0 194908950.86825609 -511234769.78814697 0 0 0 0 -607144120.76419067 343721035.24641418 0 343721035.24641418 454545138.97171402 0 0 0 0 56010021.90932595 349305949.22948718 0 349305949.22948718 304834519.90257263 0 0 0 0 434337582.72355652 548956708.44251251 0 548956708.44251251 -9020534.7847442627 0 0 0 0 135429906.07828522 162401128.26493835 0 162401128.26493835 140450440.80905151 0 0 0 0 -22704359.026332472 33446571.871410497 0 33446571.871410497 -36260421.957571961 0 0 0 0 195319922.72525787 84767293.941558838 0 84767293.941558838 -290985852.90325928 0 0 0 0 -51005509.810646057 43020881.607337952 0 43020881.607337952 -159918708.00924683 0 0 0 0 -121549373.80473709 262065307.26575851 0 262065307.26575851 -566498545.77505493 0 0 0 0 -63599838.912927628 -72545346.372047424 0 -72545346.372047424 -35837366.287246704 0 0 0 0 15420718.933494568 -9763508.0689239502 0 -9763508.0689239502 -81232715.018768311 0 0 0 0 -30011101.525661469 -117847312.8872261 0 -117847312.8872261 -153720073.8918457 0 0 0 0 133495982.5639801 11116206.235931396 0 11116206.235931396 -96887791.804952621 0 0 0 0 147697619.72318649 -17699866.332084656 0 -17699866.332084656 -46805974.743240356 0 0 0 0 -166520759.62698364 189121520.35533142 0 189121520.35533142 -247021430.71343994 0 0 0 0 -187531329.41627502 1362714618.328598 0 1362714618.328598 -948527451.83356476 0 0 0 0 742357521.75071716 515260090.83918762 0 515260090.83918762 -716154471.28417969 0 0 0 0 597181991.32414246 40654245.956329346 0 40654245.956329346 -470282526.00646973 0 0 0 0 -1425139503.1402283 203570676.84048462 0 203570676.84048462 -673168886.775177 0 0 0 0 -1602590.291054219 550975.86755276099 0 550975.86755276099 283534.54989214614 0 0 0 0 9090070.415145874 292779388.39225006 0 292779388.39225006 -1003927056.0188293 0 0 0 0 -47794266.894607544 -169927415.24212646 0 -169927415.24212646 -745055243.79522705 0 0 0 0 -1795939968.0124359 530532678.3581543 0 530532678.3581543 58240036.151947021 0 0 0 0 1806774.8055768162 1030329.8069920726 0 1030329.8069920726 -1628335.3425479159 0 0 0 0 -136757112.34929657 -227751842.26156616 0 -227751842.26156616 -217773930.03136444 0 0 0 0 -145244275.63937378 123091979.02870178 0 123091979.02870178 -61915770.340696335 0 0 0 0 -33366203.429214478 324904431.63238525 0 324904431.63238525 -337523751.60243225 0 0 0 0 -775120881.16098022 275385208.94137573 0 275385208.94137573 -66038381.15511322 0 0 0 0 -189572230.87268829 864813099.14319611 0 864813099.14319611 -662000591.96520996 0 0 0 0 181610268.64706421 321741513.29949951 0 321741513.29949951 -380477250.07316589 0 0 0 0 -80637940.960144043 142752584.38353729 0 142752584.38353729 -81108954.316207886 0 0 0 0 -76418698.997619629 146768265.01859283 0 146768265.01859283 -77408183.006195068 0 0 0 0 -269302030.08062744 225565640.28923798 0 225565640.28923798 -85148311.942398071 0 0 0 0 -118755388.80945969 174072377.70693779 0 174072377.70693779 -91023209.484039307 0 0 0 0 -65300243.166763306 18457496.898963928 0 18457496.898963928 -10434480.062488556 0 0 0 0 -172396378.28610229 104761888.76283646 0 104761888.76283646 -38749791.10836792 0 0 0 0 5661113.5871136263 3427527.8927478865 0 3427527.8927478865 -4069268.7970513701 0 0 0 0 13017255.804718513 15181121.354417602 0 15181121.354417602 401021.04935146123 0 0 0 0 16100784.779346466 19689245.451461792 0 19689245.451461792 1435920.2708282471 0 0 0 0 33157722.938100815 29005147.627830505 0 29005147.627830505 -5140625.0292816162 0 0 0 0 5595638.371096611 28889298.983825684 0 28889298.983825684 7529676.53125 0 0 0 0 4036902.8388366699 23743637.232040405 0 23743637.232040405 -104011.68154907227 0 0 0 0 12468155.074888702 14584455.740372548 0 14584455.740372548 964021.0586970076 0 0 0 0 -4264222.010383606 26260680.933105469 0 26260680.933105469 -31230375.343995094 0 0 0 0 65894745.108169556 63977301.758255005 0 63977301.758255005 -121507769.60488892 0 0 0 0 11191078.617156982 69647226.24156189 0 69647226.24156189 -51720546.33984375 0 0 0 0 -74475862.808654785 170657331.26268005 0 170657331.26268005 -132389860.44488525 0 0 0 0 -31530053.305831909 138281444.6111145 0 138281444.6111145 -125301046.97296143 0 0 0 0 -59666425.989532471 104359463.35562134 0 104359463.35562134 -22137584.531555176 0 0 0 0 48824668.144592285 -71221067.09576416 0 -71221067.09576416 -83140287.906152725 0 0 0 0 127503792.90250778 831147.73293304443 0 831147.73293304443 -55943556.698181152 0 0 0 0 -19475166.928703308 -26346520.300483704 0 -26346520.300483704 -11728189.298431396 0 0 0 0 3540439.4928500429 98068.138406449929 0 98068.138406449929 -3406972.1943852678 0 0 0 0 16818299.067669109 27505.717094060034 0 27505.717094060034 -15889231.635158435 0 0 0 0 27176970.340896606 -18466886.169006348 0 -18466886.169006348 -21787620.641395569 0 0 0 0 42072048.606819153 -7655598.4301147461 0 -7655598.4301147461 -29872950.579772949 0 0 0 0 43212141.83203125 -1961630.2387771606 0 -1961630.2387771606 -54221814.9251194 0 0 0 0 36854880.932296753 14900595.03754425 0 14900595.03754425 -29978834.860378414 0 0 0 0 41379857.370029449 18196674.052661896 0 18196674.052661896 -51943656.251865387 0 0 0 0 19925360.441491947 692234.70417573303 0 692234.70417573303 -19492841.061062291 0 0 0 0 60649225.869213104 32011791.08045578 0 32011791.08045578 736256.99514770508 0 0 0 0 67167352.475862503 41311459.603904724 0 41311459.603904724 -7757166.6784057617 0 0 0 0 -25169533.829170227 39083229.31427002 0 39083229.31427002 34348072.759033203 0 0 0 0 150863884.54544067 -107104209.46191406 0 -107104209.46191406 -12782190.681640625 0 0 0 0 168912787.52101135 60689733.107696533 0 60689733.107696533 64544607.475875854 0 0 0 0 1088715.7649566866 1282471.758038193 0 1282471.758038193 -302293.16624245793 0 0 0 0 -38103178.019676208 91240842.45993042 0 91240842.45993042 99680043.015441895 0 0 0 0 16297964.799713135 81029187.862487793 0 81029187.862487793 53599886.867736816 0 0 0 0 9057471.2942380905 119388343.76306725 0 119388343.76306725 80107212.207763672 0 0 0 0 -80420300.289657593 55876745.541381836 0 55876745.541381836 82943074.706619263 0 0 0 0 211785742.04315948 58127253.853378296 0 58127253.853378296 -25192622.247711182 0 0 0 0 490243.70788046159 109972.06636158749 0 109972.06636158749 -1948587.7406293079 0 0 0 0 115737133.2370491 68771781.276351929 0 68771781.276351929 108383384.05853271 0 0 0 0 -60255.832998106256 17929057.596098501 0 17929057.596098501 -9256100.3243519813 0 0 0 0 -15643707.074876308 42040274.512189865 0 42040274.512189865 13638054.078933716 0 0 0 0 34549183.992324352 43922564.397935867 0 43922564.397935867 -35591681.805908203 0 0 0 0 968231.2389755249 14687152.834411621 0 14687152.834411621 -1558666.5328369141 0 0 0 0 627501.22075653076 7670692.5208892822 0 7670692.5208892822 791784.29875183105 0 0 0 0 7304126.9542488679 9389838.0187476426 0 9389838.0187476426 1113415.341746442 0 0 0 0 4646183.2160415649 4271787.4571380615 0 4271787.4571380615 -828111.73425292969 0 0 0 0 6724536.9458443485 8628329.3313016221 0 8628329.3313016221 2505675.1964736134 0 0 0 0 25570186.051574707 6607264.6719818115 0 6607264.6719818115 19403372.615570068 0 0 0 0 1686219.7494105026 12739859.055440091 0 12739859.055440091 3722065.8284800127 0 0 0 0 762361.2728598807 1471139.5504447632 0 1471139.5504447632 1269928.6001747027 0 0 0 0 9971655.9185333252 42249882.280776978 0 42249882.280776978 -12908464.280151367 0 0 0 0 -1539452.7040710449 13248166.351867676 0 13248166.351867676 -1868378.7578735352 0 0 0 0 -2952874.0733947754 15620561.036560059 0 15620561.036560059 13697200.111419678 0 0 0 0 -12853885.564193726 -2031246.2387695312 0 -2031246.2387695312 1945459.2245483398 0 0 0 0 -11983443.743431091 39319602.791763306 0 39319602.791763306 33356990.292755127 0 0 0 0 -2039712.3576965332 12680374.251937866 0 12680374.251937866 5484259.5500488281 0 0 0 0 36058127.622161865 2148314.7255249023 0 2148314.7255249023 4973405.4229125977 0 0 0 0 440676.25382043235 2640585.0584474131 0 2640585.0584474131 -1664186.8069214202 0 0 0 0 4248777.1939724796 5096831.8064740896 0 5096831.8064740896 -1627858.7127402872 0 0 0 0 -9456040.48828125 28448737.000946045 0 28448737.000946045 50889650.397903442 0 0 0 0 50697277.955932617 -40538709.402481079 0 -40538709.402481079 35256029.844085693 0 0 0 0 -83311034.889576912 13757042.97309494 0 13757042.97309494 63707152.003356934 0 0 0 0 -44478181.944824219 -3589499.7897338867 0 -3589499.7897338867 30015999.822998047 0 0 0 0 -250819111.41130829 166369830.49864197 0 166369830.49864197 -11880886.047149658 0 0 0 0 15804058.265808105 -2840734.280456543 0 -2840734.280456543 -3777567.9422607422 0 0 0 0 -352719.89103625342 971133.82569051534 0 971133.82569051534 -170717.31060288474 0 0 0 0 11239166.075863019 17747349.424884178 0 17747349.424884178 -1377552.3969297288 0 0 0 0 1920291.3414868079 4297925.216888234 0 4297925.216888234 -3063549.5293872878 0 0 0 0 -30759.501899719238 3178270.843460083 0 3178270.843460083 727274.55807495117 0 0 0 0 6999556.7741866913 10528327.201559052 0 10528327.201559052 1282336.2415685505 0 0 0 0 4613000.3983310964 11766690.737597652 0 11766690.737597652 4352179.5186224729 0 0 0 0 4170115.3487586975 9382733.3445510864 0 9382733.3445510864 -451663.10083007812 0 0 0 0 -1015171.3651275635 15902601.562683105 0 15902601.562683105 11700090.496734619 0 0 0 0 1904168.1980133057 8191397.5950927734 0 8191397.5950927734 1190720.9753112793 0 0 0 0 -634475.60026784241 6133625.4303480685 0 6133625.4303480685 -1939138.7733125985 0 0 0 0 1958721.6225013733 8559740.3515987396 0 8559740.3515987396 -2973839.8944244385 0 0 0 0 -2009819.8001098633 9890962.3273925781 0 9890962.3273925781 -6851504.9111557007 0 0 0 0 -2523050.6660385132 5822680.0496063232 0 5822680.0496063232 -3435573.0411376953 0 0 0 0 -149090.67526245117 12036451.920288086 0 12036451.920288086 -6686796.9774780273 0 0 0 0 451449.18227982521 10031870.286019802 0 10031870.286019802 -1488838.5286712646 0 0 0 0 11069292.098209137 23328927.550218031 0 23328927.550218031 3561932.5839913227 0 0 0 0 -741427.0590577051 9407557.2732881606 0 9407557.2732881606 7051382.4594127089 0 0 0 0 2820.7860707454383 61439.864569433033 0 61439.864569433033 -114793.24745669961 0 0 0 0 12009285.672782898 173496427.23206329 0 173496427.23206329 21048509.217277527 0 0 0 0 -897736.65425734967 9072759.607891228 0 9072759.607891228 6075971.707465589 0 0 0 0 -2160174.8182449341 6692766.9139862061 0 6692766.9139862061 -3210727.6085205078 0 0 0 0 172228517.58218384 108050654.58183289 0 108050654.58183289 -416552806.2906189 0 0 0 0 -752409309.72036743 -41916485.756134033 0 -41916485.756134033 -39415527.351257324 0 0 0 0 293846.28869508952 461635.24283192307 0 461635.24283192307 211084.90908320248 0 0 0 0 8495451.0720825195 31819023.112640381 0 31819023.112640381 -13429310.285644531 0 0 0 0 9615772.6242476255 8687565.1289515719 0 8687565.1289515719 496936.23766502365 0 0 0 0 1203603.289496664 2832447.4492041152 0 2832447.4492041152 -3870017.0028391853 0 0 0 0 -36424017.496589661 150786360.98914337 0 150786360.98914337 -114911215.53271484 0 0 0 0 -44943232.093338013 238533710.26795959 0 238533710.26795959 -63630567.031768799 0 0 0 0 -24486905.218215942 202026159.57505798 0 202026159.57505798 -156335161.13345337 0 0 0 0 57820966.435546875 329617482.81848145 0 329617482.81848145 -154168033.87088013 0 0 0 0 -5218729.8121032715 17863793.886444092 0 17863793.886444092 -3338350.6507644653 0 0 0 0 -15455626.749773026 6810999.955247879 0 6810999.955247879 -28987582.460617065 0 0 0 0 9122030.4489135742 16940298.031341553 0 16940298.031341553 -16355590.033935547 0 0 0 0 -983638.2344433628 14829729.93916152 0 14829729.93916152 2511191.503392695 0 0 0 0 9579984.8910993803 14787663.112427577 0 14787663.112427577 -10694281.49784416 0 0 0 0 -320785.56381225586 12633900.259490967 0 12633900.259490967 -5508061.55078125 0 0 0 0 -1323847.4293365479 18581407.342906952 0 18581407.342906952 -5198502.4031677246 0 0 0 0 1775577.9828767776 19777998.940650355 0 19777998.940650355 8137682.810524282 0 0 0 0 -13406562.061162658 7179114.331312716 0 7179114.331312716 4258101.1129091959 0 0 0 0 -3925200.3651078083 11816884.565313887 0 11816884.565313887 1520286.6312132478 0 0 0 0 -38439181.596252441 101393172.11051941 0 101393172.11051941 -220105545.10061646 0 0 0 0 -23345624.901191711 -26361078.976478577 0 -26361078.976478577 -69154956.331665039 0 0 0 0 -26488660.62575531 14022988.858306885 0 14022988.858306885 28723144.105453491 0 0 0 0 68088015.361022949 -245193767.88925171 0 -245193767.88925171 -319428977.3639679 0 0 0 0 134665925.49034882 -271287100.12675476 0 -271287100.12675476 -718535292.38922119 0 0 0 0 227632668.06585693 101489740.13557434 0 101489740.13557434 -994950844.63070679 0 0 0 0 180253501.83430481 139976750.41586304 0 139976750.41586304 -457763099.97058105 0 0 0 0 -4678374.4894332886 317265030.30021667 0 317265030.30021667 -237861712.81143951 0 0 0 0 -6044341.7954177856 554575682.58673096 0 554575682.58673096 -573822908.17710876 0 0 0 0 53949169.843719482 156557154.31048584 0 156557154.31048584 -187247769.78474426 0 0 0 0 83853566.004150391 176726809.50071716 0 176726809.50071716 -377054582.17727661 0 0 0 0 -24932246.30128479 196094119.86157227 0 196094119.86157227 -204967275.41888428 0 0 0 0 -18337127.834823608 237752302.37142944 0 237752302.37142944 -195488909.42858887 0 0 0 0 -9908219.1187515259 270125025.44107056 0 270125025.44107056 -116864521.49438477 0 0 0 0 -33071805.982437134 208547631.397995 0 208547631.397995 -119263805.19495344 0 0 0 0 -17140364.515296936 306994365.09724426 0 306994365.09724426 -83154821.360839844 0 0 0 0 -26242466.061035156 162755358.49240112 0 162755358.49240112 82627136.087104797 0 0 0 0 -73631742.43735981 323264681.91690826 0 323264681.91690826 -59392477.415222168 0 0 0 0 -50104680.44719696 85004652.387069702 0 85004652.387069702 170604434.70701599 0 0 0 0 -31754393.19354248 68595713.861000061 0 68595713.861000061 44998071.180419922 0 0 0 0 -49271726.136379242 221461578.90153885 0 221461578.90153885 -41842935.331054688 0 0 0 0 -39574806.871103287 104409644.49724388 0 104409644.49724388 -97671557.001831055 0 0 0 0 -58638339.922317505 133332490.43867493 0 133332490.43867493 -138036764.91233826 0 0 0 0 -45848209.733604431 210768751.91632843 0 210768751.91632843 -97882249.556762695 0 0 0 0 -82749272.302536011 115957209.16411591 0 115957209.16411591 -128208590.48191833 0 0 0 0 -100967739.31513214 159744682.48556519 0 159744682.48556519 -168977179.646698 0 0 0 0 -62076316.285507202 133137335.19885254 0 133137335.19885254 -150873033.23142242 0 0 0 0 -63693199.778656006 193451177.03253174 0 193451177.03253174 -197019192.57746887 0 0 0 0 -130564851.97016907 217927890.0519104 0 217927890.0519104 -181562341.81106567 0 0 0 0 -132967337.00981522 231014158.05135727 0 231014158.05135727 -135701559.79312134 0 0 0 0 -97639530.059043884 172222265.44036865 0 172222265.44036865 -145576546.24954224 0 0 0 0 -164010545.79501462 153704166.4470315 0 153704166.4470315 -229791787.45608521 0 0 0 0 -176445278.47624207 188399577.72599792 0 188399577.72599792 -148299713.501297 0 0 0 0 -165843082.47622681 228680345.49157715 0 228680345.49157715 -147440925.67831421 0 0 0 0 -62176670.914367676 179956815.8811264 0 179956815.8811264 -144834496.1100769 0 0 0 0 -9923690.1352615356 191028029.91127777 0 191028029.91127777 -236845195.33999634 0 0 0 0 42423045.991493225 21191696.020103455 0 21191696.020103455 -118617655.4694519 0 0 0 0 50445117.392410278 -18737827.197891235 0 -18737827.197891235 -24124114.552761078 0 0 0 0 -394003703.50421143 285081240.11282349 0 285081240.11282349 -268506414.2472229 0 0 0 0 -335705469.69721985 320173055.56056213 0 320173055.56056213 -263049164.96403503 0 0 0 0 2421825.1546771321 2006986.1048365152 0 2006986.1048365152 -1975252.9555169046 0 0 0 0 -257897330.91033173 17367494.763015747 0 17367494.763015747 -272647061.0423584 0 0 0 0 -43635627.609451294 189885282.89068604 0 189885282.89068604 -225727571.94464111 0 0 0 0 -21116262.393432617 197781541.8535614 0 197781541.8535614 -255204512.46347046 0 0 0 0 -11969065.76361084 250470709.96466064 0 250470709.96466064 -159769335.88382626 0 0 0 0 -19067335.628829956 235797484.54003143 0 235797484.54003143 -180813454.35583496 0 0 0 0 -60620644.63079834 178442287.98979187 0 178442287.98979187 -162984128.74499512 0 0 0 0 -59288651.880981445 177404814.34106445 0 177404814.34106445 -168199720.50372314 0 0 0 0 -106237993.9950943 117967262.58596802 0 117967262.58596802 -236314886.75558472 0 0 0 0 1189486.682182312 652419004.71095467 0 652419004.71095467 298827467.67087555 0 0 0 0 483235872.76681519 340855100.69927216 0 340855100.69927216 -245062687.25534058 0 0 0 0 1159601.0569162443 2118159.2816539034 0 2118159.2816539034 -835133.83401656151 0 0 0 0 489407160.96681213 434844581.81866455 0 434844581.81866455 -83328562.307178497 0 0 0 0 -195203291.02612305 -62277637.737953186 0 -62277637.737953186 130208572.2494812 0 0 0 0 127925195.53515625 87837718.124855042 0 87837718.124855042 -88426466.394821167 0 0 0 0 1024597655.3283081 258579681.51881409 0 258579681.51881409 -25373081.42313385 0 0 0 0 964062482.5877285 260679261.85369778 0 260679261.85369778 54197107.629714966 0 0 0 0 170083476.45930481 105192620.95228577 0 105192620.95228577 -58673908.883253098 0 0 0 0 4660531.4594072737 4876414.4042995647 0 4876414.4042995647 -3082923.4152878225 0 0 0 0 -135730482.13498878 -17723544.405500412 0 -17723544.405500412 30368340.743255615 0 0 0 0 756954991.34051514 40074032.270332336 0 40074032.270332336 433286455.21875 0 0 0 0 10408050.863486687 10900008.865191028 0 10900008.865191028 -5964245.8171954155 0 0 0 0 -240640664.9977417 -87598492.960769653 0 -87598492.960769653 87628311.799255371 0 0 0 0 -148282490.12451172 -117440523.19696808 0 -117440523.19696808 7857678.3879241943 0 0 0 0 2199989112.2099762 577287822.82905579 0 577287822.82905579 -270004039.71879578 0 0 0 0 1815796917.0901184 1815784166.209404 0 1815784166.209404 748148106.42315292 0 0 0 0 1584505826.286911 1034982779.4270248 0 1034982779.4270248 184475350.72402954 0 0 0 0 598020277.08831024 1167495746.9927111 0 1167495746.9927111 548039987.59185028 0 0 0 0 1515048805.6453705 1423472522.0481682 0 1423472522.0481682 1442315709.8796844 0 0 0 0 2017125.4606593477 3085134659.9290066 0 3085134659.9290066 2044095101.3555756 0 0 0 0 1531041927.4440765 1647434125.7960353 0 1647434125.7960353 2595393489.8205261 0 0 0 0 3493656721.2444916 3619284070.6948509 0 3619284070.6948509 -2928946.8123779297 0 0 0 0 3877940944.8625488 2716874659.5410004 0 2716874659.5410004 82424423.062591553 0 0 0 0 6849810331.8462982 2557930039.1290665 0 2557930039.1290665 14364574.582206726 0 0 0 0 -67646851.58937645 9752951.5426502228 0 9752951.5426502228 30580488.816955566 0 0 0 0 6549649.879088074 2810036.2513174862 0 2810036.2513174862 3842815.6132253557 0 0 0 0 3707727878.2063446 2447544135.0116959 0 2447544135.0116959 887663030.54153442 0 0 0 0 5717167.5868042652 6558464.3749751747 0 6558464.3749751747 11433523.652598411 0 0 0 0 -13076806.397968292 22009518.534959793 0 22009518.534959793 31494326.032897949 0 0 0 0 18142903.542938232 10249555.167419434 0 10249555.167419434 12770378.756200045 0 0 0 0 3341201328.8349304 3017169592.4337921 0 3017169592.4337921 761308557.32792664 0 0 0 0 3376266579.7341766 2542874586.3035583 0 2542874586.3035583 2444673745.0542603 0 0 0 0 3204910.734930113 2989875.4911441281 0 2989875.4911441281 778517.90617530362 0 0 0 0 3234006475.0521107 -759964895.03927803 0 -759964895.03927803 -369728752.5581665 0 0 0 0 3567333574.2203064 2200227565.8903656 0 2200227565.8903656 708953045.87162018 0 0 0 0 15534177.443847656 71688858.554168701 0 71688858.554168701 -82920974.481964111 0 0 0 0 19936223.379629493 18316075.200235687 0 18316075.200235687 5782437.8404139243 0 0 0 0 -319374199.77130127 -266197241.26544189 0 -266197241.26544189 -307121083.92779541 0 0 0 0 1951471416.5495605 99711337.307785034 0 99711337.307785034 -535645226.98509216 0 0 0 0 22917694.647549346 13671770.894638106 0 13671770.894638106 -3273288.6216114964 0 0 0 0 -275416529.65689087 878203244.47226715 0 878203244.47226715 238527524.44869995 0 0 0 0 -521574917.79652405 117232574.96927643 0 117232574.96927643 277711806.05737305 0 0 0 0 -1208790651.0978394 -557188855.92053223 0 -557188855.92053223 -379255169.30682373 0 0 0 0 659669.29628925771 1162436.6632495224 0 1162436.6632495224 1371157.2111163959 0 0 0 0 -133558159.59341431 -442662346.20359802 0 -442662346.20359802 17526014.377349854 0 0 0 0 19618610.791397095 17093112.829418182 0 17093112.829418182 19026917.665176392 0 0 0 0 8522224.6111919507 6747597.3844786137 0 6747597.3844786137 5116601.315616563 0 0 0 0 16900664.895141602 15127054.971176147 0 15127054.971176147 23213078.42544353 0 0 0 0 19603947.769500732 42836203.613296509 0 42836203.613296509 20588815.32800293 0 0 0 0 12982557.366775513 27901270.782150269 0 27901270.782150269 -3227184.4945526123 0 0 0 0 17018616.422454834 15624498.202194214 0 15624498.202194214 32389398.603855133 0 0 0 0 9135306.3959579468 18733087.571235657 0 18733087.571235657 19367555.371536255 0 0 0 0 8244008.816805467 3274342.0598600954 0 3274342.0598600954 -206045.92961412668 0 0 0 0 52264129.232902527 59952066.637264252 0 59952066.637264252 13507223.075714111 0 0 0 0 63614025.56124115 40422679.599472046 0 40422679.599472046 38927.522277832031 0 0 0 0 34308367.782165527 18812614.055801392 0 18812614.055801392 18338765.932088852 0 0 0 0 5278142.767578125 50331254.169784546 0 50331254.169784546 -34046.5517578125 0 0 0 0 6278992.007019043 66520099.222290039 0 66520099.222290039 1060228.6541290283 0 0 0 0 23797823.027145386 71034013.715255737 0 71034013.715255737 -150466.08979797363 0 0 0 0 -37915431.217590332 16470857.509681702 0 16470857.509681702 17914685.405609131 0 0 0 0 7650738.7211648002 1905885.2254062146 0 1905885.2254062146 -1865113.567029506 0 0 0 0 14994584.718734741 26030619.52116394 0 26030619.52116394 19610199.806053162 0 0 0 0 28844869.729278564 59039013.970558167 0 59039013.970558167 -9114654.1089782715 0 0 0 0 20534498.484477997 25967158.925905228 0 25967158.925905228 14648866.426055908 0 0 0 0 23435762.502941132 33524671.138803482 0 33524671.138803482 8079848.5211486816 0 0 0 0 18097490.687271118 19449352.932418823 0 19449352.932418823 15606075.510726929 0 0 0 0 21737142.318603516 22182000.009094238 0 22182000.009094238 13115681.762145996 0 0 0 0 -6242320.78515625 221434639.88366699 0 221434639.88366699 -102708559.88655683 0 0 0 0 24380317.872150376 16839638.121503592 0 16839638.121503592 -2193545.175178282 0 0 0 0 228825679.74915695 48290329.542432785 0 48290329.542432785 -16952679.148468018 0 0 0 0 185761092.83177948 -68940852.329969406 0 -68940852.329969406 133560060.10601807 0 0 0 0 25172762.665254176 17390865.612085715 0 17390865.612085715 -1901634.1195828007 0 0 0 0 -1399255492.9365234 222375736.7578125 0 222375736.7578125 166347668.57896423 0 0 0 0 134126974.21975708 12009267.620437622 0 12009267.620437622 59293682.872177124 0 0 0 0 31049209.466659546 22107767.622901917 0 22107767.622901917 -97556.699203491211 0 0 0 0 -239832157.65720761 -334998032.17250884 0 -334998032.17250884 -22372454.011352539 0 0 0 0 -79811.977545589209 1054110.1911928877 0 1054110.1911928877 -730013.5248253569 0 0 0 0 52206244.751525879 69549484.425109863 0 69549484.425109863 -29563971.549728394 0 0 0 0 3023027.2714324184 1885326.744483076 0 1885326.744483076 1418242.1929515302 0 0 0 0 -86703348.431213379 147622652.96147919 0 147622652.96147919 -8612066.1505432129 0 0 0 0 159738829.34794617 265390518.37443542 0 265390518.37443542 38767641.538909912 0 0 0 0 -32754803.554260254 -31281592.400024414 0 -31281592.400024414 36416883.050292969 0 0 0 0 -36438304.263000488 -35986245.005279541 0 -35986245.005279541 118473361.7935791 0 0 0 0 -245315814.8230257 -116357135.98329926 0 -116357135.98329926 41498236.416687012 0 0 0 0 -5000353.3148569167 5385007.0491419584 0 5385007.0491419584 2750864.2235739976 0 0 0 0 -258854045.77658081 25821965.095352173 0 25821965.095352173 67553678.677780151 0 0 0 0 -89162178.8331604 86655419.150562286 0 86655419.150562286 60569797.94972229 0 0 0 0 106414492.99077225 148100051.39131546 0 148100051.39131546 -57477412.597259521 0 0 0 0 -281242614.17486572 163368043.14865112 0 163368043.14865112 82629120.865783691 0 0 0 0 -1274662.896907717 1824935.2682072595 0 1824935.2682072595 1425701.7848818302 0 0 0 0 1406871602.9771729 166319007.57772827 0 166319007.57772827 -328576168.53700256 0 0 0 0 410648539.72161865 -106400624.39356995 0 -106400624.39356995 67858982.737472534 0 0 0 0 229022915.60430908 277068562.48918152 0 277068562.48918152 169442006.51894379 0 0 0 0 166869606.89221191 79192714.366233826 0 79192714.366233826 92165975.388816833 0 0 0 0 -12519690.364379883 33753684.94543457 0 33753684.94543457 66231419.582082748 0 0 0 0 370173514.62283325 16262383.937812805 0 16262383.937812805 -40807746.845626831 0 0 0 0 -3675295.0601867288 7391731.4612626284 0 7391731.4612626284 3179659.9298438877 0 0 0 0 -9885623.6042498499 19940152.698709421 0 19940152.698709421 -13239330.610196196 0 0 0 0 347695223.18302917 155793323.84461212 0 155793323.84461212 -16390327.448967934 0 0 0 0 240114731.09023285 -40969428.800388336 0 -40969428.800388336 -71018225.49369812 0 0 0 0 -27720855.491348267 80373346.226593018 0 80373346.226593018 39673847.52986145 0 0 0 0 -57265341.817123413 17083966.693122864 0 17083966.693122864 -18207607.364715576 0 0 0 0 -145260629.1802063 72622027.968387604 0 72622027.968387604 52106655.118927002 0 0 0 0 -11921944.363093913 8521097.1296536773 0 8521097.1296536773 25275352.856299475 0 0 0 0 -12349598.906848907 -58403346.559839249 0 -58403346.559839249 30456148.135772705 0 0 0 0 18494055.228881836 74003176.838294983 0 74003176.838294983 6290987.001159668 0 0 0 0 -8050074.7237937078 18530776.013499908 0 18530776.013499908 15567687.4176438 0 0 0 0 189734382.24815369 -29652851.76512146 0 -29652851.76512146 205563321.37915039 0 0 0 0 84827277.154022217 175077455.02072906 0 175077455.02072906 155076084.63574219 0 0 0 0 -85093645.896179199 43969112.326583862 0 43969112.326583862 58810092.104858398 0 0 0 0 378315116.01670837 -175802935.76550293 0 -175802935.76550293 -8124949.797454834 0 0 0 0 -84439574.364929199 18641046.8019104 0 18641046.8019104 215739506.88500977 0 0 0 0 -83425096.740722656 43291026.483032227 0 43291026.483032227 109383035.80335999 0 0 0 0 -94872927.356414795 72023801.137329102 0 72023801.137329102 19411917.643096924 0 0 0 0 -131265849.31896973 -50587559.248703003 0 -50587559.248703003 -19032568.247268677 0 0 0 0 115714700.37915039 169883555.59112549 0 169883555.59112549 167085441.78869629 0 0 0 0 46030109.924804688 36068219.057220459 0 36068219.057220459 -68427260.951049805 0 0 0 0 9301937.7615261823 3701746.6616540328 0 3701746.6616540328 1056070.1963159144 0 0 0 0 286300909.69659424 193176904.97380829 0 193176904.97380829 316733962.18798828 0 0 0 0 281728662.02896118 146590534.02542114 0 146590534.02542114 61054620.038818359 0 0 0 0 56279143.00894165 45863424.77835083 0 45863424.77835083 -70796469.752746582 0 0 0 0 169667901.32772827 164936024.04693604 0 164936024.04693604 29610122.140228271 0 0 0 0 83627591.812576294 34275769.363128662 0 34275769.363128662 -26479709.567077637 0 0 0 0 281651051.62033081 210006514.41094971 0 210006514.41094971 45375306.801879883 0 0 0 0 359337947.15203857 164664257.12498474 0 164664257.12498474 -24346130.119750977 0 0 0 0 421502229.37524414 188581143.9463501 0 188581143.9463501 -42234842.704701424 0 0 0 0 420008325.67359924 198685115.59638977 0 198685115.59638977 28804390.318847656 0 0 0 0 362829675.75190735 188670381.13903809 0 188670381.13903809 60393950.603393555 0 0 0 0 463011592.24172974 150363314.31268311 0 150363314.31268311 -131198617.89682007 0 0 0 0 455427183.41036987 285224591.79074097 0 285224591.79074097 5995511.9566802979 0 0 0 0 416372872.62973022 313839064.21795654 0 313839064.21795654 239080746.68133545 0 0 0 0 430351413.62869263 258167953.3815918 0 258167953.3815918 71229772.034980774 0 0 0 0 429705492.48901367 211233623.88183594 0 211233623.88183594 9752663.6359558105 0 0 0 0 499250763.48074341 537766586.88816833 0 537766586.88816833 372223210.1756897 0 0 0 0 573939711.5519104 -9224216.6536712646 0 -9224216.6536712646 -172459819.15989685 0 0 0 0 62393626.976211548 -138500563.64753723 0 -138500563.64753723 -189578381.79971313 0 0 0 0 1347856.1757302359 792120.91072861105 0 792120.91072861105 1838688.3144945353 0 0 0 0 705865950.0262146 415954922.12380981 0 415954922.12380981 73191432.905517578 0 0 0 0 812724796.14398193 -280748479.87297058 0 -280748479.87297058 -27683998.71975708 0 0 0 0 44243780.774337769 56755186.085121155 0 56755186.085121155 -27653711.013183594 0 0 0 0 60482208.301004887 58872267.195426583 0 58872267.195426583 -48365144.004821777 0 0 0 0 -179514955.05901337 62255993.296096802 0 62255993.296096802 270161502.32171249 0 0 0 0 45039208.352416992 48372958.150215149 0 48372958.150215149 -40061697.526641846 0 0 0 0 -3996588.7641136758 2823213.3860409753 0 2823213.3860409753 -1613229.1597592086 0 0 0 0 -97611419.538749695 -174936747.46821022 0 -174936747.46821022 62587165.463562012 0 0 0 0 -448749537.1099472 7643130.477142334 0 7643130.477142334 250718.30131530762 0 0 0 0 -326858193.13209534 -139126647.46019745 0 -139126647.46019745 -258256018.65625 0 0 0 0 -126020407.03158951 -8675312.0479736328 0 -8675312.0479736328 -14560845.844894409 0 0 0 0 -333446450.32614899 46384575.959537506 0 46384575.959537506 10397464.365203857 0 0 0 0 -145882449.82925415 1387507.0057983398 0 1387507.0057983398 13127620.533233643 0 0 0 0 -217402629.61433411 -28841944.491470337 0 -28841944.491470337 5398971.4698791504 0 0 0 0 -4900086.9070701841 29030908.897169702 0 29030908.897169702 -4159411.9077817351 0 0 0 0 -16035507.364259362 6717079.601845202 0 6717079.601845202 -2616783.8407385647 0 0 0 0 -87253582.073638916 18601235.547149658 0 18601235.547149658 -4107201.5546875 0 0 0 0 -30636536.819828033 79933611.267410278 0 79933611.267410278 37699369.401672363 0 0 0 0 41787936.770980835 42132522.43768692 0 42132522.43768692 -46797433.903778076 0 0 0 0 44072399.446411133 17024488.218444824 0 17024488.218444824 44916807.203857422 0 0 0 0 2767386.8666731939 1691205.057284385 0 1691205.057284385 -1436263.4506207332 0 0 0 0 98941744.113220215 18262958.93927002 0 18262958.93927002 -37244032.325866699 0 0 0 0 122517729.33837891 26127729.054382324 0 26127729.054382324 -52417493.25402832 0 0 0 0 -36330618.112670898 -8019801.9063110352 0 -8019801.9063110352 -29813869.764526367 0 0 0 0 144344794.83764648 12589074.584564209 0 12589074.584564209 -56200006.328857422 0 0 0 0 117976286.71411133 -90998104.340454102 0 -90998104.340454102 -49386041.50994873 0 0 0 0 137633553.91308594 52485144.267608643 0 52485144.267608643 -10653392.691040039 0 0 0 0 -75959884.518920898 -93313105.531799316 0 -93313105.531799316 -28902351.752471924 0 0 0 0 -1100119.2510443926 14508264.59990551 0 14508264.59990551 1117175.0526152253 0 0 0 0 -173429540.43634033 -41724768.317230225 0 -41724768.317230225 -674826.63305664062 0 0 0 0 7827778.5654296875 7420776.3216094971 0 7420776.3216094971 -1807598.1484375 0 0 0 0 -456292.4120637551 25245877.698626786 0 25245877.698626786 2237922.4586000741 0 0 0 0 -45718405.700950623 -62821507.823928833 0 -62821507.823928833 -46899673.239013672 0 0 0 0 24849731.170180351 9376127.0051375255 0 9376127.0051375255 -6242857.8356911838 0 0 0 0 -21991950.451807432 15321094.125680428 0 15321094.125680428 13643150.171746209 0 0 0 0 -7728139.526996702 14867844.357044816 0 14867844.357044816 -3042879.5172652379 0 0 0 0 -52566270.962913513 40250080.80834198 0 40250080.80834198 54408324.935546875 0 0 0 0 -8258859.6405029297 -10298775.029922485 0 -10298775.029922485 -37833998.131347656 0 0 0 0 220155880.32769775 -41274530.708007812 0 -41274530.708007812 -27894004.604736328 0 0 0 0 286505310.7517395 73561895.428314209 0 73561895.428314209 -21027700.773376465 0 0 0 0 -33677502.364135742 3137509.005859375 0 3137509.005859375 -36453730.380737305 0 0 0 0 -98894999.959945679 5454184.1253356934 0 5454184.1253356934 -19349084.667694092 0 0 0 0 -7451711.9444254637 14068601.714564219 0 14068601.714564219 -1857268.4781294167 0 0 0 0 34831548.137390137 47177314.136230469 0 47177314.136230469 50411025.67779541 0 0 0 0 -188232728.54360962 -80066188.869033813 0 -80066188.869033813 -28132635.783111572 0 0 0 0 -121015126.74715042 -42477138.038581848 0 -42477138.038581848 -8044334.4743652344 0 0 0 0 -131946645.00485229 -10111637.819702148 0 -10111637.819702148 -14808082.609954834 0 0 0 0 -52058543.800956726 -74174854.852836609 0 -74174854.852836609 -95704781.389221191 0 0 0 0 -1418213.5381641462 74543.696638524532 0 74543.696638524532 923765.3971452713 0 0 0 0 -128955337.14570618 -52512999.109817505 0 -52512999.109817505 -64077694.954833984 0 0 0 0 13712290.687005997 81484885.538615227 0 81484885.538615227 84956166.374420166 0 0 0 0 16508031.909515381 56578180.876266479 0 56578180.876266479 16837913.238189697 0 0 0 0 30916042.777313232 46337165.802154541 0 46337165.802154541 50883455.320556641 0 0 0 0 2180250.4039057046 13630652.688507006 0 13630652.688507006 -12494554.734265253 0 0 0 0 -42346328.650970459 18055601.003295898 0 18055601.003295898 52174701.290088654 0 0 0 0 -34382752.920822144 84829652.364624023 0 84829652.364624023 31755879.051971436 0 0 0 0 71611943.227020264 75809465.55821228 0 75809465.55821228 62302853.098709106 0 0 0 0 -8325376.516345622 6678199.305476509 0 6678199.305476509 11582990.696215764 0 0 0 0 -93936180.998542786 70947024.838829041 0 70947024.838829041 59374819.463165283 0 0 0 0 312474816.21472168 48043629.706954956 0 48043629.706954956 57008720.021820068 0 0 0 0 -113017935.79039001 30581793.983345032 0 30581793.983345032 75658371.522277832 0 0 0 0 -6989969.2858589217 6450514.7526392937 0 6450514.7526392937 5866862.6572871506 0 0 0 0 -41934846.774982452 22635358.735479355 0 22635358.735479355 -83392657.678741455 0 0 0 0 326144028.47927856 96942264.879577637 0 96942264.879577637 320253101.34194946 0 0 0 0 487506707.074646 -142907366.322052 0 -142907366.322052 390265070.81435394 0 0 0 0 497610051.80072021 -17754861.695999146 0 -17754861.695999146 212383173.66210938 0 0 0 0 331297604.98455811 -10889841.26348877 0 -10889841.26348877 427279840.56011963 0 0 0 0 434510357.6408844 80497809.652526855 0 80497809.652526855 103427749.15911865 0 0 0 0 401091896.90252686 124136054.9838562 0 124136054.9838562 101778725.03036499 0 0 0 0 454082025.6340332 112513074.19900513 0 112513074.19900513 54608591.403045654 0 0 0 0 334950112.53437805 122967824.03144073 0 122967824.03144073 159217029.45117188 0 0 0 0 361924972.0402832 142171370.89401245 0 142171370.89401245 85158611.559837341 0 0 0 0 370983699.7718811 76678225.013885498 0 76678225.013885498 35222554.320861816 0 0 0 0 269091914.58807373 83133712.793518066 0 83133712.793518066 35077465.814163208 0 0 0 0 344236416.93334961 124161607.67980957 0 124161607.67980957 -29676050.627319336 0 0 0 0 408304307.48864746 124199355.46394348 0 124199355.46394348 9745889.6344604492 0 0 0 0 377769784.43331909 179363550.28057861 0 179363550.28057861 6373477.0953369141 0 0 0 0 328059279.730896 161838466.64498901 0 161838466.64498901 -5971702.4608001709 0 0 0 0 359183515.30731201 149500341.99184418 0 149500341.99184418 -30500345.528320312 0 0 0 0 293951267.59637451 169734073.62527466 0 169734073.62527466 -31384175.261901855 0 0 0 0 373689092.10189056 179799190.36071777 0 179799190.36071777 -44273745.711853027 0 0 0 0 375663900.67077637 173232372.95507812 0 173232372.95507812 -44627343.395874023 0 0 0 0 341056442.88146973 183562258.36636353 0 183562258.36636353 -22539890.918827057 0 0 0 0 331791046.91431427 156350182.06183624 0 156350182.06183624 -47840551.903869629 0 0 0 0 213663993.95220947 115695317.74786377 0 115695317.74786377 -5611565.0027542114 0 0 0 0 257232160.19250488 97719852.095825195 0 97719852.095825195 -33153510.108154297 0 0 0 0 120210007.72666168 -1192284.1155319214 0 -1192284.1155319214 25112849.364776611 0 0 0 0 -8190708.1595803462 15702248.841307975 0 15702248.841307975 17373481.680590481 0 0 0 0 305816815.1125946 134897390.49536133 0 134897390.49536133 -13962030.880462646 0 0 0 0 377273111.29382324 108026963.36300659 0 108026963.36300659 -60979829.372711182 0 0 0 0 352330530.08560181 168529184.91949463 0 168529184.91949463 -36030340.391601562 0 0 0 0 368846801.49346924 159205177.55914307 0 159205177.55914307 -41244545.145308495 0 0 0 0 377622292.55038452 167318160.37045288 0 167318160.37045288 -22842480.524719238 0 0 0 0 333149681.44907379 203954324.04024506 0 203954324.04024506 9573649.4924926758 0 0 0 0 367967082.08679199 178105140.02902222 0 178105140.02902222 -31132219.54901123 0 0 0 0 9616261.1265964881 8588319.272269398 0 8588319.272269398 6100992.1818265319 0 0 0 0 67141636.51335144 69415970.12386322 0 69415970.12386322 27668685.497476339 0 0 0 0 -7244796.4673619345 14290662.337086968 0 14290662.337086968 18871862.96413517 0 0 0 0 496472632.00701904 29186039.164367676 0 29186039.164367676 181649899.46917725 0 0 0 0 466752090.91950226 104008238.58952713 0 104008238.58952713 50950609.26361084 0 0 0 0 399615789.16357422 202229117.47402954 0 202229117.47402954 -6091348.5824584961 0 0 0 0 50773406.958641052 25464995.422096252 0 25464995.422096252 17009608.49911499 0 0 0 0 -242071594.59090877 1023032774.9947438 0 1023032774.9947438 -125460911.12030029 0 0 0 0 450163037.09823608 47864347.879180908 0 47864347.879180908 259599518.12927246 0 0 0 0 28079266.930976331 19294178.667268753 0 19294178.667268753 -1727038.5345038376 0 0 0 0 30397826.721923828 22492539.816467285 0 22492539.816467285 14535306.589586377 0 0 0 0 -68570604.470809937 75308493.045860291 0 75308493.045860291 398369331.94851685 0 0 0 0 -1701435.0548888184 2124502.2725695223 0 2124502.2725695223 1763143.1348714978 0 0 0 0 2074805687.3640747 -49576161.757202148 0 -49576161.757202148 -1749915931.7619629 0 0 0 0 771831794.77352905 -167236432.61364746 0 -167236432.61364746 257243822.76916504 0 0 0 0 638472453.38749695 548619797.11433411 0 548619797.11433411 -380699903.24438477 0 0 0 0 -103313.05392402411 1091922.1011895686 0 1091922.1011895686 426049.86018033035 0 0 0 0 1240503609.9200439 1585805382.7616272 0 1585805382.7616272 -4606097881.0102072 0 0 0 0 550525360.74227905 -273948295.81887817 0 -273948295.81887817 1848765212.51297 0 0 0 0 9961494.2282067016 8078153.2963121161 0 8078153.2963121161 1127732.8270946592 0 0 0 0 88117994.606987 52472336.463218689 0 52472336.463218689 3633732.0311126709 0 0 0 0 267855105.88903809 625451119.81715393 0 625451119.81715393 327116836.13047791 0 0 0 0 34829660.722106934 338394549.97006226 0 338394549.97006226 637409058.95498657 0 0 0 0 40380987.739341736 73063637.333187103 0 73063637.333187103 17674032.231506348 0 0 0 0 49279422.501449585 33825763.759155273 0 33825763.759155273 4924726.0276794434 0 0 0 0 9001415.8948310092 8790208.3642300516 0 8790208.3642300516 3072928.5620041043 0 0 0 0 12371769.840423584 24901722.731964111 0 24901722.731964111 34796597.69140625 0 0 0 0 93726680.853469849 46803363.104225159 0 46803363.104225159 -6809181.7602844238 0 0 0 0 -39636120.490833282 28501273.430973053 0 28501273.430973053 62242303.315673828 0 0 0 0 3292509.9317071512 1560325.3636500984 0 1560325.3636500984 429640.63396380842 0 0 0 0 3802328.8936416432 1014737.8404660448 0 1014737.8404660448 -488198.16148559749 0 0 0 0 183834296.51656342 86572658.9036026 0 86572658.9036026 -61403499.177429199 0 0 0 0 171126981.56509399 45615839.865997314 0 45615839.865997314 -57465848.173919678 0 0 0 0 125186845.99761963 40430073.383605957 0 40430073.383605957 -51692149.161193848 0 0 0 0 82735746.708587646 91523617.176086426 0 91523617.176086426 371125.62524414062 0 0 0 0 141995526.10448837 97094621.23387146 0 97094621.23387146 -41565522.800018311 0 0 0 0 15823801.553833008 164795275.05645752 0 164795275.05645752 -67858498.183822632 0 0 0 0 43170299.568161011 60408251.60446167 0 60408251.60446167 -10999226.357284546 0 0 0 0 45397742.715026855 63338589.087486267 0 63338589.087486267 -19230948.09262085 0 0 0 0 -220464445.09247208 714978631.53693199 0 714978631.53693199 143135662.79104614 0 0 0 0 -213278535.28610992 757265887.25048447 0 757265887.25048447 -604547164.49362183 0 0 0 0 762171908.22543335 285990388.51029968 0 285990388.51029968 -1068668.7897272462 0 0 0 0 183594804.00551987 -226677750.5699749 0 -226677750.5699749 -322169949.80560303 0 0 0 0 -610252.41023176629 -1715578.067382969 0 -1715578.067382969 1872163.2006471753 0 0 0 0 -197719381.21141815 105201684.07071304 0 105201684.07071304 489953221.95791626 0 0 0 0 835319937.11824036 375885077.00759888 0 375885077.00759888 -301936538.36988831 0 0 0 0 288433792.14312744 -170107964.25335693 0 -170107964.25335693 -154554414.02874756 0 0 0 0 -242158621.35128784 -227991997.77160645 0 -227991997.77160645 287069774.92395782 0 0 0 0 -240860508.25468731 -236921031.23125982 0 -236921031.23125982 -580616579.86291504 0 0 0 0 -250686101.88529205 -87322388.071739197 0 -87322388.071739197 79541552.864578247 0 0 0 0 -118008498.20175171 -84792065.11289978 0 -84792065.11289978 77923002.330814362 0 0 0 0 220321649.51469421 524887150.90390778 0 524887150.90390778 114392768.74188232 0 0 0 0 -15827903.510803223 188677714.09660339 0 188677714.09660339 208964499.15422821 0 0 0 0 -3031742.5323364725 -1673637.7473140657 0 -1673637.7473140657 6201232.9834043086 0 0 0 0 58303805.116542816 114340713.55348396 0 114340713.55348396 277363867.69665527 0 0 0 0 -105876817.89933491 -68601119.098822594 0 -68601119.098822594 57620710.097930908 0 0 0 0 -2486401.6846923828 -37047244.474105835 0 -37047244.474105835 -53811453.689857483 0 0 0 0 -82768086.60848999 -27723928.244659424 0 -27723928.244659424 129821809.36685181 0 0 0 0 -88075968.803024292 -21018993.576370239 0 -21018993.576370239 129650770.38983154 0 0 0 0 3333236.841789782 961439.75038453192 0 961439.75038453192 -2180010.4695004076 0 0 0 0 -5867448.2734488696 10266221.645886749 0 10266221.645886749 -7791966.1200386286 0 0 0 0 100486449.85420227 213342769.40324402 0 213342769.40324402 216538207.514328 0 0 0 0 125286044.29379272 137597075.82823181 0 137597075.82823181 92585237.114227295 0 0 0 0 149651280.53308868 -29076673.009498596 0 -29076673.009498596 -9264449.3362121582 0 0 0 0 -46602983.397064209 70751753.95803833 0 70751753.95803833 221255640.91644287 0 0 0 0 -82492154.714294434 148891212.88131714 0 148891212.88131714 337433350.30456543 0 0 0 0 19862758.147857666 84283846.915466309 0 84283846.915466309 335065497.47503662 0 0 0 0 227644324.72938538 39512643.870986938 0 39512643.870986938 286637448.74938965 0 0 0 0 35207133.386932373 200498353.84362793 0 200498353.84362793 198410602.32794189 0 0 0 0 -47976922.065490723 41468260.563018799 0 41468260.563018799 174469072.18530273 0 0 0 0 -1649728.7498563603 1156518.5185282007 0 1156518.5185282007 302003.31564544141 0 0 0 0 58111523.915130615 -37405454.030548096 0 -37405454.030548096 -150375830.31931305 0 0 0 0 -248715081.84128571 -824680477.06118774 0 -824680477.06118774 -554667508.05181885 0 0 0 0 -121865221.50909424 114243831.37664795 0 114243831.37664795 -105753934.48565674 0 0 0 0 100624765.48641968 -70575657.580810547 0 -70575657.580810547 -42424143.038757324 0 0 0 0 -175623339.98323059 213909982.88489532 0 213909982.88489532 -228086548.71963501 0 0 0 0 -391421506.1488266 326977393.88072205 0 326977393.88072205 -178214706.52581787 0 0 0 0 -556378249.06069946 112564017.25379944 0 112564017.25379944 51587669.944610596 0 0 0 0 316480622.19934654 513805909.88303566 0 513805909.88303566 34077178.631866455 0 0 0 0 -1388682.3604360148 5384008.2880202085 0 5384008.2880202085 -7509066.7139946967 0 0 0 0 381843936.5749054 76065287.581619263 0 76065287.581619263 127879797.10107422 0 0 0 0 39048539.589809418 504495766.36039734 0 504495766.36039734 104722262.5920105 0 0 0 0 -161653663.96075058 20528614.302928925 0 20528614.302928925 207011541.17068481 0 0 0 0 270810154.32470703 157542403.70355225 0 157542403.70355225 120317043.54302979 0 0 0 0 -207758780.40394592 273816320.7636261 0 273816320.7636261 107241895.1882019 0 0 0 0 73258954.237756729 296299346.73263359 0 296299346.73263359 -21212179.761016846 0 0 0 0 -112708685.85041809 1716413.6807098389 0 1716413.6807098389 5532715.6063842773 0 0 0 0 -145528737.11477661 -59611638.151870728 0 -59611638.151870728 56934543.725524902 0 0 0 0 -443081749.99449158 839706044.0476532 0 839706044.0476532 -774709612.07983017 0 0 0 0 -441874924.39248657 -76714184.203994751 0 -76714184.203994751 -6086038.7835845947 0 0 0 0 -1289769329.6577148 216906019.9705658 0 216906019.9705658 -89538379.733215332 0 0 0 0 -540189990.03179932 502517295.27859497 0 502517295.27859497 -80470242.473258972 0 0 0 0 188522356.94329834 233157705.73278809 0 233157705.73278809 -69384343.307220459 0 0 0 0 479913261.91991425 619942732.51361847 0 619942732.51361847 -1282272723.3410645 0 0 0 0 137579405.40945435 411236158.58120728 0 411236158.58120728 -675396645.50802612 0 0 0 0 383334060.80375481 41554837.921701431 0 41554837.921701431 -923859428.17514038 0 0 0 0 1049212943.750885 167670873.27903748 0 167670873.27903748 -951598348.73102188 0 0 0 0 -207733306.15052032 17804157.798023224 0 17804157.798023224 340161964.27093506 0 0 0 0 -2249663.5877921656 3336371.2629251853 0 3336371.2629251853 -460622.12920906022 0 0 0 0 -762034851.63494873 451493149.25315857 0 451493149.25315857 844981.63425349945 0 0 0 0 19535769.578140259 -25795462.946670532 0 -25795462.946670532 -1578100.3478088379 0 0 0 0 -2189501572.0140381 208622460.82669067 0 208622460.82669067 475983556.38632965 0 0 0 0 50102386.63104248 47426157.19733429 0 47426157.19733429 122513003.50418091 0 0 0 0 -5012592.3184095472 4811156.435972549 0 4811156.435972549 -531326.69862130191 0 0 0 0 103669105.45135117 112962738.04439926 0 112962738.04439926 293339.62507629395 0 0 0 0 328417.3752072677 1474524.1825097725 0 1474524.1825097725 -3415470.3571852744 0 0 0 0 493398696.61068535 -499676522.52991676 0 -499676522.52991676 -1028236218.6500244 0 0 0 0 -721849.70157721639 383452.11604225263 0 383452.11604225263 -558387.33272157609 0 0 0 0 -2904470698.1773071 100020715.56951904 0 100020715.56951904 469535301.75021362 0 0 0 0 -1513218879.0203247 1863634864.4846191 0 1863634864.4846191 -1897443990.0667114 0 0 0 0 -461402176.73602295 -566799044.12057495 0 -566799044.12057495 -143981329.42932129 0 0 0 0 -1429877049.5560532 658333304.98766327 0 658333304.98766327 -53434958.067962646 0 0 0 0 78962060.419624329 -81520186.847869873 0 -81520186.847869873 -598952940.04302979 0 0 0 0 1073869199.6384246 -450040016.08237505 0 -450040016.08237505 -1136053987.3615112 0 0 0 0 899433355.32064819 1241057281.371933 0 1241057281.371933 -1091332211.8827515 0 0 0 0 -604715502.15512085 1346642804.5870514 0 1346642804.5870514 -568759432.87023926 0 0 0 0 1263112091.0485535 -153767134.1098175 0 -153767134.1098175 -589466978.09039307 0 0 0 0 64477316.243148804 420185548.93908691 0 420185548.93908691 -669376322.0845108 0 0 0 0 167143636.17694855 527699823.3979187 0 527699823.3979187 -615483051.79516602 0 0 0 0 -104859044.06343079 582427146.28579712 0 582427146.28579712 -612589071.32571793 0 0 0 0 -492227969.92092514 193187475.61505508 0 193187475.61505508 -129158212.35171509 0 0 0 0 -67869245.4243927 -17533060.41267395 0 -17533060.41267395 -155467321.4978466 0 0 0 0 -539450599.14040375 -1519364.5904808044 0 -1519364.5904808044 676861332.84506226 0 0 0 0 -600716638.37010193 576540125.95126343 0 576540125.95126343 321607912.73640442 0 0 0 0 -192571291.72125244 -719442377.81732178 0 -719442377.81732178 -62619401.153320312 0 0 0 0 -2432093.1800043341 1984361.2353850491 0 1984361.2353850491 599917.78460016847 0 0 0 0 -40680416.955459595 35301935.585540771 0 35301935.585540771 -65876713.189941406 0 0 0 0 268656251.36469269 288200055.84126282 0 288200055.84126282 -1317130978.3169556 0 0 0 0 -586699828.95153809 -823663359.12726593 0 -823663359.12726593 533930417.25152588 0 0 0 0 -133922326.02890778 138812695.80142212 0 138812695.80142212 -200569482.43115234 0 0 0 0 -30359872.109199524 109947589.46287537 0 109947589.46287537 69177844.795272827 0 0 0 0 -5475273.6725897752 4982474.5153589547 0 4982474.5153589547 -1954749.6913778558 0 0 0 0 -22669404.598440647 -24459665.097417831 0 -24459665.097417831 9500385.4219360352 0 0 0 0 450554108.32601929 544165643.75374603 0 544165643.75374603 389274675.33760071 0 0 0 0 401500500.69943237 320399498.48683167 0 320399498.48683167 345057426.0056839 0 0 0 0 -5678775.9257297227 5317153.764386259 0 5317153.764386259 5860588.6104269326 0 0 0 0 -7952679.3590427414 7860968.599662289 0 7860968.599662289 -2938223.4473623484 0 0 0 0 -21752536.689552307 7658663.4456253052 0 7658663.4456253052 51264457.22416687 0 0 0 0 239572932.27487564 152037568.21709633 0 152037568.21709633 -53276052.058044434 0 0 0 0 -181963975.1552887 191790942.10165405 0 191790942.10165405 280693508.31417084 0 0 0 0 -298651147.00656128 28340511.518310547 0 28340511.518310547 -335680967.77993011 0 0 0 0 -217686895.88743591 -138449677.66653442 0 -138449677.66653442 -96870151.942230225 0 0 0 0 -1962775.5275248438 5463006.8594928831 0 5463006.8594928831 -1998388.6215193495 0 0 0 0 -285206759.56150818 -238915761.83337402 0 -238915761.83337402 -168013476.60769653 0 0 0 0 -28159546.373321533 38628287.815948486 0 38628287.815948486 14360137.466674805 0 0 0 0 23150782.617462158 18034805.528656006 0 18034805.528656006 21415259.549804688 0 0 0 0 -445904239.27378845 -117169442.70605469 0 -117169442.70605469 -41013319.655639648 0 0 0 0 -12591764.555395797 4108675.0872552693 0 4108675.0872552693 8576466.501945138 0 0 0 0 -229008450.70532227 -158361722.90510559 0 -158361722.90510559 -76759741.992797852 0 0 0 0 -127856370.20361328 -102171953.6494751 0 -102171953.6494751 -188610801.80118942 0 0 0 0 -242529816.5375452 -58578287.644848824 0 -58578287.644848824 37903555.956054688 0 0 0 0 -186341337.66691971 -90222037.605175018 0 -90222037.605175018 16652511.158905029 0 0 0 0 -42625591.153274536 -45162286.385955811 0 -45162286.385955811 39563250.914367676 0 0 0 0 -202955902.61288452 80793884.058624268 0 80793884.058624268 13042923.273735046 0 0 0 0 -251609655.43118286 -116877958.96903992 0 -116877958.96903992 -58327768.953140259 0 0 0 0 -14455649.291877747 69308697.047286987 0 69308697.047286987 508548720.41256714 0 0 0 0 -10559526.529185962 5658716.3845735788 0 5658716.3845735788 2737612.9454636052 0 0 0 0 -64999569.523147583 -24417594.559570312 0 -24417594.559570312 -11760697.647850037 0 0 0 0 -98493708.819419861 66924426.224777222 0 66924426.224777222 86491015.410823822 0 0 0 0 -226658346.89784813 -115437998.02763748 0 -115437998.02763748 4634942.6411895752 0 0 0 0 -152633009.87418365 -104679916.48068237 0 -104679916.48068237 2675707.1526184082 0 0 0 0 -218268370.55243874 -77159079.760882735 0 -77159079.760882735 17058780.050140381 0 0 0 0 252879528.66461945 450229864.43464661 0 450229864.43464661 395347354.43496704 0 0 0 0 -297298848.89900208 -48569756.567779541 0 -48569756.567779541 -25285343.108673096 0 0 0 0 -7538653.9394754469 3311476.8805664331 0 3311476.8805664331 2298684.7216530293 0 0 0 0 308945109.95660782 394196112.6040802 0 394196112.6040802 215177972.20896912 0 0 0 0 471204750.59413147 570048173.04568481 0 570048173.04568481 404760567.35359192 0 0 0 0 638956859.45022583 330337061.97837067 0 330337061.97837067 -446946.37434387207 0 0 0 0 298082336.89159012 234686537.80043221 0 234686537.80043221 506433744.57775879 0 0 0 0 333719112.02333832 157240091.00429535 0 157240091.00429535 118623404.10443115 0 0 0 0 41153679.138839722 305823754.4794693 0 305823754.4794693 51786924.619598389 0 0 0 0 456492566.52548981 376238490.24455261 0 376238490.24455261 325204796.085495 0 0 0 0 269211831.63524628 520638924.67804718 0 520638924.67804718 410633283.71844482 0 0 0 0 893870126.18928528 740423034.29963684 0 740423034.29963684 516405831.7253418 0 0 0 0 -2108968.3341600932 3074565.8622925617 0 3074565.8622925617 1522000.8417931199 0 0 0 0 168256563.6214447 -31921392.674568176 0 -31921392.674568176 -323224387.03874207 0 0 0 0 433732878.37615967 189382689.03038025 0 189382689.03038025 -491316551.19802856 0 0 0 0 374332220.00132751 167817280.75424957 0 167817280.75424957 -42288156.299415588 0 0 0 0 239751338.1355896 287033575.89924622 0 287033575.89924622 221452432.61493683 0 0 0 0 451116401.97938919 301615824.46982956 0 301615824.46982956 -18185002.334594727 0 0 0 0 176694501.30422211 275271508.0181427 0 275271508.0181427 498026998.46096802 0 0 0 0 348614375.0562439 86196514.668121338 0 86196514.668121338 231028825.10023499 0 0 0 0 265190187.50813293 294614665.22140503 0 294614665.22140503 180427480.58084106 0 0 0 0 261690161.4052124 132326117.6910553 0 132326117.6910553 146776205.38707352 0 0 0 0 332488569.57367706 229616474.66308594 0 229616474.66308594 -24758003.574813843 0 0 0 0 260049996.95999974 283546138.4501524 0 283546138.4501524 19130904.312805176 0 0 0 0 174700638.91552734 69963967.548538208 0 69963967.548538208 -161150324.31700897 0 0 0 0 85426668.282455444 335828309.36283112 0 335828309.36283112 -96765219.081939697 0 0 0 0 302953443.09237671 211632849.99487305 0 211632849.99487305 -35020544.36656189 0 0 0 0 351711772.19651794 103071193.80256653 0 103071193.80256653 -240379835.16603088 0 0 0 0 269845577.68065643 42524129.899475098 0 42524129.899475098 -217241031.41202545 0 0 0 0 292478393.05383682 79912596.026847839 0 79912596.026847839 -228643480 0 0 0 0 139749875.55265427 -18311890.582416534 0 -18311890.582416534 -233307481.76213074 0 0 0 0 2013001.8059559288 1298489.4975429252 0 1298489.4975429252 -404854.37115722895 0 0 0 0 166163891.97009039 68522290.420720041 0 68522290.420720041 -756221.86944580078 0 0 0 0 -86016052.390884399 146999877.28520203 0 146999877.28520203 -127425284.26553345 0 0 0 0 110501681.8480072 -11031993.804634094 0 -11031993.804634094 -14870847.338745117 0 0 0 0 1034233.9960861206 27755277.290122986 0 27755277.290122986 -24116119.235240936 0 0 0 0 344260019.60469055 -249115306.44043732 0 -249115306.44043732 12912942.384729385 0 0 0 0 67280506.255233765 -106796012.59053802 0 -106796012.59053802 39607740.538063049 0 0 0 0 384654530.86180115 -24696183.751502991 0 -24696183.751502991 -244229442.09506226 0 0 0 0 393024833.75608349 26997948.72487545 0 26997948.72487545 -436118626.49513245 0 0 0 0 539777483.25247192 -139721674.33995819 0 -139721674.33995819 -326949181.31057739 0 0 0 0 234447503.65007782 221337023.99720001 0 221337023.99720001 58655599.085203171 0 0 0 0 235203849.3317337 -275237082.66704559 0 -275237082.66704559 210051325.630867 0 0 0 0 667723414.47489548 -17064560.050430298 0 -17064560.050430298 -32573531.402587891 0 0 0 0 392278300.01244354 314347386.50006485 0 314347386.50006485 256297357.7555542 0 0 0 0 1244626.7352489755 -17100.59219417721 0 -17100.59219417721 1237568.7854696214 0 0 0 0 114096023.10794067 128942596.11074829 0 128942596.11074829 175982109.1965332 0 0 0 0 145571395.4385376 164777894.9181366 0 164777894.9181366 68989485.700454712 0 0 0 0 132166099.67254639 -68152115.618682861 0 -68152115.618682861 73388302.095954895 0 0 0 0 151207592.56732178 151052316.46386719 0 151052316.46386719 -27674539.709960938 0 0 0 0 117368752.65544891 124578354.63680267 0 124578354.63680267 99984514.713104248 0 0 0 0 158444220.18380737 144866695.45429993 0 144866695.45429993 -10979625.454833984 0 0 0 0 -74335.200670450926 87147.985691472888 0 87147.985691472888 183388.04073297977 0 0 0 0 307178748.61716843 -25610402.962833405 0 -25610402.962833405 74728318.057113647 0 0 0 0 89853691.259185791 15667363.009017944 0 15667363.009017944 -123158478.82894135 0 0 0 0 -201239.14222340286 -97437.868161819875 0 -97437.868161819875 50046.921120543033 0 0 0 0 36335370.908218384 -34773572.994689941 0 -34773572.994689941 -40199761.300354004 0 0 0 0 72545943.549797058 5226845.7725067139 0 5226845.7725067139 1091539.1417694092 0 0 0 0 1768.8511853888631 57447.559235744178 0 57447.559235744178 221265.52941773087 0 0 0 0 120287918.0043478 13245562.156857491 0 13245562.156857491 -9904023.0107879639 0 0 0 0 106278316.9928894 -29170939.34602356 0 -29170939.34602356 26141297.934192657 0 0 0 0 162858973.2769165 99461998.088562012 0 99461998.088562012 -32609053.52835083 0 0 0 0 97561001.536891937 15135129.606452942 0 15135129.606452942 -6290836.5631713867 0 0 0 0 65801020.05368042 -4232260.8145141602 0 -4232260.8145141602 6147023.9258918762 0 0 0 0 47772471.334060669 10325584.429626465 0 10325584.429626465 26018445.182159424 0 0 0 0 156054898.37740326 60200549.133338928 0 60200549.133338928 110796151.67617798 0 0 0 0 194761129.40764618 100913310.92897034 0 100913310.92897034 26311208.106689453 0 0 0 0 74499573.270599365 157324875.21887207 0 157324875.21887207 100656787.13439941 0 0 0 0 73698787.789047241 95721850.551574707 0 95721850.551574707 40620081.131507874 0 0 0 0 161501317.33325195 83730986.892471313 0 83730986.892471313 29469228.733181 0 0 0 0 148930478.47092819 95102361.202079773 0 95102361.202079773 76704650.129943848 0 0 0 0 109776610.45871735 49812123.411872864 0 49812123.411872864 24412778.419647217 0 0 0 0 152350765.9783783 88149328.541748047 0 88149328.541748047 35595548.618896484 0 0 0 0 111180513.09274292 81798578.151046753 0 81798578.151046753 81480621.124786377 0 0 0 0 147215911.57935333 102578672.53440094 0 102578672.53440094 25544678.235107422 0 0 0 0 154748046.79698181 114627051.31367493 0 114627051.31367493 42253242.93460083 0 0 0 0 161847501.11369324 109071071.92935181 0 109071071.92935181 35392373.644775391 0 0 0 0 167612354.71282959 92269220.524749756 0 92269220.524749756 32044215.701629639 0 0 0 0 178953296.49224854 34492278.943359375 0 34492278.943359375 -12640378.982696533 0 0 0 0 206904983.45635986 114987808.46925354 0 114987808.46925354 39089334.329284668 0 0 0 0 195539683.69042969 97861906.772949219 0 97861906.772949219 13488959.101257324 0 0 0 0 178222103.14492798 124430391.23356628 0 124430391.23356628 46689593.722473145 0 0 0 0 201265080.66139984 149172587.56918335 0 149172587.56918335 119452272.65432739 0 0 0 0 -56683471.85165143 -20065919.827874899 0 -20065919.827874899 53573924.840667725 0 0 0 0 390778670.93743896 91473703.49130249 0 91473703.49130249 23028290.395507812 0 0 0 0 -795718.84221212077 -259475.4177913256 0 -259475.4177913256 108369.39019097388 0 0 0 0 372452330.947052 132955942.33688354 0 132955942.33688354 40103602.561706543 0 0 0 0 -11493769.820595674 -935227.28604837134 0 -935227.28604837134 2089204.6512362063 0 0 0 0 394663804.7399292 52933444.374511719 0 52933444.374511719 -90264205.118652344 0 0 0 0 -408577.27714947611 -13021.200722368434 0 -13021.200722368434 267660.8732341677 0 0 0 0 4137947.8032369735 505064.79105431959 0 505064.79105431959 1754158.4127520472 0 0 0 0 510760.8123768568 710546.83590662479 0 710546.83590662479 1045954.8859863281 0 0 0 0 133198600.71292877 112587413.44246674 0 112587413.44246674 76926039.687719345 0 0 0 0 114288861.28577423 63104988.972251892 0 63104988.972251892 46615838.685302734 0 0 0 0 19573345.244317789 7563381.501235038 0 7563381.501235038 2149971.3855249435 0 0 0 0 139754884.07979584 91586331.708557129 0 91586331.708557129 73148650.519317627 0 0 0 0 157613886.97515869 96366518.005691528 0 96366518.005691528 36877285.615310669 0 0 0 0 149024022.52592468 134239165.51268005 0 134239165.51268005 18697195.013702393 0 0 0 0 154105003.38447952 110661790.89851761 0 110661790.89851761 35148288.887451172 0 0 0 0 149217067.56948853 124055912.50564575 0 124055912.50564575 67889994.682800293 0 0 0 0 129514519.4870224 117623523.48738861 0 117623523.48738861 70139943.696994781 0 0 0 0 129281571.61685944 119988982.23159027 0 119988982.23159027 92481826.457138062 0 0 0 0 150214128.14793777 153539965.7382164 0 153539965.7382164 70241461.141296387 0 0 0 0 72516324.306545377 20900011.251910925 0 20900011.251910925 -3676729.5932922363 0 0 0 0 7271014.6649326608 2947554.511507459 0 2947554.511507459 -1157974.7847002298 0 0 0 0 6195888.3502111398 1110989.1220683455 0 1110989.1220683455 1685409.1503885314 0 0 0 0 15492804.349848688 21275634.197691321 0 21275634.197691321 -36668591.257583618 0 0 0 0 13111833.861024491 28097612.505496509 0 28097612.505496509 5628359.5494168326 0 0 0 0 41365306.370437622 12143627.955886841 0 12143627.955886841 -1863331.3803300858 0 0 0 0 50653866.702049255 31351697.227355957 0 31351697.227355957 -2581832.0708007812 0 0 0 0 49794714.765579224 49015282.521224976 0 49015282.521224976 437035.73087692261 0 0 0 0 36852737.92326355 -4365189.0523757935 0 -4365189.0523757935 29667876.562393188 0 0 0 0 -1375133.6655426025 39274951.135818481 0 39274951.135818481 53863906.206329346 0 0 0 0 234716328.71014404 103412388.12711334 0 103412388.12711334 -51726353.573867798 0 0 0 0 12084212.760040283 -37822889.240219116 0 -37822889.240219116 -23637146.332260132 0 0 0 0 -97901130.09262085 -3459843.9695281982 0 -3459843.9695281982 37388252.95778656 0 0 0 0 -8062395.9302825928 206414366.05498314 0 206414366.05498314 -30122566.375305176 0 0 0 0 -3820854.1561050415 28133073.213815689 0 28133073.213815689 12095582.358886719 0 0 0 0 22438031.01361084 22574108.092605591 0 22574108.092605591 1395168.0238037109 0 0 0 0 26742856.299560547 14551985.939804077 0 14551985.939804077 10860692.703063965 0 0 0 0 43147546.565368652 339156.86103820801 0 339156.86103820801 681901.74383544922 0 0 0 0 26452565.122619629 13198583.098114014 0 13198583.098114014 12611504.094512939 0 0 0 0 1932560.4276489448 200713.98792970553 0 200713.98792970553 -357578.35460814834 0 0 0 0 65025437.731781006 33530063.395294189 0 33530063.395294189 10588783.172660828 0 0 0 0 1042649.8259125277 12649185.93897596 0 12649185.93897596 5018537.9377229884 0 0 0 0 6211885.5545533411 15691233.001444943 0 15691233.001444943 5668053.6930667013 0 0 0 0 8621340.268081665 4127360.8354568481 0 4127360.8354568481 -1989645.8012084961 0 0 0 0 -9832628.3641920239 12335649.219572254 0 12335649.219572254 9000836.9645552859 0 0 0 0 -21701021.542633057 17827196.014648438 0 17827196.014648438 -7065862.1221008301 0 0 0 0 -16683876.752046585 -3547846.2598800659 0 -3547846.2598800659 -12577281.344665527 0 0 0 0 -1311432.5357666016 25861328.044830322 0 25861328.044830322 -4554800.6142883301 0 0 0 0 -44115598.22143364 -23914294.85319519 0 -23914294.85319519 -19826752.895141602 0 0 0 0 2228989.2612915039 86572752.817016602 0 86572752.817016602 146509541.0718689 0 0 0 0 -9251257.3781642914 -11017872.659463882 0 -11017872.659463882 18518408.2762146 0 0 0 0 -17545673.267173767 26798863.352790833 0 26798863.352790833 62012280.298828125 0 0 0 0 5647304.851348877 31907636.19732666 0 31907636.19732666 2536699.6695480347 0 0 0 0 -31098406.376098633 11268190.766311646 0 11268190.766311646 -3955275.7013244629 0 0 0 0 -11423413.146795087 17787326.647582524 0 17787326.647582524 13655929.193203345 0 0 0 0 8953963.2495055944 6507891.1749707311 0 6507891.1749707311 -2582924.1407113224 0 0 0 0 -275366149.25602722 22392268.953575134 0 22392268.953575134 20789652.815776825 0 0 0 0 -227188106.35745239 251696755.51139832 0 251696755.51139832 -97084938.451583862 0 0 0 0 -514055183.72190094 323794417.35865784 0 323794417.35865784 -11454162.090789795 0 0 0 0 -240653707.73822021 -367110750.07509613 0 -367110750.07509613 177627537.53975296 0 0 0 0 3687191.8371887207 -279498685.21014404 0 -279498685.21014404 87615127.78944397 0 0 0 0 -617793656.40174866 6044408.6279220581 0 6044408.6279220581 393543715.45907593 0 0 0 0 -52357533.281951904 316276742.85997009 0 316276742.85997009 56521805.730926514 0 0 0 0 49057145.017303467 136597957.92242432 0 136597957.92242432 18883483.387695312 0 0 0 0 19223100.382232666 107361021.93409729 0 107361021.93409729 45600109.61630249 0 0 0 0 60157584.59444046 100755000.58848572 0 100755000.58848572 21133834.278747559 0 0 0 0 -9515684.2569732666 -10759896.819473267 0 -10759896.819473267 -68583816.008239746 0 0 0 0 56651642.585601807 116028749.59994507 0 116028749.59994507 -158842816.25668335 0 0 0 0 614323333.52476501 597855104.7972641 0 597855104.7972641 247309427.21601868 0 0 0 0 45235617.118999481 268953465.68965149 0 268953465.68965149 139891673.95518494 0 0 0 0 346595532.86654663 361739253.32832336 0 361739253.32832336 56663364.786560059 0 0 0 0 303638631.07644653 -88313600.337486267 0 -88313600.337486267 -69462928.25393486 0 0 0 0 207283347.7228241 -575553473.11036301 0 -575553473.11036301 384346662.95043945 0 0 0 0 1086691145.97229 -64253945.530639648 0 -64253945.530639648 -76022780.934429169 0 0 0 0 2401986020.3191833 -315850652.52309418 0 -315850652.52309418 -556718194.09588623 0 0 0 0 351029955.37402344 577847417.46733856 0 577847417.46733856 1071428582.2089615 0 0 0 0 136519974.14320374 39679253.510246277 0 39679253.510246277 -268931756.31222534 0 0 0 0 -579536191.73397827 359729656.61854553 0 359729656.61854553 540320233.78485107 0 0 0 0 479594.63613874093 1809417.3515056148 0 1809417.3515056148 1463872.6053547412 0 0 0 0 -63930384.229011536 433811519.41400909 0 433811519.41400909 303597224.11853027 0 0 0 0 -40552343.867431641 449621496.39031219 0 449621496.39031219 314218111.75933838 0 0 0 0 -481620228.35372925 513072301.56987 0 513072301.56987 723492580.59823608 0 0 0 0 621671278.97877502 374807366.80096436 0 374807366.80096436 163601437.45596123 0 0 0 0 -1143724100.6644287 25321888.298934937 0 25321888.298934937 867145285.35098267 0 0 0 0 2691909.838459596 2832216.9435372725 0 2832216.9435372725 -975821.11602389812 0 0 0 0 -743538821.64042664 258960343.57344818 0 258960343.57344818 390524421.8129425 0 0 0 0 876698080.65544128 364346879.67089844 0 364346879.67089844 -980952565.79896545 0 0 0 0 635543968.31866455 -493277751.44464874 0 -493277751.44464874 322392664.15762329 0 0 0 0 139627894.01957703 252714708.99518585 0 252714708.99518585 -58245061.301239014 0 0 0 0 134149652.3911438 -167675443.40045929 0 -167675443.40045929 -118496367.72525024 0 0 0 0 9241911.5598874055 7952474.1916667074 0 7952474.1916667074 -3459123.6039273143 0 0 0 0 -314764699.33650208 84293997.004493713 0 84293997.004493713 126072560.06037903 0 0 0 0 560956256.33255005 -27913957.845962524 0 -27913957.845962524 -80021368.753204346 0 0 0 0 1218451068.4513855 -271891563.65651321 0 -271891563.65651321 -143533634.63543701 0 0 0 0 209556.29466432333 5581991.4405241981 0 5581991.4405241981 7337112.9743589163 0 0 0 0 1919067.7406311035 -789021956.94747925 0 -789021956.94747925 -2532259530.52948 0 0 0 0 466958389.82302856 -120440849.73921204 0 -120440849.73921204 185825324.24176025 0 0 0 0 535017514.83746338 67757019.496765137 0 67757019.496765137 52540792.903640747 0 0 0 0 464141086.27069092 -23123736.633857727 0 -23123736.633857727 -63160023.573394775 0 0 0 0 482055339.06265259 56048637.896255493 0 56048637.896255493 -74978708.315629959 0 0 0 0 513852528.2416172 -73171070.02385807 0 -73171070.02385807 -72140920.395004272 0 0 0 0 196019369.04721069 -44415568.894927979 0 -44415568.894927979 5078685.69190979 0 0 0 0 523279278.82025146 -15054766.566810608 0 -15054766.566810608 -71798349.85168457 0 0 0 0 452391362.05858612 -117735347.04692841 0 -117735347.04692841 -31217262.436523438 0 0 0 0 -3514655.012941815 5698270.8210542537 0 5698270.8210542537 -571496.83461605757 0 0 0 0 -50848694.639701843 -10952755.250370026 0 -10952755.250370026 -31861325.600326538 0 0 0 0 149411059.19521523 136422028.39412785 0 136422028.39412785 -46126682.11579895 0 0 0 0 133413356.71121216 -8811904.0354194641 0 -8811904.0354194641 -65286434.037628174 0 0 0 0 295360440.14736938 146865786.90992737 0 146865786.90992737 -23814809.060379028 0 0 0 0 12150932.634226348 29120582.12140356 0 29120582.12140356 3950679.3644919544 0 0 0 0 13236007.190223694 35792232.092185974 0 35792232.092185974 24030109.463928223 0 0 0 0 46789377.900413513 37598708.61000061 0 37598708.61000061 23613615.446224213 0 0 0 0 46944560.643875122 23713543.171112061 0 23713543.171112061 21582150.864562988 0 0 0 0 56184085.023765564 10385299.279335022 0 10385299.279335022 19826220.657951355 0 0 0 0 216972317.92529297 -216799689.68540192 0 -216799689.68540192 203830143.331604 0 0 0 0 -27971240.12487793 61281394.10005188 0 61281394.10005188 23507650.195999146 0 0 0 0 7033204.9650971703 27036474.755517323 0 27036474.755517323 -1433018.5768349171 0 0 0 0 -746551224.22938538 971683471.97888184 0 971683471.97888184 -1015403396.536438 0 0 0 0 -725640198.54058075 -137488907.25059509 0 -137488907.25059509 743943611.7467804 0 0 0 0 50867148.711952209 204800904.17599487 0 204800904.17599487 225852259.93486023 0 0 0 0 44178357.853172302 268080974.09866333 0 268080974.09866333 -196575244.04257202 0 0 0 0 120578945.35134888 499116023.9223938 0 499116023.9223938 -126756071.68260956 0 0 0 0 -521692891.79665375 629885997.34150505 0 629885997.34150505 -87090548.078460693 0 0 0 0 306559443.97848511 372662475.76397705 0 372662475.76397705 -61999334.992370605 0 0 0 0 -3235735.7632855251 1064269.8238020167 0 1064269.8238020167 1319621.4224658757 0 0 0 0 -345168476.77738953 -553745706.8434906 0 -553745706.8434906 -292914614.51696777 0 0 0 0 -350831991.83868408 -427929983.1129303 0 -427929983.1129303 -98326500.704315186 0 0 0 0 38099728.112511635 31112998.234954834 0 31112998.234954834 -442170217.04437256 0 0 0 0 -573679527.08694458 -514080554.63519287 0 -514080554.63519287 63426826.437194824 0 0 0 0 -144040.66353815235 27159561.812793341 0 27159561.812793341 -3902047.5992832929 0 0 0 0 -489706342.77198792 -173089148.88343811 0 -173089148.88343811 243615251.66072083 0 0 0 0 -65488410.218212128 48525150.314053535 0 48525150.314053535 98981520.62713623 0 0 0 0 52541518.828414917 61268354.751190186 0 61268354.751190186 -27913765.040768623 0 0 0 0 58423251.864040375 85201010.461286545 0 85201010.461286545 8714814.7769775391 0 0 0 0 547408441.53425598 267854863.77745056 0 267854863.77745056 74453843.888496399 0 0 0 0 706907492.03552246 80432154.699211121 0 80432154.699211121 -206177109.80072021 0 0 0 0 771542343.47216797 121287061.56999969 0 121287061.56999969 -230174102.51937866 0 0 0 0 20060186.747192383 173955638.3458252 0 173955638.3458252 216831613.06672668 0 0 0 0 740245920.98617554 -207947594.97312164 0 -207947594.97312164 -81328261.107318878 0 0 0 0 -14799485.179718018 57915448.29058075 0 57915448.29058075 144339424.08676147 0 0 0 0 1005864.7908409014 2266264.0471428446 0 2266264.0471428446 -1891988.8643150851 0 0 0 0 5921159.5151672363 -33475908.523086548 0 -33475908.523086548 -25918581.598709106 0 0 0 0 56991780.663116455 91220270.727355957 0 91220270.727355957 27609408.82598877 0 0 0 0 -127416646.60025024 6754115.6244354248 0 6754115.6244354248 14745764.297031403 0 0 0 0 680903531.39965534 264087090.69820881 0 264087090.69820881 -44794894.02331543 0 0 0 0 -9076918.2236149311 27579010.620415017 0 27579010.620415017 16065402.848041058 0 0 0 0 -231142725.1697998 -18241322.610832214 0 -18241322.610832214 262633933.10708618 0 0 0 0 202231526.41522217 -263549595.40208435 0 -263549595.40208435 305200478.0963974 0 0 0 0 516879038.43249512 339336518.52680969 0 339336518.52680969 -306952888.74869537 0 0 0 0 -16597556.928665899 1605067.7732002325 0 1605067.7732002325 26325765.698858768 0 0 0 0 -59250639.2706604 50599640.058830261 0 50599640.058830261 -14969697.530932426 0 0 0 0 -100735061.25244904 48687564.988071442 0 48687564.988071442 44062576.77746582 0 0 0 0 -63902962.305938721 16318071.964569092 0 16318071.964569092 34546335.730965137 0 0 0 0 66536303.505828857 76057480.264533997 0 76057480.264533997 11922742.719345093 0 0 0 0 71736393.110671043 145092984.43544197 0 145092984.43544197 13716816.337036133 0 0 0 0 -5237645.9061493576 12848730.362972386 0 12848730.362972386 -14877931.421672158 0 0 0 0 152033045.17739868 81572440.864456177 0 81572440.864456177 -34553480.249275208 0 0 0 0 15386577.989398956 135573464.62739944 0 135573464.62739944 25019401.971946716 0 0 0 0 -114819733.18054199 92726355.881118774 0 92726355.881118774 28231583.6693573 0 0 0 0 -28909599.77557373 55303006.656906128 0 55303006.656906128 11401720.378261089 0 0 0 0 -163811364.003479 87213550.971050262 0 87213550.971050262 -24227060.211051941 0 0 0 0 -126656885.59355164 50876680.140380859 0 50876680.140380859 4004742.018245697 0 0 0 0 -58181150.197612762 205735047.17543316 0 205735047.17543316 -76126411.361694336 0 0 0 0 159652486.4838562 173676325.85459137 0 173676325.85459137 -98025283.643707275 0 0 0 0 -391417289.1339035 -41641280.355056763 0 -41641280.355056763 -64136988.987594604 0 0 0 0 -188512562.68992233 352645962.98419952 0 352645962.98419952 -25230648.521316528 0 0 0 0 204388725.37081909 163160832.75437927 0 163160832.75437927 -88110174.247406006 0 0 0 0 -48402775.235534668 80134550.674026489 0 80134550.674026489 331656213.41593933 0 0 0 0 17665410.610519409 104549450.30617142 0 104549450.30617142 -2913438.5075378418 0 0 0 0 -235375137.60984802 22275346.861606598 0 22275346.861606598 33998915.30909729 0 0 0 0 -1866664.5143952668 10243220.082507767 0 10243220.082507767 -1708633.3443267718 0 0 0 0 -6737469.3524832278 17046763.258047178 0 17046763.258047178 30648427.508026175 0 0 0 0 109845124.91337585 180033435.51490784 0 180033435.51490784 31237809.941810608 0 0 0 0 638347733.45282745 -36139190.350467682 0 -36139190.350467682 -88061305.539199829 0 0 0 0 -1860278.4868487641 10615947.99828089 0 10615947.99828089 18158352.158019818 0 0 0 0 -43592421.418884277 -95607096.684486389 0 -95607096.684486389 152044575.99971008 0 0 0 0 -71142752.770187378 -58266015.616477966 0 -58266015.616477966 416396210.02539062 0 0 0 0 -223272673.52667236 255125593.38027954 0 255125593.38027954 949968050.1834259 0 0 0 0 -387325738.91567993 1412808799.2028351 0 1412808799.2028351 182592785.1391449 0 0 0 0 435603582.10679626 733685363.90920258 0 733685363.90920258 -987412831.43740845 0 0 0 0 -237152449.39807129 373352266.08581734 0 373352266.08581734 -30257211.072967529 0 0 0 0 182526482.6315918 59561638.42552948 0 59561638.42552948 -345379030.37232971 0 0 0 0 1514978.5441823304 -18334.781954392791 0 -18334.781954392791 -3100374.4381379783 0 0 0 0 466795988.07846069 412273625.96520996 0 412273625.96520996 -451311508.91681385 0 0 0 0 86854061.586578369 392432590.82571411 0 392432590.82571411 -452306209.24780273 0 0 0 0 762013998.23770142 78754139.043403625 0 78754139.043403625 -725298694.68426514 0 0 0 0 -104490658.64404297 -138703901.49359131 0 -138703901.49359131 -346706960.38844681 0 0 0 0 -409473439.97853088 -171433709.2783432 0 -171433709.2783432 194385356.95103455 0 0 0 0 -44114300.29940033 359647.14162063599 0 359647.14162063599 -29610342.902145386 0 0 0 0 -3425635.0708639324 3246982.2394733876 0 3246982.2394733876 -716517.87432642467 0 0 0 0 -302150489.14916992 -487618409.76626587 0 -487618409.76626587 -511146738.77410889 0 0 0 0 -1132069937.9491577 -419290392.6934967 0 -419290392.6934967 505878064.54931641 0 0 0 0 -642600769.802948 -548166589.51343536 0 -548166589.51343536 -258616599.34179688 0 0 0 0 -496710916.97235107 -281458.30033874512 0 -281458.30033874512 152276521.88826752 0 0 0 0 -332709826.95071411 180812165.42567444 0 180812165.42567444 322296002.64907837 0 0 0 0 -341971825.8538599 -67199234.07367146 0 -67199234.07367146 101674991.66654968 0 0 0 0 -207189633.42095184 161972042.93412399 0 161972042.93412399 223898991.73013306 0 0 0 0 -207286399.09604549 -40079414.194120884 0 -40079414.194120884 67684836.05758667 0 0 0 0 -200661426.71408081 58049108.138664246 0 58049108.138664246 212243550.64338684 0 0 0 0 -120725964.25976562 92824955.613540649 0 92824955.613540649 115236139.3979187 0 0 0 0 -77709877.505187988 56702589.352020264 0 56702589.352020264 125265664.09233093 0 0 0 0 -128945167.0556488 183959721.56399155 0 183959721.56399155 159008421.83309937 0 0 0 0 -95900614.470108032 122342021.26901245 0 122342021.26901245 149729934.12390137 0 0 0 0 18152894.879394531 335189080.31207848 0 335189080.31207848 292103772.14767456 0 0 0 0 -8615982.9043579102 22986523.852912903 0 22986523.852912903 24011726.226211548 0 0 0 0 -33398841.577483177 3042341.5742154121 0 3042341.5742154121 13497795.884155273 0 0 0 0 -86352504.199539185 19650025.690338135 0 19650025.690338135 51272880.327354431 0 0 0 0 -33078469.331619263 7741794.1059265137 0 7741794.1059265137 33760426.026947021 0 0 0 0 -25215595.183288574 -12136879.932746887 0 -12136879.932746887 -7009945.999382019 0 0 0 0 -68528589.381187439 -14535456.753398895 0 -14535456.753398895 23661483.769790649 0 0 0 0 -84134761.560562134 -50769787.722549438 0 -50769787.722549438 -33644816.134735107 0 0 0 0 -8784196.1349868774 4634949.3215904236 0 4634949.3215904236 6551024.9185333252 0 0 0 0 282783814.3857193 -163382419.2774601 0 -163382419.2774601 61570619.588241577 0 0 0 0 -9929636.5531865656 6681850.5746780857 0 6681850.5746780857 419499.38377485797 0 0 0 0 -54404778.648132324 -4086557.3442192078 0 -4086557.3442192078 -809788.05485534668 0 0 0 0 42368761.677246094 257995125.84963226 0 257995125.84963226 -157431801.75502014 0 0 0 0 -1166142093.3175659 -129254332.53559875 0 -129254332.53559875 745127367.96370697 0 0 0 0 -880431041.01100159 -10421061.948783875 0 -10421061.948783875 154339423.39090729 0 0 0 0 -566291358.92327881 456254981.97302628 0 456254981.97302628 -96810243.837890625 0 0 0 0 -91844639.073059082 91576015.540031433 0 91576015.540031433 58256618.909179688 0 0 0 0 -47408743.055419922 91910288.589632034 0 91910288.589632034 -117362187.48464203 0 0 0 0 524865449.94570923 746149697.39650726 0 746149697.39650726 352400001.11476135 0 0 0 0 1157582.9765105695 794609.37538045645 0 794609.37538045645 -284447.8866173923 0 0 0 0 70818743.829284668 -11171594.959899902 0 -11171594.959899902 -134908840.39678955 0 0 0 0 241456294.5841217 2066842689.1947784 0 2066842689.1947784 534265538.54573059 0 0 0 0 734253212.76226807 -159030273.33221436 0 -159030273.33221436 -615032301.57699203 0 0 0 0 -30250238.901763916 46501987.424102783 0 46501987.424102783 89072853.737854004 0 0 0 0 1819333.5496789366 104746.12530919164 0 104746.12530919164 1760206.9668555111 0 0 0 0 43425977.54234314 -129929970.18514633 0 -129929970.18514633 -47039990.342269897 0 0 0 0 74692514.822937012 70200557.32409668 0 70200557.32409668 52079732.903381348 0 0 0 0 -70123832.043609619 -4930152.9100112915 0 -4930152.9100112915 261046763.39417267 0 0 0 0 -66395214.173881531 14946863.543319702 0 14946863.543319702 168533870.57859802 0 0 0 0 47555671.109130859 -7097199.929107666 0 -7097199.929107666 170620469.4467926 0 0 0 0 -13215486.434081301 10836078.790836759 0 10836078.790836759 3178435.8199325651 0 0 0 0 -15261539.923416138 11240996.647766113 0 11240996.647766113 9690450.9648094177 0 0 0 0 -908795.25095157512 2244499.3920645118 0 2244499.3920645118 530194.12251277268 0 0 0 0 1855183.8286132812 42281794.212860107 0 42281794.212860107 46789437.804382324 0 0 0 0 -5682840.3609230043 13260151.88821163 0 13260151.88821163 9771905.3337150365 0 0 0 0 11877894.073123932 9531867.1158924103 0 9531867.1158924103 3192787.6862335205 0 0 0 0 23087592.55657959 20437525.737663269 0 20437525.737663269 13122422.607174873 0 0 0 0 -17687405.633255005 13569951.765655518 0 13569951.765655518 6374677.6013946533 0 0 0 0 -28845762.576791763 8779681.7544674873 0 8779681.7544674873 13501938.020263672 0 0 0 0 -3920118.1551208496 19602866.324638367 0 19602866.324638367 -2232122.5416870117 0 0 0 0 -12135105.689910889 11745868.65423584 0 11745868.65423584 -2157111.2092437744 0 0 0 0 -10845395.622680664 16096746.705841064 0 16096746.705841064 8896388.7409362793 0 0 0 0 1993164.5087275952 958745.96932497248 0 958745.96932497248 -2160084.5211402848 0 0 0 0 32334791.10748291 10386839.384960175 0 10386839.384960175 -4691342.1277618408 0 0 0 0 -17286223.587524414 22187961.380477905 0 22187961.380477905 11688139.993520737 0 0 0 0 22952490.764160156 8374040.3165359497 0 8374040.3165359497 -3387606.6980133057 0 0 0 0 2358622.3254065663 8846246.3374209031 0 8846246.3374209031 -17928.959977300838 0 0 0 0 -29090248.053527832 24233992.623519897 0 24233992.623519897 43684152.358499527 0 0 0 0 211493.62341308594 38527.203094482422 0 38527.203094482422 -6020752.3275299072 0 0 0 0 -56915038.08581543 25731791.842315674 0 25731791.842315674 72653877.372802734 0 0 0 0 -65456128.126953125 -4975670.7314758301 0 -4975670.7314758301 33858027.135536194 0 0 0 0 -5751740.6621398926 18406734.403167725 0 18406734.403167725 39995379.46686554 0 0 0 0 -335823.64729335904 1920591.3358854316 0 1920591.3358854316 7044258.7884914204 0 0 0 0 -3470535.116973877 13284771.406143188 0 13284771.406143188 -12877992.66645813 0 0 0 0 14187334.871459961 -9196301.8124084473 0 -9196301.8124084473 6110914.6708374023 0 0 0 0 -3986.2638092041016 16974698.955028534 0 16974698.955028534 -12127376.242828369 0 0 0 0 -16879855.03527832 21344855.859436035 0 21344855.859436035 -8097978.4669799805 0 0 0 0 -4358437.217956543 17205744.381629944 0 17205744.381629944 -15307391.964782715 0 0 0 0 3896630.6492818594 1914790.3352238312 0 1914790.3352238312 -4275296.4688646719 0 0 0 0 -4063459.4204063416 9023710.076341629 0 9023710.076341629 -22959689.484771729 0 0 0 0 -3087409.4082512259 -99556.527603879571 0 -99556.527603879571 11949587.442479119 0 0 0 0 -4356.8378295898438 3564730.1098022461 0 3564730.1098022461 3990123.1294555664 0 0 0 0 897781.32041931152 43122329.905342102 0 43122329.905342102 1677657830.3572464 0 0 0 0 3697168.9060950428 -93089.778829328716 0 -93089.778829328716 -714228.84541684389 0 0 0 0 -1121882092.326355 -400071217.11791992 0 -400071217.11791992 1702619068.8901658 0 0 0 0 2301962.8278587908 -3899546.9860276282 0 -3899546.9860276282 7248642.54518269 0 0 0 0 -21367241.812194824 -30723485.875228882 0 -30723485.875228882 3276337.0492095947 0 0 0 0 -85577457.689086914 3465067.5055999756 0 3465067.5055999756 67412787.728023529 0 0 0 0 -77202774.645507812 -18309991.909454346 0 -18309991.909454346 45142116.744995117 0 0 0 0 199008.91021728516 477129447.01734924 0 477129447.01734924 -280073989.03692627 0 0 0 0 -218211881.14733505 317792358.9517746 0 317792358.9517746 281322857.57678986 0 0 0 0 -1439738.5111713558 2526324.4186121896 0 2526324.4186121896 -3043110.4521166161 0 0 0 0 -296453355.85661316 -440348231.82211304 0 -440348231.82211304 -271841440.66400146 0 0 0 0 152666422.46897507 174601093.9678669 0 174601093.9678669 40597172.227294922 0 0 0 0 456128053.43411255 130543280.53507233 0 130543280.53507233 -213256627.63079834 0 0 0 0 -3551915.6098262891 7650531.8835376725 0 7650531.8835376725 -9647301.6856835932 0 0 0 0 125657169.20846558 11672981.099319458 0 11672981.099319458 -202522713.09167862 0 0 0 0 188544344.97086334 471803460.78010464 0 471803460.78010464 348698908.56628418 0 0 0 0 438187111.35442328 77261941.430769324 0 77261941.430769324 -563310298.18629456 0 0 0 0 445815934.51332092 474573575.96697998 0 474573575.96697998 142189983.27042198 0 0 0 0 -103612488.19311523 168183069.64804077 0 168183069.64804077 383957306.87798786 0 0 0 0 117235740.74953461 62471460.191192627 0 62471460.191192627 -192146801.00228882 0 0 0 0 153685287.46015167 362583890.04238796 0 362583890.04238796 101992380.61270905 0 0 0 0 524665491.46758461 523191001.34119511 0 523191001.34119511 -39657214.766746521 0 0 0 0 334767599.70042419 314576702.43961716 0 314576702.43961716 58288670.166732788 0 0 0 0 266089887.86035156 34204076.181282043 0 34204076.181282043 -197728116.82208252 0 0 0 0 1750701.7410377562 3113787.0280603468 0 3113787.0280603468 1356832.1854328662 0 0 0 0 -616198940.76281738 106322158.11042786 0 106322158.11042786 142814024.28167725 0 0 0 0 -495907228.30032349 600291348.90504837 0 600291348.90504837 -573443634.64333344 0 0 0 0 118958755.012146 -157280512.49047852 0 -157280512.49047852 -81029223.877639771 0 0 0 0 -294021227.69470215 -154218236.97719574 0 -154218236.97719574 199491850.01417542 0 0 0 0 34824438.23059082 127332754.34798431 0 127332754.34798431 18277776.536895752 0 0 0 0 -38914259.629150391 9975531.1104660034 0 9975531.1104660034 -150910962.89787102 0 0 0 0 -140936226.21105957 174716160.23112106 0 174716160.23112106 -190246566.6892395 0 0 0 0 -229572051.84118652 195519010.77129745 0 195519010.77129745 -132683307.9491272 0 0 0 0 -156946910.6993103 277488295.02656937 0 277488295.02656937 -231398133.20884705 0 0 0 0 -332309426.96652222 370417529.9065361 0 370417529.9065361 -211508176.45959473 0 0 0 0 -365257174.55786133 279768325.81048584 0 279768325.81048584 -215806917.7120285 0 0 0 0 -435430765.45462036 364449252.88503265 0 364449252.88503265 -170407738.41223907 0 0 0 0 -644757.72673034668 380740290.30195236 0 380740290.30195236 -1068723355.086895 0 0 0 0 -306152064.44973755 557857673.90485764 0 557857673.90485764 -416734906.69094563 0 0 0 0 -37182069.022003174 738732592.2920723 0 738732592.2920723 -2251084744.8563843 0 0 0 0 -264550041.84181213 533693974.2886982 0 533693974.2886982 -657213569.07453918 0 0 0 0 -198710381.29968262 839221564.84110069 0 839221564.84110069 -2319289023.9891977 0 0 0 0 -1553102298.2355652 1344638167.1053963 0 1344638167.1053963 -1265042066.6578178 0 0 0 0 -395591835.79815674 1221657252.3976936 0 1221657252.3976936 -2319890995.881485 0 0 0 0 -1189982989.379303 874356775.2013092 0 874356775.2013092 92876009.538617611 0 0 0 0 -245010461.21008301 -47546136.216495514 0 -47546136.216495514 147009932.15377808 0 0 0 0 -1587772078.6821594 -1972252735.6549635 0 -1972252735.6549635 -2286002354.8203735 0 0 0 0 1446903.6977150738 2719598.5499784872 0 2719598.5499784872 -6193233.4449692257 0 0 0 0 -948665510.34634399 -1543553693.8694549 0 -1543553693.8694549 -1198023101.8286285 0 0 0 0 -300951604.62908936 -786944060.02700806 0 -786944060.02700806 -869438690.980093 0 0 0 0 -782930711.65380859 -388262480.57720947 0 -388262480.57720947 139668587.03871918 0 0 0 0 -1073739101.36203 -991744110.61289954 0 -991744110.61289954 -499129967.82401276 0 0 0 0 232053229.23928833 -1569880538.356698 0 -1569880538.356698 -3037357263.1801453 0 0 0 0 -35812866.708129883 -1065136545.2007866 0 -1065136545.2007866 -1441215885.3611221 0 0 0 0 -360787390.82925415 -864064155.41126442 0 -864064155.41126442 -844624761.66095734 0 0 0 0 708273601.61791992 -555239894.11416817 0 -555239894.11416817 -1929397944.1759834 0 0 0 0 723370599.88250732 -733934377.6293335 0 -733934377.6293335 -1886300155.6724396 0 0 0 0 319883003.85549927 -331749148.34818649 0 -331749148.34818649 -829118096.66118622 0 0 0 0 8484714.1197509766 -379736220.06553078 0 -379736220.06553078 -567839825.87990189 0 0 0 0 110656312.72503662 -628293734.34115982 0 -628293734.34115982 -1249211920.9252539 0 0 0 0 -47563858.695526123 -334231453.54331398 0 -334231453.54331398 -604199320.02172089 0 0 0 0 37262435.2315979 -87703955.784790039 0 -87703955.784790039 -287715542.10568619 0 0 0 0 114356491.00787354 -5180957.2831335068 0 -5180957.2831335068 -345356654.52505875 0 0 0 0 75204968.660095215 -251861115.12693977 0 -251861115.12693977 -844729507.75972223 0 0 0 0 210288441.60952759 53779588.94995594 0 53779588.94995594 -52423273.372528076 0 0 0 0 112751288.66799927 -108572461.13649368 0 -108572461.13649368 141855469.870368 0 0 0 0 5361073.8265301604 8992773.5433709696 0 8992773.5433709696 -16198460.346508753 0 0 0 0 503244583.11914062 10871795.909244537 0 10871795.909244537 -357257527.80479622 0 0 0 0 14922111.745330811 198960471.37114716 0 198960471.37114716 -153299308.39381218 0 0 0 0 239367512.59155273 190218066.90749264 0 190218066.90749264 4273235.5851869583 0 0 0 0 10076213.084138665 21376728.679488458 0 21376728.679488458 -21674476.870993093 0 0 0 0 51772452.638305664 -11673893.057010651 0 -11673893.057010651 37140798.747406006 0 0 0 0 94235884.495727539 -89070312.220417023 0 -89070312.220417023 42912101.357128143 0 0 0 0 62305463.2371521 163260534.24310303 0 163260534.24310303 98830417.478745937 0 0 0 0 84469092.584583282 -2376329.3470585346 0 -2376329.3470585346 -345593914.45616531 0 0 0 0 128681055.2096405 -104484430.80427647 0 -104484430.80427647 -302082486.38759613 0 0 0 0 125700908.02658081 154554371.19618607 0 154554371.19618607 -106459657.96401978 0 0 0 0 20696468.530322298 28842458.992030479 0 28842458.992030479 -6608812.4058077792 0 0 0 0 27192197.082550049 36326394.646636963 0 36326394.646636963 51288639.979141235 0 0 0 0 12875533.193954468 120922099.07500648 0 120922099.07500648 196881049.39754295 0 0 0 0 91991380.702148438 23522026.738628387 0 23522026.738628387 -10485022.527114868 0 0 0 0 16821805.948936701 5223407.6871593893 0 5223407.6871593893 3351400.7366166487 0 0 0 0 4783377.8732239325 12023541.973965101 0 12023541.973965101 9053064.8755856007 0 0 0 0 60760869.794311523 105636096.49432755 0 105636096.49432755 37351695.329429626 0 0 0 0 12526807.538563192 23414962.274521872 0 23414962.274521872 -835315.99531336874 0 0 0 0 356141.21252441406 10541454.672195435 0 10541454.672195435 11861195.31237793 0 0 0 0 5235510.8312838655 20103743.711204886 0 20103743.711204886 9115952.1134864762 0 0 0 0 12710747.430408716 14938546.647922268 0 14938546.647922268 -986536.70603117126 0 0 0 0 4668063.7185668945 9990457.9928894043 0 9990457.9928894043 4626736.6326446533 0 0 0 0 13013737.264178857 16137359.356499389 0 16137359.356499389 2841761.4559575138 0 0 0 0 5067779.5594177246 7978145.5572338104 0 7978145.5572338104 3784215.3284759521 0 0 0 0 -12113354.270385742 17321833.485031128 0 17321833.485031128 27406984.543819189 0 0 0 0 -195488.42236639559 5683501.0706089959 0 5683501.0706089959 12160281.051032636 0 0 0 0 16935400.367797852 21449804.939781189 0 21449804.939781189 6778564.1657626629 0 0 0 0 12274884.422641754 13054733.602426529 0 13054733.602426529 22093991.9375 0 0 0 0 6039866.6829734109 7900387.2403268442 0 7900387.2403268442 3859366.6388960481 0 0 0 0 2813061.261714682 3642731.0494811833 0 3642731.0494811833 4973946.4098160826 0 0 0 0 61672021.881622314 -34512871.561431885 0 -34512871.561431885 87199952.666488647 0 0 0 0 15588517.962615967 36124715.260894775 0 36124715.260894775 23566156.497229576 0 0 0 0 26613529.298080444 14833439.850838661 0 14833439.850838661 3607165.4269104004 0 0 0 0 55157988.655273438 -10117306.30770874 0 -10117306.30770874 -68436774.456695557 0 0 0 0 -5677181.8102722168 -71458246.892999649 0 -71458246.892999649 67850373.057159424 0 0 0 0 -226819.1382598877 85647819.161828995 0 85647819.161828995 -51786422.536216736 0 0 0 0 -120578546.39312744 284823530.93787384 0 284823530.93787384 -350231215.52555847 0 0 0 0 -122619150.97207642 47898739.19978714 0 47898739.19978714 53275585.253936768 0 0 0 0 118322.74844029546 978017.61349049956 0 978017.61349049956 2252222.8357223123 0 0 0 0 -78970642.852844238 232062211.95941925 0 232062211.95941925 -201555607.60616064 0 0 0 0 -24663.905508577824 439681.01904819347 0 439681.01904819347 9802036.2960687205 0 0 0 0 -45321766.851699829 49179332.218933105 0 49179332.218933105 -25251571.638748169 0 0 0 0 -4477903.6294250488 6639040.5186309814 0 6639040.5186309814 12482863.198646545 0 0 0 0 -7815490.8544616699 15577359.408054352 0 15577359.408054352 62754463.128261685 0 0 0 0 5532.5791320800781 24794743.600337982 0 24794743.600337982 31956454.891479492 0 0 0 0 -19052940.060470581 12994779.207336426 0 12994779.207336426 28299846.4088974 0 0 0 0 -7005776.3665618896 13529954.444789886 0 13529954.444789886 26773449.503173828 0 0 0 0 -8779240.3252563477 19394527.119598389 0 19394527.119598389 30619746.674873352 0 0 0 0 -9620065.0422878265 13633747.561480045 0 13633747.561480045 17104388.711578369 0 0 0 0 -82451.596435546875 22451349.561767578 0 22451349.561767578 19374484.517562866 0 0 0 0 -4868864.3668365479 20926760.944789886 0 20926760.944789886 17322996.9009552 0 0 0 0 -4465251.9695205688 20081972.980676651 0 20081972.980676651 18867895.081390381 0 0 0 0 3837.593017578125 24854872.154975891 0 24854872.154975891 19470773.194034576 0 0 0 0 16840.981964111328 20033233.535095215 0 20033233.535095215 25724885.047134399 0 0 0 0 1383436.7890472412 24505149.794704437 0 24505149.794704437 17084835.281951904 0 0 0 0 -2067287.9514770508 19271065.662162781 0 19271065.662162781 14660493.066413879 0 0 0 0 1700529.8003082275 23375822.449829102 0 23375822.449829102 17343662.000322342 0 0 0 0 2080960.0748596191 33498459.849842072 0 33498459.849842072 14374583.932098389 0 0 0 0 15406712.696289062 21060855.73466301 0 21060855.73466301 13760840.711074829 0 0 0 0 -9405.6797769744953 25874332.024722882 0 25874332.024722882 16197143.012763977 0 0 0 0 -2898181.3627929688 20517263.577503204 0 20517263.577503204 8347606.8959422112 0 0 0 0 -16084733.844184875 9629006.4297485352 0 9629006.4297485352 16010890.648696899 0 0 0 0 18773374.881233215 38450068.004302979 0 38450068.004302979 17290434.597702026 0 0 0 0 -3945475.3434995431 13465877.240994699 0 13465877.240994699 14911744.9090214 0 0 0 0 -47347939.655609131 4562309.806804657 0 4562309.806804657 23021236.622131348 0 0 0 0 8649278.145614624 14661562.759376526 0 14661562.759376526 13366218.039533734 0 0 0 0 -7794125.1240081787 2401621.4408798218 0 2401621.4408798218 -2258425.7852478027 0 0 0 0 6977265.7892456055 47729090.760490417 0 47729090.760490417 22317730.114738464 0 0 0 0 25818943.823368073 31948476.040495872 0 31948476.040495872 35530479.538360596 0 0 0 0 71132610.072570801 102724836.55142975 0 102724836.55142975 99299091.54838562 0 0 0 0 -96745435.873550415 -33061911.659164429 0 -33061911.659164429 59139619.427261353 0 0 0 0 -7120843.2037200928 19959270.104175568 0 19959270.104175568 19486239.504203796 0 0 0 0 -2853275.1505161077 14104240.264334157 0 14104240.264334157 20055048.194621973 0 0 0 0 129031195.94386292 -64564976.54719162 0 -64564976.54719162 -11384199.10269165 0 0 0 0 23119475.505905151 21802621.023124695 0 21802621.023124695 35718943.594566107 0 0 0 0 2254857.0317790825 10035497.135613769 0 10035497.135613769 3294047.4855520576 0 0 0 0 -31271569.114990234 127715798.70339966 0 127715798.70339966 97771084.436706543 0 0 0 0 95296405.304199219 44262954.740364075 0 44262954.740364075 -14189149.127128839 0 0 0 0 -2224319.7709972654 17456816.380099095 0 17456816.380099095 25397637.14286191 0 0 0 0 4706428.9722592756 7988752.1060518995 0 7988752.1060518995 13733192.764661372 0 0 0 0 22205971.05333519 26808175.275873184 0 26808175.275873184 77869396.388473511 0 0 0 0 29645188.811386108 72823411.596244812 0 72823411.596244812 128292457.41270447 0 0 0 0 1776511.8759809583 2477333.9714045003 0 2477333.9714045003 3730616.2005769387 0 0 0 0 7649698.4760131836 26165540.111862183 0 26165540.111862183 63812476.88666153 0 0 0 0 33703099.687561035 51769749.418243408 0 51769749.418243408 67587147.48557663 0 0 0 0 24580924.422080994 24556314.642546654 0 24556314.642546654 62899442.721221924 0 0 0 0 14240194.185821533 39698714.359802246 0 39698714.359802246 50261681.020545959 0 0 0 0 9009844.9352416992 84545518.420822144 0 84545518.420822144 103964046.61631012 0 0 0 0 38437048.714149475 91943843.494110107 0 91943843.494110107 114341714.38917542 0 0 0 0 20422408.774542809 70014050.414914608 0 70014050.414914608 112970218.17623901 0 0 0 0 42443146.69203186 43866431.998947144 0 43866431.998947144 49812354.035812378 0 0 0 0 2308503.9514465332 43534821.575447083 0 43534821.575447083 50301970.615457535 0 0 0 0 48237817.131743431 92917303.857168674 0 92917303.857168674 57411773.496795654 0 0 0 0 -8412728.5808105469 82161898.937194824 0 82161898.937194824 55784810.501951218 0 0 0 0 -23028901.330604553 62507813.098255157 0 62507813.098255157 79162772.974960327 0 0 0 0 -20856854.511795044 74095051.169811249 0 74095051.169811249 55138798.158203125 0 0 0 0 -32069902.007778168 35418619.351888657 0 35418619.351888657 36785354.177841187 0 0 0 0 21692644.264160156 60718564.076728821 0 60718564.076728821 43969237.677398682 0 0 0 0 33812437.207519531 156774080.69293213 0 156774080.69293213 65080340.44046402 0 0 0 0 -43089325.267456055 164339620.33145905 0 164339620.33145905 64392171.369110107 0 0 0 0 63497592.481079102 262587833.17710876 0 262587833.17710876 152508029.88003445 0 0 0 0 -24046285.810028076 131886680.97528076 0 131886680.97528076 102424385.09656143 0 0 0 0 -20716896.259912431 117530591.69933149 0 117530591.69933149 74591951.089736938 0 0 0 0 24645904.063903809 99541706.771118164 0 99541706.771118164 47767124.987210274 0 0 0 0 -3621207.8531799316 121480260.86406708 0 121480260.86406708 44497446.692947388 0 0 0 0 46181749.927627563 103250846.33574677 0 103250846.33574677 2239398.975769043 0 0 0 0 79761977.285881042 136815347.06879425 0 136815347.06879425 -18821728.908721924 0 0 0 0 30071316.476196289 89398183.017707825 0 89398183.017707825 -9671799.496963501 0 0 0 0 37289402.832672119 85737760.673820496 0 85737760.673820496 -7900111.8910217285 0 0 0 0 20860683.854675293 43837963.842498779 0 43837963.842498779 -15743103.833251953 0 0 0 0 8903614.6646270752 81648704.535858154 0 81648704.535858154 29329018.316848755 0 0 0 0 14982060.205322266 29382700.687019348 0 29382700.687019348 21200332.140235901 0 0 0 0 19994196.768096924 57102306.036186218 0 57102306.036186218 49384529.315505981 0 0 0 0 22760827.06306839 52528027.187805176 0 52528027.187805176 -891988.78582763672 0 0 0 0 18859717.394012451 25542921.522457123 0 25542921.522457123 3073315.7065124512 0 0 0 0 163826586.38116455 -153621273.3067131 0 -153621273.3067131 51856148.469348907 0 0 0 0 -233594829.97915649 -333345046.51281452 0 -333345046.51281452 -226632642.3316555 0 0 0 0 -23299110.052459717 -80102764.957514763 0 -80102764.957514763 44927853.958581924 0 0 0 0 -515004361.53436279 82940263.419231415 0 82940263.419231415 111105268.19143057 0 0 0 0 160247141.9586792 -107320598.58424473 0 -107320598.58424473 95812712.323757172 0 0 0 0 -150398272.11557198 165160576.97774565 0 165160576.97774565 -306415546.97654343 0 0 0 0 -281384767.35919952 -19500670.207708359 0 -19500670.207708359 776982777.75234032 0 0 0 0 19032078.937839121 28117493.19053895 0 28117493.19053895 -245841.01347631007 0 0 0 0 24281647.396682739 32109750.552906036 0 32109750.552906036 11008861.890365601 0 0 0 0 19284306.680324852 28595199.439584434 0 28595199.439584434 -2344559.4894779888 0 0 0 0 -20398191.235717773 420003784.04244041 0 420003784.04244041 104211749.1887455 0 0 0 0 34215318.683944702 29119254.673660278 0 29119254.673660278 21377260.71321106 0 0 0 0 -185016371.79678345 69559783.232012749 0 69559783.232012749 657999203.00832701 0 0 0 0 154817409.75975037 211389036.76067448 0 211389036.76067448 -39163083.563102722 0 0 0 0 -30752870.444061279 154176839.2319603 0 154176839.2319603 -38265906.947330236 0 0 0 0 158706462.44937134 317399622.65122128 0 317399622.65122128 -603581432.8520565 0 0 0 0 -124990304.1098938 178618551.81482887 0 178618551.81482887 14958051.292809486 0 0 0 0 14132442.806182861 342569281.12461472 0 342569281.12461472 -541944124.27572441 0 0 0 0 -292067099.48718262 443863681.98356152 0 443863681.98356152 -537123063.4115181 0 0 0 0 235515622.29709244 450115276.49444711 0 450115276.49444711 -1439445374.3515625 0 0 0 0 221971445.22711945 339023784.68551612 0 339023784.68551612 -1208887045.2229652 0 0 0 0 -141153608.10510254 705794725.04229164 0 705794725.04229164 -1377013671.924859 0 0 0 0 207317154.1517334 84956370.902244568 0 84956370.902244568 -692317755.53921223 0 0 0 0 223060924.35525513 27099137.807642937 0 27099137.807642937 -1031006169.3808937 0 0 0 0 594743869.14489746 174609821.48320389 0 174609821.48320389 -1449951047.6161201 0 0 0 0 345083708.90690613 -345411827.03110361 0 -345411827.03110361 -1318170803.60186 0 0 0 0 992259073.01678467 -460745062.6852541 0 -460745062.6852541 -2344301641.8490715 0 0 0 0 709765723.68408203 -175810237.29660416 0 -175810237.29660416 -1573369296.718029 0 0 0 0 676582983.25917816 -35167417.03628397 0 -35167417.03628397 -2115906716.3693275 0 0 0 0 1211095499.9645386 -190099641.23514175 0 -190099641.23514175 -2097657797.6115646 0 0 0 0 686522871.99334717 215597831.98989487 0 215597831.98989487 -2207186169.4978046 0 0 0 0 446406187.76745605 558268518.21574783 0 558268518.21574783 -2372950993.6366158 0 0 0 0 971772697.63586426 206680780.43684578 0 206680780.43684578 -2511631549.4338493 0 0 0 0 673964736.97415924 380035900.84504974 0 380035900.84504974 -3427925719.9679337 0 0 0 0 -2150117356.1276855 591420866.9767189 0 591420866.9767189 -391545440.61135674 0 0 0 0 374771054.36685181 988774473.22788334 0 988774473.22788334 -4348770264.0052605 0 0 0 0 -1032890932.9944458 2030718002.6166496 0 2030718002.6166496 -3204942220.8963652 0 0 0 0 -714292136.36148071 1343318527.6606102 0 1343318527.6606102 -1811808451.2524166 0 0 0 0 -267769575.29077148 -363267986.71187925 0 -363267986.71187925 -161196635.6270771 0 0 0 0 -319780635.10305786 2894007330.312171 0 2894007330.312171 1149608362.751193 0 0 0 0 -318980756.33485413 -160194126.36498547 0 -160194126.36498547 -629548350.74107361 0 0 0 0 -225646328.87356567 22143411.224639416 0 22143411.224639416 -303221434.33488464 0 0 0 0 -1111986082.9478149 84378158.036071777 0 84378158.036071777 -264075557.65075207 0 0 0 0 -487324802.09179688 802310579.64264107 0 802310579.64264107 -1110575658.5831184 0 0 0 0 -113345524.03768158 602473989.35598207 0 602473989.35598207 -1342332949.884346 0 0 0 0 238660850.83288574 104788901.43643856 0 104788901.43643856 -16676755.682914734 0 0 0 0 129756196.22219849 41442137.442253113 0 41442137.442253113 -30228047.941375732 0 0 0 0 87291562.405143738 -247928458.10225344 0 -247928458.10225344 -408884518.66253662 0 0 0 0 435059565.72827148 1401801.7171669006 0 1401801.7171669006 -245082761.57118607 0 0 0 0 311626025.32502747 455855789.28669071 0 455855789.28669071 441702439.20597458 0 0 0 0 -5479307.4437057823 5647776.5996652609 0 5647776.5996652609 -829603.31328588363 0 0 0 0 760184453.32406616 240813186.79911709 0 240813186.79911709 -437192050.81621474 0 0 0 0 98228623.257965088 95628459.672719002 0 95628459.672719002 -10748743.49822402 0 0 0 0 -7259488.3517225385 9101420.9659426343 0 9101420.9659426343 -187055.79003847745 0 0 0 0 103141266.8124733 80366714.131739855 0 80366714.131739855 36089870.987789154 0 0 0 0 -564787988.50164795 125732237.96768939 0 125732237.96768939 -49831905.462755412 0 0 0 0 431226168.41500854 456472059.77408075 0 456472059.77408075 417113737.52889705 0 0 0 0 458602707.79699707 443307167.70361865 0 443307167.70361865 380958331.59995556 0 0 0 0 698491398.75671387 478373805.59742856 0 478373805.59742856 268705512.00209999 0 0 0 0 144790.86818851531 2866881.0550784394 0 2866881.0550784394 863541.76368049206 0 0 0 0 268860083.4916687 -211134242.89452648 0 -211134242.89452648 -738390996.40752077 0 0 0 0 622729.02406467497 296296.24523002747 0 296296.24523002747 -1172753.9364597339 0 0 0 0 187287409.41155815 -85140335.06566143 0 -85140335.06566143 -377718687.56728935 0 0 0 0 -482530178.92947388 215052961.76607943 0 215052961.76607943 337327903.03085899 0 0 0 0 12296408.120250493 12127939.528910756 0 12127939.528910756 -6301507.3053608593 0 0 0 0 781150546.7223053 1876827570.0564556 0 1876827570.0564556 1984811498.1439285 0 0 0 0 468940567.82260132 1044005919.8400326 0 1044005919.8400326 1482513847.9081802 0 0 0 0 41296999.217468262 52871891.068408966 0 52871891.068408966 24903858.44575882 0 0 0 0 20029534.091720581 37544681.058176994 0 37544681.058176994 29179940.459430695 0 0 0 0 58821997.857177734 21851814.674409866 0 21851814.674409866 -13689795.431009293 0 0 0 0 111705074.93624878 63747208.774608612 0 63747208.774608612 7550074.9423904419 0 0 0 0 24005883.464705948 29633715.118050866 0 29633715.118050866 -10011352.414319633 0 0 0 0 112040398.29135132 23622524.755437851 0 23622524.755437851 -16314873.847147942 0 0 0 0 52552863.864501953 35902515.006458282 0 35902515.006458282 34855635.486641884 0 0 0 0 -620359069.43998718 -340189434.99781632 0 -340189434.99781632 -171640127.28580761 0 0 0 0 727399661.03663635 470971309.10315514 0 470971309.10315514 -38752653.558013916 0 0 0 0 1851361406.8416748 1220995304.6047401 0 1220995304.6047401 -11849997.657901764 0 0 0 0 574301056.90899658 -31671983.592750549 0 -31671983.592750549 -414987186.12603474 0 0 0 0 186797413.43572998 -1091900467.977457 0 -1091900467.977457 -747690610.39896441 0 0 0 0 2505518306.6007996 -210585762.89173412 0 -210585762.89173412 -1968046073.2371902 0 0 0 0 3969248.7630615234 37691768.711080551 0 37691768.711080551 -157845474.77300644 0 0 0 0 472394987.88214111 -100124681.81420374 0 -100124681.81420374 -619644780.18173409 0 0 0 0 422066260.26055908 14967929.588212967 0 14967929.588212967 -348044359.78173065 0 0 0 0 13690995.51910612 1364395.8223165832 0 1364395.8223165832 -16919443.368182581 0 0 0 0 56671738.470184326 36188704.938903332 0 36188704.938903332 -659917412.80082893 0 0 0 0 -19102589.915306091 57775309.319072604 0 57775309.319072604 -136167255.4876976 0 0 0 0 32829155.410660647 29497822.242658064 0 29497822.242658064 -10628746.429338627 0 0 0 0 18188517.48075293 30887395.856504474 0 30887395.856504474 12840918.435767934 0 0 0 0 12884752.895019531 32625744.285072327 0 32625744.285072327 -28208366.053435802 0 0 0 0 21369681.305207118 37443640.095544212 0 37443640.095544212 1998050.7002515681 0 0 0 0 -4414660.0785827637 44062760.622558594 0 44062760.622558594 -17247718.656417608 0 0 0 0 83542539.904067993 315476.15524959564 0 315476.15524959564 75701613.672899246 0 0 0 0 53693332.031017348 40181720.388255566 0 40181720.388255566 -27875122.267510727 0 0 0 0 148119497.15155029 -2033006.0171909332 0 -2033006.0171909332 6373504.6607494354 0 0 0 0 114968905.04873657 32854035.882929802 0 32854035.882929802 -30340938.210645959 0 0 0 0 128444853.34747314 -244681844.98436737 0 -244681844.98436737 -200770690.66830802 0 0 0 0 139740398.65087128 -79027891.69443661 0 -79027891.69443661 39187167.734739304 0 0 0 0 20029801.835476205 29200773.662903659 0 29200773.662903659 881007.31695356267 0 0 0 0 11154604.674514771 33346861.396362305 0 33346861.396362305 83317.426340818405 0 0 0 0 -14393775.690093994 -164923855.10580349 0 -164923855.10580349 362949733.34919184 0 0 0 0 7616228.5980834961 24715072.090316772 0 24715072.090316772 -11581174.012863159 0 0 0 0 18343430.499267578 50340791.491210938 0 50340791.491210938 -27599134.499778748 0 0 0 0 1860356.8030471802 58695855.747589111 0 58695855.747589111 -36056810.383544922 0 0 0 0 14453295.978912354 47202674.763633728 0 47202674.763633728 -38856401.168518066 0 0 0 0 -8558143.3085632324 48375498.434692383 0 48375498.434692383 -31922664.27532196 0 0 0 0 12925483.747039795 37406938.967086792 0 37406938.967086792 -64415705.699981689 0 0 0 0 -6897376.9312744141 62716233.139442444 0 62716233.139442444 -45821507.479301453 0 0 0 0 1798106.6840087548 546222.41365233064 0 546222.41365233064 2753.3288915157318 0 0 0 0 20964363.181053162 103178767.6385498 0 103178767.6385498 -16204853.12272644 0 0 0 0 16588359.57478305 23700002.719299924 0 23700002.719299924 3264491.7620553672 0 0 0 0 -19404082.483581543 30632132.098022461 0 30632132.098022461 -36763007.661590576 0 0 0 0 -61404908.087432861 38253203.467292786 0 38253203.467292786 479302.69195556641 0 0 0 0 35126305.791381836 71687328.365585327 0 71687328.365585327 -77579384.34552002 0 0 0 0 27870416.228057861 75232422.762779236 0 75232422.762779236 -17847759.675323486 0 0 0 0 74667453.494659424 90532420.924118042 0 90532420.924118042 -29069976.370758057 0 0 0 0 -40258209.684875488 26415927.92691803 0 26415927.92691803 -74078254.682067871 0 0 0 0 59553030.650020599 27378967.888879776 0 27378967.888879776 -1937871.5655212402 0 0 0 0 -6110162.4483316541 666850.5602038037 0 666850.5602038037 4771273.3106731251 0 0 0 0 60262017.452415466 -15917497.668769836 0 -15917497.668769836 31846996.564037323 0 0 0 0 -7785386.7554393932 17404698.626693912 0 17404698.626693912 10610561.562214583 0 0 0 0 -63049935.498315811 -106024542.99914455 0 -106024542.99914455 -110631292.35221863 0 0 0 0 96753876.384002686 -58380472.669540405 0 -58380472.669540405 -199966874.95201874 0 0 0 0 -2896017.7821273804 80111416.730762482 0 80111416.730762482 -117754630.25402832 0 0 0 0 133668827.57284546 207746718.39083481 0 207746718.39083481 -54706553.836883545 0 0 0 0 108035317.88874817 144920177.29237366 0 144920177.29237366 -29045345.974899292 0 0 0 0 186668212.91799927 96616852.737335205 0 96616852.737335205 -123402572.40708923 0 0 0 0 42976513.421508789 49544016.132564545 0 49544016.132564545 55843283.333976746 0 0 0 0 -40438104.353805542 70285887.157974243 0 70285887.157974243 152923345.10488892 0 0 0 0 -64594985.440155029 164359390.4646759 0 164359390.4646759 107796834.30195618 0 0 0 0 4819208.8125242796 1650597.5461347774 0 1650597.5461347774 348506.81423979998 0 0 0 0 -55537065.953338623 128310955.63619995 0 128310955.63619995 247874246.00985718 0 0 0 0 -11464485.114685334 16891504.797185998 0 16891504.797185998 12770002.894211233 0 0 0 0 -42245854.390235901 55626372.808738708 0 55626372.808738708 217329705.36819458 0 0 0 0 115326287.90725708 -118544299.68322754 0 -118544299.68322754 556877197.15026855 0 0 0 0 -35490045.771560669 16312562.782783508 0 16312562.782783508 116182692.1552124 0 0 0 0 396324763.47006989 104391987.4829483 0 104391987.4829483 -265751908.27275085 0 0 0 0 58217763.817136288 -50737154.405443192 0 -50737154.405443192 92777395.190155029 0 0 0 0 18860112.510734558 26286414.966133118 0 26286414.966133118 49370059.914260864 0 0 0 0 17031035.79794693 6249559.0501594543 0 6249559.0501594543 -20001957.564300537 0 0 0 0 35703023.236846924 41413249.224517822 0 41413249.224517822 -10086528.272201538 0 0 0 0 29050678.566017151 52147438.614006042 0 52147438.614006042 -10470539.259243011 0 0 0 0 19305258.256530762 47354072.744316101 0 47354072.744316101 -5518747.7727203369 0 0 0 0 18756986.22033976 10696558.4077299 0 10696558.4077299 -206862.85909043252 0 0 0 0 129381989.61995697 28495512.781993866 0 28495512.781993866 -45374469.388793945 0 0 0 0 15045054.781403542 67020164.943907738 0 67020164.943907738 99268073.00100708 0 0 0 0 -26407334.408569336 58553136.463790894 0 58553136.463790894 -34484437.986450195 0 0 0 0 22982742.185897205 22616479.69040994 0 22616479.69040994 -4553063.0661766529 0 0 0 0 -20408632.06136322 64221102.525894165 0 64221102.525894165 -32829355.47038269 0 0 0 0 22330274.68183136 61515826.069156647 0 61515826.069156647 -58846740.993896484 0 0 0 0 1597761.0060198754 2662127.9594384059 0 2662127.9594384059 -1534981.2980312742 0 0 0 0 19152648.84085083 78557025.657905579 0 78557025.657905579 67607130.899787903 0 0 0 0 27754810.413345337 43314134.246757507 0 43314134.246757507 -8352425.4698638916 0 0 0 0 12231321.965761669 13239716.699370123 0 13239716.699370123 12313029.791501828 0 0 0 0 57173314.111572266 17613567.722194672 0 17613567.722194672 -50152932.586868286 0 0 0 0 40353239.504974365 49850217.647357941 0 49850217.647357941 5218303.8800048828 0 0 0 0 -1209656.6781921387 118329903.68144226 0 118329903.68144226 181534312.42579651 0 0 0 0 82639235.089073181 8970865.7726287842 0 8970865.7726287842 4603520.7875823975 0 0 0 0 5159374.8494204581 4141606.9006658122 0 4141606.9006658122 6488727.5832727998 0 0 0 0 -4448654.2506408691 -608710.79214859009 0 -608710.79214859009 22676675.296524048 0 0 0 0 46845711.21395874 -12456927.286773682 0 -12456927.286773682 10437339.881385803 0 0 0 0 32083817.900749207 -13836241.951889038 0 -13836241.951889038 13249826.521911621 0 0 0 0 11404.493694700301 18788.98389454931 0 18788.98389454931 115153.62830512971 0 0 0 0 128433309.15543365 66067981.298553467 0 66067981.298553467 33230497.717018127 0 0 0 0 133582524.71766663 86821155.63218689 0 86821155.63218689 36195544.053730011 0 0 0 0 75265440.831325531 29382791.424648285 0 29382791.424648285 -2160669.4246673584 0 0 0 0 182481306.31978607 50200791.228134155 0 50200791.228134155 -3577150.6593170166 0 0 0 0 46988479.487457275 26694210.315559387 0 26694210.315559387 18389228.730789185 0 0 0 0 36464155.444202423 2060931.9299726486 0 2060931.9299726486 8893252.5889282227 0 0 0 0 85823613.021087646 19810813.040649414 0 19810813.040649414 -4471800.6051139832 0 0 0 0 85017940.970981598 -7347279.0313224792 0 -7347279.0313224792 -16242016.524780273 0 0 0 0 69258877.002708435 4631201.7842330933 0 4631201.7842330933 8417935.4586057663 0 0 0 0 28246330.581001282 117606026.78474426 0 117606026.78474426 25779273.289199829 0 0 0 0 301657246.73409271 988620.97527313232 0 988620.97527313232 -33456946.517139435 0 0 0 0 270081745.96969891 201337858.6229105 0 201337858.6229105 54677992.825164795 0 0 0 0 325333794.23449421 -200826654.6578989 0 -200826654.6578989 -158801409.83758545 0 0 0 0 402068190.1060791 145455447.90349579 0 145455447.90349579 104734706.30114746 0 0 0 0 1547822.1034988016 1094209.3583680913 0 1094209.3583680913 1913479.5350474119 0 0 0 0 83163598.464183807 -72050127.553600311 0 -72050127.553600311 -39154930.818572998 0 0 0 0 108389392.38833618 318091302.94340515 0 318091302.94340515 476443567.63035583 0 0 0 0 2309999.0678710938 83610288.221801758 0 83610288.221801758 334006324.3230896 0 0 0 0 113738994.39515686 164384330.6582489 0 164384330.6582489 8493125.0770874023 0 0 0 0 -24719249.606430054 34302833.882080078 0 34302833.882080078 -47570982.715270996 0 0 0 0 -33612431.607978821 -279792586.95140648 0 -279792586.95140648 2635577.5842437744 0 0 0 0 5763039.3754586503 8445370.2938263193 0 8445370.2938263193 16047465.157262214 0 0 0 0 -136469268.30484009 4671804.1602478027 0 4671804.1602478027 32676580.347869873 0 0 0 0 5944561.7335305959 9101592.3861301318 0 9101592.3861301318 11078388.243993372 0 0 0 0 29623783.85345459 -79859121.102310181 0 -79859121.102310181 8016637.0919570923 0 0 0 0 33554059.568445459 33631232.123094343 0 33631232.123094343 -13734292.708822064 0 0 0 0 40203090.542861938 75153503.743799388 0 75153503.743799388 1933580.706546545 0 0 0 0 26769965.537979126 24390625.02646637 0 24390625.02646637 54882274.734725952 0 0 0 0 -25021199.289215088 45734033.951461792 0 45734033.951461792 -425970591.86975098 0 0 0 0 13182775.30069701 23246792.538748495 0 23246792.538748495 44782591.348821387 0 0 0 0 66713186.209716797 81544750.749409676 0 81544750.749409676 -128166384.56601524 0 0 0 0 17531784.596099854 81170350.880425453 0 81170350.880425453 57001015.070555687 0 0 0 0 21047960.384742737 75360168.2092309 0 75360168.2092309 5108813.566952467 0 0 0 0 19133512.384185791 77203091.014154434 0 77203091.014154434 87265424.625251174 0 0 0 0 12560545.021850586 119353905.42631817 0 119353905.42631817 -6703276.1151390076 0 0 0 0 18074937.850563049 94860358.699055672 0 94860358.699055672 -598449.03886795044 0 0 0 0 -1071431.2397460938 124987480.16741943 0 124987480.16741943 82296619.839506149 0 0 0 0 40110165.697265625 163545250.12064743 0 163545250.12064743 -20245067.203662395 0 0 0 0 38226063.461802132 45621959.635001354 0 45621959.635001354 16041429.63694994 0 0 0 0 48017336.126083374 103420241.93481565 0 103420241.93481565 -164344312.25307798 0 0 0 0 37195034.468673706 90217851.958534718 0 90217851.958534718 -55878775.496814728 0 0 0 0 117523958.78832245 118119503.73032761 0 118119503.73032761 -169371288.61979675 0 0 0 0 -6869296.7848205566 124257881.60927629 0 124257881.60927629 -7196073.0237253904 0 0 0 0 -8651968.7601013184 102470113.28885889 0 102470113.28885889 -2618091.7822637558 0 0 0 0 720322.53996486217 2174347.8259538002 0 2174347.8259538002 4969378.8663237225 0 0 0 0 81810172.311920166 183126399.10411644 0 183126399.10411644 -142622161.50763392 0 0 0 0 11506805.393486023 206957340.38650703 0 206957340.38650703 30126164.459980965 0 0 0 0 41065291.035553306 42720725.508336015 0 42720725.508336015 8911203.6492732912 0 0 0 0 70854175.038085938 -10431481.563146591 0 -10431481.563146591 -300442750.49174106 0 0 0 0 173537939.95956421 79096415.17489481 0 79096415.17489481 -386377171.60493231 0 0 0 0 61780411.17868042 71295508.767364502 0 71295508.767364502 -41974539.343902588 0 0 0 0 -82060124.374664307 213610612.46580172 0 213610612.46580172 651581299.12115669 0 0 0 0 97893803.882171631 446449063.26679802 0 446449063.26679802 78586637.304396629 0 0 0 0 228979292.02832031 387135626.02699089 0 387135626.02699089 88896824.787471771 0 0 0 0 207104563.21414185 259880499.9277792 0 259880499.9277792 533153845.41417122 0 0 0 0 19900575.435913086 118670473.67345524 0 118670473.67345524 103796077.79208851 0 0 0 0 59619637.961975098 119315580.41895771 0 119315580.41895771 102513510.21428394 0 0 0 0 12957507.20455125 5516482.0788705777 0 5516482.0788705777 -1022812.4279383353 0 0 0 0 -17113125.751602173 119297465.04899359 0 119297465.04899359 230175244.4723053 0 0 0 0 -50350613.079071045 4354847.6537628174 0 4354847.6537628174 298493800.37657452 0 0 0 0 235206470.020401 -284621787.23209 0 -284621787.23209 574279122.05543137 0 0 0 0 4465963.8711819351 1746194.0349580655 0 1746194.0349580655 -149172.43635153282 0 0 0 0 629544131.64230347 111741974.33261132 0 111741974.33261132 -449659657.99361038 0 0 0 0 -198662831.47265625 253383195.08051109 0 253383195.08051109 1670991994.8720455 0 0 0 0 243124637.00247192 -60350198.008497 0 -60350198.008497 -70859942.291253805 0 0 0 0 -105110858.32028198 -8212921.4252589345 0 -8212921.4252589345 87849216.644872725 0 0 0 0 -61455267.886993408 106920042.25661871 0 106920042.25661871 -255251767.02255034 0 0 0 0 -1561626.372177124 -10468975.306188583 0 -10468975.306188583 -132743358.8938818 0 0 0 0 20924814.235863328 9776005.4514537733 0 9776005.4514537733 -3385711.01333375 0 0 0 0 64590108.031005859 56100401.689145222 0 56100401.689145222 -317287189.86328357 0 0 0 0 8438153.7327423096 38258908.052481651 0 38258908.052481651 88566324.948085785 0 0 0 0 -5168398.6276855469 101766491.78050137 0 101766491.78050137 90843169.717554092 0 0 0 0 15792894.560699463 31546208.457392693 0 31546208.457392693 94317214.159301758 0 0 0 0 12847782.321228027 -11634459.495461464 0 -11634459.495461464 220145940.54347992 0 0 0 0 54794837.271911621 46245147.779493332 0 46245147.779493332 -99467673.553047419 0 0 0 0 137569867.3046875 39047685.677239418 0 39047685.677239418 -112500692.37540722 0 0 0 0 53348836.897369385 32259561.99233675 0 32259561.99233675 -83495887.062828064 0 0 0 0 136515330.67712402 150913644.23157024 0 150913644.23157024 20122497.272974014 0 0 0 0 67209876.732156754 147221827.23079216 0 147221827.23079216 -27294205.212646484 0 0 0 0 -23041619.786636353 46562503.171055794 0 46562503.171055794 -180394389.30902338 0 0 0 0 117949818.05664062 46931535.504504442 0 46931535.504504442 -181349775.9922905 0 0 0 0 -48592981.993499756 -81791696.464208841 0 -81791696.464208841 -271935937.35422707 0 0 0 0 -38102305.148254395 -45761555.678129673 0 -45761555.678129673 -157720242.63742876 0 0 0 0 -112654945.74581909 -78391666.598386288 0 -78391666.598386288 -13028492.549173832 0 0 0 0 32602769.873336792 -156861372.53443766 0 -156861372.53443766 -374957750.40216351 0 0 0 0 -59653932.850585938 150702296.32187748 0 150702296.32187748 -731883918.92686367 0 0 0 0 -74216727.278583527 -21277062.676807612 0 -21277062.676807612 -227387642.03127193 0 0 0 0 -292812650.30114746 221140054.91697598 0 221140054.91697598 -129102909.38791084 0 0 0 0 -443763095.47512817 346100493.13627911 0 346100493.13627911 -416955793.94387341 0 0 0 0 64828240.750677109 -15544140.094521284 0 -15544140.094521284 -255342341.20036507 0 0 0 0 -21507570.03729248 71651392.44562149 0 71651392.44562149 -425781420.43672943 0 0 0 0 -20360266.474822998 46990817.877117157 0 46990817.877117157 -107766315.95149517 0 0 0 0 106370134.3309021 121761920.74041367 0 121761920.74041367 -208178440.42284966 0 0 0 0 -156927147.25994873 255406213.78656006 0 255406213.78656006 187330709.95915604 0 0 0 0 -179036644.00921631 367435890.49552393 0 367435890.49552393 -334127583.62730026 0 0 0 0 52989375.805877686 577605165.79396248 0 577605165.79396248 -54209566.862951279 0 0 0 0 -847728529.22723389 969048801.3146534 0 969048801.3146534 -220991743.63645935 0 0 0 0 -929863380.84841919 859786912.80004692 0 859786912.80004692 -308208709.13230991 0 0 0 0 -287407479.37719727 325451346.78756237 0 325451346.78756237 -535542265.28939056 0 0 0 0 -599194495.34796143 353885474.13598061 0 353885474.13598061 342197857.73293686 0 0 0 0 2139617.3661601096 344543.58533883095 0 344543.58533883095 -10368407.599116541 0 0 0 0 -1020569764.6143951 1281006025.6658869 0 1281006025.6658869 -452345474.29558945 0 0 0 0 74067367.419822693 -186504315.34701133 0 -186504315.34701133 -1775301897.075758 0 0 0 0 -1392474681.5202942 1011435990.2201042 0 1011435990.2201042 111945663.43936253 0 0 0 0 -173236222.51538086 651968953.19079399 0 651968953.19079399 -1869678404.5034118 0 0 0 0 -619826941.0531311 -232415711.80660152 0 -232415711.80660152 1567534626.0549164 0 0 0 0 -1581223.8537751138 668018.86557119386 0 668018.86557119386 -690159.44461817387 0 0 0 0 -222874063.89758301 1122915121.9114742 0 1122915121.9114742 -4736995372.0367346 0 0 0 0 -130713662.86846924 439469642.80933523 0 439469642.80933523 762237129.10083008 0 0 0 0 -1897161.7218932062 1857212.3393759504 0 1857212.3393759504 -2207627.8394240122 0 0 0 0 -6054971.675278917 2059277.708757963 0 2059277.708757963 -13197.540260018781 0 0 0 0 -2312933.0008239746 -1192274.8438148499 0 -1192274.8438148499 3150825.2210245132 0 0 0 0 150344318.66812134 59406401.306071281 0 59406401.306071281 212114816.55927753 0 0 0 0 81128440.715965271 193243336.17814875 0 193243336.17814875 103074082.84344292 0 0 0 0 106405674.20056152 222954091.26532841 0 222954091.26532841 266828867.30459785 0 0 0 0 -11175322.46714586 6875225.235795076 0 6875225.235795076 -3348468.1961464616 0 0 0 0 138917702.50996399 196853505.23331308 0 196853505.23331308 116104278.20205307 0 0 0 0 111911100.11758423 92280924.701835632 0 92280924.701835632 106964672.2512064 0 0 0 0 172282737.96912766 228092612.67632079 0 228092612.67632079 223004236.29060745 0 0 0 0 -4700918.0536499023 4824708.6676330566 0 4824708.6676330566 585570.13545608521 0 0 0 0 -7490219.8243331909 5861205.4534101486 0 5861205.4534101486 3558896.6571998596 0 0 0 0 -1451158.1670291275 3017733.3438375276 0 3017733.3438375276 -2250923.0677284282 0 0 0 0 -133235839.02693939 415810317.22590899 0 415810317.22590899 -1330635455.4422607 0 0 0 0 -43837393.159439087 322035026.99323654 0 322035026.99323654 -1232522490.0064468 0 0 0 0 -164332953.47755051 340068717.95879459 0 340068717.95879459 -1241843647.1628723 0 0 0 0 -452963133.3296814 186902636.43406868 0 186902636.43406868 -1312333931.1615696 0 0 0 0 -196314027.64131927 623561259.35158062 0 623561259.35158062 -1772654192.5917397 0 0 0 0 -159785836.53401184 452974692.94415569 0 452974692.94415569 -978315986.57338715 0 0 0 0 230399409.49504089 568423909.40798569 0 568423909.40798569 -1237694973.243639 0 0 0 0 237501094.33570862 422303609.78253937 0 422303609.78253937 -1025157565.9025154 0 0 0 0 -684809417.97891235 655141956.83481026 0 655141956.83481026 -424321354.02956867 0 0 0 0 -684208022.68936157 641210877.44725132 0 641210877.44725132 -169264990.25151634 0 0 0 0 4300805.5601453781 376069064.11504018 0 376069064.11504018 -87758008.15719986 0 0 0 0 -1193046053.650116 159828028.28904343 0 159828028.28904343 -48427977.997390747 0 0 0 0 -1261223894.7098761 748293077.29098082 0 748293077.29098082 61308444.660228729 0 0 0 0 -1454982889.6359863 1183777503.073164 0 1183777503.073164 -707942988.33398151 0 0 0 0 -1075440579.9789886 851654357.68755913 0 851654357.68755913 -522415846.25307751 0 0 0 0 -1458686190.1959405 23686694.805761553 0 23686694.805761553 -1764813855.9037342 0 0 0 0 683226.45461758971 145365.75859086215 0 145365.75859086215 -4463385.6807049252 0 0 0 0 -2681815635.4121399 2574596206.2142048 0 2574596206.2142048 -1589970518.1788979 0 0 0 0 -158306214.01766968 -384231570.20659447 0 -384231570.20659447 -294797361.30583954 0 0 0 0 -1358693065.7388611 1105478081.5989513 0 1105478081.5989513 35608949.386302948 0 0 0 0 -191543656.57501221 749469174.80265617 0 749469174.80265617 -1252802456.0069504 0 0 0 0 -1147199032.4553375 1989916218.1680231 0 1989916218.1680231 -840469243.52685165 0 0 0 0 -3632574506.8398438 2212650612.7334394 0 2212650612.7334394 -788782895.5492959 0 0 0 0 -1738670280.4700165 1447951459.3729811 0 1447951459.3729811 -1459205244.2347035 0 0 0 0 4118235059.6784973 187405830.89612722 0 187405830.89612722 -1787848071.638546 0 0 0 0 476188.71432205522 3745124.9493448362 0 3745124.9493448362 -5292731.398702696 0 0 0 0 1078937.4991124121 8766515.865734376 0 8766515.865734376 -10303444.32499036 0 0 0 0 97085230.112747192 351697409.77231026 0 351697409.77231026 -1244192578.9984236 0 0 0 0 -2253440670.3517685 957096525.29476881 0 957096525.29476881 249199407.99341583 0 0 0 0 -1185896309.7654734 64377206.639951706 0 64377206.639951706 330153871.23210144 0 0 0 0 -130504679.41217041 1866006847.3194513 0 1866006847.3194513 133722335.52316654 0 0 0 0 3334272526.8984842 519214419.17119873 0 519214419.17119873 -1517168490.1680169 0 0 0 0 -159214967.46894836 1928347528.916687 0 1928347528.916687 43709764.309200287 0 0 0 0 500835.36570510804 10951622.583341137 0 10951622.583341137 -5903182.9510744177 0 0 0 0 412024518.7437439 78787556.658519745 0 78787556.658519745 6739136.4377441406 0 0 0 0 312865693.82150269 -1306855.4714174271 0 -1306855.4714174271 -248786118.27067947 0 0 0 0 84612323.463867188 -174746913.2420578 0 -174746913.2420578 -201566977.4745636 0 0 0 0 -520541562.10113525 -194948205.97499657 0 -194948205.97499657 -14485318.983211517 0 0 0 0 2939847.4889988899 3076833.8489766144 0 3076833.8489766144 -2527191.9595101778 0 0 0 0 -2654287490.8966675 1629234793.4232922 0 1629234793.4232922 -989318735.57932091 0 0 0 0 -148765024.08187866 1664955206.9454823 0 1664955206.9454823 3217139149.7920165 0 0 0 0 -530589235.97750854 2375555241.9698677 0 2375555241.9698677 28986024.1968503 0 0 0 0 288045090.68518066 2490995930.4794526 0 2490995930.4794526 31892151.072613858 0 0 0 0 -2182370212.4067078 -816370257.45113862 0 -816370257.45113862 -2059352968.1384826 0 0 0 0 208163536.76790619 3259404347.0466189 0 3259404347.0466189 -3508888718.8530207 0 0 0 0 408125381.97148132 462971403.20043278 0 462971403.20043278 -1621801141.4784501 0 0 0 0 406197079.79777527 636614094.96057749 0 636614094.96057749 387486943.09955215 0 0 0 0 1542896053.4943542 -906981023.86508942 0 -906981023.86508942 -375374025.87242097 0 0 0 0 -1641027243.2038879 340999690.61823463 0 340999690.61823463 -308932865.03656602 0 0 0 0 -105701276.18102264 95117489.79551363 0 95117489.79551363 -549354401.59655809 0 0 0 0 -395768929.29815674 362290965.78393149 0 362290965.78393149 -566669385.87931967 0 0 0 0 -783508935.36959839 470323665.5564692 0 470323665.5564692 -529804474.72239619 0 0 0 0 -99846984.680679321 636631732.52833533 0 636631732.52833533 -827288947.6986227 0 0 0 0 -26389748.820083618 603937000.50295985 0 603937000.50295985 -831325510.4484396 0 0 0 0 946669366.48562622 752236171.94699299 0 752236171.94699299 -1198396559.7070217 0 0 0 0 457420240.3973999 910971389.63833356 0 910971389.63833356 -1227878406.6564188 0 0 0 0 422869473.29649353 235325906.95730007 0 235325906.95730007 -806275204.87453747 0 0 0 0 183355975.23318481 381699199.46270186 0 381699199.46270186 -766473551.92126513 0 0 0 0 587667036.37664795 1408415046.0893276 0 1408415046.0893276 -2210070050.6574626 0 0 0 0 -1891686892.4345703 2892656464.4178376 0 2892656464.4178376 -1949385329.8715322 0 0 0 0 -1332230803.2464142 1698257934.9701474 0 1698257934.9701474 -1359972638.8329802 0 0 0 0 -156086589.03205872 -291906447.89642316 0 -291906447.89642316 -1251826524.7462735 0 0 0 0 -1006839298.5072327 1299207752.594662 0 1299207752.594662 -809961453.3832655 0 0 0 0 2153285.495356895 569242.83282484859 0 569242.83282484859 -9086798.4395322502 0 0 0 0 -593144385.41938782 1230743843.9349313 0 1230743843.9349313 -588181472.89343238 0 0 0 0 -14132915.897964478 595015046.57364571 0 595015046.57364571 43792677.522313952 0 0 0 0 797193.94363099337 392694.57880952209 0 392694.57880952209 -3245270.234159749 0 0 0 0 -2195980168.0911217 2473087702.8601923 0 2473087702.8601923 -1105832632.6583047 0 0 0 0 1596410151.4194641 -420606511.69706559 0 -420606511.69706559 -563285924.79628825 0 0 0 0 -402767468.06370926 561623025.39995551 0 561623025.39995551 -1196999527.3458891 0 0 0 0 -1179548954.2146301 564477689.46350622 0 564477689.46350622 -856175794.06522465 0 0 0 0 337288290.12319946 227526205.06499743 0 227526205.06499743 -1180268477.9717083 0 0 0 0 -69074985.787368774 127004134.01363862 0 127004134.01363862 -256471077.08453465 0 0 0 0 285247115.63064575 -243850602.65069246 0 -243850602.65069246 -455683518.44233608 0 0 0 0 227525665.99343109 437807102.39404595 0 437807102.39404595 719238562.88111782 0 0 0 0 163015387.45480347 -39266170.610883713 0 -39266170.610883713 -138209249.92324781 0 0 0 0 252343299.83175921 1820791430.9871902 0 1820791430.9871902 -1851369256.1800892 0 0 0 0 96677202.844432831 -133591485.28050271 0 -133591485.28050271 -392573918.29330134 0 0 0 0 251968167.79760742 418657325.02205032 0 418657325.02205032 -1578948368.5638032 0 0 0 0 807174285.53875732 781100646.99822915 0 781100646.99822915 -1445047478.1677971 0 0 0 0 179128732.09043884 458671105.98007047 0 458671105.98007047 -1443516058.5214853 0 0 0 0 -158705634.27780151 341972044.1826241 0 341972044.1826241 -1510971103.3580532 0 0 0 0 -222012927.45730972 75870898.027258575 0 75870898.027258575 -2399087847.7230034 0 0 0 0 -408233037.5072937 738162237.87328482 0 738162237.87328482 -931609975.64011717 0 0 0 0 198375988.06292725 780390849.38182735 0 780390849.38182735 -1829778330.5866528 0 0 0 0 -377159236.38038635 886936958.01505017 0 886936958.01505017 -951185970.47252774 0 0 0 0 230874486.07317352 1030887910.0580198 0 1030887910.0580198 -914801190.27471781 0 0 0 0 330648815.3046875 448483274.33761942 0 448483274.33761942 -1011045973.9861057 0 0 0 0 849038950.31033325 -414967145.07277989 0 -414967145.07277989 42933264.89851594 0 0 0 0 -1200713614.9901123 790546055.5425148 0 790546055.5425148 -352573896.15855479 0 0 0 0 -563095698.96235657 404668142.60778904 0 404668142.60778904 -559041816.76896834 0 0 0 0 -774442763.75756836 1445563765.0263169 0 1445563765.0263169 -2124357994.125668 0 0 0 0 238167225.5579071 845165861.9914093 0 845165861.9914093 -5120105195.698885 0 0 0 0 -1357925008.2599487 2372832931.8255768 0 2372832931.8255768 -2210788802.8615565 0 0 0 0 -2119165.9823071063 1952070.306534633 0 1952070.306534633 -523561.10943494842 0 0 0 0 -1123394815.6776733 1165603718.9388511 0 1165603718.9388511 1417473112.1020155 0 0 0 0 -1102093.7834755927 3137522.4945043996 0 3137522.4945043996 -4275897.4322795384 0 0 0 0 -171425746.28574181 3298813361.4119081 0 3298813361.4119081 -1059106308.6469102 0 0 0 0 690329828.89621735 -892849819.20407486 0 -892849819.20407486 -2179720537.1293335 0 0 0 0 663481712.80661011 -695260097.75070953 0 -695260097.75070953 -3625147907.4883471 0 0 0 0 655680588.09393311 -129279702.77287292 0 -129279702.77287292 -230931335.10912573 0 0 0 0 1255070932.0995789 -45448691.828893661 0 -45448691.828893661 -2311935812.8821831 0 0 0 0 -2032258.1550773382 6306385.0044744387 0 6306385.0044744387 -8491203.3373638205 0 0 0 0 1686359594.0539398 1649500108.2618484 0 1649500108.2618484 -194810389.46774244 0 0 0 0 1544130603.0612717 965993338.22917747 0 965993338.22917747 -343286375.2333169 0 0 0 0 343819587.01150513 545867039.10965538 0 545867039.10965538 -263605219.01948166 0 0 0 0 754129751.65155792 -16710024.987629175 0 -16710024.987629175 -1447850430.1863537 0 0 0 0 620759318.98629761 1216284644.324887 0 1216284644.324887 -2628159531.5174427 0 0 0 0 -224227240.81080627 663760736.58510256 0 663760736.58510256 -1333654785.9847088 0 0 0 0 588400274.43416214 -34401662.876233876 0 -34401662.876233876 -846699127.59315729 0 0 0 0 -596482225.33068848 322025875.00273776 0 322025875.00273776 -232914030.44587398 0 0 0 0 -746006493.12374115 492602748.73753589 0 492602748.73753589 -540092086.76328421 0 0 0 0 -524656310.00900269 447342326.94280124 0 447342326.94280124 -537012356.2170279 0 0 0 0 -196379081.69363022 525441907.9140327 0 525441907.9140327 -769441451.17256737 0 0 0 0 -532213493.67140198 805807587.0965519 0 805807587.0965519 -985982231.34406686 0 0 0 0 -923797830.94464874 1276804244.6252337 0 1276804244.6252337 -1240551885.8798523 0 0 0 0 -707357150.35572815 981921112.70275807 0 981921112.70275807 -849239924.3973217 0 0 0 0 -261815154.36273956 1438684199.0019941 0 1438684199.0019941 -1794406123.382411 0 0 0 0 222228515.88033295 1249957821.4958799 0 1249957821.4958799 -1918478161.565423 0 0 0 0 -2633764328.2009869 1892597323.6429329 0 1892597323.6429329 -1081089584.0674982 0 0 0 0 -555874003.58912659 2301361163.5194597 0 2301361163.5194597 -3278292636.2432857 0 0 0 0 309768164.87014771 -337517477.25396109 0 -337517477.25396109 -3411664186.0690022 0 0 0 0 -86793738.610267639 331216062.6497221 0 331216062.6497221 -382647377.84483147 0 0 0 0 9616299.5957467258 7166675.5364416651 0 7166675.5364416651 -7756786.2524955161 0 0 0 0 -1178077.531073004 5471094.9147946723 0 5471094.9147946723 -4936542.1680138987 0 0 0 0 -113463086.26171875 596907662.90802479 0 596907662.90802479 286007726.36291218 0 0 0 0 5587797.1906121969 4100879.8209282681 0 4100879.8209282681 -3451568.1570353815 0 0 0 0 320267754.02479553 268048804.38159657 0 268048804.38159657 -1432623688.0325813 0 0 0 0 287637700.37765503 1493519615.1947422 0 1493519615.1947422 -1845029432.8342962 0 0 0 0 196303900.33486938 1378324403.657409 0 1378324403.657409 -1316156289.7379498 0 0 0 0 588246784.72912598 853955674.46735883 0 853955674.46735883 -1407449505.7287436 0 0 0 0 473747296.97236633 1558934025.0088196 0 1558934025.0088196 -1844546152.8139887 0 0 0 0 304947037.40289688 2082029162.6684835 0 2082029162.6684835 -3463172040.9988317 0 0 0 0 -840588667.26983643 761253602.51483965 0 761253602.51483965 -1396059644.8172846 0 0 0 0 -695144264.1209259 2173369386.8972073 0 2173369386.8972073 -1823889006.7607479 0 0 0 0 155756302.14865112 1462455802.7289071 0 1462455802.7289071 -922958710.56122255 0 0 0 0 -29403416.070739746 1124052349.7161131 0 1124052349.7161131 -788338755.09051514 0 0 0 0 156581198.90824127 230756171.87075949 0 230756171.87075949 286823204.29561234 0 0 0 0 -120145919.39535522 1446765944.511126 0 1446765944.511126 -399006909.90874195 0 0 0 0 69103166.242273331 530755568.77492565 0 530755568.77492565 44416945.72501564 0 0 0 0 203352482.74624634 1176183993.5944262 0 1176183993.5944262 687626607.69267225 0 0 0 0 365921918.60783386 107996401.5490067 0 107996401.5490067 1328970904.7201757 0 0 0 0 -263637090.83752441 703293011.25023365 0 703293011.25023365 1535309692.5291281 0 0 0 0 2769401.7263085395 2298206.1801354168 0 2298206.1801354168 -1128898.4655236874 0 0 0 0 695697682.82244873 352005487.22107697 0 352005487.22107697 1262033875.7777805 0 0 0 0 714466400.43353271 1339004892.7886605 0 1339004892.7886605 1704770914.337738 0 0 0 0 -336559161.96185303 632860025.86321735 0 632860025.86321735 3424163679.4993482 0 0 0 0 790214.77450275421 459163.67197580682 0 459163.67197580682 -70721.490976603265 0 0 0 0 672941883.01470947 166682625.80365264 0 166682625.80365264 -817508655.60964406 0 0 0 0 92105549.648519516 280093480.7542659 0 280093480.7542659 1191052373.7540789 0 0 0 0 624516989.18089294 914078127.89605284 0 914078127.89605284 -126205735.1409502 0 0 0 0 -218503.7410736084 796915479.94301891 0 796915479.94301891 977769099.60326719 0 0 0 0 -76609298.102142334 305771314.58083916 0 305771314.58083916 -455098525.87559795 0 0 0 0 791982.93084716797 1136262712.8192015 0 1136262712.8192015 -1403252616.1562023 0 0 0 0 -147366915.04652405 597380394.43621922 0 597380394.43621922 -1977190986.3401642 0 0 0 0 -818193.20332336426 1072355983.0089006 0 1072355983.0089006 -2269296340.6560059 0 0 0 0 -235673144.46504211 896222313.14568996 0 896222313.14568996 -2371591682.6221142 0 0 0 0 111510034.55617905 1079133252.4292824 0 1079133252.4292824 -2634502428.4108458 0 0 0 0 -737515104.52419567 1790526972.1192617 0 1790526972.1192617 -2012883183.2040253 0 0 0 0 -728851755.30630493 2004094843.4573603 0 2004094843.4573603 1446387403.216198 0 0 0 0 841732664.72521591 56655772.347435832 0 56655772.347435832 -4336589380.0015841 0 0 0 0 -1114280.1553050429 3103149.2262069806 0 3103149.2262069806 -4165321.549880553 0 0 0 0 -693904269.08999634 1595429019.5056381 0 1595429019.5056381 -2531417835.8390093 0 0 0 0 -2112660004.9772339 1073532897.3409653 0 1073532897.3409653 -765327306.2522316 0 0 0 0 1724741544.8856807 353122826.9221828 0 353122826.9221828 -1911085925.2031212 0 0 0 0 156298230.42681122 345492531.2745223 0 345492531.2745223 -2745575416.6182785 0 0 0 0 524758209.46697998 -370245279.98439026 0 -370245279.98439026 -1373870788.7680159 0 0 0 0 250893080.68656921 206051120.48347664 0 206051120.48347664 -5556006810.9899445 0 0 0 0 -39403025.138519287 1298138514.9107399 0 1298138514.9107399 -4600627308.9732628 0 0 0 0 -1562110771.4731293 -567282676.1748724 0 -567282676.1748724 -3539621618.8107753 0 0 0 0 525550.97509765625 458524513.96433258 0 458524513.96433258 -3468298751.8190594 0 0 0 0 -105635399.8243103 1163436140.955965 0 1163436140.955965 -2629173468.6622696 0 0 0 0 -725864471.1993103 514927125.73844528 0 514927125.73844528 -2437074703.1870632 0 0 0 0 26000094.161010742 46774997.881080627 0 46774997.881080627 134365195.94169879 0 0 0 0 28193022.576263428 34114371.390007019 0 34114371.390007019 113529932.49227905 0 0 0 0 -24083302.361862183 39067086.28560257 0 39067086.28560257 113416493.76172662 0 0 0 0 72368058.435699463 26703902.330890656 0 26703902.330890656 90238096.990066528 0 0 0 0 74228802.415821075 36196264.314973831 0 36196264.314973831 136765476.68112183 0 0 0 0 99888271.898864746 3628779.9185829163 0 3628779.9185829163 123462785.24330139 0 0 0 0 64854864.343223572 18638891.725280762 0 18638891.725280762 127880304.67227173 0 0 0 0 58168593.766998291 13913773.161903381 0 13913773.161903381 131163130.50125885 0 0 0 0 26493041.408657312 3938193.0785112381 0 3938193.0785112381 128049480.64880371 0 0 0 0 85896995.59979248 16128924.474563599 0 16128924.474563599 126636446.8144989 0 0 0 0 178917658.43104839 11967627.800437927 0 11967627.800437927 -166738523.65023041 0 0 0 0 50001984.111928187 42281634.860749438 0 42281634.860749438 -11774634.583753457 0 0 0 0 57562246.355194092 17991615.315979004 0 17991615.315979004 128394375.81942368 0 0 0 0 112848791.08204508 37381231.799407959 0 37381231.799407959 -88373354.487869263 0 0 0 0 168934110.47762895 -50047810.522285461 0 -50047810.522285461 -36281411.418243408 0 0 0 0 245154047.37880325 -77911633.222976685 0 -77911633.222976685 -114909026.26965714 0 0 0 0 308074443.86693287 38704023.906799316 0 38704023.906799316 -127872407.60302734 0 0 0 0 278312267.7221899 63676154.200634003 0 63676154.200634003 23557152.768661499 0 0 0 0 292201509.03666878 72652333.814865112 0 72652333.814865112 270327.27047729492 0 0 0 0 -45744233.118562222 121538157.42645788 0 121538157.42645788 -20658297.078262329 0 0 0 0 173137063.06549835 209254329.06939697 0 209254329.06939697 203009228.99328613 0 0 0 0 93246034.90870285 -89768311.595352173 0 -89768311.595352173 -35162312.057670593 0 0 0 0 -75918662.40826416 24647388.073410034 0 24647388.073410034 146607430.951931 0 0 0 0 68426191.828063965 51885679.718612671 0 51885679.718612671 134488252.78346825 0 0 0 0 46222992.105285645 16182852.296272278 0 16182852.296272278 131322674.29076385 0 0 0 0 44435482.139834389 43142545.534573957 0 43142545.534573957 -20253222.142543443 0 0 0 0 -4540109.1608047485 61318020.870004654 0 61318020.870004654 189347992.45307159 0 0 0 0 -7808716.7713984326 42749223.210393734 0 42749223.210393734 698660.1496861577 0 0 0 0 41131723.751552582 112509351.92626953 0 112509351.92626953 -20159804.203733444 0 0 0 0 12952559.001102448 64857599.728561401 0 64857599.728561401 -3398541.9892578125 0 0 0 0 11790032.050865255 41468477.203892812 0 41468477.203892812 -16570009.115599914 0 0 0 0 12022984.602447119 30086449.587999169 0 30086449.587999169 5168089.846018929 0 0 0 0 2742577.5694303513 208688497.65304828 0 208688497.65304828 247492789.54741669 0 0 0 0 -12344062.5572052 22563454.657203674 0 22563454.657203674 129201197.05924606 0 0 0 0 -19773507.163284302 43990671.44393158 0 43990671.44393158 178625536.26905441 0 0 0 0 15459221.058311462 51116058.351905823 0 51116058.351905823 73936177.84147644 0 0 0 0 -107793637.01731873 11932353.150213242 0 11932353.150213242 66068075.875366211 0 0 0 0 -299108241.02067566 227933167.83559418 0 227933167.83559418 80177880.526397705 0 0 0 0 123573755.44746399 111098849.9786644 0 111098849.9786644 88139069.264080048 0 0 0 0 136207312.49664307 211218054.16841125 0 211218054.16841125 -378512548.61123276 0 0 0 0 -8548532.6855773926 125063037.64455795 0 125063037.64455795 -311383581.61022377 0 0 0 0 -165016584.0340786 -129669897.46651554 0 -129669897.46651554 -196644375.07673645 0 0 0 0 -24016476.479736328 90076990.411571503 0 90076990.411571503 -77974975.466995239 0 0 0 0 55200668.719642639 33986099.601840973 0 33986099.601840973 -154104809.73406601 0 0 0 0 27374895.74571991 -19153274.163797379 0 -19153274.163797379 51867622.519119263 0 0 0 0 101204228.84568787 27149394.302120209 0 27149394.302120209 -5496449.9988441467 0 0 0 0 35872971.499881744 23581646.200204849 0 23581646.200204849 721475.08290100098 0 0 0 0 100338745.11875153 16518468.024200439 0 16518468.024200439 -52662694.870979309 0 0 0 0 102068256.68374634 28725884.81621933 0 28725884.81621933 14087307.093719482 0 0 0 0 288192127.78688049 239454751.05422211 0 239454751.05422211 125749181.53219604 0 0 0 0 57559601.671836853 28778565.526857376 0 28778565.526857376 80847424.56374836 0 0 0 0 107524029.75196838 6489730.7766342163 0 6489730.7766342163 26984505.321083069 0 0 0 0 18016423.822226569 10385234.536750458 0 10385234.536750458 4618171.4482119381 0 0 0 0 112083689.19720459 2885050.1781616211 0 2885050.1781616211 4625780.7565326691 0 0 0 0 87270797.064418793 8395911.0919265747 0 8395911.0919265747 34218972.700592041 0 0 0 0 37891190.83019992 47314557.953902945 0 47314557.953902945 25704177.379763488 0 0 0 0 -141336596.79296875 504440883.84869003 0 504440883.84869003 310155518.85024452 0 0 0 0 217664043.94352722 -86039154.629852295 0 -86039154.629852295 -161077729.73148727 0 0 0 0 326496673.64343071 -144026520.7358675 0 -144026520.7358675 -219234917.91236877 0 0 0 0 14843600.804440238 4213101.1644248366 0 4213101.1644248366 -8340255.8982781842 0 0 0 0 -66423845.867759705 56815167.944700718 0 56815167.944700718 -29692003.080438614 0 0 0 0 -121601336.88661194 107670291.67000103 0 107670291.67000103 2956217.5426492691 0 0 0 0 -172088941.90249634 10661261.12730217 0 10661261.12730217 22440727.901605606 0 0 0 0 -9768408.8280639648 69669338.02825737 0 69669338.02825737 -35643989.863874435 0 0 0 0 23474706.510215759 -64894059.767959595 0 -64894059.767959595 -2651325.7406177521 0 0 0 0 38977698.697929382 149484151.08293533 0 149484151.08293533 44272883.884887695 0 0 0 0 41311343.299142331 51938381.712716021 0 51938381.712716021 23407325.149645075 0 0 0 0 51274226.312965393 114548700.30975723 0 114548700.30975723 15221831.608520508 0 0 0 0 -13903807.834997654 111309445.0239116 0 111309445.0239116 59887910.53956604 0 0 0 0 423153825.62784576 -341573071.9471941 0 -341573071.9471941 332185593.3084774 0 0 0 0 1711533.1912373565 30567485.484013632 0 30567485.484013632 9023308.8514448721 0 0 0 0 -18728290.251693726 144730853.24004555 0 144730853.24004555 104940694.37748146 0 0 0 0 92279379.737586975 63431567.08489418 0 63431567.08489418 7919681.4940948486 0 0 0 0 129988095.50894165 13848548.711273193 0 13848548.711273193 -5704063.0337562561 0 0 0 0 1201960822.9505692 -211927191.31994629 0 -211927191.31994629 -395874932.60122299 0 0 0 0 1002537221.7382812 1102386251.4854755 0 1102386251.4854755 -1532263882.7165222 0 0 0 0 86781155.223121643 25495381.35555172 0 25495381.35555172 15562854.515556335 0 0 0 0 79501816.270324707 53868132.996925354 0 53868132.996925354 67065674.630079269 0 0 0 0 110225363.90434647 20815334.629005432 0 20815334.629005432 122290175.54249573 0 0 0 0 3973602.3616218381 7391838.8872303618 0 7391838.8872303618 8513657.3801099807 0 0 0 0 100370548.29566956 -7585197.5819263458 0 -7585197.5819263458 82492246.542205811 0 0 0 0 157713683.43937683 20795812.000778198 0 20795812.000778198 36143256.880147934 0 0 0 0 44328865.886291526 19869115.25577208 0 19869115.25577208 -13022316.088223131 0 0 0 0 60252609.903320312 53211736.389583588 0 53211736.389583588 49041132.551612854 0 0 0 0 134324928.33792114 43782738.207481384 0 43782738.207481384 -28663564.691223145 0 0 0 0 34870429.95564957 32590415.441260394 0 32590415.441260394 228718.75793759059 0 0 0 0 18402789.297931671 23823944.596714616 0 23823944.596714616 -12285778.810907364 0 0 0 0 31908057.197794221 39338362.647054218 0 39338362.647054218 -6380474.4165245164 0 0 0 0 20615037.855895996 7383802.2130565643 0 7383802.2130565643 -9357912.556374073 0 0 0 0 17154032.963516235 19044369.78492403 0 19044369.78492403 -21620178.813787714 0 0 0 0 21825336.151786804 27539231.358686209 0 27539231.358686209 -20744153.71331358 0 0 0 0 25051840.851665497 21224182.864280701 0 21224182.864280701 -31476414.131103516 0 0 0 0 14037697.192922276 9881192.1516829133 0 9881192.1516829133 -6780973.7352021318 0 0 0 0 37312809.556849495 65243094.894555807 0 65243094.894555807 15280584.186268367 0 0 0 0 21239268.095378876 29852290.81975174 0 29852290.81975174 -13145559.284268796 0 0 0 0 -113523665.20722532 -13508639.816875458 0 -13508639.816875458 -90819570.108718872 0 0 0 0 38640323.003879748 19298281.962748241 0 19298281.962748241 -29322474.833620258 0 0 0 0 36461575.737969637 11783912.190756051 0 11783912.190756051 -14295153.561894996 0 0 0 0 74288672.842926025 33724603.210289001 0 33724603.210289001 -9137010.3124694824 0 0 0 0 13062659.383956909 9694723.2725315094 0 9694723.2725315094 -12078658.381082535 0 0 0 0 38456258.321632475 33770265.192836925 0 33770265.192836925 -4422048.8953899294 0 0 0 0 13087682.888171434 72806326.410964966 0 72806326.410964966 -100628232.22236633 0 0 0 0 -7275307.8014141917 60790694.829479218 0 60790694.829479218 -13732795.612884521 0 0 0 0 54048546.743168831 83690402.606204987 0 83690402.606204987 -110199328.68615723 0 0 0 0 -8154846.8346197605 55001189.663696289 0 55001189.663696289 -47624637.315681458 0 0 0 0 24833473.871784277 12638330.23496348 0 12638330.23496348 -22854959.255201537 0 0 0 0 30932192.271663666 -27855029.947059631 0 -27855029.947059631 -115661669.40806627 0 0 0 0 53534527.49616082 56669435.238212585 0 56669435.238212585 -33958602.941085815 0 0 0 0 36978978.638041712 22293953.046471424 0 22293953.046471424 -14050199.379247375 0 0 0 0 5851082.8739360087 31318519.289566416 0 31318519.289566416 -3263884.9269918613 0 0 0 0 166860556.06874084 -46303704.282608032 0 -46303704.282608032 -77280807.038322449 0 0 0 0 7086803.7391900718 5050335.4121875223 0 5050335.4121875223 -7128429.1162282303 0 0 0 0 101597826.30313969 -11119113.694942474 0 -11119113.694942474 -55768754.22769928 0 0 0 0 32602290.507460594 43166531.041425705 0 43166531.041425705 -71123625.347496033 0 0 0 0 -17662977.27072525 226568.79138565063 0 226568.79138565063 32231683.361488342 0 0 0 0 169902193.60390759 -69956540.102268219 0 -69956540.102268219 -32347982.206512451 0 0 0 0 170174956.98754311 68645322.03944397 0 68645322.03944397 -26151217.105026245 0 0 0 0 204217251.90253067 203077388.8099556 0 203077388.8099556 -14401878.2706604 0 0 0 0 26871251.266244888 341676374.08304977 0 341676374.08304977 70888879.717842102 0 0 0 0 -140274689.09397936 84939299.955010891 0 84939299.955010891 -45350513.214752197 0 0 0 0 92695670.827888489 33192050.91778183 0 33192050.91778183 -101223596.09625244 0 0 0 0 170819187.42195129 30211489.766540527 0 30211489.766540527 -101207008.33505249 0 0 0 0 -112049606.19322205 172292943.40049744 0 172292943.40049744 181593136.96866512 0 0 0 0 69294643.67048645 557840994.07213974 0 557840994.07213974 12029038.15023613 0 0 0 0 141487680.71220398 521685006.04327774 0 521685006.04327774 -665063232.40590477 0 0 0 0 -67501220.148635864 327155879.45161819 0 327155879.45161819 -40880074.483592987 0 0 0 0 104609981.91995239 123702389.91473007 0 123702389.91473007 -36106179.422637939 0 0 0 0 209675250.71629333 62492662.613712311 0 62492662.613712311 -7781232.0454006195 0 0 0 0 176098767.69126892 177857625.64950371 0 177857625.64950371 -185445279.30747604 0 0 0 0 491088688.08830261 26082090.538455963 0 26082090.538455963 -112935689.14435196 0 0 0 0 42859934.729255676 94788230.08649826 0 94788230.08649826 138488195.26243544 0 0 0 0 68700497.158046722 170223059.0683136 0 170223059.0683136 130363280.07381058 0 0 0 0 -3367237.2475152602 21404996.567621499 0 21404996.567621499 3198209.2695037238 0 0 0 0 -92578915.091690063 264412329.75461578 0 264412329.75461578 290012467.07679367 0 0 0 0 -109646011.78888702 67863127.908344269 0 67863127.908344269 447955875.3311615 0 0 0 0 -108529552.76591969 152761921.91732168 0 152761921.91732168 219804776.14006805 0 0 0 0 -712204463.93851471 487343010.06512451 0 487343010.06512451 -429512812.55235291 0 0 0 0 -20201544.952579997 -147510.16246159188 0 -147510.16246159188 3891444.7926890934 0 0 0 0 -398406389.87963295 534484265.92509079 0 534484265.92509079 -487023460.32341766 0 0 0 0 56480604.926887512 -23862296.959335327 0 -23862296.959335327 -869380556.28291321 0 0 0 0 -6791033.1678323746 10034131.916343689 0 10034131.916343689 -18623314.076667786 0 0 0 0 124554833.31456423 165275538.41024017 0 165275538.41024017 -343879069.05457306 0 0 0 0 -2009307.1280542566 1204874.4329217542 0 1204874.4329217542 1434908.8658204824 0 0 0 0 -2164368.5564923314 4550363.0954338145 0 4550363.0954338145 -2697161.2378832037 0 0 0 0 -169752776.47809982 189709560.15329361 0 189709560.15329361 292667396.86272812 0 0 0 0 -426196261.02902603 596069968.6524086 0 596069968.6524086 -222111157.44268036 0 0 0 0 -415825036.99080658 129390833.73519897 0 129390833.73519897 95210176.367673874 0 0 0 0 -466955625.79064763 -96229378.37996912 0 -96229378.37996912 -291534152.07527161 0 0 0 0 -300290541.93726349 369893077.39369965 0 369893077.39369965 -792495295.19764709 0 0 0 0 362963208.35559362 364800377.2663734 0 364800377.2663734 57136116.291923523 0 0 0 0 527965000.19242764 164724787.91886902 0 164724787.91886902 55033881.564865112 0 0 0 0 439347863.25213432 317375019.4471817 0 317375019.4471817 448282919.2563448 0 0 0 0 337883487.49520481 141446493.02559662 0 141446493.02559662 159225063.75878906 0 0 0 0 464874948.01526928 42560584.691322327 0 42560584.691322327 -62725881.252792358 0 0 0 0 24760340.08423233 -71976367.981819153 0 -71976367.981819153 68012371.028259277 0 0 0 0 288533657.40603733 -80475324.270505905 0 -80475324.270505905 -11137634.016571045 0 0 0 0 -811922.27562507987 1886144.5626816284 0 1886144.5626816284 -568661.29179554712 0 0 0 0 271625580.93374825 84608650.103609085 0 84608650.103609085 -369953538.99560547 0 0 0 0 371223253.04312992 661436646.9577179 0 661436646.9577179 30374567.148200989 0 0 0 0 311848539.97587109 568621516.81311035 0 568621516.81311035 421065201.19647217 0 0 0 0 -21042803.459110502 31819372.194201432 0 31819372.194201432 -35112103.925798744 0 0 0 0 71874393.732429504 263530021.12915039 0 263530021.12915039 90548639.857681274 0 0 0 0 3924337.1701936722 -70092116.921695709 0 -70092116.921695709 -32900780.402587891 0 0 0 0 -277755710.27657318 -36011026.89264679 0 -36011026.89264679 137016725.94869995 0 0 0 0 125699470.16102982 61082602.455417633 0 61082602.455417633 34292243.067520142 0 0 0 0 97360241.251386642 123244962.05909538 0 123244962.05909538 22333255.228729248 0 0 0 0 77061905.190792084 92193119.063365936 0 92193119.063365936 9086443.131362915 0 0 0 0 34551146.28968811 94164121.086143494 0 94164121.086143494 34642372.99029541 0 0 0 0 -16002198.20427496 30349879.211596638 0 30349879.211596638 -32742939.508522674 0 0 0 0 78487048.750434875 94864210.05683136 0 94864210.05683136 14036227.323493958 0 0 0 0 -83081683.832260132 117015638.22602844 0 117015638.22602844 113711842.4870224 0 0 0 0 414215020.82444954 281865602.46208191 0 281865602.46208191 183299675.32064819 0 0 0 0 -14254755.675135061 17676614.376035176 0 17676614.376035176 7686359.4148092717 0 0 0 0 -135061033.14014387 287288977.85827887 0 287288977.85827887 63390044.544723511 0 0 0 0 627060921.44083738 36183947.116168976 0 36183947.116168976 -67332893.488136292 0 0 0 0 4467200.7655867115 2205873.1781531787 0 2205873.1781531787 -3718652.0655888282 0 0 0 0 -17252602.433516122 13720276.203653231 0 13720276.203653231 6907780.3941629045 0 0 0 0 345666356.93464661 150395234.77840424 0 150395234.77840424 23510410.304946899 0 0 0 0 627438044.90375614 390336777.88294983 0 390336777.88294983 27542846.405471802 0 0 0 0 32570566.877780914 76146905.168716431 0 76146905.168716431 3357599.6801452637 0 0 0 0 -10274007.053920861 36901923.96664685 0 36901923.96664685 -17906662.177158054 0 0 0 0 -52887889.303804398 111470126.87868118 0 111470126.87868118 68585309.844032288 0 0 0 0 -270552178.45079851 -6792088.5524682999 0 -6792088.5524682999 116668689.21923065 0 0 0 0 484539247.44587517 214514680.32086945 0 214514680.32086945 -31239902.194786072 0 0 0 0 -4693978.3456466123 2746003.7548853448 0 2746003.7548853448 1475736.957718309 0 0 0 0 447918831.59429669 94536570.350280762 0 94536570.350280762 -105603200.45718384 0 0 0 0 44608406.304674149 5809195.3166046143 0 5809195.3166046143 -8344271.7912750244 0 0 0 0 394030221.71134281 -40951638.365497589 0 -40951638.365497589 -85347444.860076904 0 0 0 0 346746020.05110312 123923705.37567139 0 123923705.37567139 57112746.431602478 0 0 0 0 13518579.21786499 71061153.523715973 0 71061153.523715973 9214252.6383361816 0 0 0 0 8623004.8451461792 74634548.84161377 0 74634548.84161377 8430603.954990387 0 0 0 0 36628115.443283081 90566916.676704407 0 90566916.676704407 17459681.73638916 0 0 0 0 2642903.6670455933 89574338.315544128 0 89574338.315544128 26348171.273468018 0 0 0 0 2443862.5093612671 90973560.714752197 0 90973560.714752197 27621065.124282837 0 0 0 0 33603782.713857651 102117856.63599634 0 102117856.63599634 27557843.281723022 0 0 0 0 -9012100.9536056519 89048927.305183411 0 89048927.305183411 47588894.719154358 0 0 0 0 -3744120.5809707642 89180294.472625732 0 89180294.472625732 9350579.3719406128 0 0 0 0 -11898766.820371628 81150934.948047638 0 81150934.948047638 20111433.901245117 0 0 0 0 -24764821.794586182 92173480.692974091 0 92173480.692974091 36068415.483840942 0 0 0 0 -9025629.6175231934 96627901.397384644 0 96627901.397384644 22842044.481639862 0 0 0 0 -20624453.092605591 73287995.064689636 0 73287995.064689636 64524976.803695679 0 0 0 0 -58714421.493263245 117010488.96883392 0 117010488.96883392 30147770.555870056 0 0 0 0 633773.58333206177 106105750.25562477 0 106105750.25562477 3037595.7734527588 0 0 0 0 333489.40721360967 435159.67969816178 0 435159.67969816178 317061.35843485594 0 0 0 0 -55192297.172821045 65879312.474937439 0 65879312.474937439 104534251.14866638 0 0 0 0 -34866143.487857819 169147175.70828629 0 169147175.70828629 36492077.928344727 0 0 0 0 29637795.722381592 65767591.334589005 0 65767591.334589005 89511828.986175537 0 0 0 0 13252242.681137085 31039818.380783081 0 31039818.380783081 73451219.47127533 0 0 0 0 -21350291.0520401 65829970.434597015 0 65829970.434597015 52574777.332977295 0 0 0 0 16712827.127761841 40324855.847198486 0 40324855.847198486 38592668.771011353 0 0 0 0 -7212929.6253890991 67970668.48828125 0 67970668.48828125 28860373.109025002 0 0 0 0 -13211380.738639832 85553217.126525879 0 85553217.126525879 39223529.69442749 0 0 0 0 3343913.4025402069 77711329.045198441 0 77711329.045198441 37524603.789337158 0 0 0 0 -2444622.1556472778 54581947.989097595 0 54581947.989097595 56861791.752433777 0 0 0 0 -180833826.08248138 -34801369.848587036 0 -34801369.848587036 104252459.66168976 0 0 0 0 18852918.008740902 56190607.03930521 0 56190607.03930521 35172790.796417236 0 0 0 0 43196105.950401306 47534951.410919189 0 47534951.410919189 65731318.060119629 0 0 0 0 18154206.849777222 76263561.422096252 0 76263561.422096252 118953541.35089016 0 0 0 0 19971949.692657471 69644590.373020172 0 69644590.373020172 45599004.225669861 0 0 0 0 24284418.554191589 22614532.759941101 0 22614532.759941101 94861071.143508911 0 0 0 0 19403128.8683815 -5889462.6386947632 0 -5889462.6386947632 14732824.520866394 0 0 0 0 15443145.723701477 61521927.148643494 0 61521927.148643494 77105927.826507568 0 0 0 0 1126312.2217686027 674336.95310936868 0 674336.95310936868 923638.00892549008 0 0 0 0 977552.11690614745 1269591.5470938534 0 1269591.5470938534 1414647.9956955239 0 0 0 0 36419781.802894592 37981593.226165771 0 37981593.226165771 57915570.61781311 0 0 0 0 14021953.82787323 38836904.226028442 0 38836904.226028442 59107624.717529297 0 0 0 0 42703317.053726196 37653996.272674561 0 37653996.272674561 63011706.89251709 0 0 0 0 13455141.540863037 45864208.883033752 0 45864208.883033752 60719117.232349396 0 0 0 0 29708643.091503143 67323296.85833168 0 67323296.85833168 98484647.59375 0 0 0 0 1959772.9962786511 2471704.5412995964 0 2471704.5412995964 3579877.9519190788 0 0 0 0 3850952.9069291689 2823657.6190919727 0 2823657.6190919727 3484164.8632032201 0 0 0 0 10544214.288161993 923302.83041834831 0 923302.83041834831 54541372.951843262 0 0 0 0 3601217.615538232 4735602.1737518162 0 4735602.1737518162 8008852.7637396455 0 0 0 0 29050970.198329926 69002591.769105911 0 69002591.769105911 88306704.16809082 0 0 0 0 13210579.92817688 22904835.521591187 0 22904835.521591187 77632103.380907059 0 0 0 0 23082734.713760376 75179785.885345459 0 75179785.885345459 53986811.060470581 0 0 0 0 31935262.72253418 33003430.708755493 0 33003430.708755493 69238412.93182373 0 0 0 0 -86521975.303771973 191372706.94184875 0 191372706.94184875 262112473.08182526 0 0 0 0 25717441.045700073 62477434.520902157 0 62477434.520902157 35977970.442752838 0 0 0 0 33666432.598007202 51002546.850097656 0 51002546.850097656 62397104.339492798 0 0 0 0 16151291.800140381 54808330.587486744 0 54808330.587486744 43998136.129169941 0 0 0 0 44592691.642959595 40952247.79258728 0 40952247.79258728 21132877.796463013 0 0 0 0 29131163.819371983 38323718.351209864 0 38323718.351209864 -6513023.0344220316 0 0 0 0 14491267.34324646 46500180.210531235 0 46500180.210531235 32289207.00753212 0 0 0 0 23053787.626094818 31492886.401364326 0 31492886.401364326 48473074.481473207 0 0 0 0 37279196.360176086 33867706.215827942 0 33867706.215827942 19303078.035720825 0 0 0 0 24785446.661078416 39147807.371116415 0 39147807.371116415 -3883551.0932653546 0 0 0 0 20581479.849975586 47735452.078973293 0 47735452.078973293 30033334.5995965 0 0 0 0 21175226.675010681 44122994.435160637 0 44122994.435160637 10259638.90217495 0 0 0 0 4782931.2251205444 33207539.798412085 0 33207539.798412085 26149098.202895164 0 0 0 0 20856253.820175171 33836260.445168257 0 33836260.445168257 -25136616.901254654 0 0 0 0 4129239.188583374 30159075.190198898 0 30159075.190198898 1920899.1702651978 0 0 0 0 10874760.401298523 47845596.356084824 0 47845596.356084824 -11308801.907587051 0 0 0 0 16526426.904975891 37069711.068486691 0 37069711.068486691 -34132032.825845718 0 0 0 0 29227444.176765442 47308841.369922638 0 47308841.369922638 19953564.164583206 0 0 0 0 3985046.399230957 37036524.107815742 0 37036524.107815742 17665152.701257229 0 0 0 0 15428455.189453125 42000418.682346344 0 42000418.682346344 2873435.030166626 0 0 0 0 16557407.785907745 48751839.100038528 0 48751839.100038528 5405354.0453300476 0 0 0 0 4113800.2168121338 33709267.639451981 0 33709267.639451981 -1542780.752910614 0 0 0 0 7372634.8946075439 42726078.949319839 0 42726078.949319839 4836896.9445343018 0 0 0 0 17915811.918991089 46969532.937476158 0 46969532.937476158 901801.1009349823 0 0 0 0 27576291.497159168 16356233.919153512 0 16356233.919153512 -8235205.3172164708 0 0 0 0 8975868.3356170654 47145709.41727066 0 47145709.41727066 33530757.059197426 0 0 0 0 10647720.880905151 34906359.952590942 0 34906359.952590942 11976725.253002167 0 0 0 0 18360256.011535645 36554507.640384674 0 36554507.640384674 32536296.865381718 0 0 0 0 19871654.331939697 34127837.886398077 0 34127837.886398077 32064557.470376194 0 0 0 0 14623127.583618164 35078359.583345532 0 35078359.583345532 52045421.846428156 0 0 0 0 7268332.9492416382 53864116.233062744 0 53864116.233062744 27352766.32543087 0 0 0 0 15043707.634674072 31638780.17355001 0 31638780.17355001 45228684.213257551 0 0 0 0 16130935.611305602 39650634.139789395 0 39650634.139789395 -7812506.3597001135 0 0 0 0 6343815.2035446167 52335259.677036285 0 52335259.677036285 24925597.859893799 0 0 0 0 18725946.256225586 41515896.880275726 0 41515896.880275726 32931899.893753052 0 0 0 0 20449855.621930219 39303022.368351452 0 39303022.368351452 -4252757.1705821883 0 0 0 0 19015579.347351074 26690089.621962547 0 26690089.621962547 45489531.780330345 0 0 0 0 19832401.812095642 39281865.736324787 0 39281865.736324787 24089937.233523369 0 0 0 0 21884216.49962616 28165341.415293217 0 28165341.415293217 28809342.149503708 0 0 0 0 12055874.842483521 28162066.195624352 0 28162066.195624352 19260689.477911472 0 0 0 0 17312706.47668457 25290000.355482101 0 25290000.355482101 -11546266.763751984 0 0 0 0 21875917.801773071 37375269.668148041 0 37375269.668148041 -1394257.70495224 0 0 0 0 11756045.416165993 21697215.433167469 0 21697215.433167469 -23470516.194316678 0 0 0 0 247723823.46105194 206046529.67048264 0 206046529.67048264 45234221.969474792 0 0 0 0 22278934.13809967 40304192.997566223 0 40304192.997566223 12267569.218295097 0 0 0 0 18975108.934700012 31360354.096582651 0 31360354.096582651 6253579.9108428955 0 0 0 0 193229711.75482178 416302757.44778061 0 416302757.44778061 139625259.2975769 0 0 0 0 13510157.746699043 23504781.766308412 0 23504781.766308412 -16032971.088738285 0 0 0 0 272558151.25946045 102638204.0924511 0 102638204.0924511 -172132496.27378082 0 0 0 0 155761910.79646301 94265573.740268707 0 94265573.740268707 77017181.418024063 0 0 0 0 85524030.61190033 65726174.748786926 0 65726174.748786926 -9966957.7250213623 0 0 0 0 129154685.5372467 19894518.707273483 0 19894518.707273483 -68775068.673667908 0 0 0 0 75149055.875411987 45378001.751792908 0 45378001.751792908 -90812185.290710449 0 0 0 0 66247380.241043091 -13961010.69234848 0 -13961010.69234848 8926051.1767272949 0 0 0 0 1229805.8559522443 1157156.1790564526 0 1157156.1790564526 -3415594.3938192576 0 0 0 0 135621605.19406128 39108299.422794342 0 39108299.422794342 -55936757.851020813 0 0 0 0 140139434.28155518 11596625.55489254 0 11596625.55489254 59270882.282104492 0 0 0 0 253166509.67837524 149688071.30599976 0 149688071.30599976 -13327341.434523463 0 0 0 0 235233982.1804657 12525067.884048462 0 12525067.884048462 -26175628.60761261 0 0 0 0 156365394.35397339 51978667.674816132 0 51978667.674816132 -104761896.66651154 0 0 0 0 203916159.04820776 69994513.900104403 0 69994513.900104403 -192377822.76210785 0 0 0 0 203883313.39614868 71640317.742721558 0 71640317.742721558 -34280154.310455322 0 0 0 0 11777709.484527588 32884053.561649323 0 32884053.561649323 -14287743.479005814 0 0 0 0 -704725.80206411332 2165132.790375825 0 2165132.790375825 -4351250.9340718547 0 0 0 0 10842793.351903535 23320069.553056102 0 23320069.553056102 -24305649.154759813 0 0 0 0 153206440.57422638 12289497.186885834 0 12289497.186885834 -42742660.531318665 0 0 0 0 17517863.985366821 40471830.835963249 0 40471830.835963249 -28414260.493700027 0 0 0 0 59049520.429786682 51157189.494443893 0 51157189.494443893 -93735505.677116394 0 0 0 0 6534236.5990659893 9153978.2117194589 0 9153978.2117194589 -12117458.893320415 0 0 0 0 4126759.9005270377 18990553.697962217 0 18990553.697962217 -8333334.1589627042 0 0 0 0 -4138400.9348754883 11414431.166763306 0 11414431.166763306 -37265818.354614258 0 0 0 0 37647550.12852478 -15527757.348320007 0 -15527757.348320007 -20717539.339172363 0 0 0 0 146574583.84643555 174987453.68834686 0 174987453.68834686 117609742.48196411 0 0 0 0 333272110.66931152 -68066531.839263916 0 -68066531.839263916 -180852057.45581055 0 0 0 0 -207710422.93341064 -97333023.448883057 0 -97333023.448883057 6086845.4445915222 0 0 0 0 1440066.0434371904 2064122.3761342922 0 2064122.3761342922 -2939115.0954641188 0 0 0 0 46232353.311126709 70825405.958652496 0 70825405.958652496 29816819.403129578 0 0 0 0 193055064.33169556 118526331.81472015 0 118526331.81472015 -23446754.629398346 0 0 0 0 178546592.73760986 103891127.56896973 0 103891127.56896973 -35620858.16998291 0 0 0 0 115760093.19298553 -26965171.355698586 0 -26965171.355698586 -39890708.047279358 0 0 0 0 208609099.34231567 94664412.175109863 0 94664412.175109863 -38069276.33681488 0 0 0 0 -19778165.954696655 15134945.733945847 0 15134945.733945847 -16670776.356006622 0 0 0 0 -5910257.4238517955 7724779.0954148099 0 7724779.0954148099 -3538426.6389054507 0 0 0 0 -26493528.087387085 37231247.341479301 0 37231247.341479301 -29225097.383293152 0 0 0 0 -34515575.715667725 14844782.564353943 0 14844782.564353943 2047712.8202133179 0 0 0 0 -34783391.634765625 385466602.31627274 0 385466602.31627274 -97881847.339141846 0 0 0 0 46970962.573150635 82293802.991506577 0 82293802.991506577 -123848833.90827942 0 0 0 0 -1930658.9588112384 3344274.9451532625 0 3344274.9451532625 -1131674.03715079 0 0 0 0 -234023263.37008667 -60509760.112915039 0 -60509760.112915039 337721610.96037292 0 0 0 0 209197817.62637699 175389447.13117036 0 175389447.13117036 47770130.050292969 0 0 0 0 345490476.22076416 191705439.63223648 0 191705439.63223648 30053091.543304443 0 0 0 0 -208058428.68493652 -76317468.899394989 0 -76317468.899394989 103337352.70924377 0 0 0 0 282696793.66802979 21678709.096008301 0 21678709.096008301 -31620257.417771339 0 0 0 0 -2348020.7522980273 2398494.5269950218 0 2398494.5269950218 -363584.42923713475 0 0 0 0 -303328076.03710938 185230702.10499573 0 185230702.10499573 273575645.09346008 0 0 0 0 272979740.7913208 560061733.66804504 0 560061733.66804504 406098073.00756454 0 0 0 0 579059217.53652954 -183733349.26967621 0 -183733349.26967621 307227213.82202673 0 0 0 0 180395843.11410522 257148133.87622452 0 257148133.87622452 336455305.82321167 0 0 0 0 2446469.8435840532 2500652.2357209623 0 2500652.2357209623 -5073647.8636136651 0 0 0 0 -65149235.534729004 99632057.857475281 0 99632057.857475281 276063456.1625824 0 0 0 0 -64334645.73109436 -18948634.79838562 0 -18948634.79838562 105977179.22375107 0 0 0 0 26460962.473400116 6546214.6201796532 0 6546214.6201796532 -8591780.7761993408 0 0 0 0 132847166.44322586 104811551.83086395 0 104811551.83086395 42128196.147232056 0 0 0 0 4569466.9653778076 -14326679.017631531 0 -14326679.017631531 14991389.401618958 0 0 0 0 18058978.341796875 -15546101.68466568 0 -15546101.68466568 -411550.59133148193 0 0 0 0 12221584.122039795 -7789068.0727539062 0 -7789068.0727539062 -9851429.9291305542 0 0 0 0 14923658.934661865 20317319.848758698 0 20317319.848758698 21412558.502385139 0 0 0 0 66943690.838104248 74769109.714382172 0 74769109.714382172 9620541.9254837036 0 0 0 0 131698422.79368591 122014004.40956116 0 122014004.40956116 -47499330.215698242 0 0 0 0 182638197.54946899 133611334.90516853 0 133611334.90516853 -27871193.858955383 0 0 0 0 136326122.95492554 109015941.59159851 0 109015941.59159851 -12079354.875595093 0 0 0 0 127701039.36540222 97163720.756736755 0 97163720.756736755 -22365520.781929016 0 0 0 0 136808939.76333618 75748890.229354858 0 75748890.229354858 -78973897.627037048 0 0 0 0 -25190107.261230469 92791080.271829128 0 92791080.271829128 27535268.631761551 0 0 0 0 62388163.751098633 85688730.547166824 0 85688730.547166824 20006312.620949745 0 0 0 0 32044216.12991333 167217323.34566712 0 167217323.34566712 91939464.014707565 0 0 0 0 81561331.508270264 94270590.936909676 0 94270590.936909676 -140273899.24175692 0 0 0 0 -24081038.358215332 107251739.57660079 0 107251739.57660079 -136422791.32485676 0 0 0 0 57912741.381134033 100106608.69933748 0 100106608.69933748 -307275757.0197084 0 0 0 0 64399043.618103027 40041962.707546234 0 40041962.707546234 -84181708.016835541 0 0 0 0 -25522844.84979248 281167290.72256625 0 281167290.72256625 -153195141.75520515 0 0 0 0 -103386328.77023315 76784310.651530743 0 76784310.651530743 -83512876.713949203 0 0 0 0 -10948979.829742432 142360658.97626591 0 142360658.97626591 56628786.162561417 0 0 0 0 77801357.087539673 111152585.32431793 0 111152585.32431793 60790869.030298233 0 0 0 0 -5134076.434906885 3854273.2944280058 0 3854273.2944280058 -1597575.1411018791 0 0 0 0 -84926257.373626709 63513136.948775291 0 63513136.948775291 -22138543.853336334 0 0 0 0 -14948361.447265625 -13685165.728386879 0 -13685165.728386879 -2209119.2708978653 0 0 0 0 -159789088.5402832 98779454.865616798 0 98779454.865616798 4274398.2635383606 0 0 0 0 -122922972.89678955 2410640.6642346382 0 2410640.6642346382 49549388.616780281 0 0 0 0 2008829.186203897 23007364.999555826 0 23007364.999555826 5510843.3413178017 0 0 0 0 -7651125.5832672119 27934812.214525223 0 27934812.214525223 -32289697.755495071 0 0 0 0 23861225.472516395 11373338.225051627 0 11373338.225051627 -16401889.327364018 0 0 0 0 140483987.2155304 264133210.36805761 0 264133210.36805761 -172890853.58301735 0 0 0 0 7451080.6405001581 19563477.321120102 0 19563477.321120102 -6381267.5258182986 0 0 0 0 410590.70829772949 16135213.84587574 0 16135213.84587574 -17308462.1360569 0 0 0 0 456860.15151977539 16885653.040943146 0 16885653.040943146 -14640184.403162956 0 0 0 0 13245469.288816094 19865803.988036498 0 19865803.988036498 -11310838.972651806 0 0 0 0 689757.79559326172 17844448.247751236 0 17844448.247751236 -16414095.092899323 0 0 0 0 683021.66262817383 17893355.137468338 0 17893355.137468338 -15240417.481590271 0 0 0 0 -439312.67751710117 14020068.90025406 0 14020068.90025406 -7459086.1670172457 0 0 0 0 -16602464.888065338 32792175.977104664 0 32792175.977104664 -22878011.55191803 0 0 0 0 4491929.078918457 15443163.211593628 0 15443163.211593628 448754.5711517334 0 0 0 0 -7397360.5839242786 11301778.370081246 0 11301778.370081246 -3571656.9178619087 0 0 0 0 73807246.632263184 -31603442.155906677 0 -31603442.155906677 -545007024.52359772 0 0 0 0 -126963026.42634583 649176873.18426514 0 649176873.18426514 566519164.66542053 0 0 0 0 804896347.98612976 -516964988.09414482 0 -516964988.09414482 -293105818.65138245 0 0 0 0 -487538709.48149109 -280583864.10725021 0 -280583864.10725021 609355368.38055801 0 0 0 0 -598041821.10540771 16702143.481281281 0 16702143.481281281 156355839.93275452 0 0 0 0 -304458.53700256348 6519574.8449211121 0 6519574.8449211121 -2291777.9142799377 0 0 0 0 -3098458.8006673902 10261075.974232756 0 10261075.974232756 -6837261.0297089815 0 0 0 0 -158321158.70684814 -37532033.872787476 0 -37532033.872787476 -203227987.16320801 0 0 0 0 -31568.597640991211 7812078.2354092598 0 7812078.2354092598 -3764028.6138458252 0 0 0 0 -14393686.051783159 8481346.5966353565 0 8481346.5966353565 -2204023.6710359324 0 0 0 0 754882.26696777344 8479471.151473999 0 8479471.151473999 -1200452.5944976807 0 0 0 0 -4116195.1498807967 19588067.962791175 0 19588067.962791175 -9116346.2680202872 0 0 0 0 2167576.9648852721 16509039.330039375 0 16509039.330039375 -7633039.3797326796 0 0 0 0 -21221770.862621702 12855929.80428848 0 12855929.80428848 -1163821.6038095541 0 0 0 0 1227693.5117034912 14877213.576324463 0 14877213.576324463 1039034.0087165833 0 0 0 0 4148885.7870788574 15124802.348545074 0 15124802.348545074 992843.18558883667 0 0 0 0 -23198282.600730151 20753407.039007924 0 20753407.039007924 -6195877.5649042986 0 0 0 0 11168973.35269165 9210377.6188774109 0 9210377.6188774109 -196412.48075771332 0 0 0 0 -4141881.2453027219 10405400.662807517 0 10405400.662807517 -5848335.2591078226 0 0 0 0 -14845552.883977294 12979665.063403204 0 12979665.063403204 -3083088.7976587303 0 0 0 0 -4428769.8957099915 10176896.052093983 0 10176896.052093983 -3203887.1750545502 0 0 0 0 6627911.4798431396 90502608.822787285 0 90502608.822787285 58293145.772452354 0 0 0 0 -3664759.9556121826 9292444.4428482056 0 9292444.4428482056 -1980322.4247550964 0 0 0 0 875054.51929105818 6168736.6457451433 0 6168736.6457451433 -3635590.5614238698 0 0 0 0 -6536953.0845832825 7530596.7001547813 0 7530596.7001547813 -414251.5493927002 0 0 0 0 -1367424.2290801108 3717052.5755261928 0 3717052.5755261928 -910353.46617204137 0 0 0 0 -15497575.874908447 90557108.272958755 0 90557108.272958755 149839723.03887081 0 0 0 0 -14601236.479919434 140961564.12523079 0 140961564.12523079 381078246.6240654 0 0 0 0 80200194.069091797 687584981.11340714 0 687584981.11340714 -1204267836.9039259 0 0 0 0 80908450.262451172 790748877.51312256 0 790748877.51312256 -918553167.32815933 0 0 0 0 -7018019.2906646729 443888974.05011129 0 443888974.05011129 -831707038.17686462 0 0 0 0 -191681929.89709473 406981094.70578766 0 406981094.70578766 -823498962.52281952 0 0 0 0 -1511138.6229639053 5449568.9753851388 0 5449568.9753851388 -2607647.6902749268 0 0 0 0 -147081850.13049316 573948081.07552719 0 573948081.07552719 -948974831.77964783 0 0 0 0 -210639491.44146729 512903323.49394989 0 512903323.49394989 -479390351.05916405 0 0 0 0 362537615.20953369 247372710.32183075 0 247372710.32183075 -664739204.12032318 0 0 0 0 1002288.2759042904 135192.39902307466 0 135192.39902307466 -841099.69192846864 0 0 0 0 -59660603.715606689 393188251.01462936 0 393188251.01462936 -403276480.94102478 0 0 0 0 -849889353.52958679 716075859.49477005 0 716075859.49477005 -465110755.4597168 0 0 0 0 -192658424.59733582 1022225436.240097 0 1022225436.240097 -804546217.61243439 0 0 0 0 -886919126.05038452 1366675394.2285728 0 1366675394.2285728 -899719899.23795033 0 0 0 0 -305195267.42745972 105111513.29770613 0 105111513.29770613 -505566577.07421684 0 0 0 0 -67406485.231765747 249860540.50114441 0 249860540.50114441 -422971081.00794601 0 0 0 0 -239924370.92546844 -12489711.37169075 0 -12489711.37169075 78976331.835525513 0 0 0 0 4444975.3077448457 6988632.4984056558 0 6988632.4984056558 -6277969.8782300726 0 0 0 0 -479987893.43864441 232237446.78382111 0 232237446.78382111 -32708278.210712433 0 0 0 0 1060145030.5835266 827223603.87496948 0 827223603.87496948 -788076717.9981575 0 0 0 0 20736065.874946594 29035467.781234741 0 29035467.781234741 -10193514.04397583 0 0 0 0 172020.58795937896 9468625.1221637912 0 9468625.1221637912 -2944507.9136543451 0 0 0 0 11666615.20274353 38159950.436254501 0 38159950.436254501 15083470.416595459 0 0 0 0 4669163.0333076566 8477112.7981840074 0 8477112.7981840074 -10414864.194632828 0 0 0 0 4091789.9268235266 7793166.16215536 0 7793166.16215536 -8918711.1188044548 0 0 0 0 154362655.24655533 -9468730.5188589096 0 -9468730.5188589096 -67468985.465019226 0 0 0 0 -901266143.96310425 1076609850.2408609 0 1076609850.2408609 -571114433.59544373 0 0 0 0 -1159355807.8719177 1019500915.8006725 0 1019500915.8006725 -583713403.61866951 0 0 0 0 -1093097139.9242096 622651642.66077995 0 622651642.66077995 384191557.70070839 0 0 0 0 -1159156382.4480896 197091376.81728745 0 197091376.81728745 -436308883.23763657 0 0 0 0 -902303298.46629333 1192585291.2722864 0 1192585291.2722864 -1041731060.1691208 0 0 0 0 269384047.73799133 1366052666.3614082 0 1366052666.3614082 -1427681295.7941532 0 0 0 0 -747265.60048624873 1895224.2741575316 0 1895224.2741575316 -2072081.3979802616 0 0 0 0 1518693499.6448669 838725253.84610176 0 838725253.84610176 -1235465807.0479517 0 0 0 0 -1440548913.302269 1287844330.5795145 0 1287844330.5795145 -95268464.435258865 0 0 0 0 -10766643.186065674 597853155.51199341 0 597853155.51199341 624417701.28281403 0 0 0 0 922796245.99783325 -92406998.105895042 0 -92406998.105895042 -242925368.31258774 0 0 0 0 765511117.97802734 546923034.95969772 0 546923034.95969772 -1175403881.3217478 0 0 0 0 210674060.57083702 561862692.73256755 0 561862692.73256755 -796008889.55511856 0 0 0 0 -90207531.535919189 167308155.42374039 0 167308155.42374039 -166813971.2102623 0 0 0 0 -126250439.82427979 29384235.867511749 0 29384235.867511749 -7655038.2838172913 0 0 0 0 915888.24132599682 1532196.5150927333 0 1532196.5150927333 -1366794.3311794754 0 0 0 0 5267615.5233776122 729495.58998633549 0 729495.58998633549 -858489.13881935924 0 0 0 0 4986898.8894042969 1573966.932800293 0 1573966.932800293 -6872336.3330001831 0 0 0 0 4724942.571105957 1874797.1666297913 0 1874797.1666297913 -5529122.5412521362 0 0 0 0 5157744.3593120575 277917.38545274734 0 277917.38545274734 -6847769.1390380859 0 0 0 0 5208995.9950408936 201400.12835693359 0 201400.12835693359 -3059168.0785675049 0 0 0 0 6092677.3228464648 -1248340.1321346592 0 -1248340.1321346592 -1805522.6358116744 0 0 0 0 5320385.0930175781 -527903.49770355225 0 -527903.49770355225 -4828430.4179649353 0 0 0 0 3634680.8556213379 -57993.562843322754 0 -57993.562843322754 -5476550.0338897705 0 0 0 0 6377287.8745188341 -328024.92883061897 0 -328024.92883061897 -2254975.6012347015 0 0 0 0 3525073.1694641113 1056982.9342041016 0 1056982.9342041016 -6343682.8007507324 0 0 0 0 2530217.3155670166 2953442.423538208 0 2953442.423538208 -9226254.4864044189 0 0 0 0 5332060.7350463867 -2056236.8246459961 0 -2056236.8246459961 -10946127.939907074 0 0 0 0 184801.56396176293 -1104.4986095316708 0 -1104.4986095316708 -49135.414916556329 0 0 0 0 353154704.93222046 8245445.3003845215 0 8245445.3003845215 -158144058.97333527 0 0 0 0 3077744.6881942749 4434504.1534004211 0 4434504.1534004211 -10209907.306800842 0 0 0 0 2979275.7060928345 3047670.6992988586 0 3047670.6992988586 -10209986.399330139 0 0 0 0 5920521.0362146497 -453039.79152332619 0 -453039.79152332619 -1377590.1882702634 0 0 0 0 3321368.2530580536 5521199.4040703252 0 5521199.4040703252 -2624147.0590684284 0 0 0 0 182562547.9871521 179024275.78857422 0 179024275.78857422 -17438145.39515686 0 0 0 0 66810869.78225708 142823963.34210587 0 142823963.34210587 273471746.45285034 0 0 0 0 -196988246.77230072 133109694.81648445 0 133109694.81648445 -63969667.554420471 0 0 0 0 -410041569.57714844 585032834.01304626 0 585032834.01304626 -809347904.0647316 0 0 0 0 2187.7386021688581 406647.95598365087 0 406647.95598365087 -149225.28679559939 0 0 0 0 159993088.62045288 244179997.91480255 0 244179997.91480255 223860382.44838715 0 0 0 0 -218569669.33611298 -258749996.37751961 0 -258749996.37751961 -797217612.45024872 0 0 0 0 441531455.27209473 130641422.99307251 0 130641422.99307251 -572660508.00292969 0 0 0 0 -327353706.46980286 71186274.301967621 0 71186274.301967621 728582300.88367939 0 0 0 0 -71539405.541992188 185480305.93380737 0 185480305.93380737 -430373170.20248413 0 0 0 0 569598.6553049013 2305479.400469467 0 2305479.400469467 -1153439.3144434988 0 0 0 0 2725078.4573342279 2020753.3543790691 0 2020753.3543790691 -289766.74691688456 0 0 0 0 -98036998.416778564 -72090996.567352295 0 -72090996.567352295 322977641.36497498 0 0 0 0 -589342476.15063477 -1057508925.3306599 0 -1057508925.3306599 137448621.10601807 0 0 0 0 665914090.74555969 111829770.57165909 0 111829770.57165909 -129690765.40957642 0 0 0 0 66799374.305389404 129058783.02580643 0 129058783.02580643 107734027.70104218 0 0 0 0 126958636.66493225 41111263.4376297 0 41111263.4376297 -32864449.124599457 0 0 0 0 247250732.8139801 105104867.30581665 0 105104867.30581665 -89347209.061248779 0 0 0 0 86319320.018188477 -15884603.940948486 0 -15884603.940948486 -97536286.86929512 0 0 0 0 114876340.89382935 56892217.172176361 0 56892217.172176361 -128881363.97528839 0 0 0 0 126014754.32174683 22680525.768848419 0 22680525.768848419 -97467450.473543167 0 0 0 0 -31659528.975891113 181060199.69438171 0 181060199.69438171 -199087846.94278717 0 0 0 0 45531941.739120483 33726065.959693909 0 33726065.959693909 -109449700.36145782 0 0 0 0 14511762.115535736 123901858.73369503 0 123901858.73369503 -151792686.29209137 0 0 0 0 88060198.186431885 34209424.439323425 0 34209424.439323425 -145640387.81526184 0 0 0 0 71611229.469894409 54197915.384204865 0 54197915.384204865 -95287029.430114746 0 0 0 0 81081000.530883789 -68893662.977642059 0 -68893662.977642059 -114462159.94996452 0 0 0 0 86505803.712562561 -4126821.6977243423 0 -4126821.6977243423 53831665.585048676 0 0 0 0 151274786.77724457 78131139.348987579 0 78131139.348987579 219021506.11077881 0 0 0 0 18761355.27239418 120682084.94254684 0 120682084.94254684 205411261.00005341 0 0 0 0 41374438.542647362 136343312.38593543 0 136343312.38593543 -349358901.12665558 0 0 0 0 -187664979.04103088 -154117857.00941849 0 -154117857.00941849 -107906932.99790192 0 0 0 0 33485831.044715881 208350883.17168999 0 208350883.17168999 64042252.550933838 0 0 0 0 -62109754.464292526 287758478.21048307 0 287758478.21048307 -1588732.9399032593 0 0 0 0 144186220.40470886 -55560605.048160553 0 -55560605.048160553 -481023934.28601456 0 0 0 0 324964627.88140869 651699111.78869629 0 651699111.78869629 604453440.60474873 0 0 0 0 423530275.00886536 448614864.98592377 0 448614864.98592377 349721978.74257851 0 0 0 0 143915207.6125412 368595888.03045201 0 368595888.03045201 631580088.31452942 0 0 0 0 175273541.89035034 103459505.44374847 0 103459505.44374847 134151850.32226562 0 0 0 0 19324575.83404541 -377160.47773742676 0 -377160.47773742676 -18523031.166023254 0 0 0 0 16253633.133026123 14004353.354232788 0 14004353.354232788 -13528868.678861618 0 0 0 0 972773.79542541504 -8187209.9359016418 0 -8187209.9359016418 -12114718.262012482 0 0 0 0 507314582.11679077 196838473.94115448 0 196838473.94115448 531746555.68877411 0 0 0 0 3196400.0052972361 1922396.812392883 0 1922396.812392883 -3244046.5278273337 0 0 0 0 685410800.03405762 545014740.56340027 0 545014740.56340027 426605174.68255615 0 0 0 0 332023576.38934326 404159163.68379211 0 404159163.68379211 516708710.61260223 0 0 0 0 602199799.14117432 620316866.30449677 0 620316866.30449677 689260967.37324524 0 0 0 0 240568.12455486506 127841.8223042544 0 127841.8223042544 -214947.50091291405 0 0 0 0 832267321.40512085 5767101.8758296967 0 5767101.8758296967 624285561.66984558 0 0 0 0 -131633009.42999268 207619154.19458008 0 207619154.19458008 68971668.450942993 0 0 0 0 398758935.72915649 830623143.30686951 0 830623143.30686951 161823017.13951111 0 0 0 0 340916058.72731018 99340711.731819153 0 99340711.731819153 87879244.095283508 0 0 0 0 565510669.19610596 577946640.1692009 0 577946640.1692009 242017711.35978699 0 0 0 0 44901585.2159729 58020005.673652649 0 58020005.673652649 103001184.59091187 0 0 0 0 59124122.747192383 72898185.629989624 0 72898185.629989624 111508190.57533264 0 0 0 0 43014964.488006592 70687106.548183441 0 70687106.548183441 119131136.83705902 0 0 0 0 56060259.498184204 68523216.191635132 0 68523216.191635132 106095990.29647827 0 0 0 0 30306012.035980225 23442704.740646362 0 23442704.740646362 345405.01989555359 0 0 0 0 7320718.8919067383 16092713.054199219 0 16092713.054199219 7878230.0188980103 0 0 0 0 6875624.8844604492 3907450.9782562256 0 3907450.9782562256 4468672.4893341064 0 0 0 0 13026018.523239136 3764162.8355903625 0 3764162.8355903625 -12719369.79284668 0 0 0 0 -37160812.272674561 41850638.444877625 0 41850638.444877625 -27630925.539417267 0 0 0 0 11327873.025131226 1036242.297908783 0 1036242.297908783 -4819897.7768478394 0 0 0 0 3886461.7819485515 3500648.4703014651 0 3500648.4703014651 -2752438.4985316806 0 0 0 0 7321577.6530838013 9760179.5241174698 0 9760179.5241174698 -5737272.1735534668 0 0 0 0 542742.42347584665 242244.7949430421 0 242244.7949430421 -124075.37757622451 0 0 0 0 -4073601.7249006815 3617541.2139390856 0 3617541.2139390856 -288126.69342797622 0 0 0 0 13564128.220833778 13533266.136782885 0 13533266.136782885 681153.73278045654 0 0 0 0 32167309.740478516 60239359.560241699 0 60239359.560241699 103708243.93418884 0 0 0 0 5742081.8230637312 4130931.2302167322 0 4130931.2302167322 -3126082.6010967642 0 0 0 0 123043975.36959839 -4729366.5864639282 0 -4729366.5864639282 -261655161.38735962 0 0 0 0 113828370.59963989 132828362.7334938 0 132828362.7334938 -141178625.275177 0 0 0 0 183760934.8616333 157787314.22379303 0 157787314.22379303 -185330169.41764832 0 0 0 0 164251887.55155945 151602248.70435333 0 151602248.70435333 -426624797.63140869 0 0 0 0 155428137.44750977 -37146411.267959595 0 -37146411.267959595 -233132404.99145508 0 0 0 0 99115645.439331055 246239410.53125 0 246239410.53125 151186888.47897339 0 0 0 0 203158469.99473572 239232842.25918198 0 239232842.25918198 7963586.9797821045 0 0 0 0 178413040.54299927 193676487.36463928 0 193676487.36463928 122571307.61976624 0 0 0 0 -59728959.559738159 72900584.39906311 0 72900584.39906311 59310542.701080322 0 0 0 0 338189964.50292969 380281887.53320312 0 380281887.53320312 301817052.90237427 0 0 0 0 314252897.90805054 408593462.52632904 0 408593462.52632904 293876616.72001648 0 0 0 0 169976703.61299133 324687693.80393219 0 324687693.80393219 252550431.90224457 0 0 0 0 266232291.92578125 292152192.69998932 0 292152192.69998932 263438477.90766907 0 0 0 0 174076766.55623627 228077349.87849808 0 228077349.87849808 527672055.24205017 0 0 0 0 178568344.47235107 358723895.31316376 0 358723895.31316376 290969485.23012543 0 0 0 0 461255226.41111755 597743491.98004913 0 597743491.98004913 369955418.96385193 0 0 0 0 89444057.66242981 616937184.14289856 0 616937184.14289856 796703112.81929207 0 0 0 0 188152563.32220459 277740525.99915314 0 277740525.99915314 117340396.38707352 0 0 0 0 79932713.677459717 360576370.20591736 0 360576370.20591736 431140038.72628784 0 0 0 0 98263657.228729248 555058861.32939148 0 555058861.32939148 470683490.41531181 0 0 0 0 269180785.55999756 592090412.7622757 0 592090412.7622757 221337694.13545036 0 0 0 0 120252476.92057037 298048487.12867546 0 298048487.12867546 185397466.90419006 0 0 0 0 102178210.94673157 392313556.97311401 0 392313556.97311401 54804975.728965759 0 0 0 0 1113598.0529294945 -587514.66877245903 0 -587514.66877245903 -140359.96535848081 0 0 0 0 -112386183.93002319 222055625.44905853 0 222055625.44905853 -57234788.126586914 0 0 0 0 4867581.5423412323 842424.11188602448 0 842424.11188602448 -2963665.1383209229 0 0 0 0 7158862.4281542376 2014355.716880721 0 2014355.716880721 -3313302.5409507845 0 0 0 0 424246.38728782535 -577624.67082629725 0 -577624.67082629725 -341163.95083532855 0 0 0 0 -143469150.39378357 -2369497.1514167786 0 -2369497.1514167786 -5226029.1199378967 0 0 0 0 129189806.35198975 189813820.32103729 0 189813820.32103729 -305405222.97940063 0 0 0 0 406777812.70484924 365721996.74416542 0 365721996.74416542 255085655.89801788 0 0 0 0 568601149.56121826 249031009.63033295 0 249031009.63033295 105244319.70178008 0 0 0 0 365129127.66342163 293912923.82862854 0 293912923.82862854 147687651.94454956 0 0 0 0 569749773.31838608 433051318.73935318 0 433051318.73935318 229523539.70120239 0 0 0 0 374421947.55802155 195905909.30593395 0 195905909.30593395 106315179.9316864 0 0 0 0 4097250.8187259808 227429.56944832299 0 227429.56944832299 -2060973.4902707916 0 0 0 0 387568.18618774414 1041039.402381897 0 1041039.402381897 -957524.1118927002 0 0 0 0 2994045.3933868408 -2553779.9630393982 0 -2553779.9630393982 -7809696.984916687 0 0 0 0 -2144932.9565734863 -898996.91418457031 0 -898996.91418457031 -713575.89093399048 0 0 0 0 6686757.4736355785 -1137939.6391345747 0 -1137939.6391345747 -2033615.6571453065 0 0 0 0 5838848.9415435791 73223.648170471191 0 73223.648170471191 -4341521.1705131531 0 0 0 0 5641900.3029098511 -47140.590879440308 0 -47140.590879440308 -5813654.0628128052 0 0 0 0 -4066193.9578094482 -4797419.377407074 0 -4797419.377407074 4611164.4068450928 0 0 0 0 22287709.436796188 -336969.8798789978 0 -336969.8798789978 -19518761.923492432 0 0 0 0 2603142.8563875444 -548282.05270863697 0 -548282.05270863697 -117779.13172788173 0 0 0 0 793376.7003182359 -207250.4233237654 0 -207250.4233237654 -34213.898027386516 0 0 0 0 -7081897.6644134521 33869337.838012695 0 33869337.838012695 -46432224.192573547 0 0 0 0 -29473394.154266357 39384890.421653748 0 39384890.421653748 -17063420.15221405 0 0 0 0 -26348485.949462891 17294017.365989685 0 17294017.365989685 -2614004.1219863892 0 0 0 0 6773180.8931884766 62210180.620788574 0 62210180.620788574 -61129867.213394165 0 0 0 0 -19156502.521560669 54267182.067670822 0 54267182.067670822 -59723753.623596191 0 0 0 0 -7957372.2880859375 26786585.124053955 0 26786585.124053955 -38929011.008491516 0 0 0 0 -16870858.840133667 45244503.935161591 0 45244503.935161591 -73239120.906867981 0 0 0 0 5292882.043150939 1470082.1637710743 0 1470082.1637710743 -1804424.3218588699 0 0 0 0 -2658701.0204925537 1829748.585357666 0 1829748.585357666 -27908011.38835907 0 0 0 0 -13241805.384490967 14291274.545257568 0 14291274.545257568 -16145090.730270386 0 0 0 0 1406339.7481079102 -4194932.6043777466 0 -4194932.6043777466 -8219795.9447212219 0 0 0 0 -6064033.3822021484 -4054491.1351013184 0 -4054491.1351013184 -2523166.9498977661 0 0 0 0 3478035.7614059448 1102149.0023391135 0 1102149.0023391135 -1000155.084424125 0 0 0 0 2659866.3362541199 9065771.3119459152 0 9065771.3119459152 -17563477.492805481 0 0 0 0 18795591.386260986 -16059953.425575256 0 -16059953.425575256 -22946575.997657776 0 0 0 0 9583573.9283752441 -5853319.5728988647 0 -5853319.5728988647 4696431.0613479614 0 0 0 0 -3328073.0248413086 58485107.12020874 0 58485107.12020874 -201549840.18832779 0 0 0 0 1859885.0951760784 601811.41717868671 0 601811.41717868671 -1122909.3450841215 0 0 0 0 39802789.765289307 -57153149.81161499 0 -57153149.81161499 19875379.031295776 0 0 0 0 -18978406.739028931 108529311.46403885 0 108529311.46403885 -155756473.457304 0 0 0 0 13483115.915992737 59906210.306377411 0 59906210.306377411 -233406798.98685455 0 0 0 0 -160634827.49449158 1238446.3231964111 0 1238446.3231964111 -206777310.51702118 0 0 0 0 -47763805.262939453 84296636.135746002 0 84296636.135746002 -138907178.60713959 0 0 0 0 3021691.5493927002 51342404.665618896 0 51342404.665618896 -195202620.22259521 0 0 0 0 9276809.9310150146 21132012.779589653 0 21132012.779589653 -111335004.82163239 0 0 0 0 -2208517.7535095215 91235232.898880005 0 91235232.898880005 -152810267.55782318 0 0 0 0 -31183803.102714539 117554395.67545509 0 117554395.67545509 -60011648.909706116 0 0 0 0 -16845771.091430664 121760871.24793625 0 121760871.24793625 -103645623.98703003 0 0 0 0 -69388111.102119446 133243727.15001678 0 133243727.15001678 -58854679.541671753 0 0 0 0 4972985.4143753052 156795134.99747849 0 156795134.99747849 -89851199.068618774 0 0 0 0 13893947.296710968 93522354.726683617 0 93522354.726683617 -61876475.296157837 0 0 0 0 23644587.942512512 105202359.14895058 0 105202359.14895058 -48126822.307441711 0 0 0 0 -13499264.204772949 153336097.67679787 0 153336097.67679787 -120378581.06903076 0 0 0 0 -119820236.09081268 214499770.79774857 0 214499770.79774857 -158150018.07877731 0 0 0 0 4194193.3919525146 -103271538.17291451 0 -103271538.17291451 -216352757.68368912 0 0 0 0 -210368011.84121704 41561732.083789825 0 41561732.083789825 37960660.230758667 0 0 0 0 -223976485.82039738 131675349.57055211 0 131675349.57055211 -6661802.4893798828 0 0 0 0 457617.87269365042 270912.76019717008 0 270912.76019717008 -1338807.5350033082 0 0 0 0 20186127.463256836 -80717414.981422424 0 -80717414.981422424 28862401.853034973 0 0 0 0 -71390916.653026581 8806720.3447465897 0 8806720.3447465897 -56086397.582138062 0 0 0 0 -51863398.038898468 55596276.605496407 0 55596276.605496407 -31919226.851768494 0 0 0 0 -46295871.669143677 60364009.836162567 0 60364009.836162567 -48448611.807331085 0 0 0 0 -46615816.33732605 98455313.787136078 0 98455313.787136078 -83641715.048667908 0 0 0 0 146296095.33615112 112682963.95624542 0 112682963.95624542 -43931608.872249603 0 0 0 0 118574852.87407684 176392376.87338257 0 176392376.87338257 59740906.569610596 0 0 0 0 302785295.4353714 140682992.26477432 0 140682992.26477432 -79341546.221054077 0 0 0 0 -75748520.374954224 62446590.304519653 0 62446590.304519653 10169608.796283722 0 0 0 0 -67148079.959716797 122428216.71306992 0 122428216.71306992 -58735141.578706741 0 0 0 0 138030664.44723511 102670353.56931305 0 102670353.56931305 -58117691.726818085 0 0 0 0 -309751395.0850296 190945571.21730423 0 190945571.21730423 22407405.586143494 0 0 0 0 -216468675.82722092 -50459957.398328781 0 -50459957.398328781 -119465.03782653809 0 0 0 0 402133113.64064789 192682918.28432083 0 192682918.28432083 -98313913.819961548 0 0 0 0 163830131.06682205 44320263.3169384 0 44320263.3169384 -90903675.885665894 0 0 0 0 321587764.46697998 89600467.284065247 0 89600467.284065247 31024596.830749512 0 0 0 0 8833375.1000724956 3498636.4098233506 0 3498636.4098233506 1423784.3840752654 0 0 0 0 239956624.47797394 160143180.5698185 0 160143180.5698185 -3884355.6419448853 0 0 0 0 186227675.21723175 38614400.495147705 0 38614400.495147705 -36612510.157493591 0 0 0 0 75363808.284683228 12877408.987442017 0 12877408.987442017 26047683.51914978 0 0 0 0 2614902.5368736573 920603.38038639724 0 920603.38038639724 269620.04712929577 0 0 0 0 31782430.430122375 80385170.423271179 0 80385170.423271179 -207638322.76921844 0 0 0 0 50589910.779289246 146498695.60568237 0 146498695.60568237 -49112122.160615921 0 0 0 0 377390800.2003479 43092853.83234787 0 43092853.83234787 -151943605.7532959 0 0 0 0 399558235.5895977 341356280.99216938 0 341356280.99216938 161540243.77983093 0 0 0 0 462767651.94484329 212739575.03957367 0 212739575.03957367 -350076420.37056732 0 0 0 0 322349710.14602661 28143782.588195801 0 28143782.588195801 -522511988.30156708 0 0 0 0 160994856.66485596 -115211572.95581818 0 -115211572.95581818 -554457703.35294342 0 0 0 0 -57421610.645874023 45563929.700080872 0 45563929.700080872 -209880536.5765996 0 0 0 0 139867685.47140503 550522625.50173187 0 550522625.50173187 1061603579.8249359 0 0 0 0 1340299.1019035429 564200.11554221436 0 564200.11554221436 -344773.32616639696 0 0 0 0 315844068.70968628 494441084.71363449 0 494441084.71363449 1007436974.3475342 0 0 0 0 237847401.66171265 364058991.19063568 0 364058991.19063568 471721142.8530426 0 0 0 0 194437092.92327881 365645087.23667908 0 365645087.23667908 1035925084.0453777 0 0 0 0 455769888.96788025 181282048.12023163 0 181282048.12023163 555107745.71456909 0 0 0 0 574997212.30209351 398467668.30772972 0 398467668.30772972 275065361.80098724 0 0 0 0 210895282.59246826 -31785807.099065781 0 -31785807.099065781 190134604.22143555 0 0 0 0 255626732.00624084 648107870.22775269 0 648107870.22775269 884914920.63046265 0 0 0 0 81068066.435287476 111964498.75093269 0 111964498.75093269 56533025.958457947 0 0 0 0 -93899458.041778564 -772885.83180618286 0 -772885.83180618286 179477350.06159401 0 0 0 0 51280545.116790771 112240443.35651016 0 112240443.35651016 376775510.31571579 0 0 0 0 57138017.569396973 99844011.659685135 0 99844011.659685135 120196201.97264099 0 0 0 0 -79248135.889404297 62261997.632896423 0 62261997.632896423 149475727.84259796 0 0 0 0 -91416324.812324524 89635110.70256424 0 89635110.70256424 94866032.11050415 0 0 0 0 -112933348.73408508 55184165.286094666 0 55184165.286094666 48695082.438568115 0 0 0 0 -136653017.1849823 16091199.610595703 0 16091199.610595703 126679060.00948715 0 0 0 0 -144698895.53820038 23991948.013050079 0 23991948.013050079 44290480.843162537 0 0 0 0 -75472698.163459778 3473501.6248893738 0 3473501.6248893738 48381267.304580688 0 0 0 0 -143667480.00868988 -103943587.44962311 0 -103943587.44962311 -37227806.614616394 0 0 0 0 -85488364.946456909 -13683145.947502136 0 -13683145.947502136 -322715605.53148651 0 0 0 0 95183720.945083618 140431301.49456024 0 140431301.49456024 -384194064.78995514 0 0 0 0 -170471962.86458588 30646457.344268799 0 30646457.344268799 39284709.026245117 0 0 0 0 -171691.56276518106 911223.85990103707 0 911223.85990103707 -186970.18596576527 0 0 0 0 2413586.7633514404 65226087.777446747 0 65226087.777446747 142548160.76828384 0 0 0 0 -56577943.754703522 120895696.88633108 0 120895696.88633108 104224274.54306793 0 0 0 0 -38130401.661636353 212747387.16624832 0 212747387.16624832 -64754836.893226624 0 0 0 0 10191323.210266113 131379708.03941345 0 131379708.03941345 -120621646.57319641 0 0 0 0 5359567.1541442871 64770603.366584778 0 64770603.366584778 -54851472.299766541 0 0 0 0 51790420.136871338 95928247.920196533 0 95928247.920196533 -350064060.59000397 0 0 0 0 172777736.13088989 172199362.00785828 0 172199362.00785828 -127794058.17547607 0 0 0 0 13213465.793121338 300135018.60459137 0 300135018.60459137 145711768.72380066 0 0 0 0 297363325.98757935 420339583.94876862 0 420339583.94876862 284250570.78385925 0 0 0 0 316077432.88318634 251123256.73412037 0 251123256.73412037 142646678.19610596 0 0 0 0 128889928.2270813 212334137.46494293 0 212334137.46494293 489083335.52099323 0 0 0 0 206998075.1897583 225929246.50587463 0 225929246.50587463 -158919632.21168518 0 0 0 0 107775527.68811035 -49134884.868377686 0 -49134884.868377686 -166486194.30109787 0 0 0 0 280804474.23095703 264642236.61539841 0 264642236.61539841 11574278.937431335 0 0 0 0 15496313.60218811 -8000811.8336029053 0 -8000811.8336029053 165173909.22862625 0 0 0 0 48632772.813140869 -230320106.18923187 0 -230320106.18923187 -715801139.51106644 0 0 0 0 70212343.818161011 129090157.50577474 0 129090157.50577474 -343255786.01641846 0 0 0 0 -617124.74899295717 3215946.2813435495 0 3215946.2813435495 -552513.86236181762 0 0 0 0 3162324.2145385742 15719679.017730713 0 15719679.017730713 -666500968.44817352 0 0 0 0 144706651.67407227 -67250086.720954895 0 -67250086.720954895 -669160250.26538086 0 0 0 0 43514019.317474365 45530756.014564514 0 45530756.014564514 43661198.401435852 0 0 0 0 -241845316.48696899 101677006.76108551 0 101677006.76108551 -283497416.17584229 0 0 0 0 -39839836.190307617 -35755684.711013794 0 -35755684.711013794 -262377313.15670776 0 0 0 0 25156.486708763987 212300.78425823338 0 212300.78425823338 45463.354155898094 0 0 0 0 -189534151.31008911 -324871075.27078247 0 -324871075.27078247 -739477286.10522461 0 0 0 0 -25176837.095947266 88843347.913589478 0 88843347.913589478 -228360068.14794922 0 0 0 0 7821501.0969238281 228783588.4402771 0 228783588.4402771 -659716068.88364601 0 0 0 0 81994203.76550293 6215761.3945922852 0 6215761.3945922852 -263832116.92598724 0 0 0 0 -71807660.519592285 326629488.58526611 0 326629488.58526611 -223924194.97122192 0 0 0 0 34110404.162202835 69911719.173371315 0 69911719.173371315 74759311.355407715 0 0 0 0 21770457.633270264 60585273.903255463 0 60585273.903255463 115779894.15844727 0 0 0 0 32345534.484939575 67552520.918708801 0 67552520.918708801 110718405.13233566 0 0 0 0 16312873.606155396 73583314.406520844 0 73583314.406520844 151279155.86281586 0 0 0 0 26674970.409561157 38960352.773788452 0 38960352.773788452 67562135.232215881 0 0 0 0 6222954.2725143433 56535811.775018692 0 56535811.775018692 116924231.86446381 0 0 0 0 37619654.035430908 63592122.087120056 0 63592122.087120056 110677897.92929077 0 0 0 0 56639460.919166565 105600373.07373047 0 105600373.07373047 110469317.10257721 0 0 0 0 45475382.789581299 101523385.29785156 0 101523385.29785156 140655524.57141113 0 0 0 0 36356700.952644348 86816557.219110489 0 86816557.219110489 117872191.97432709 0 0 0 0 48087650.011199951 77564322.880317688 0 77564322.880317688 118480557.468853 0 0 0 0 29076856.063262939 71856454.012470245 0 71856454.012470245 123048409.79830933 0 0 0 0 -32323520.612091064 124142422.21854782 0 124142422.21854782 233062238.08130074 0 0 0 0 -26838308.8099823 89557545.094036102 0 89557545.094036102 243111721.93827438 0 0 0 0 -25661839.39151001 46102003.683792114 0 46102003.683792114 215853270.07332611 0 0 0 0 32610608.695648193 81173881.908737183 0 81173881.908737183 69710364.256866455 0 0 0 0 15251200.562530518 146580759.85195923 0 146580759.85195923 2554696.1019515991 0 0 0 0 -47396865.334594727 113561945.02996445 0 113561945.02996445 125740711.18197632 0 0 0 0 -22690193.577087402 66160884.876277924 0 66160884.876277924 71875551.40486145 0 0 0 0 44269259.714675903 42443395.260864258 0 42443395.260864258 112717097.13565969 0 0 0 0 15387316.511199951 64779305.249372482 0 64779305.249372482 209467174.93947601 0 0 0 0 -8909166.3353118896 137923271.74791336 0 137923271.74791336 186166586.04826355 0 0 0 0 -6194824.9721312672 2969472.2680889405 0 2969472.2680889405 4107396.4781975038 0 0 0 0 154174431.13667512 197445412.84259224 0 197445412.84259224 94675777.356658936 0 0 0 0 93258188.993438721 161929302.24370956 0 161929302.24370956 183171787.92868423 0 0 0 0 -16620782.887789182 24221544.706697367 0 24221544.706697367 -17613465.821204051 0 0 0 0 -57383590.662384033 -4452950.1872253418 0 -4452950.1872253418 94948712.3139534 0 0 0 0 -15948918.495773315 281189085.14434814 0 281189085.14434814 286158550.05341911 0 0 0 0 131250692.5438385 325755588.41809273 0 325755588.41809273 291366596.0087738 0 0 0 0 -20637155.229692183 27165703.7670817 0 27165703.7670817 -15227439.320384299 0 0 0 0 37860505.053565979 210777540.4733429 0 210777540.4733429 392981073.39486694 0 0 0 0 149514293.89009237 238951617.23481131 0 238951617.23481131 130755671.93850708 0 0 0 0 -27115074.859634399 93866579.248012543 0 93866579.248012543 308546601.98035431 0 0 0 0 -30947242.254684448 290483100.25521088 0 290483100.25521088 116951234.56957245 0 0 0 0 148082032.73446059 271889352.19376421 0 271889352.19376421 91361572.736335754 0 0 0 0 160625922.89387703 147927462.34737206 0 147927462.34737206 125425551.15084839 0 0 0 0 198697839.88819122 203275417.33707428 0 203275417.33707428 93634818.967567444 0 0 0 0 164079487.07809448 191338647.09997559 0 191338647.09997559 140529040.67170715 0 0 0 0 250781554.2726593 291534892.28149891 0 291534892.28149891 215536863.74510193 0 0 0 0 282094264.70663357 175996896.30953503 0 175996896.30953503 71427189.300735474 0 0 0 0 110636430.73240089 149854442.54345131 0 149854442.54345131 171427490.57356262 0 0 0 0 102947107.51612854 212336801.00790787 0 212336801.00790787 423267185.35125732 0 0 0 0 50052512.558486938 70904403.956829071 0 70904403.956829071 131154959.00144958 0 0 0 0 60544891.686538696 79201571.642009735 0 79201571.642009735 120102819.79250717 0 0 0 0 114506102.40776062 -113050199.62988281 0 -113050199.62988281 156102466.32000732 0 0 0 0 -11648903.913728578 14390274.242664872 0 14390274.242664872 -16267346.837075025 0 0 0 0 56651276.95501709 87224490.647659302 0 87224490.647659302 103632180.13793945 0 0 0 0 3549714.3967362791 5982899.2091647834 0 5982899.2091647834 -8245640.9155805521 0 0 0 0 418813186.20832825 348412920.47025299 0 348412920.47025299 209352897.86203766 0 0 0 0 -475396574.39385986 -2341361.5116119385 0 -2341361.5116119385 535446203.01295471 0 0 0 0 -1626868478.6780701 159652975.55779266 0 159652975.55779266 513521800.74418831 0 0 0 0 335466903.19952393 105233061.07950211 0 105233061.07950211 396275907.10818481 0 0 0 0 -733770447.41201019 606684500.2735424 0 606684500.2735424 282763886.92410278 0 0 0 0 -2341140407.0728359 -1256623967.3151741 0 -1256623967.3151741 1023427447.1858139 0 0 0 0 792099866.88891602 137737939.86036682 0 137737939.86036682 -272577043.90286255 0 0 0 0 709165992.9614563 302653239.55502319 0 302653239.55502319 -475894953.35471296 0 0 0 0 -648618485.41880798 1084124475.4769783 0 1084124475.4769783 -385295342.83023071 0 0 0 0 -6579943.6459876969 9761884.6674308255 0 9761884.6674308255 -15770443.456167616 0 0 0 0 -690393102.86540222 1074099141.7715836 0 1074099141.7715836 -2048351926.3427963 0 0 0 0 423995039.00143051 369552462.1601944 0 369552462.1601944 290383076.13900757 0 0 0 0 426490793.71623993 380191968.27358246 0 380191968.27358246 279833429.36410522 0 0 0 0 513453858.20108414 525769841.59165955 0 525769841.59165955 477507969.24133301 0 0 0 0 369751992.42938423 717962742.49150276 0 717962742.49150276 676574201.24505615 0 0 0 0 778621129.3035202 815210654.69851685 0 815210654.69851685 609523406.03611755 0 0 0 0 1054036044.6338272 682373504.52919769 0 682373504.52919769 313833717.15795898 0 0 0 0 891325372.19874573 594495246.32830811 0 594495246.32830811 362832499.71403503 0 0 0 0 -2438625230.5913925 -747741371.63384628 0 -747741371.63384628 50523673.198669434 0 0 0 0 -1064506.7490677759 1886584.0431158766 0 1886584.0431158766 -3545336.2729555666 0 0 0 0 -3996274.2623484693 6099681.8742420301 0 6099681.8742420301 -10418913.14338325 0 0 0 0 1068763329.9234123 825687907.52667618 0 825687907.52667618 529639684.75575256 0 0 0 0 -55976074.856696606 453214082.34690571 0 453214082.34690571 917623527.51296234 0 0 0 0 -29482691.749912262 388433426.08781052 0 388433426.08781052 644291245.29831696 0 0 0 0 175495213.18128967 419940745.9765625 0 419940745.9765625 541985864.54449463 0 0 0 0 164022033.48954773 383978366.41192245 0 383978366.41192245 430867254.98769379 0 0 0 0 407526299.98980808 563852548.22357655 0 563852548.22357655 548873440.24531555 0 0 0 0 -115899716.07508469 590222460.11791992 0 590222460.11791992 813613707.97645569 0 0 0 0 100327386.01247501 551493586.78464031 0 551493586.78464031 816114250.27581787 0 0 0 0 102888641.97290802 557500445.70018005 0 557500445.70018005 598263262.64917374 0 0 0 0 -71319861.713264465 510507969.6056385 0 510507969.6056385 937344153.66732788 0 0 0 0 -357305371.18935585 700032466.57845306 0 700032466.57845306 866576797.53465271 0 0 0 0 -404645565.90669155 834122834.38113022 0 834122834.38113022 277064362.5881424 0 0 0 0 -128776352.26986694 633445109.38941574 0 633445109.38941574 422800138.88624573 0 0 0 0 -190274160.52688599 746025919.07349777 0 746025919.07349777 717851990.71914864 0 0 0 0 200599287.43481064 1007556366.919363 0 1007556366.919363 319258917.81137848 0 0 0 0 100497721.70332718 787197926.29563713 0 787197926.29563713 694256540.64697266 0 0 0 0 253401003.7146225 639337214.85069656 0 639337214.85069656 714414978.65969276 0 0 0 0 442496560.38571167 876937700.26324463 0 876937700.26324463 725264218.17055511 0 0 0 0 792637086.2651825 717687703.88419342 0 717687703.88419342 586210929.00411987 0 0 0 0 747515857.4069519 763128414.34487915 0 763128414.34487915 571217215.56594086 0 0 0 0 861144638.58464813 867487341.18746948 0 867487341.18746948 720712700.17169189 0 0 0 0 1024995657.505249 651721253.33422852 0 651721253.33422852 772935618.92410278 0 0 0 0 1335211182.1735687 478836293.01055908 0 478836293.01055908 725066664.63255501 0 0 0 0 1247583359.8698578 739583215.49720764 0 739583215.49720764 595380423.62672424 0 0 0 0 748819255.61625671 863173438.18569183 0 863173438.18569183 686767338.38621521 0 0 0 0 2139910871.9216309 798634031.4547081 0 798634031.4547081 274565555.95587158 0 0 0 0 2110969092.2601717 1580323125.8437233 0 1580323125.8437233 135412462.34281921 0 0 0 0 1279114928.1540222 1109616252.4748535 0 1109616252.4748535 274903952.96994781 0 0 0 0 1312454857.1498756 899334582.48277473 0 899334582.48277473 382447248.23512268 0 0 0 0 767325022.50356293 976443031.28599548 0 976443031.28599548 414502854.77111816 0 0 0 0 1207935708.9528351 1178417264.5734863 0 1178417264.5734863 386383959.097229 0 0 0 0 1162295980.2701111 1198929800.4534111 0 1198929800.4534111 270837645.86972046 0 0 0 0 691921846.90432739 1080127015.1997375 0 1080127015.1997375 289771464.27671432 0 0 0 0 1292231531.8321071 1771321657.6869452 0 1771321657.6869452 387092286.634552 0 0 0 0 459748344.82103729 790936249.84877014 0 790936249.84877014 55669241.630134583 0 0 0 0 322775861.23423767 799899946.08001709 0 799899946.08001709 615168363.50363922 0 0 0 0 829247055.26062393 920796765.3127327 0 920796765.3127327 290924590.83053589 0 0 0 0 372159600.5025177 854540479.2357254 0 854540479.2357254 345800564.4568882 0 0 0 0 528276752.69733429 811984401.14565086 0 811984401.14565086 -74498029.630874634 0 0 0 0 26380809.980766296 619403334.36771011 0 619403334.36771011 139128305.46243286 0 0 0 0 432734976.70358276 771225856.84373093 0 771225856.84373093 209874035.53770781 0 0 0 0 440542823.00234413 844009756.40076184 0 844009756.40076184 697931735.5951004 0 0 0 0 845863691.64707565 1388682883.0871696 0 1388682883.0871696 556705878.55989075 0 0 0 0 759664407.92572021 1067918396.4621964 0 1067918396.4621964 188869463.86481476 0 0 0 0 257134457.50115967 419343868.53418541 0 419343868.53418541 -827839602.72444916 0 0 0 0 192244121.30538177 394195567.5605526 0 394195567.5605526 218700566.32055664 0 0 0 0 -80956679.078121185 869336888.64389801 0 869336888.64389801 -1298571108.5775337 0 0 0 0 -196585929.00629425 -242886837.49449539 0 -242886837.49449539 -786118045.33813095 0 0 0 0 -1227047523.8175163 640819394.57976389 0 640819394.57976389 233244005.49443817 0 0 0 0 -67546112.474914551 701564627.35846138 0 701564627.35846138 76614167.468082428 0 0 0 0 64961482.17748642 307429560.27915478 0 307429560.27915478 106980876.28278351 0 0 0 0 28400790.42931366 576238032.12837744 0 576238032.12837744 134652634.50738525 0 0 0 0 -66421563.138809204 551366657.93221283 0 551366657.93221283 227969300.51455498 0 0 0 0 -73421787.489089966 495023944.91641998 0 495023944.91641998 249960613.94336414 0 0 0 0 -72794631.493392944 426743606.90126419 0 426743606.90126419 179150091.95092964 0 0 0 0 104025492.62353516 447538787.96575928 0 447538787.96575928 177557286.56035614 0 0 0 0 99145930.16733551 326845171.93909729 0 326845171.93909729 124610547.10196686 0 0 0 0 47970928.400314331 489560854.27301788 0 489560854.27301788 146320814.43913269 0 0 0 0 292017622.81326294 489041886.7722435 0 489041886.7722435 91691818.577255249 0 0 0 0 89775106.78678894 602506110.91927338 0 602506110.91927338 87573875.710990906 0 0 0 0 235870763.87590027 373650086.92684841 0 373650086.92684841 114367517.65110779 0 0 0 0 420442737.6053009 509271727.39022255 0 509271727.39022255 189034756.87280273 0 0 0 0 513906571.62463379 316822005.459095 0 316822005.459095 136539164.11489487 0 0 0 0 459915208.67327881 384903937.795784 0 384903937.795784 81005041.213615417 0 0 0 0 438490226.37731934 488001228.924263 0 488001228.924263 55964796.37720108 0 0 0 0 -341944663.72649693 186793829.59225941 0 186793829.59225941 94750728.260025024 0 0 0 0 156726639.73010254 613095574.01103973 0 613095574.01103973 58122766.425899506 0 0 0 0 -1435431766.6905823 243468765.87960625 0 243468765.87960625 515168994.3175087 0 0 0 0 -315175780.26872253 763623149.7590065 0 763623149.7590065 172085826.10832024 0 0 0 0 39329586.017730713 527708844.53371811 0 527708844.53371811 147224557.82068634 0 0 0 0 1871439716.1530151 566982851.47068214 0 566982851.47068214 438649158.29405594 0 0 0 0 1193412.9295769036 650758.18670492619 0 650758.18670492619 -5005661.0795060601 0 0 0 0 933421912.36222839 442811888.97014999 0 442811888.97014999 819535135.20342636 0 0 0 0 558872473.49090576 357492779.90148926 0 357492779.90148926 656813726.06941795 0 0 0 0 789415598.62808228 749741818.38244629 0 749741818.38244629 432169440.24642754 0 0 0 0 1855686191.3306885 1022217669.3121338 0 1022217669.3121338 327180589.9920826 0 0 0 0 1374881315.9164581 -44304985.473976135 0 -44304985.473976135 -239726735.69379425 0 0 0 0 23269549.763031006 1157271894.1266708 0 1157271894.1266708 503922503.37696075 0 0 0 0 44309.096693485975 3846949.2032425236 0 3846949.2032425236 -10969958.236118589 0 0 0 0 396576817.18477631 531542981.35929489 0 531542981.35929489 209331585.15507507 0 0 0 0 389679186.37390137 466832445.57645988 0 466832445.57645988 81139800.533554077 0 0 0 0 150984557.66760254 392709977.17816925 0 392709977.17816925 255386788.01848602 0 0 0 0 435418748.37073517 289632257.02906609 0 289632257.02906609 396727618.44542694 0 0 0 0 326066664.17105103 511464670.49397087 0 511464670.49397087 108138603.17549133 0 0 0 0 -4670938859.3214417 732344942.06443787 0 732344942.06443787 1910213045.8653259 0 0 0 0 -2468285831.4329758 -2234147240.099575 0 -2234147240.099575 -678179049.36413574 0 0 0 0 366610614.81196594 1679577435.8553009 0 1679577435.8553009 392055089.04127502 0 0 0 0 -940365029.22314453 -185584177.36522675 0 -185584177.36522675 -953533346.82162476 0 0 0 0 -957305.87546316162 1680905.5813989919 0 1680905.5813989919 -3799282.2685150728 0 0 0 0 999087881.65663147 573936521.49109697 0 573936521.49109697 27501276.27835083 0 0 0 0 -1995708.3522814475 4972011.2420092672 0 4972011.2420092672 -9657751.6815383285 0 0 0 0 867243744.12669373 225348275.94844437 0 225348275.94844437 48079072.125507355 0 0 0 0 273368769.38467407 463459658.84826279 0 463459658.84826279 21287033.716827393 0 0 0 0 418190039.34545898 285293957.07921219 0 285293957.07921219 179581941.72300148 0 0 0 0 601429965.86763 465334900.69171143 0 465334900.69171143 -5489246.2550048828 0 0 0 0 517872167.2348938 290397428.02693176 0 290397428.02693176 26127743.293842316 0 0 0 0 483148375.86853027 363270165.84576797 0 363270165.84576797 -123987780.73712921 0 0 0 0 290526612.6890564 272416653.4806366 0 272416653.4806366 -29685518.91753006 0 0 0 0 120773152.30377197 373755917.92002869 0 373755917.92002869 -51909320.625461578 0 0 0 0 271142404.30645752 346586518.436203 0 346586518.436203 -222929446.79594421 0 0 0 0 -168161976.75695801 454321288.93202209 0 454321288.93202209 -26656031.610332489 0 0 0 0 120759151.77532959 401655785.12207031 0 401655785.12207031 -383171177.19064331 0 0 0 0 -52214709.073074341 538028826.44203568 0 538028826.44203568 -53419311.431854248 0 0 0 0 261985904.54185867 413951008.49133205 0 413951008.49133205 -114968232.47547913 0 0 0 0 81510413.511203766 522429585.07159996 0 522429585.07159996 109163432.33280182 0 0 0 0 6034396.6376953125 421014158.65954781 0 421014158.65954781 171200358.86615753 0 0 0 0 -363702232.56413269 430897113.1336937 0 430897113.1336937 165178638.73662949 0 0 0 0 29032512.777420044 372867626.90600586 0 372867626.90600586 173694025.79484558 0 0 0 0 -58981380.892364502 454811634.48485184 0 454811634.48485184 -128286720.70804596 0 0 0 0 -155572315.59310913 373841050.78947449 0 373841050.78947449 -104010512.57168388 0 0 0 0 -293560446.8052063 552160241.58068848 0 552160241.58068848 -323568710.65097809 0 0 0 0 -235495360.1191864 358024514.52891827 0 358024514.52891827 -749831331.72683716 0 0 0 0 -406988110.46238708 347713857.91739655 0 347713857.91739655 -777400617.80673218 0 0 0 0 -924322232.27189636 -5871272.2688217163 0 -5871272.2688217163 -657002613.17163086 0 0 0 0 -70668775.627868652 71213278.699417114 0 71213278.699417114 -910365417.80227661 0 0 0 0 -46247826.310760498 150104672.36132812 0 150104672.36132812 -708557377.60344696 0 0 0 0 92971020.62487793 174392808.58180237 0 174392808.58180237 -310826035.2689991 0 0 0 0 35512510.133872986 309654827.49836349 0 309654827.49836349 -581490078.59051514 0 0 0 0 306743041.88606262 235442606.18763733 0 235442606.18763733 -323115034.93955994 0 0 0 0 107021427.13464355 231714129.02664948 0 231714129.02664948 -189638656.81873703 0 0 0 0 120380522.11385345 -1648472.473487854 0 -1648472.473487854 -240559962.62431335 0 0 0 0 130664931.99853516 37448646.908958435 0 37448646.908958435 -421760900.16337585 0 0 0 0 -25736794.461151123 -77542366.53666687 0 -77542366.53666687 -475569917.55153465 0 0 0 0 -138562863.60614014 -184137604.92654037 0 -184137604.92654037 -242248770.71692276 0 0 0 0 46322446.262390137 -97491647.666816711 0 -97491647.666816711 -209538615.40929794 0 0 0 0 7067255.9569590986 3388951.6820836626 0 3388951.6820836626 -2915090.5139089758 0 0 0 0 -150211436.32148743 -272124833.50291061 0 -272124833.50291061 -624307228.1571846 0 0 0 0 46326871.579772949 85811564.754047394 0 85811564.754047394 84589224.507209778 0 0 0 0 -275905109.14677429 71173988.919296265 0 71173988.919296265 -16337930.327453613 0 0 0 0 -678357.87555754185 4257157.3625529557 0 4257157.3625529557 -1756190.4229516499 0 0 0 0 1134270.4436990246 398443.38821908087 0 398443.38821908087 -1726361.0648042336 0 0 0 0 785138306.10960388 82128577.397964478 0 82128577.397964478 -63672035.200660706 0 0 0 0 813333969.0990181 154852959.61016464 0 154852959.61016464 -262758298.1166687 0 0 0 0 688647299.89071655 146519720.91325378 0 146519720.91325378 217511350.81536102 0 0 0 0 632529461.67706299 424113797.16321564 0 424113797.16321564 316772117.47067261 0 0 0 0 808937242.08401489 153763657.62260437 0 153763657.62260437 -165124848.82751465 0 0 0 0 673239340.30685425 254763611.62779999 0 254763611.62779999 -109045168.03504944 0 0 0 0 302773580.19519043 133325718.29350281 0 133325718.29350281 -99363045.324462891 0 0 0 0 527967091.73118591 279542187.49497032 0 279542187.49497032 -158197405.59260559 0 0 0 0 699647450.55754089 395240856.25805855 0 395240856.25805855 -54146152.820571899 0 0 0 0 566039823.92494202 194079295.99754715 0 194079295.99754715 33445999.868972778 0 0 0 0 317822597.68154907 175761745.38156891 0 175761745.38156891 -75346239.773487091 0 0 0 0 310205987.72033691 144505533.98705292 0 144505533.98705292 -170171205.36759949 0 0 0 0 -2749136.5780639648 -94234712.927589417 0 -94234712.927589417 -122842003.15600109 0 0 0 0 185579488.65618896 240358946.95210266 0 240358946.95210266 31706174.60426712 0 0 0 0 671843085.8203125 343158000.00623322 0 343158000.00623322 -127745059.22651672 0 0 0 0 689423620.40745544 550182159.13813972 0 550182159.13813972 213534440.86881256 0 0 0 0 784657401.22555542 197536593.5919342 0 197536593.5919342 -209748073.08493042 0 0 0 0 831367495.93222046 241427416.80726624 0 241427416.80726624 -285461199.77165222 0 0 0 0 1147588689.0437775 179329032.52809906 0 179329032.52809906 -496171071.26776886 0 0 0 0 1131410021.2074585 404043462.22390747 0 404043462.22390747 -281236213.43643796 0 0 0 0 806106017.75735474 92377438.770370483 0 92377438.770370483 -302961347.78527069 0 0 0 0 893362939.96760559 177404634.75528717 0 177404634.75528717 -268199332.6268158 0 0 0 0 2418168.3687525466 1276403.7262778841 0 1276403.7262778841 -960816.0993856173 0 0 0 0 273285.31265108287 1353473.6456723241 0 1353473.6456723241 -1714039.4165925756 0 0 0 0 1599764346.9738464 -59869882.254699707 0 -59869882.254699707 -422348251.60437012 0 0 0 0 -1398923059.701355 383003791.34550476 0 383003791.34550476 -372227638.81790352 0 0 0 0 -32653352.601806641 124512469.44761658 0 124512469.44761658 133802899.51712799 0 0 0 0 -149513840.81060791 238986824.6607132 0 238986824.6607132 82320866.584442139 0 0 0 0 301187966.01358795 93206679.523479462 0 93206679.523479462 -123509143.73448181 0 0 0 0 104647872.65677643 381133894.9862709 0 381133894.9862709 -542102159.5936203 0 0 0 0 -53634150.104217529 225385778.54381561 0 225385778.54381561 87638567.570743561 0 0 0 0 118146558.87817383 192816042.85728455 0 192816042.85728455 93366893.191970825 0 0 0 0 -4338051.7545784637 4482976.2546275798 0 4482976.2546275798 -2116172.1515128203 0 0 0 0 7130378.5961608887 81291561.880256653 0 81291561.880256653 144994556.5168705 0 0 0 0 31935400.09147644 166354833.14221191 0 166354833.14221191 100295282.56508827 0 0 0 0 51437786.60206604 78215440.170284271 0 78215440.170284271 124369957.19330978 0 0 0 0 23916874.46786499 16839860.437725067 0 16839860.437725067 -153774.15714263916 0 0 0 0 39778495.981941223 17885990.991947174 0 17885990.991947174 -26498308.072990417 0 0 0 0 31342171.947311401 37923940.578689575 0 37923940.578689575 4760535.5564193726 0 0 0 0 -3781990.1987015903 5221933.9734573886 0 5221933.9734573886 -4097713.4396415465 0 0 0 0 240979706.28044891 -28013294.858268738 0 -28013294.858268738 -3925310.2373380661 0 0 0 0 20758741.468849182 4705455.5391750336 0 4705455.5391750336 -2720578.2103424072 0 0 0 0 9333063.1139221191 10396969.080600739 0 10396969.080600739 10031236.566574097 0 0 0 0 8014302.0484466553 15213413.201560974 0 15213413.201560974 -1516224.0098114014 0 0 0 0 1750454.7115907669 -20884681.902047396 0 -20884681.902047396 -35015460.448028564 0 0 0 0 1546840.3775981218 1591962.1286558229 0 1591962.1286558229 -2445341.1732922234 0 0 0 0 -25602450.973449707 -24335235.831031799 0 -24335235.831031799 -32665814.125167847 0 0 0 0 94315220.43069458 38414212.721702576 0 38414212.721702576 -76113243.283290863 0 0 0 0 288755421.98149872 495162953.44620895 0 495162953.44620895 338087089.57954788 0 0 0 0 -18250301.99232769 -63443411.380156994 0 -63443411.380156994 -292623326.89073944 0 0 0 0 515709.70878619701 626385.36191918328 0 626385.36191918328 -955436.85196926072 0 0 0 0 106048811.58999634 206146098.39344025 0 206146098.39344025 388418520.45565414 0 0 0 0 147232222.4881134 53908102.248180389 0 53908102.248180389 57887031.10814929 0 0 0 0 318124336.29260254 117444142.90107346 0 117444142.90107346 56666926.569103241 0 0 0 0 2867944.346287854 6563220.6454870254 0 6563220.6454870254 -6894377.9030413106 0 0 0 0 196234587.80877686 297982146.77237129 0 297982146.77237129 -61971530.30279541 0 0 0 0 310085930.22212219 121876095.60256577 0 121876095.60256577 77915142.530853271 0 0 0 0 959029597.0218811 54810725.503210068 0 54810725.503210068 -323573385.68675041 0 0 0 0 1109554.605615329 3692111.0597922951 0 3692111.0597922951 -6178323.1089169756 0 0 0 0 -3009699275.3898621 1288017441.3308992 0 1288017441.3308992 96462591.945468903 0 0 0 0 -2697957118.9192657 493115563.24050808 0 493115563.24050808 -234170216.40318298 0 0 0 0 -408636.55668836087 307349.57118889689 0 307349.57118889689 -6424753.6669758223 0 0 0 0 -2839428360.9541245 589771395.6189909 0 589771395.6189909 117106087.83987808 0 0 0 0 1117539769.9310455 -661220906.17977905 0 -661220906.17977905 -125563292.11532593 0 0 0 0 1722935439.0762787 -500700029.23448944 0 -500700029.23448944 -378901546.28480911 0 0 0 0 586673554.82413483 97172388.812217712 0 97172388.812217712 -191802932.40710449 0 0 0 0 436299769.99755859 -97084752.761253357 0 -97084752.761253357 -401635812.75815201 0 0 0 0 309334835.54683304 341595384.55179405 0 341595384.55179405 -657082316.10099792 0 0 0 0 -336237123.09909058 701831176.51482773 0 701831176.51482773 -463347374.72240257 0 0 0 0 19841097.391052246 315200243.23933411 0 315200243.23933411 -408212587.48044014 0 0 0 0 26170091.149414062 450243680.77558899 0 450243680.77558899 -842252134.79981995 0 0 0 0 -1047500508.289093 142971336.40438843 0 142971336.40438843 -673346074.81216049 0 0 0 0 -473980133.05133057 651980122.1101532 0 651980122.1101532 -654706758.00610352 0 0 0 0 -344478212.54730225 381463159.84383392 0 381463159.84383392 -875599795.79582596 0 0 0 0 -316773709.88259888 643756054.73997498 0 643756054.73997498 -636855635.14530182 0 0 0 0 -397537.64102903754 1526347.2690350516 0 1526347.2690350516 -629388.39657559339 0 0 0 0 -82517835.169143677 579292459.33768845 0 579292459.33768845 -1117961105.3859406 0 0 0 0 -119561225.90605164 144749693.53041458 0 144749693.53041458 322623040.55574799 0 0 0 0 -127276137.51542664 737495495.43214035 0 737495495.43214035 -963219802.72373962 0 0 0 0 -33450054.542098999 480405242.90271759 0 480405242.90271759 -920167237.68972778 0 0 0 0 -223823497.44561768 449204107.69713211 0 449204107.69713211 -327430194.63331461 0 0 0 0 308512504.00734788 494619104.36629432 0 494619104.36629432 -903346333.24583435 0 0 0 0 -207178724.28991699 252562695.05582428 0 252562695.05582428 -184215275.56229401 0 0 0 0 708593097.83352661 796134565.26498032 0 796134565.26498032 215824711.02016449 0 0 0 0 -1611559.3802665621 3699798.1361549832 0 3699798.1361549832 -3398139.4869335424 0 0 0 0 1058370663.0999603 1135225543.3699284 0 1135225543.3699284 140691481.15397644 0 0 0 0 340722975.6410141 253147770.35998821 0 253147770.35998821 -94185990.251438141 0 0 0 0 233312090.37176514 281503332.30042648 0 281503332.30042648 391204347.62354565 0 0 0 0 -691376126.50737 371133200.6935215 0 371133200.6935215 395078639.08274651 0 0 0 0 -674679076.44419861 871760883.34092903 0 871760883.34092903 -641787159.44180298 0 0 0 0 -1823151972.8223877 683546421.57337761 0 683546421.57337761 243451097.30515671 0 0 0 0 -2238413624.2105255 1432994852.2978563 0 1432994852.2978563 -398644503.18192291 0 0 0 0 -1980828471.1437836 344445101.00130653 0 344445101.00130653 -201095968.63273382 0 0 0 0 -1662680489.4447784 965620594.5794239 0 965620594.5794239 405514195.85432053 0 0 0 0 -1137324417.8870773 170059563.94872093 0 170059563.94872093 68908693.092227936 0 0 0 0 -1660598237.3911133 1179990100.9749489 0 1179990100.9749489 -373992932.41585541 0 0 0 0 -3919600.180449897 1071234.6990287751 0 1071234.6990287751 1690494.465856757 0 0 0 0 -13631157.909591675 176739126.02426338 0 176739126.02426338 -343967050.4605217 0 0 0 0 -896952.15036010742 27419005.891407013 0 27419005.891407013 41427328.494548798 0 0 0 0 51603417.008513927 217623784.94647914 0 217623784.94647914 317755316.35074997 0 0 0 0 -1258644.7197590638 -25937.847615249455 0 -25937.847615249455 482944.9955451116 0 0 0 0 -718678857.09751892 383151410.92846489 0 383151410.92846489 -257950770.11140633 0 0 0 0 174611964.72593689 540156995.76518059 0 540156995.76518059 115628947.28141785 0 0 0 0 -27160858.394447327 191530422.30574751 0 191530422.30574751 661251878.87543106 0 0 0 0 36709215.016403198 -5095876.6457653046 0 -5095876.6457653046 64513796.332117081 0 0 0 0 -5600773.1094280481 4228797.5670157 0 4228797.5670157 2562467.6510903742 0 0 0 0 -656907077.5796814 638515717.32315445 0 638515717.32315445 -689437943.04503441 0 0 0 0 650844773.93269348 507557382.51796532 0 507557382.51796532 457769072.61581421 0 0 0 0 1040287534.3901062 541076367.75868416 0 541076367.75868416 306894105.02983475 0 0 0 0 -1219172553.1057892 1058980445.9241352 0 1058980445.9241352 -355592921.8030014 0 0 0 0 -1296236795.8337364 950914150.79914761 0 950914150.79914761 -319291319.1048584 0 0 0 0 -980055809.35697937 1087164206.9742451 0 1087164206.9742451 -914912121.76433563 0 0 0 0 -241547325.19744873 496893973.7856884 0 496893973.7856884 -497650944.59871674 0 0 0 0 -449716803.95663452 140655627.93322086 0 140655627.93322086 -9176046.4144592285 0 0 0 0 -7512301.8088240027 5855104.9221279174 0 5855104.9221279174 4055741.1033166377 0 0 0 0 -157362002.1204834 204097237.64717293 0 204097237.64717293 -355204339.7031002 0 0 0 0 -6094504.5546939103 5201752.4160335287 0 5201752.4160335287 7576309.6931766011 0 0 0 0 107753698.67166758 118245706.76981544 0 118245706.76981544 111584389.2068634 0 0 0 0 -413770425.53805542 539570508.88718987 0 539570508.88718987 -560974920.4075532 0 0 0 0 -13939815.318322726 771377.95209869742 0 771377.95209869742 4236105.226315815 0 0 0 0 -780179906.75897217 230702197.88696289 0 230702197.88696289 -50612111.838838577 0 0 0 0 -8409471.5065155029 353050040.92955589 0 353050040.92955589 -286493424.59560013 0 0 0 0 -812495547.58251953 -153029297.77685738 0 -153029297.77685738 43648884.814801216 0 0 0 0 250583960.6228807 -57724642.288858593 0 -57724642.288858593 -113179948.43491364 0 0 0 0 -844391403.54042053 161916489.87813377 0 161916489.87813377 191161197.77035713 0 0 0 0 -3283220.8277203217 4746947.3505162187 0 4746947.3505162187 3861001.1848493814 0 0 0 0 -1000765686.6567993 526777222.15188915 0 526777222.15188915 -290897626.85789871 0 0 0 0 -1176644042.1258392 994626489.25147057 0 994626489.25147057 -432270328.73017693 0 0 0 0 -962596638.38526917 295807837.58610535 0 295807837.58610535 40472336.174291611 0 0 0 0 -1881601214.9692001 616316048.67745781 0 616316048.67745781 -88645439.796115875 0 0 0 0 -1915735939.387619 1286845894.294817 0 1286845894.294817 -380159160.35931396 0 0 0 0 -1386861183.2835922 880799998.86564541 0 880799998.86564541 -347212105.06618881 0 0 0 0 1669709343.5925751 -33461619.438266754 0 -33461619.438266754 242520947.57784176 0 0 0 0 968028612.57498169 39715807.043121338 0 39715807.043121338 308385822.4295826 0 0 0 0 -94290125.19883728 140470869.98027611 0 140470869.98027611 105993328.65924072 0 0 0 0 225493355.59657288 146652633.34074783 0 146652633.34074783 93132793.229949951 0 0 0 0 212214325.61323547 -82616530.196832657 0 -82616530.196832657 -510198468.78303432 0 0 0 0 -470740858.20137787 326686032.89429379 0 326686032.89429379 13898351.591110229 0 0 0 0 1018520.8691110313 7848.428801741451 0 7848.428801741451 -2388348.6523443982 0 0 0 0 271309656.8611145 -334082880.05717087 0 -334082880.05717087 133998837.80311584 0 0 0 0 533698792.74819946 -126075565.4766922 0 -126075565.4766922 -585887826.79044914 0 0 0 0 586230811.77261353 71916250.724773407 0 71916250.724773407 127124390.82165527 0 0 0 0 261574460.73135376 -324305014.71166801 0 -324305014.71166801 345058658.40312195 0 0 0 0 1024911177.9163208 -363572695.37228012 0 -363572695.37228012 -250736121.31672239 0 0 0 0 1149098091.1021118 -89623907.686470032 0 -89623907.686470032 343280290.33345795 0 0 0 0 1136398907.3338337 -782175761.92161846 0 -782175761.92161846 382568959.12024689 0 0 0 0 -826309181.23703003 -913425925.80069923 0 -913425925.80069923 34778428.25033474 0 0 0 0 -3097127315.3437347 2329381647.2887783 0 2329381647.2887783 -1638323394.4347954 0 0 0 0 -5231716.9664919004 78022.168834527954 0 78022.168834527954 1159754.7257388765 0 0 0 0 -5132008893.4619751 82993640.446769714 0 82993640.446769714 642702968.03609848 0 0 0 0 -814082194.09085083 -133207544.02810287 0 -133207544.02810287 -203975799.87373447 0 0 0 0 -3545766406.9918671 126210994.3050251 0 126210994.3050251 107357304.04681778 0 0 0 0 1857019331.5243988 -612259532.35010338 0 -612259532.35010338 145320030.01782227 0 0 0 0 -2468416219.8741455 1428575425.0986767 0 1428575425.0986767 -761606742.50731277 0 0 0 0 -3061701283.0070343 2420782659.5868664 0 2420782659.5868664 -2023021549.6162186 0 0 0 0 -448894.18171133474 -474804.43680376559 0 -474804.43680376559 -3368308.8647113293 0 0 0 0 -1704477558.9658928 894423713.0514822 0 894423713.0514822 -1423992457.3726807 0 0 0 0 -147250737.93087769 -1291766747.3901215 0 -1291766747.3901215 820020386.6532191 0 0 0 0 -2035066241.2359161 7692151.75522089 0 7692151.75522089 292703318.71252823 0 0 0 0 -1757301949.4525938 587953947.39373064 0 587953947.39373064 263534188.38822556 0 0 0 0 -849782925.03523254 94448494.340322495 0 94448494.340322495 273279246.93525505 0 0 0 0 -1778642330.2715912 477918205.83475685 0 477918205.83475685 879195301.57703519 0 0 0 0 286707428.93991381 317915121.7653777 0 317915121.7653777 -12304933.931503296 0 0 0 0 -120265.78351407498 984615.13969412819 0 984615.13969412819 -2420408.2488628738 0 0 0 0 285476853.35482788 115294499.10917282 0 115294499.10917282 130596164.35627747 0 0 0 0 294956751.93919373 109735812.23918915 0 109735812.23918915 112743091.68321228 0 0 0 0 357292668.9491272 132140691.10172939 0 132140691.10172939 49367186.122512817 0 0 0 0 289624730.02191162 124495766.7476387 0 124495766.7476387 148634816.37773132 0 0 0 0 305122584.19897461 123674614.82457733 0 123674614.82457733 125908991.12500763 0 0 0 0 981193.54508143291 1031731.880335208 0 1031731.880335208 -4791159.8673820496 0 0 0 0 268956224.637146 153517107.4989624 0 153517107.4989624 156194583.46749592 0 0 0 0 260418207.81933594 205706794.34976768 0 205706794.34976768 105938326.77422333 0 0 0 0 1103314143.9736481 1372112312.5000229 0 1372112312.5000229 -1820347413.8727188 0 0 0 0 230280827.79095459 258828046.05150986 0 258828046.05150986 144299978.53507423 0 0 0 0 -58997162.272163391 277427398.84379959 0 277427398.84379959 143106313.75689697 0 0 0 0 192915686.79689026 221476784.57771683 0 221476784.57771683 125909453.89435577 0 0 0 0 328450656.98626709 185311250.17321014 0 185311250.17321014 134840380.57768059 0 0 0 0 331124456.09204102 307694042.43165207 0 307694042.43165207 116926996.33349037 0 0 0 0 265497680.44372559 244264220.98896408 0 244264220.98896408 113914661.27012634 0 0 0 0 416839951.72817993 244083136.21692657 0 244083136.21692657 108559347.87426186 0 0 0 0 308359244.83130264 169511247.36426115 0 169511247.36426115 122445283.85018921 0 0 0 0 405022247.49310303 211093391.90633774 0 211093391.90633774 140424461.05807114 0 0 0 0 349784476.59844971 155776294.27351761 0 155776294.27351761 119109709.32619476 0 0 0 0 382063415.19698334 243055994.95223236 0 243055994.95223236 133016397.2155304 0 0 0 0 550462373.15603638 282861356.07176971 0 282861356.07176971 142362260.36211014 0 0 0 0 665841350.38017273 348196356.67089844 0 348196356.67089844 254140459.19145203 0 0 0 0 499098053.243927 241782759.93009567 0 241782759.93009567 427930884.31480408 0 0 0 0 547839538.58337402 264744961.66236115 0 264744961.66236115 214184055.2793417 0 0 0 0 413369308.36659241 179419707.11433601 0 179419707.11433601 208790389.35813904 0 0 0 0 527648529.47897339 170611323.67401123 0 170611323.67401123 528232072.65774536 0 0 0 0 320725790.42074585 268285460.93022156 0 268285460.93022156 482128043.31861877 0 0 0 0 772834202.24276733 352607706.97056961 0 352607706.97056961 427481732.89715874 0 0 0 0 655015092.50563049 256161904.62635994 0 256161904.62635994 906127068.63712692 0 0 0 0 292783859.71914673 521421543.87804031 0 521421543.87804031 769887799.88678169 0 0 0 0 262308269.17321777 362407932.17368698 0 362407932.17368698 481671714.08866692 0 0 0 0 -814823037.21416092 396687330.97417188 0 396687330.97417188 1126593923.2990494 0 0 0 0 -131101234.98628235 374583562.69740295 0 374583562.69740295 526352382.25909424 0 0 0 0 286300685.00554276 384099722.89171696 0 384099722.89171696 93333742.36315155 0 0 0 0 -347240363.97850037 991330338.04048729 0 991330338.04048729 -303070255.29790783 0 0 0 0 -716639885.52126312 83920289.16481781 0 83920289.16481781 10296993.140247822 0 0 0 0 -1560459433.4402237 509612744.67341518 0 509612744.67341518 981353247.50108337 0 0 0 0 -796915329.87709045 350492256.87905312 0 350492256.87905312 986657540.23619652 0 0 0 0 -719821581.17007446 305003125.61180687 0 305003125.61180687 936803143.92229843 0 0 0 0 -1128792543.3049927 462540708.74400711 0 462540708.74400711 1075624919.9710312 0 0 0 0 -1149742121.4814987 388647367.01240253 0 388647367.01240253 879264329.29505157 0 0 0 0 -956708179.42253876 552101994.05848122 0 552101994.05848122 554090493.83714676 0 0 0 0 -1056774349.4003754 484639202.27429962 0 484639202.27429962 942906842.64970338 0 0 0 0 34230522.349632263 266206801.83086634 0 266206801.83086634 282197719.79530334 0 0 0 0 108640440.02400208 403793544.5008297 0 403793544.5008297 463869754.21234894 0 0 0 0 1433398832.871521 1035616887.9750042 0 1035616887.9750042 755524120.31215096 0 0 0 0 1917462649.4452209 178208079.42090607 0 178208079.42090607 889238054.89173126 0 0 0 0 19719268.64415741 356931096.56582832 0 356931096.56582832 1493978060.3303337 0 0 0 0 -135538022.53311157 638035011.38067055 0 638035011.38067055 1043564572.4798355 0 0 0 0 -2376616411.7136078 1210727720.8062153 0 1210727720.8062153 -122212617.3084259 0 0 0 0 -1926768647.9788494 1262423548.960526 0 1262423548.960526 -246506519.85004044 0 0 0 0 -1768424160.539711 1194652147.9485378 0 1194652147.9485378 -377337081.8809967 0 0 0 0 -2280981900.5460358 832470037.81097221 0 832470037.81097221 -206993765.1109333 0 0 0 0 -866003.91640527872 1162584.6454346813 0 1162584.6454346813 887742.67065828294 0 0 0 0 -2357353939.9289246 903296819.8517952 0 903296819.8517952 -168357610.57384109 0 0 0 0 -2010243.3154974242 3356149.0909303948 0 3356149.0909303948 2183418.8618237749 0 0 0 0 406490984.40388489 55322539.698934555 0 55322539.698934555 -58181970.779613495 0 0 0 0 981902627.78320312 762996576.46072197 0 762996576.46072197 471419306.84267616 0 0 0 0 -657114900.26234245 277939506.98990011 0 277939506.98990011 351181197.99556351 0 0 0 0 -1481994953.3303337 1121841230.0384068 0 1121841230.0384068 909141573.41858673 0 0 0 0 -1769049487.6520844 830429554.11993408 0 830429554.11993408 620176884.12274933 0 0 0 0 -1792579179.0490417 1537469017.0768547 0 1537469017.0768547 313717555.86978722 0 0 0 0 -4178212094.4161754 1004081056.9813182 0 1004081056.9813182 409174514.84337616 0 0 0 0 -2575603841.3891754 1452802632.043663 0 1452802632.043663 494055651.15094376 0 0 0 0 -2357630784.7386169 1427009235.2037592 0 1427009235.2037592 323942549.30451965 0 0 0 0 -2352503723.1111908 1438230319.4929008 0 1438230319.4929008 54463335.563793182 0 0 0 0 -2244667425.747406 1201521114.805891 0 1201521114.805891 301140568.05984879 0 0 0 0 -2560100932.3706875 1158046411.4020948 0 1158046411.4020948 369674111.97737885 0 0 0 0 -1954398482.8529205 1374446971.8538952 0 1374446971.8538952 -81370568.027301788 0 0 0 0 -38620812.862186432 28990425.041292191 0 28990425.041292191 -39643584.436088562 0 0 0 0 -2972253.9392447174 3996790.500897333 0 3996790.500897333 -2715186.9512394033 0 0 0 0 -59767666.24792099 92700050.083348274 0 92700050.083348274 -72843968.59198761 0 0 0 0 -2642398681.286171 332650224.44141722 0 332650224.44141722 36893724.381744385 0 0 0 0 -2307176747.6466064 1369786928.462265 0 1369786928.462265 -47411609.016353607 0 0 0 0 -2317947356.0731049 1382358529.597146 0 1382358529.597146 -26524035.177207947 0 0 0 0 -2197847157.5283508 1530050334.0306225 0 1530050334.0306225 -513692609.6021843 0 0 0 0 -2225588952.7334137 1649587322.5237961 0 1649587322.5237961 -38283714.748146772 0 0 0 0 -1864075578.5425339 1552434800.3200264 0 1552434800.3200264 -539410431.81284237 0 0 0 0 -2189715742.5855446 1564058326.9726548 0 1564058326.9726548 -261197440.63352966 0 0 0 0 -2473448033.0620728 1894656042.6846809 0 1894656042.6846809 -325701564.67385197 0 0 0 0 -2134091247.1736145 1765428105.8945713 0 1765428105.8945713 48855523.034210205 0 0 0 0 -2029218033.0869904 1394103263.2150841 0 1394103263.2150841 404311206.20260334 0 0 0 0 -2134157681.738528 1205550127.6680288 0 1205550127.6680288 160510302.35520172 0 0 0 0 -2876534315.1699371 1716209940.1051483 0 1716209940.1051483 -21825132.202272415 0 0 0 0 -2387673835.1660404 1611060943.9377611 0 1611060943.9377611 -440652139.73960114 0 0 0 0 -5205015244.3553925 2418798702.3195763 0 2418798702.3195763 -669448876.63251495 0 0 0 0 -11851423.526300438 2354713.6619922863 0 2354713.6619922863 2907587.7674896931 0 0 0 0 -1405650230.0618973 2509044628.6503983 0 2509044628.6503983 -3696245057.0344028 0 0 0 0 -1969393093.9346695 1823100046.4583778 0 1823100046.4583778 -1234698073.7857895 0 0 0 0 -13027042.870212093 4542704.2513709851 0 4542704.2513709851 5081330.1023831405 0 0 0 0 -11985051.017326355 6048153.8522853851 0 6048153.8522853851 -897414.78985595703 0 0 0 0 -12061741.187784106 10609645.343234599 0 10609645.343234599 2166269.1687661819 0 0 0 0 -22615604.311958313 15796999.908979416 0 15796999.908979416 14361374.000854492 0 0 0 0 -684414991.66732788 636065065.63151741 0 636065065.63151741 -1022277244.9439423 0 0 0 0 -15221128.939727783 15823919.706336975 0 15823919.706336975 10905201.161525726 0 0 0 0 -18627010.890720367 12520927.299224854 0 12520927.299224854 8165440.6920318604 0 0 0 0 -20846829.475021362 21307267.646543503 0 21307267.646543503 3490331.1008605957 0 0 0 0 -13546652.091997877 6204633.95854472 0 6204633.95854472 9717044.8659568876 0 0 0 0 1295816715.0016251 269816088.8649826 0 269816088.8649826 -343536213.93457603 0 0 0 0 1214184553.6871719 241932526.82184982 0 241932526.82184982 20494884.433027267 0 0 0 0 301002170.02101135 -12295759.977088451 0 -12295759.977088451 -26106886.651603699 0 0 0 0 -71820705.468471527 470894911.52572775 0 470894911.52572775 279846668.90589905 0 0 0 0 -2031160095.1929874 543241016.04885769 0 543241016.04885769 626499159.62641144 0 0 0 0 -1533601861.223053 753075197.9097805 0 753075197.9097805 252526312.14071655 0 0 0 0 -3081538338.9051361 432319205.45329857 0 432319205.45329857 219197342.17219925 0 0 0 0 -1649395719.5866089 333250871.65080643 0 333250871.65080643 90856716.77371645 0 0 0 0 -940616002.23318481 -115956066.81705856 0 -115956066.81705856 67269010.923297882 0 0 0 0 -1595832693.8708954 285937559.94882488 0 285937559.94882488 -435006600.17856979 0 0 0 0 -3234100696.7018433 528013656.10641861 0 528013656.10641861 -324204613.58154774 0 0 0 0 -4143917503.9790688 -642859350.90311289 0 -642859350.90311289 -1822215388.5344467 0 0 0 0 -2465002984.7949677 1535001683.3861237 0 1535001683.3861237 -4708043640.8696938 0 0 0 0 -1314953255.2163353 318499622.58904934 0 318499622.58904934 -84750560.292915344 0 0 0 0 -2440776206.4482269 1158448335.8436661 0 1158448335.8436661 -625733533.09443665 0 0 0 0 -1277352597.1693573 468499358.06100082 0 468499358.06100082 -2152541967.115448 0 0 0 0 -245171299.95458984 780684312.25292587 0 780684312.25292587 -985190023.74032021 0 0 0 0 223591308.46684265 -126165460.53739166 0 -126165460.53739166 457351133.01176453 0 0 0 0 159813802.03603363 102438760.95621681 0 102438760.95621681 -936895427.97135162 0 0 0 0 179644897.26542664 341993954.49295688 0 341993954.49295688 299854870.24586868 0 0 0 0 -1599006.4975286145 15986285.070292383 0 15986285.070292383 -7449598.85721514 0 0 0 0 1412195392.842453 626130777.57119751 0 626130777.57119751 -438422838.69420624 0 0 0 0 1225259481.1526184 1128816363.7048035 0 1128816363.7048035 834085209.10345459 0 0 0 0 23316107.29095459 26094002.089010239 0 26094002.089010239 -16746494.464019775 0 0 0 0 21193492.689311981 22299918.255918026 0 22299918.255918026 -10216021.222427368 0 0 0 0 22868084.973709106 15157640.644012451 0 15157640.644012451 -32842445.610313416 0 0 0 0 22004632.597427368 20237182.461200714 0 20237182.461200714 -22693949.357364655 0 0 0 0 28261100.921699524 22166882.789417267 0 22166882.789417267 -28078759.16872406 0 0 0 0 32770395.356056213 25176872.064548492 0 25176872.064548492 -28434154.461914062 0 0 0 0 25960997.537101746 33164579.135440826 0 33164579.135440826 -4754060.1298599243 0 0 0 0 58805522.746929169 104353763.18430901 0 104353763.18430901 -15884916.671081543 0 0 0 0 -20009681.894302368 34187553.890499115 0 34187553.890499115 3394996.6342887878 0 0 0 0 -1648573.5828865636 15019460.789186012 0 15019460.789186012 -11476120.953631088 0 0 0 0 782728.13346862793 -21157356.759418488 0 -21157356.759418488 20688387.696037292 0 0 0 0 -975815.81380708143 2576632.7541760467 0 2576632.7541760467 -1750575.9450688511 0 0 0 0 126448585.16820526 4574709.9389610291 0 4574709.9389610291 -27045551.663322449 0 0 0 0 84127955.256088257 125577957.70082092 0 125577957.70082092 -81928746.613750458 0 0 0 0 -1662827.7095132619 18399826.621711791 0 18399826.621711791 -11576124.621735569 0 0 0 0 -66632038.520019531 -43386204.117649078 0 -43386204.117649078 44249121.86648941 0 0 0 0 -9843204.2058459744 27257194.693732545 0 27257194.693732545 16771834.007218421 0 0 0 0 -11624212.819732666 77116998.581311226 0 77116998.581311226 -122080512.33997786 0 0 0 0 -104342016.74261475 43666600.772346497 0 43666600.772346497 48281614.792327881 0 0 0 0 -78408331.51550293 -17769184.455413818 0 -17769184.455413818 58674031.807743073 0 0 0 0 -83154923.418067932 63606833.524404526 0 63606833.524404526 -2370133.494354248 0 0 0 0 -13948979.60118103 45182630.375099182 0 45182630.375099182 7646908.4208755493 0 0 0 0 -82357412.902915955 39993746.900276184 0 39993746.900276184 35812049.5561409 0 0 0 0 -92336086.162445068 16743994.692070007 0 16743994.692070007 14175615.079151154 0 0 0 0 2404459.8665273711 2373289.6984860934 0 2373289.6984860934 1674507.7383658364 0 0 0 0 31701360.330078125 47755384.621040344 0 47755384.621040344 9274926.1640167236 0 0 0 0 -17303387.712352633 34483267.146238662 0 34483267.146238662 1247219.003667362 0 0 0 0 68542333.850837708 -30011610.883968353 0 -30011610.883968353 18403009.799255371 0 0 0 0 -75454892.914176941 314216624.17474365 0 314216624.17474365 231293394.05637741 0 0 0 0 -129790996.00331116 183141459.19045258 0 183141459.19045258 7771400.5791454315 0 0 0 0 200748063.25223541 273715340.55796814 0 273715340.55796814 -35423801.374450684 0 0 0 0 -13039083.767772317 41021783.138827562 0 41021783.138827562 -16995141.007129982 0 0 0 0 -130293664.03949738 103282920.25498962 0 103282920.25498962 284731983.73336792 0 0 0 0 196630669.60751343 146410380.69750977 0 146410380.69750977 -93527510.304504395 0 0 0 0 31518457.551879883 19419019.505939484 0 19419019.505939484 -29816436.647338867 0 0 0 0 54183898.678344727 5370093.014793396 0 5370093.014793396 -54644355.482116699 0 0 0 0 -542241.7173153013 11151345.98859204 0 11151345.98859204 -8914001.3998422362 0 0 0 0 17714113.113268808 16029905.134156488 0 16029905.134156488 -21742107.932155602 0 0 0 0 11633729.692295074 16241627.275514603 0 16241627.275514603 -21729655.06325531 0 0 0 0 21274175.314994812 9465648.735206604 0 9465648.735206604 -36114554.583862305 0 0 0 0 13100567.072206831 21328887.502792217 0 21328887.502792217 -38659015.968838349 0 0 0 0 192579262.17036438 170625951.89294434 0 170625951.89294434 -321700780.25091553 0 0 0 0 -116539258.43719816 234273960.32230186 0 234273960.32230186 -110465878.62298584 0 0 0 0 -121811050.20868087 352296144.55272579 0 352296144.55272579 -211532079.5637207 0 0 0 0 272190313.08396149 22707386.426177979 0 22707386.426177979 -58003273.490217209 0 0 0 0 269736581.82258606 -122265282.83363342 0 -122265282.83363342 9734031.8729248047 0 0 0 0 229722211.21609116 -44634300.250762939 0 -44634300.250762939 -128932359.89337158 0 0 0 0 456101464.92372131 -349428643.87405396 0 -349428643.87405396 -311683075.56706429 0 0 0 0 216974412.78141403 163665968.64933777 0 163665968.64933777 -417762249.46746826 0 0 0 0 528843453.34416962 -191563907.04104614 0 -191563907.04104614 -493717517.7543335 0 0 0 0 30938339.620018005 546987175.82307434 0 546987175.82307434 -815314947.57836914 0 0 0 0 30871127.636688232 474928545.35717773 0 474928545.35717773 -742058334.8742981 0 0 0 0 822984568.33300781 -158102219.06274414 0 -158102219.06274414 -1274671550.0656738 0 0 0 0 404402158.97213745 -201255815.44241333 0 -201255815.44241333 -305489219.51098633 0 0 0 0 -732406356.05625153 761145739.4299469 0 761145739.4299469 -593375293.30877686 0 0 0 0 48660935.082221985 -131698094.17399597 0 -131698094.17399597 -698197189.55480957 0 0 0 0 -774555349.3324132 188135241.92689514 0 188135241.92689514 -11445543.270202637 0 0 0 0 -2091443.4005060121 8085434.4616511259 0 8085434.4616511259 2152976.0623963475 0 0 0 0 112648338.46742249 -1913510774.6270447 0 -1913510774.6270447 -1007911689.1422882 0 0 0 0 533790367.72192383 406515808.27957153 0 406515808.27957153 -2147144284.6477051 0 0 0 0 -134670824.42533875 955477623.94067383 0 955477623.94067383 -1525587482.1766357 0 0 0 0 -451503042.17533875 340479025.91305542 0 340479025.91305542 -143088247.78955078 0 0 0 0 62135397.581481934 -38044701.444274902 0 -38044701.444274902 -145568160.91400146 0 0 0 0 268658966.01383972 553787996.50262451 0 553787996.50262451 -1186927233.3716888 0 0 0 0 165466957.29255676 393148692.0684967 0 393148692.0684967 -96975689.436309814 0 0 0 0 9957539.4123687744 128877492.29562378 0 128877492.29562378 -90243867.200126648 0 0 0 0 78130400.075443268 188111439.17789459 0 188111439.17789459 -69428489.308349609 0 0 0 0 94563295.048095703 226030211.23654175 0 226030211.23654175 -419284690.4052124 0 0 0 0 6872623.8306503296 67741450.785072327 0 67741450.785072327 -9621623.979309082 0 0 0 0 12960174.315805435 44072885.841024399 0 44072885.841024399 -25851063.587509155 0 0 0 0 53651194.69745636 74822739.371261597 0 74822739.371261597 -7973714.9759521484 0 0 0 0 9430087.8123989105 63851186.614417076 0 63851186.614417076 4811599.6135864258 0 0 0 0 -4685905.3565438576 23929226.290998418 0 23929226.290998418 6332259.0092535689 0 0 0 0 44409402.247276306 50162199.911247253 0 50162199.911247253 37918590.416465759 0 0 0 0 -397518.34126052633 2049310.5068000033 0 2049310.5068000033 6329118.4106100574 0 0 0 0 -134230339.15769958 145908275.37843323 0 145908275.37843323 70654716.758300781 0 0 0 0 -240146115.38520432 -17590927.532073975 0 -17590927.532073975 89435815.137878418 0 0 0 0 -440274901.06503296 166710258.67147827 0 166710258.67147827 88390994.915405273 0 0 0 0 -407877607.43207932 -42613748.549240112 0 -42613748.549240112 93923833.270080566 0 0 0 0 63344947.678153992 162333870.49471664 0 162333870.49471664 -32599462.899405479 0 0 0 0 -33963754.905176163 74029905.768336773 0 74029905.768336773 -9511697.1857452393 0 0 0 0 58745302.563262463 100405893.72155905 0 100405893.72155905 -23519060.523025513 0 0 0 0 34534354.737461448 64706405.883940101 0 64706405.883940101 8380900.936294876 0 0 0 0 -26043380.875105858 142803430.83377266 0 142803430.83377266 -44882442.328613281 0 0 0 0 16978852.029388405 55302214.481565788 0 55302214.481565788 13156935.589478739 0 0 0 0 75981411.277626038 148445989.00175667 0 148445989.00175667 79162551.811080933 0 0 0 0 25856373.00214386 61767098.81022644 0 61767098.81022644 -8197594.5747900009 0 0 0 0 60070823.442695618 53081469.546291351 0 53081469.546291351 77397262.044570923 0 0 0 0 2438453.519077301 62232910.819044113 0 62232910.819044113 34092289.589950562 0 0 0 0 24752211.985244751 98489206.542692184 0 98489206.542692184 45943483.630889893 0 0 0 0 -51197623.597447872 115949838.49570894 0 115949838.49570894 10982766.091430664 0 0 0 0 -53065051.965389252 100366332.6930809 0 100366332.6930809 73718752.805168152 0 0 0 0 -40624813.843074799 52069475.257722855 0 52069475.257722855 21267493.433296204 0 0 0 0 -166887615.58062363 -58150382.771577835 0 -58150382.771577835 181202222.29373074 0 0 0 0 -3905079.4281010404 2491609.7230997789 0 2491609.7230997789 9751847.3599259313 0 0 0 0 -26850936.519057147 41394987.233289078 0 41394987.233289078 -5405421.7855751775 0 0 0 0 -45712592.366439819 49759433.46282959 0 49759433.46282959 56505719.349899292 0 0 0 0 29685482.812110901 70593767.013118744 0 70593767.013118744 36309560.730064392 0 0 0 0 -26563714.91110611 84728353.966644287 0 84728353.966644287 66089034.519866943 0 0 0 0 26210731.008110426 24641520.081531554 0 24641520.081531554 -33766433.303448461 0 0 0 0 32833204.025444031 43524296.611190796 0 43524296.611190796 -5162393.3440933228 0 0 0 0 39521426.889419556 89500720.701477051 0 89500720.701477051 101632523.73887026 0 0 0 0 30791669.426784515 44397902.14250946 0 44397902.14250946 7456407.3105125427 0 0 0 0 128211564.62358093 73792328.471652985 0 73792328.471652985 101477257.42990112 0 0 0 0 2844283.1770689785 35964487.682295702 0 35964487.682295702 -21246451.320651736 0 0 0 0 5754814.3808898926 45865633.427116394 0 45865633.427116394 15570959.929504395 0 0 0 0 4183558.2073128968 20281550.209932916 0 20281550.209932916 7025816.3832305595 0 0 0 0 53604604.281005859 47032862.783737183 0 47032862.783737183 42683504.691345215 0 0 0 0 -12915137.396385193 19417069.617355347 0 19417069.617355347 51757616.688499451 0 0 0 0 -14607890.964541905 24018951.845189087 0 24018951.845189087 29800462.269746497 0 0 0 0 -6950566.1301727295 16408890.0496521 0 16408890.0496521 13306291.689941406 0 0 0 0 -20787452.693701424 37185924.096905172 0 37185924.096905172 -2083699.501037769 0 0 0 0 -9927309.1178152449 37653227.295301594 0 37653227.295301594 -10534666.095065527 0 0 0 0 -3275176.0799369272 9433427.2325420044 0 9433427.2325420044 10052430.855162693 0 0 0 0 -9437395.0663452148 42105480.554641724 0 42105480.554641724 102451088.67803955 0 0 0 0 51531002.738594055 70095533.173988342 0 70095533.173988342 95753459.32245636 0 0 0 0 1593647.7125199027 1077761.7779956833 0 1077761.7779956833 -2766346.3376358915 0 0 0 0 2047902.2260055542 100544213.36953735 0 100544213.36953735 100941212.45513153 0 0 0 0 115175126.31908798 89241558.334518433 0 89241558.334518433 -9649845.8818283081 0 0 0 0 -13980888.248161316 14186596.211631775 0 14186596.211631775 17179325.658096313 0 0 0 0 -16556288.231062647 13530389.562155541 0 13530389.562155541 38099761.669164427 0 0 0 0 -11498694.272137776 16906853.170249484 0 16906853.170249484 13610903.670617722 0 0 0 0 -4446838.382476043 25188666.424465135 0 25188666.424465135 -9516471.8684661705 0 0 0 0 -13482273.248973846 42472776.945568085 0 42472776.945568085 68937161.509147644 0 0 0 0 -8557044.9659118652 26520579.023271561 0 26520579.023271561 34081710.986011505 0 0 0 0 -8309244.9227466583 20820445.505127013 0 20820445.505127013 -111251012.65309238 0 0 0 0 28676743.863845825 120813827.25047112 0 120813827.25047112 24069001.097045898 0 0 0 0 118794266.52139282 96072513.27444458 0 96072513.27444458 4376734.2476730347 0 0 0 0 -35869742.25920105 -4577802.7408885956 0 -4577802.7408885956 -78720768.119811058 0 0 0 0 29751251.660861969 5756683.4885107279 0 5756683.4885107279 -105293033.72316599 0 0 0 0 4914517.069190979 -30294751.093635559 0 -30294751.093635559 220660759.54881668 0 0 0 0 93109002.506843567 120286054.93898392 0 120286054.93898392 -45300574.246955872 0 0 0 0 21440151.963726044 -45180924.875953674 0 -45180924.875953674 27823355.282029152 0 0 0 0 117386559.38370061 121354287.88154972 0 121354287.88154972 -6367355.7808685303 0 0 0 0 2269258.6700040698 11390820.394669021 0 11390820.394669021 -15724021.58197918 0 0 0 0 43938882.50378418 -52650983.438747406 0 -52650983.438747406 -188700221.61714935 0 0 0 0 -67856358.696174622 -169724839.43744469 0 -169724839.43744469 -104437776.59543228 0 0 0 0 55140673.708599091 -112256663.504632 0 -112256663.504632 -58815.007442474365 0 0 0 0 171714183.6382637 15890728.796507359 0 15890728.796507359 -67875709.472608566 0 0 0 0 53621919.16809082 -59731776.866184235 0 -59731776.866184235 -85159357.506784439 0 0 0 0 -240580944.33962631 109468373.82559586 0 109468373.82559586 208098374.3059082 0 0 0 0 -36166388.179349035 34511855.668795303 0 34511855.668795303 -12840504.167850774 0 0 0 0 82062521.581507206 316232229.35579634 0 316232229.35579634 153912918.07300186 0 0 0 0 -33699879.45190239 82472735.779072762 0 82472735.779072762 61034466.297691345 0 0 0 0 -108562352.98732758 -37268266.508991241 0 -37268266.508991241 5315410.1483631134 0 0 0 0 333363.0540264314 1373145.4779615905 0 1373145.4779615905 1652074.644482471 0 0 0 0 214535012.30279922 277114165.67976665 0 277114165.67976665 -255135122.03513336 0 0 0 0 -223528743.3923912 -64543793.133647919 0 -64543793.133647919 104017833.66002274 0 0 0 0 -196041956.19625092 5772377.406829834 0 5772377.406829834 144353172.51040268 0 0 0 0 -97288334.986790895 58457230.513379574 0 58457230.513379574 104084420.86154175 0 0 0 0 -303638731.21131134 151359126.40870714 0 151359126.40870714 98948231.671165466 0 0 0 0 -354146790.52210045 722834.81887245178 0 722834.81887245178 204250862.99925995 0 0 0 0 -661555916.92703629 77815268.08531189 0 77815268.08531189 112790242.69022369 0 0 0 0 -377675303.35060692 -30852825.813112259 0 -30852825.813112259 -126458720.39082718 0 0 0 0 3154724.4488031045 4602198.625328429 0 4602198.625328429 -12241494.880431555 0 0 0 0 -207840483.14343643 123502492.32464981 0 123502492.32464981 13307096.277420044 0 0 0 0 -132149179.99726868 -202725507.78370667 0 -202725507.78370667 277253208.30621338 0 0 0 0 -171362853.84907389 -60693098.002873659 0 -60693098.002873659 -59757951.633201599 0 0 0 0 2047734.9246546403 828664.00285106665 0 828664.00285106665 -5398723.7193487585 0 0 0 0 -1259429105.7878399 -1542126.224691391 0 -1542126.224691391 -100149671.06627655 0 0 0 0 164257761.56742859 -38948269.053276062 0 -38948269.053276062 160598843.9316687 0 0 0 0 78230725.311141968 74347191.637685776 0 74347191.637685776 11423800.918933868 0 0 0 0 -223548224.83304596 -185293534.21646881 0 -185293534.21646881 18686312.141475677 0 0 0 0 -167499653.91545105 24845044.583757401 0 24845044.583757401 -7361488.7354660034 0 0 0 0 33665609.375179291 -97590351.657468319 0 -97590351.657468319 8223387.8759994507 0 0 0 0 -1826711.5897979736 69937717.553266525 0 69937717.553266525 112162629.2454071 0 0 0 0 -15245846.902770996 -68348690.078464508 0 -68348690.078464508 -108855711.7979126 0 0 0 0 410247375.64421082 359588090.55472183 0 359588090.55472183 -34441066.165237427 0 0 0 0 408981563.28826773 558045104.12784338 0 558045104.12784338 391354943.13671875 0 0 0 0 76526826.648849487 16023817.379938126 0 16023817.379938126 107971060.47223663 0 0 0 0 292835097.04391479 207607076.09228897 0 207607076.09228897 157836558.52506083 0 0 0 0 306574088.4658432 115688637.60045815 0 115688637.60045815 382361897.71218109 0 0 0 0 887992064.35798645 650695252.93740463 0 650695252.93740463 394154807.8897934 0 0 0 0 449401155.21759033 353040171.37755966 0 353040171.37755966 669874871.3695507 0 0 0 0 567346681.94351959 287243718.86982727 0 287243718.86982727 290691271.17492676 0 0 0 0 303087085.972229 76309511.098234177 0 76309511.098234177 299065858.07774079 0 0 0 0 287340829.21661377 345444856.06077766 0 345444856.06077766 485825015.1462326 0 0 0 0 668385843.16993713 448475718.12834358 0 448475718.12834358 409258818.78972244 0 0 0 0 464986765.65600586 254777323.55900192 0 254777323.55900192 199509183.4201622 0 0 0 0 353488125.44668579 103992387.15604401 0 103992387.15604401 98327310.705188751 0 0 0 0 299329191.8276825 148716997.59752941 0 148716997.59752941 107875546.72128296 0 0 0 0 -215171439.17584229 188217057.85255432 0 188217057.85255432 671362957.43367863 0 0 0 0 107624172.48379517 72287238.278757095 0 72287238.278757095 85387429.731876373 0 0 0 0 189360129.8140564 199222679.81918335 0 199222679.81918335 342394792.61914825 0 0 0 0 256385690.0942688 334536346.4989872 0 334536346.4989872 394243542.11981583 0 0 0 0 315859889.63842773 714702342.84993744 0 714702342.84993744 842998214.95770073 0 0 0 0 -87891106.759796143 327158171.33950043 0 327158171.33950043 726493751.44102478 0 0 0 0 -840055515.24151611 416684408.35626602 0 416684408.35626602 1265208666.9828987 0 0 0 0 -35296545.172668457 422058764.3618803 0 422058764.3618803 783963163.89563751 0 0 0 0 -102952778.9359436 1101777857.1898918 0 1101777857.1898918 1795532987.9653778 0 0 0 0 -477325911.4074707 1725064647.5653 0 1725064647.5653 1262864718.3046761 0 0 0 0 397235837.84958649 1635568800.5747108 0 1635568800.5747108 1180138665.4109802 0 0 0 0 2166577176.4421139 1789741570.1921535 0 1789741570.1921535 645123645.02639008 0 0 0 0 1243450216.8007202 866600444.52603149 0 866600444.52603149 584670508.21448898 0 0 0 0 294327513.16139221 675438608.43647766 0 675438608.43647766 776731730.1754303 0 0 0 0 777831986.33747864 841363313.61467743 0 841363313.61467743 892993449.9305191 0 0 0 0 -838276493.67969513 1387083991.7537842 0 1387083991.7537842 443297199.7156601 0 0 0 0 1142110912.1872406 1510082711.5160713 0 1510082711.5160713 -444753005.34361267 0 0 0 0 348859442.8046875 638340034.49135399 0 638340034.49135399 927622708.06367493 0 0 0 0 783974639.99179077 835652198.59259033 0 835652198.59259033 1013651094.4585686 0 0 0 0 2193718358.4421387 -152428607.24842834 0 -152428607.24842834 24859260.645015717 0 0 0 0 -535179696.82391357 2219584717.0930176 0 2219584717.0930176 2891200059.7114868 0 0 0 0 642839533.87432861 498757676.24103165 0 498757676.24103165 431529794.60887146 0 0 0 0 447019021.49336243 314188825.6607666 0 314188825.6607666 252305105.27120972 0 0 0 0 151612397.79656982 619238686.63615608 0 619238686.63615608 218952274.36473083 0 0 0 0 501927484.05563354 332868119.3057251 0 332868119.3057251 285990380.39389801 0 0 0 0 613181721.17855835 671227141.18718719 0 671227141.18718719 130087766.34757996 0 0 0 0 845619804.3631897 757269086.09226227 0 757269086.09226227 978401462.53738022 0 0 0 0 700620466.5958252 691054069.35980225 0 691054069.35980225 804260018.8210907 0 0 0 0 539369050.61947632 349685288.85669708 0 349685288.85669708 368179601.47503662 0 0 0 0 688074276.22644043 469140699.36160278 0 469140699.36160278 1127746802.3174362 0 0 0 0 615921164.08241653 312892967.28499413 0 312892967.28499413 749760290.52258301 0 0 0 0 668968748.88733673 556608861.33002377 0 556608861.33002377 714116654.97079468 0 0 0 0 562468701.88638306 295136897.53721237 0 295136897.53721237 508615009.50780487 0 0 0 0 1188704901.38871 1249583382.8779507 0 1249583382.8779507 788706936.36686707 0 0 0 0 666287263.92681885 492592510.85872269 0 492592510.85872269 799850147.9894371 0 0 0 0 1364756141.625 1049566050.784687 0 1049566050.784687 1015435749.7647858 0 0 0 0 578225765.46815491 851005460.48267174 0 851005460.48267174 1895145144.0213013 0 0 0 0 1506081670.1141815 1643247454.0630779 0 1643247454.0630779 1276553943.4251938 0 0 0 0 -1046760.1572798435 -698919.72615603358 0 -698919.72615603358 4033170.3415329382 0 0 0 0 1665092809.3179779 2297390591.2796764 0 2297390591.2796764 2206661112.2155914 0 0 0 0 -1347108915.3492889 -302139130.73731804 0 -302139130.73731804 1154697923.9155941 0 0 0 0 -929485464.20800781 525793731.66786194 0 525793731.66786194 2695737995.5277033 0 0 0 0 647919164.14950562 375858009.46934128 0 375858009.46934128 3005318608.1509628 0 0 0 0 -378512276.92860413 -173656068.45449257 0 -173656068.45449257 -83697497.895782471 0 0 0 0 -6557717.1706449725 2494777.9320361838 0 2494777.9320361838 13738753.097931717 0 0 0 0 -136321610.77786255 287858792.04749393 0 287858792.04749393 -122388168.46918106 0 0 0 0 -432503590.64431 142297316.72337246 0 142297316.72337246 -14453204.650353432 0 0 0 0 95474255.734436035 407346481.82235718 0 407346481.82235718 1348914172.5130987 0 0 0 0 1469739251.5974808 1217280865.8727531 0 1217280865.8727531 749631524.91791534 0 0 0 0 -2791707.3249460906 3622080.0791724212 0 3622080.0791724212 2780546.9399062078 0 0 0 0 1749277682.1165333 -96117561.583302021 0 -96117561.583302021 -27481703.613513947 0 0 0 0 891089784.02909851 -106006207.2579565 0 -106006207.2579565 55496601.129650116 0 0 0 0 -121187128.80578232 146051820.35714328 0 146051820.35714328 -46085535.120690346 0 0 0 0 -16147522.055074096 18279408.072871886 0 18279408.072871886 20445832.556398105 0 0 0 0 14102428.997550964 76849950.646615028 0 76849950.646615028 -106550082.76556683 0 0 0 0 -61678197.471466064 223488929.62053728 0 223488929.62053728 -70847306.35216713 0 0 0 0 53675326.631439209 73044628.689411402 0 73044628.689411402 -121853847.59124957 0 0 0 0 13271671.236877441 32549630.126462817 0 32549630.126462817 -126894012.28111863 0 0 0 0 159959005.67346191 21427849.611962318 0 21427849.611962318 -127943520.38673258 0 0 0 0 102962835.22714233 121009311.42033052 0 121009311.42033052 -94283846.448582649 0 0 0 0 194607799.27905273 -41925182.982414246 0 -41925182.982414246 29591544.024180412 0 0 0 0 248152466.56356049 166054764.51458097 0 166054764.51458097 66510006.133804321 0 0 0 0 197403712.72067261 53354804.020502567 0 53354804.020502567 -62700849.111159325 0 0 0 0 108629401.30952454 271049137.22541428 0 271049137.22541428 50505599.895135283 0 0 0 0 -53848841.068695068 125505712.85979962 0 125505712.85979962 -60735370.03553772 0 0 0 0 -274925423.91845322 1814274665.0829864 0 1814274665.0829864 -123614691.64421463 0 0 0 0 52093592.121398926 1535004179.7589664 0 1535004179.7589664 -927263472.64614487 0 0 0 0 -3440857.959487915 2192984961.1541872 0 2192984961.1541872 -1371132602.0035973 0 0 0 0 -177797672.29040527 1419990746.1468887 0 1419990746.1468887 -602647253.07387161 0 0 0 0 241612844.29356384 1989148473.1785889 0 1989148473.1785889 -217034133.86904144 0 0 0 0 -483088121.95594788 1844879265.339735 0 1844879265.339735 982126581.20761871 0 0 0 0 2101835.8287200928 2000864663.8399773 0 2000864663.8399773 1606185572.3700409 0 0 0 0 -552264827.68939209 1438152982.4550285 0 1438152982.4550285 -69523455.336221218 0 0 0 0 -253272791.14067841 1180282721.2287083 0 1180282721.2287083 36430180.642913818 0 0 0 0 281356903.28500366 1219171346.439621 0 1219171346.439621 -452850267.84357262 0 0 0 0 -238324873.0607605 1145935986.7796783 0 1145935986.7796783 -381428696.07743835 0 0 0 0 312179402.98817253 949616482.96966302 0 949616482.96966302 -633909643.82277298 0 0 0 0 641932508.84552002 951320827.41505051 0 951320827.41505051 -817043272.27476025 0 0 0 0 70898796.606445312 1396310438.1125107 0 1396310438.1125107 -597197655.21195221 0 0 0 0 394974026.71697998 67972911.076831818 0 67972911.076831818 -1936800697.4395485 0 0 0 0 371586123.80070496 1432900724.6622171 0 1432900724.6622171 -1665532805.0467415 0 0 0 0 501252399.44821167 518716497.92405701 0 518716497.92405701 -675863519.23274565 0 0 0 0 1141386337.9374466 1403303136.8337288 0 1403303136.8337288 -783255421.01822662 0 0 0 0 470744442.11489105 1503066621.3732033 0 1503066621.3732033 1109404905.5210495 0 0 0 0 301940386.41101074 324670485.23980713 0 324670485.23980713 -568083932.26973724 0 0 0 0 816982299.92695618 686282144.90670204 0 686282144.90670204 -683491217.33145905 0 0 0 0 213192053.28912354 -60697667.207107544 0 -60697667.207107544 -1104779568.3400674 0 0 0 0 601146558.81347656 519590599.30900097 0 519590599.30900097 -1072310794.6898842 0 0 0 0 206188588.96731567 2997375.2584733963 0 2997375.2584733963 -1243882610.6163635 0 0 0 0 199406929.89979553 1055841.3556137085 0 1055841.3556137085 -1243798261.5985146 0 0 0 0 149137231.53192139 1530947555.0655499 0 1530947555.0655499 -928635521.31494331 0 0 0 0 401459170.69005966 1590595523.590138 0 1590595523.590138 -3388602550.9739037 0 0 0 0 -67762.513340108548 23389784.817378029 0 23389784.817378029 -4897474.6047286987 0 0 0 0 -262935058.06918335 -1234838896.356329 0 -1234838896.356329 -4390949164.9447851 0 0 0 0 -1514057.2417477816 2110082.3271663524 0 2110082.3271663524 -1916756.0321992598 0 0 0 0 36876001.203643799 65153808.614345074 0 65153808.614345074 36483708.864931107 0 0 0 0 -173248594.34112549 -506979827.85719681 0 -506979827.85719681 -1096269980.7255058 0 0 0 0 -4512371.4428384155 6621288.4011262506 0 6621288.4011262506 -4457196.4863816891 0 0 0 0 38793039.870410204 -27876258.114398763 0 -27876258.114398763 -30722822.707307816 0 0 0 0 -24360487.2215271 16088703.949848175 0 16088703.949848175 14339831.937895775 0 0 0 0 420675.94358825684 48758107.292804003 0 48758107.292804003 72353528.040271997 0 0 0 0 105460560.21604919 185932813.83734846 0 185932813.83734846 245063265.73914051 0 0 0 0 156421037.84561157 -30341162.836720467 0 -30341162.836720467 1652483.2939486504 0 0 0 0 -51987091.331085205 -42086185.141405821 0 -42086185.141405821 91628503.818741798 0 0 0 0 423844838.68256187 133843672.77444556 0 133843672.77444556 -98991158.246575356 0 0 0 0 1430637.9764439315 1212903.7363948412 0 1212903.7363948412 -1549261.9616076911 0 0 0 0 28676052.765472412 -214225051.68551886 0 -214225051.68551886 -72983114.675247639 0 0 0 0 1765684029.0821533 1526765099.8436244 0 1526765099.8436244 156472432.05979228 0 0 0 0 499989398.97555542 552973151.59198833 0 552973151.59198833 282127970.41046554 0 0 0 0 211702.4261932373 393742849.82341909 0 393742849.82341909 1511278941.2625697 0 0 0 0 111077525.572052 611232985.80801868 0 611232985.80801868 540818670.39410734 0 0 0 0 3698007.8721313477 120542582.15943325 0 120542582.15943325 -307680129.51203912 0 0 0 0 -7406247.9008483887 -656242.14476662874 0 -656242.14476662874 -75494341.313632369 0 0 0 0 -225192131.23460388 118481044.66457236 0 118481044.66457236 46507901.709343195 0 0 0 0 3116653.8820800781 -288196996.83896005 0 -288196996.83896005 -235474666.46973085 0 0 0 0 -62585629.445510864 -56435826.61015594 0 -56435826.61015594 148066854.95596194 0 0 0 0 -91843221.240955353 58595467.640288115 0 58595467.640288115 -2004234.2217025757 0 0 0 0 1861369.2728995979 4617949.1777929366 0 4617949.1777929366 -2796736.1759035387 0 0 0 0 -27639516.087356567 109857935.70940022 0 109857935.70940022 66852999.098784208 0 0 0 0 -27129661.451873779 -274772.22265732288 0 -274772.22265732288 14588631.099217653 0 0 0 0 -3040770.5652726889 247806.58930107206 0 247806.58930107206 3751611.5379279628 0 0 0 0 -10914920.620692253 -2473133.5083384514 0 -2473133.5083384514 -161660016.83932495 0 0 0 0 -6934068.6816481352 9803241.424730964 0 9803241.424730964 5055000.6463183649 0 0 0 0 -11019741.292755127 163708842.8171463 0 163708842.8171463 -369125774.63500977 0 0 0 0 -40341206.903320312 -26976795.643490791 0 -26976795.643490791 10163054.617335916 0 0 0 0 -11238450.200534821 -10418299.078907311 0 -10418299.078907311 -331668494.61447525 0 0 0 0 -8255753.0874930471 11761460.738998242 0 11761460.738998242 -4083214.2631475832 0 0 0 0 33673552.204833984 -110753645.30664062 0 -110753645.30664062 -343649276.64190578 0 0 0 0 216467739.89692688 139761720.2675209 0 139761720.2675209 -400676551.76369476 0 0 0 0 147048730.35284424 -14056415.095911026 0 -14056415.095911026 -709391569.75535583 0 0 0 0 444075260.97242737 234060846.69420624 0 234060846.69420624 -743266600.86449051 0 0 0 0 299273068.04180908 346589538.17740631 0 346589538.17740631 -509068974.63102531 0 0 0 0 176016313.82131958 228335007.76725006 0 228335007.76725006 -529773235.42513084 0 0 0 0 -360539427.15393066 382492936.05426407 0 382492936.05426407 -228141193.40600204 0 0 0 0 -436952834.86689758 383523266.62774849 0 383523266.62774849 -222974290.28588867 0 0 0 0 -2752682.9835598916 1195942.4598212503 0 1195942.4598212503 2431666.2537610531 0 0 0 0 214338971.48529053 391349915.96479797 0 391349915.96479797 -400438116.48674774 0 0 0 0 2507084156.8898163 429522698.79946518 0 429522698.79946518 -2761516.0701408386 0 0 0 0 1059361789.7772522 30573503.440486908 0 30573503.440486908 576400599.0840168 0 0 0 0 242887679.01278687 1301751340.0676918 0 1301751340.0676918 628799791.71819592 0 0 0 0 -251620.35542692244 2298060.39996209 0 2298060.39996209 -451759.52387196943 0 0 0 0 -11099023.335281372 -18995975.119684219 0 -18995975.119684219 398638588.49032593 0 0 0 0 1363563171.0258484 1031917181.8149815 0 1031917181.8149815 848500950.83641052 0 0 0 0 1347278862.5723267 500560673.23388481 0 500560673.23388481 16049674.098449707 0 0 0 0 -3977352.2607460022 28888023.559720337 0 28888023.559720337 6771803.5993027687 0 0 0 0 -5800981.7241844535 15132852.027550213 0 15132852.027550213 -10531951.193122575 0 0 0 0 -11084815.32333374 170109887.93802643 0 170109887.93802643 -178809991.00091743 0 0 0 0 -8404086.2966087013 8718450.002998475 0 8718450.002998475 5592238.9459808087 0 0 0 0 -5414178.2014808655 21513773.427383035 0 21513773.427383035 2347109.7347912788 0 0 0 0 -15534408.880432129 16337023.372990847 0 16337023.372990847 4738327.0203441978 0 0 0 0 -16333486.215881348 20523485.566583157 0 20523485.566583157 10112672.650979996 0 0 0 0 -21892671.586509705 18307860.559515417 0 18307860.559515417 9796116.8834171295 0 0 0 0 15639803.266967773 46418363.151429176 0 46418363.151429176 -6738921.3199870586 0 0 0 0 -17196302.451416016 21443410.936902225 0 21443410.936902225 9774868.6756460965 0 0 0 0 -11040511.558235168 24836265.029400647 0 24836265.029400647 11057318.307327986 0 0 0 0 -1653037.6427230835 18874054.240474552 0 18874054.240474552 -5406009.8420168161 0 0 0 0 -23896144.046508789 62387966.379625775 0 62387966.379625775 -9328096.3348913193 0 0 0 0 10651990.095245361 32719430.926921189 0 32719430.926921189 -106351231.61492786 0 0 0 0 1141616791.0716705 1082950170.682725 0 1082950170.682725 896787072.87283897 0 0 0 0 844724611.28726196 1244202089.4373102 0 1244202089.4373102 844101894.52050781 0 0 0 0 -6173853.1932807639 14384415.502828233 0 14384415.502828233 -7775895.3229686795 0 0 0 0 25296856.526702881 25807374.137028813 0 25807374.137028813 -33498820.405812301 0 0 0 0 -6285607.3618446216 14495406.114931818 0 14495406.114931818 -10071012.374116607 0 0 0 0 1630726924.5885925 1245897119.8249454 0 1245897119.8249454 377466625.71944809 0 0 0 0 1514628096.0740967 883405303.80751848 0 883405303.80751848 48773527.597427368 0 0 0 0 909027312.99713135 938651100.65185738 0 938651100.65185738 -264880754.66527176 0 0 0 0 1108074207.5251465 615180985.66191864 0 615180985.66191864 258020868.68147087 0 0 0 0 1495667472.1228638 775496070.71170425 0 775496070.71170425 388599235.86997563 0 0 0 0 1239425563.5441933 1052458366.8289032 0 1052458366.8289032 112675209.0650177 0 0 0 0 878239602.36399841 537241933.51287842 0 537241933.51287842 323928202.82395554 0 0 0 0 1051157599.2528381 483615446.67024231 0 483615446.67024231 35709261.923796177 0 0 0 0 725937883.07080078 50204294.548026562 0 50204294.548026562 -281177115.6422348 0 0 0 0 611256908.46444702 217932793.23970413 0 217932793.23970413 -522463998.01945162 0 0 0 0 1016761624.1738739 92201837.981921196 0 92201837.981921196 -529312024.41189957 0 0 0 0 693519798.07194519 1158117235.8064442 0 1158117235.8064442 850954440.33634949 0 0 0 0 711744746.4746933 -537275114.95764828 0 -537275114.95764828 -1679443482.4013062 0 0 0 0 1897736.9327167869 624545.19071683893 0 624545.19071683893 -505729.89285408938 0 0 0 0 106564716.05358124 -26081286.201961517 0 -26081286.201961517 -320377889.18748093 0 0 0 0 1166116190.2720642 195825949.76878929 0 195825949.76878929 -432535358.51233673 0 0 0 0 2172225060.892395 1112292595.456418 0 1112292595.456418 -304590867.56535339 0 0 0 0 559375840.83859253 706381472.43854523 0 706381472.43854523 -398274123.43881989 0 0 0 0 609181287.8553772 1016091198.267868 0 1016091198.267868 -308628515.32916451 0 0 0 0 220100268.89045715 764293448.32278061 0 764293448.32278061 3918457.2917633057 0 0 0 0 658703337.50436401 1062387755.8943634 0 1062387755.8943634 -269496232.53411865 0 0 0 0 427675831.41967773 729851309.82382965 0 729851309.82382965 -123790673.96762085 0 0 0 0 750778928.94560242 878660019.29195213 0 878660019.29195213 -669331036.15348053 0 0 0 0 3475874.0426123738 1532988.0633756649 0 1532988.0633756649 -1119801.636311355 0 0 0 0 584029550.99913025 358409617.92973518 0 358409617.92973518 -1250460245.100029 0 0 0 0 330045459.9649353 462124816.12378502 0 462124816.12378502 -794186865.60339642 0 0 0 0 300593389.75682068 289522275.16081047 0 289522275.16081047 -2077633915.3491726 0 0 0 0 1593799.532961458 952805.49169838335 0 952805.49169838335 -594830.64812991442 0 0 0 0 98621006.841690063 665706079.55001688 0 665706079.55001688 -245549607.05099487 0 0 0 0 582236818.43225098 1110376977.9608212 0 1110376977.9608212 -29916034.65404129 0 0 0 0 814526518.79234886 734023687.8989048 0 734023687.8989048 130918934.72751617 0 0 0 0 862237974.08453369 891095911.7581749 0 891095911.7581749 -128772485.65930367 0 0 0 0 1325393505.1992493 887188383.77625656 0 887188383.77625656 176646174.079319 0 0 0 0 243668518.96332932 718879628.27003098 0 718879628.27003098 441900669.1109848 0 0 0 0 304028696.56196594 495530303.33085823 0 495530303.33085823 366270458.73669434 0 0 0 0 919821057.10598755 369222075.1779995 0 369222075.1779995 71802870.334358215 0 0 0 0 643825703.98042297 792860311.4241333 0 792860311.4241333 124869788.40418625 0 0 0 0 630095168.31433105 695669301.28499794 0 695669301.28499794 481618017.64591408 0 0 0 0 741870069.13415527 793995776.68565369 0 793995776.68565369 538463230.81716061 0 0 0 0 217361946.29692841 898739969.5073061 0 898739969.5073061 527833137.79808426 0 0 0 0 64490531.700126648 737876432.21352673 0 737876432.21352673 408828194.64228821 0 0 0 0 437556244.32575226 778782498.85150146 0 778782498.85150146 257372067.77679443 0 0 0 0 -146694320.48794556 1002506116.0128231 0 1002506116.0128231 -161584284.23106003 0 0 0 0 254277435.28079224 592360200.42635441 0 592360200.42635441 100286436.77777481 0 0 0 0 -294401346.46941566 1625886125.9078705 0 1625886125.9078705 -499239089.51004028 0 0 0 0 -400145640.38977051 896755172.23762536 0 896755172.23762536 -205034689.87532806 0 0 0 0 -323712990.56608582 1077110153.622324 0 1077110153.622324 -418028190.65019035 0 0 0 0 -548587787.6184082 448895416.23839378 0 448895416.23839378 -209333602.11039352 0 0 0 0 350091421.6729126 415002972.03750134 0 415002972.03750134 -284047179.30766678 0 0 0 0 289025341.38169861 498487236.3758049 0 498487236.3758049 136703047.20116234 0 0 0 0 342847499.75395203 -73109659.569092751 0 -73109659.569092751 -632028434.23823547 0 0 0 0 -102777280.54244232 589817238.42232323 0 589817238.42232323 -517718323.31624603 0 0 0 0 4163453.8293228149 715538317.33903289 0 715538317.33903289 -1909867793.1130142 0 0 0 0 -1129640685.3585205 131194629.10506439 0 131194629.10506439 -604693139.6058197 0 0 0 0 22514729.608123779 875944549.58055687 0 875944549.58055687 -680996439.96834922 0 0 0 0 962847127.25120544 1371947908.8895359 0 1371947908.8895359 -616326290.03041744 0 0 0 0 535096875.13386917 371172369.26934385 0 371172369.26934385 -300882808.93300247 0 0 0 0 -1361385835.3375244 657783461.72397423 0 657783461.72397423 -1029987491.5432758 0 0 0 0 -953896995.94387817 2317996503.3757553 0 2317996503.3757553 -1850404043.5073853 0 0 0 0 -285836296.57818604 1605052964.4209785 0 1605052964.4209785 -1094385350.3934288 0 0 0 0 -881800751.11534691 2695952950.989686 0 2695952950.989686 -205029635.70731354 0 0 0 0 -324692909.79338837 1519195832.1913447 0 1519195832.1913447 623690426.38568497 0 0 0 0 -2708529.6530914307 2902255029.757494 0 2902255029.757494 367407535.69732285 0 0 0 0 3402465.0785348713 6880988.705103945 0 6880988.705103945 -715295.69807851687 0 0 0 0 -375015892.24337769 -64525566.161226273 0 -64525566.161226273 167005657.72924328 0 0 0 0 -53402041.595352173 123373533.0786972 0 123373533.0786972 83614230.909191132 0 0 0 0 -1012113.7284056693 539678.8440589793 0 539678.8440589793 351880.00117007084 0 0 0 0 -1024676005.2142658 1386325235.1743066 0 1386325235.1743066 -136376066.72235107 0 0 0 0 -3555160679.1304932 1771761756.9658318 0 1771761756.9658318 -135955026.24208832 0 0 0 0 -3193042086.4003601 1221472593.6832314 0 1221472593.6832314 -1007806304.5564575 0 0 0 0 -5470495203.193841 2255267862.8525763 0 2255267862.8525763 -293868084.15778351 0 0 0 0 1130432.6738741226 2599888.1530182883 0 2599888.1530182883 -4693126.8029735833 0 0 0 0 -1874477457.5406494 2273594742.1386814 0 2273594742.1386814 -4642452236.6713753 0 0 0 0 -66845835.255489588 -334581345.74345267 0 -334581345.74345267 -1583438327.2801552 0 0 0 0 -116032796.78533936 1473435975.0130119 0 1473435975.0130119 -2396253669.6851807 0 0 0 0 -1617543764.7771988 2165376203.638957 0 2165376203.638957 -1215726436.5998611 0 0 0 0 -2697165769.8509903 574820625.7923193 0 574820625.7923193 -908504188.93126678 0 0 0 0 -1240567524.870224 1207086458.371172 0 1207086458.371172 -664030037.37792587 0 0 0 0 -1047620227.697135 917934323.64952886 0 917934323.64952886 -424915945.09937668 0 0 0 0 -925291098.40826893 1842644337.0430326 0 1842644337.0430326 -632734964.36650467 0 0 0 0 -575513816.20970154 1597094209.5437508 0 1597094209.5437508 -465931206.07167625 0 0 0 0 -730281304.73669434 1808647430.9184799 0 1808647430.9184799 -636032814.28294182 0 0 0 0 -918015738.40065002 1442796727.846096 0 1442796727.846096 19385804.086561203 0 0 0 0 -333742455.83882904 1327386835.5015392 0 1327386835.5015392 -862932001.446064 0 0 0 0 -121756350.16527176 849292826.7658987 0 849292826.7658987 -234474988.88078308 0 0 0 0 -569702352.52958679 1635155530.2702408 0 1635155530.2702408 -949253617.61518669 0 0 0 0 -232812547.01409912 910400643.13482285 0 910400643.13482285 -631151313.83436775 0 0 0 0 687619.30088225007 4416389.8523141444 0 4416389.8523141444 747664.77733928524 0 0 0 0 -871008426.94628906 620795109.32978249 0 620795109.32978249 -281019561.34466934 0 0 0 0 -879435265.16155624 624115262.17857599 0 624115262.17857599 -169830438.85687256 0 0 0 0 -774085876.23535538 380553205.60691023 0 380553205.60691023 -19641999.165710449 0 0 0 0 -132456969.79849243 196868828.78693533 0 196868828.78693533 -79280838.763713837 0 0 0 0 -959515522.36808777 678692769.30908203 0 678692769.30908203 351147172.99721718 0 0 0 0 -918217465.15499878 767893001.86569786 0 767893001.86569786 -7375553.7741575241 0 0 0 0 223445164.8510437 225162852.84093571 0 225162852.84093571 7561655.7642936707 0 0 0 0 -1233432538.5881805 1037537894.5495758 0 1037537894.5495758 331115107.89280367 0 0 0 0 1129222491.0366001 917518217.12829876 0 917518217.12829876 770935062.64600754 0 0 0 0 -982950.06241939217 1879218.7883055769 0 1879218.7883055769 -1216047.9307934605 0 0 0 0 -1732408242.0525208 663905658.48938751 0 663905658.48938751 1734291832.788887 0 0 0 0 72185.83215662837 1622100.0380731896 0 1622100.0380731896 482887.20999796875 0 0 0 0 -866477660.02996826 1713101878.8684502 0 1713101878.8684502 -1511441499.6466885 0 0 0 0 -1604254045.6108704 963782632.86359406 0 963782632.86359406 3900015672.339035 0 0 0 0 -1740467274.2445526 2365258246.9662361 0 2365258246.9662361 -947036895.22619629 0 0 0 0 -1092820446.9288635 1548273845.1520309 0 1548273845.1520309 2937035851.6600189 0 0 0 0 -1094520514.1700439 2452074494.6270294 0 2452074494.6270294 -3151386750.0250969 0 0 0 0 -2262398560.4866943 -360527066.06556702 0 -360527066.06556702 3047307772.5335894 0 0 0 0 988985281.43411255 -69392961.002796173 0 -69392961.002796173 1374978393.088295 0 0 0 0 -2368350.0270801485 1841670.4428780563 0 1841670.4428780563 992947.29076248966 0 0 0 0 -1133338226.2833023 1137325038.5609751 0 1137325038.5609751 -409151214.80413055 0 0 0 0 -1706020919.8164062 1848419541.5727921 0 1848419541.5727921 -1126838176.7841988 0 0 0 0 -700807797.4949913 952169418.70124674 0 952169418.70124674 -1713135403.0830307 0 0 0 0 -1610034649.5429688 1347910764.28759 0 1347910764.28759 -426861847.00947189 0 0 0 0 -1586406623.8659458 1400842803.7381635 0 1400842803.7381635 -628757318.23820877 0 0 0 0 -913342991.20437622 1837766611.8170013 0 1837766611.8170013 -358226844.10617828 0 0 0 0 -497753313.74998474 1565374468.9956379 0 1565374468.9956379 -596285939.74213314 0 0 0 0 -540967460.27035522 1803264142.4577522 0 1803264142.4577522 -710981007.12779236 0 0 0 0 -599051813.94924927 1599543278.07724 0 1599543278.07724 -469803403.98060989 0 0 0 0 558000400.4801178 1364834869.8336792 0 1364834869.8336792 -481816101.65583515 0 0 0 0 -547772083.98995972 1531511587.8181362 0 1531511587.8181362 -307614788.24757576 0 0 0 0 -1687231367.614563 1455024376.4963932 0 1455024376.4963932 -86851243.192840576 0 0 0 0 -523472931.87612152 2133818782.3041458 0 2133818782.3041458 133217317.69571495 0 0 0 0 2575637797.0165405 1908346260.768919 0 1908346260.768919 149621201.11603141 0 0 0 0 -2082185.899042815 2422799.7428542972 0 2422799.7428542972 -747855.18589424714 0 0 0 0 -2835185814.4663849 1865643781.8698349 0 1865643781.8698349 -469725509.69689918 0 0 0 0 -2073544692.0616684 1136140734.6806841 0 1136140734.6806841 -340330920.30487061 0 0 0 0 -1837021372.9308929 1206191139.3077316 0 1206191139.3077316 -370609360.02142334 0 0 0 0 -1700354274.0920029 1461887719.054812 0 1461887719.054812 -550320706.45570374 0 0 0 0 -1609653492.8212128 1346643738.9442787 0 1346643738.9442787 -430345498.98506546 0 0 0 0 -2026035787.7456818 490659087.43497467 0 490659087.43497467 -1732256.6556854248 0 0 0 0 -1799878542.5733643 1375801716.9171677 0 1375801716.9171677 -249913322.46463203 0 0 0 0 -1914158497.1040211 1228176142.8812311 0 1228176142.8812311 -400779367.43723297 0 0 0 0 -4495054373.7475281 -82672125.062585831 0 -82672125.062585831 -29399475.394790649 0 0 0 0 473559235.10952759 1073092795.3033361 0 1073092795.3033361 1183288829.4753761 0 0 0 0 1820665441.0258713 1491332216.8460197 0 1491332216.8460197 878386417.13671875 0 0 0 0 -5831327.3267878518 6295400.0793990232 0 6295400.0793990232 -182613.58053218946 0 0 0 0 -1293166547.1402359 -197139303.31905222 0 -197139303.31905222 -336281097.13503265 0 0 0 0 -1194887417.6798859 19117310.145242691 0 19117310.145242691 -32843529.558723807 0 0 0 0 -688106593.03099632 -118844724.01722622 0 -118844724.01722622 -391670632.98626709 0 0 0 0 -861439646.72294998 477264304.42419767 0 477264304.42419767 464145611.87676239 0 0 0 0 -265791310.99987793 517448695.35695648 0 517448695.35695648 157811337.70454025 0 0 0 0 -469765768.37718964 522946713.99050236 0 522946713.99050236 1009933166.5511818 0 0 0 0 -742089098.52558136 142170657.94993877 0 142170657.94993877 1621942479.8172684 0 0 0 0 -587751906.03991699 -169477812.7167902 0 -169477812.7167902 2032111874.0344086 0 0 0 0 -697004244.23461533 406848404.88197136 0 406848404.88197136 410093863.84345245 0 0 0 0 -864317557.83001709 66124860.247409821 0 66124860.247409821 887742996.03907394 0 0 0 0 -599069500.81973267 60634640.542175293 0 60634640.542175293 863396832.78483391 0 0 0 0 -788034574.00862122 174350567.69197083 0 174350567.69197083 1217358721.5062027 0 0 0 0 -594777459.18103027 410244707.6670742 0 410244707.6670742 851231769.19006348 0 0 0 0 -555792838.45347595 61663371.062728882 0 61663371.062728882 775656584.45473099 0 0 0 0 83282449.260421753 600168611.51735306 0 600168611.51735306 168685661.32240295 0 0 0 0 -1355279100.5204468 807080235.492733 0 807080235.492733 321917261.22657776 0 0 0 0 -638915373.28461456 505760868.84641266 0 505760868.84641266 -35474106.541687012 0 0 0 0 -1060434521.0632629 1403858724.2838478 0 1403858724.2838478 75600123.052417755 0 0 0 0 -1981869300.7330151 1224243335.2103527 0 1224243335.2103527 107178904.86320114 0 0 0 0 -2233795679.1455011 1391177409.2457507 0 1391177409.2457507 644907668.48163605 0 0 0 0 -469261913.74972534 1870068714.278738 0 1870068714.278738 439886107.57713699 0 0 0 0 418510318.92596436 262926000.54804993 0 262926000.54804993 460244634.35025787 0 0 0 0 100937600.51782227 395227826.47986984 0 395227826.47986984 1275189563.2667332 0 0 0 0 -4477188.7767349333 1380102.1174424551 0 1380102.1174424551 2642998.3160414174 0 0 0 0 830038006.28059387 647941126.41501617 0 647941126.41501617 149305345.21611786 0 0 0 0 -1276724.014254652 1565058.2932307199 0 1565058.2932307199 789926.96448754892 0 0 0 0 -99939309.451080322 778452210.03530884 0 778452210.03530884 1784563141.2891026 0 0 0 0 -104779714.5355072 -102024689.95445633 0 -102024689.95445633 1382042647.0289001 0 0 0 0 -383396967.59931946 234094157.40755844 0 234094157.40755844 744943941.87122345 0 0 0 0 52859488.195144653 364704988.37751257 0 364704988.37751257 661915250.15174866 0 0 0 0 8713136.7966461182 122198267.65185165 0 122198267.65185165 100927650.14134216 0 0 0 0 -13096760.317733765 18524225.383850098 0 18524225.383850098 -479053.97821807861 0 0 0 0 -7559627.2463814616 12981941.598767985 0 12981941.598767985 -4544388.4310968481 0 0 0 0 83097134.44152832 -13311942.589578629 0 -13311942.589578629 131369756.34738427 0 0 0 0 -12013013.382235982 4880675.7054825425 0 4880675.7054825425 7329343.386058975 0 0 0 0 -11679055.668762207 13331612.670940399 0 13331612.670940399 426558.0464963913 0 0 0 0 -5912825.2421569824 19477194.528604507 0 19477194.528604507 6672575.4377326965 0 0 0 0 6500770.7559509277 -11182348.602754593 0 -11182348.602754593 84302276.68806839 0 0 0 0 -8230648.4635333866 13579853.587686483 0 13579853.587686483 -4413175.6172443405 0 0 0 0 -6208260.3471374512 16002174.569133759 0 16002174.569133759 6226965.4130849838 0 0 0 0 -4711359.4045538902 19415435.655028462 0 19415435.655028462 11898467.734390259 0 0 0 0 -15431683.473869324 16532947.649736404 0 16532947.649736404 17744483.155445099 0 0 0 0 -6123669.4048475921 10498486.465348862 0 10498486.465348862 15679670.201710302 0 0 0 0 -1246058406.4117508 81737282.140739441 0 81737282.140739441 -293845968.83512878 0 0 0 0 -1027628761.4677277 -229370236.22350502 0 -229370236.22350502 -63621263.557098389 0 0 0 0 -35893700.09538269 57009306.492139816 0 57009306.492139816 -12622816.677436829 0 0 0 0 -10911170.311977059 16332553.124173135 0 16332553.124173135 -71667.67332238704 0 0 0 0 -4770982.2327218056 18321506.740807652 0 18321506.740807652 10556533.633293152 0 0 0 0 49163631.792205811 39480785.226211548 0 39480785.226211548 -26677027.58502388 0 0 0 0 -2607560.3315142542 6689896.0220895484 0 6689896.0220895484 11682027.505255632 0 0 0 0 -2187811326.4177742 383528362.83013916 0 383528362.83013916 1028035667.7667313 0 0 0 0 38697759.791656494 5107059.7911643982 0 5107059.7911643982 88794542.745838165 0 0 0 0 -139982758.75838089 40784412.271538734 0 40784412.271538734 154189565.63896179 0 0 0 0 -64548640.807067871 -17968458.229557037 0 -17968458.229557037 738109474.03601074 0 0 0 0 -435929706.7315979 -69496894.319442749 0 -69496894.319442749 733898007.54014969 0 0 0 0 -324698419.49923706 -339859457.57092094 0 -339859457.57092094 1270499334.8587189 0 0 0 0 -385749638.69121552 148720232.36458588 0 148720232.36458588 1218879666.5938721 0 0 0 0 -307401.67203163356 2997543.899354957 0 2997543.899354957 4379385.555156067 0 0 0 0 576144805.14096832 -960756230.45774269 0 -960756230.45774269 1148041078.4290314 0 0 0 0 266519505.25518799 -461375753.29719162 0 -461375753.29719162 417261783.07579422 0 0 0 0 -302530090.609375 -300675588.65249634 0 -300675588.65249634 1237390144.2761612 0 0 0 0 -309706706.30908132 -626228148.42030144 0 -626228148.42030144 2041518652.9329529 0 0 0 0 -244502440.3742981 2305238498.7944813 0 2305238498.7944813 1045306717.7726898 0 0 0 0 197559808.87239075 1795216911.662941 0 1795216911.662941 592914416.53889465 0 0 0 0 -395136404.00862122 1827540251.9429436 0 1827540251.9429436 899381459.25688171 0 0 0 0 -12169087.235373706 13460319.528762378 0 13460319.528762378 -2218900.8694619648 0 0 0 0 95161267.154441833 434814215.44471931 0 434814215.44471931 521289055.06114578 0 0 0 0 -542077628.71058655 430258967.32223129 0 430258967.32223129 -828366945.44949722 0 0 0 0 -545686267.94587708 830546906.69605255 0 830546906.69605255 2196448948.6316376 0 0 0 0 -1035838872.0965271 354378506.28767395 0 354378506.28767395 689474871.53504181 0 0 0 0 -1029833399.2038116 -191897862.21537018 0 -191897862.21537018 -77531091.959838867 0 0 0 0 1155786451.370285 -563585223.76004028 0 -563585223.76004028 615682088.36470413 0 0 0 0 3059298787.1954155 1795346057.604085 0 1795346057.604085 171540424.90423584 0 0 0 0 2608836895.865036 4353876875.462018 0 4353876875.462018 66906213.26171875 0 0 0 0 -2526144605.1846008 1323986267.4780121 0 1323986267.4780121 554079094.96521378 0 0 0 0 -924794098.27223587 4439072405.4387379 0 4439072405.4387379 1138348108.2514954 0 0 0 0 -1091547039.470993 273855186.01879501 0 273855186.01879501 -55906979.899253845 0 0 0 0 -1218464311.9868469 793527005.6595993 0 793527005.6595993 -1561427911.4730072 0 0 0 0 -1095351042.4215927 -495984872.52155876 0 -495984872.52155876 -719367157.70588684 0 0 0 0 -6199852.8941928148 1438466.4869917762 0 1438466.4869917762 1357547.559275236 0 0 0 0 -4182943416.2089462 -1394886173.5541096 0 -1394886173.5541096 1462827168.2215271 0 0 0 0 -3379597083.7645264 -1364055065.1138973 0 -1364055065.1138973 1424735394.573185 0 0 0 0 240514321.11434937 -246292257.70027161 0 -246292257.70027161 354799188.19717407 0 0 0 0 -5077276146.3922577 -998779745.00017548 0 -998779745.00017548 1778741506.9830055 0 0 0 0 3864386159.194809 -294664845.9651413 0 -294664845.9651413 -2137068997.6761265 0 0 0 0 -4760224963.7608032 -853725002.28640747 0 -853725002.28640747 1519810181.7835617 0 0 0 0 -956811960.49069214 202301061.47944069 0 202301061.47944069 -61415710.165458679 0 0 0 0 -1824015340.8600464 -2671677439.769413 0 -2671677439.769413 -3760892936.4433861 0 0 0 0 -10602706.122118041 14295167.3758469 0 14295167.3758469 -9936211.3663853221 0 0 0 0 -352931621.73962402 837170116.33670235 0 837170116.33670235 -1763586699.0479965 0 0 0 0 -2385342554.6501617 1398962111.7106628 0 1398962111.7106628 47422780.230960846 0 0 0 0 -963501722.55896616 1231550824.3954926 0 1231550824.3954926 765082545.2576828 0 0 0 0 -980845405.99922276 605273090.07096159 0 605273090.07096159 483347400.42272186 0 0 0 0 -1158855186.8134155 975378332.05315781 0 975378332.05315781 1028417978.2045517 0 0 0 0 -1099929177.5843964 -240327978.51185989 0 -240327978.51185989 267385133.11630058 0 0 0 0 -594052928.66221619 564703163.23128128 0 564703163.23128128 796835218.92813492 0 0 0 0 77917278.254455566 416780106.15894604 0 416780106.15894604 633208341.79774475 0 0 0 0 -678153305.90383911 904473892.65508652 0 904473892.65508652 976117594.82205582 0 0 0 0 -605735666.25988007 1504193664.3064761 0 1504193664.3064761 1575967281.0276031 0 0 0 0 -419779174.18711853 1177805893.945961 0 1177805893.945961 1212917861.0866585 0 0 0 0 -106688707.85394943 1228275410.8093722 0 1228275410.8093722 995834703.10806274 0 0 0 0 -87438148.465545654 1204185619.1166611 0 1204185619.1166611 940388018.54011154 0 0 0 0 248070052.17401123 1162878836.4387531 0 1162878836.4387531 944119012.13663483 0 0 0 0 237849566.19468689 1264089568.1803303 0 1264089568.1803303 671365802.85346603 0 0 0 0 188175437.02075195 1028666314.0396194 0 1028666314.0396194 900540572.31106567 0 0 0 0 96131225.404571533 919651656.75407314 0 919651656.75407314 909981745.76361847 0 0 0 0 67651501.566497803 877862017.15034866 0 877862017.15034866 935058495.01857758 0 0 0 0 866896585.9519043 763922753.73950195 0 763922753.73950195 608682146.09524536 0 0 0 0 228309891.84717178 478538906.80715275 0 478538906.80715275 481145684.88040543 0 0 0 0 -9137494.9150975123 9168095.7097055502 0 9168095.7097055502 1489364.669229161 0 0 0 0 890674298.11493683 -2024392547.3837738 0 -2024392547.3837738 187023404.11816406 0 0 0 0 991289327.50062561 1074223270.9017544 0 1074223270.9017544 736173655.73825836 0 0 0 0 308705280.21299744 859783436.57579803 0 859783436.57579803 879858827.0836525 0 0 0 0 310744618.52148438 984618284.36715889 0 984618284.36715889 890153454.55572891 0 0 0 0 745591754.14733887 934796849.36557388 0 934796849.36557388 800367140.28313828 0 0 0 0 430119610.331604 1010955384.074564 0 1010955384.074564 945478165.99841309 0 0 0 0 758835376.49711609 878687286.75987816 0 878687286.75987816 896153700.32654476 0 0 0 0 400465361.39886475 748055823.07681084 0 748055823.07681084 913333826.95968246 0 0 0 0 420912799.4786911 708717133.49331522 0 708717133.49331522 526565939.72030258 0 0 0 0 467396887.29610443 1043764675.0507164 0 1043764675.0507164 671080280.34371567 0 0 0 0 386340803.63885498 955799493.04997635 0 955799493.04997635 719735543.0216465 0 0 0 0 391102452.32763672 913770215.97450542 0 913770215.97450542 791626615.30063629 0 0 0 0 635366000.55427551 1306009254.5181713 0 1306009254.5181713 171171.24312591553 0 0 0 0 542808853.87341309 1237482197.5201454 0 1237482197.5201454 420449622.36069298 0 0 0 0 498468501.06990051 1153236927.9090748 0 1153236927.9090748 280870136.75795746 0 0 0 0 651646267.88166809 948179727.14365387 0 948179727.14365387 344615910.48176193 0 0 0 0 449654789.97041321 1038957181.595932 0 1038957181.595932 83192343.814682007 0 0 0 0 266587007.21948242 1049958207.7007275 0 1049958207.7007275 -126891553.57429886 0 0 0 0 514746251.21549988 962831488.62561607 0 962831488.62561607 -434055955.88531113 0 0 0 0 186183987.78546143 682479677.70009756 0 682479677.70009756 -396168667.35992432 0 0 0 0 641585688.79484177 984671791.67894411 0 984671791.67894411 -353971129.43039703 0 0 0 0 572923707.22235107 1331164321.1213703 0 1331164321.1213703 135527437.10661316 0 0 0 0 179199834.87161255 867442278.51303864 0 867442278.51303864 -169671980.01658249 0 0 0 0 658795415.80560303 1201870932.0387878 0 1201870932.0387878 -207264741.8301239 0 0 0 0 513055156.94619751 1268441749.8261566 0 1268441749.8261566 221297809.879776 0 0 0 0 646893296.08190155 1248055356.1510839 0 1248055356.1510839 217423559.20574951 0 0 0 0 777342792.55279541 1458654105.0037537 0 1458654105.0037537 173954195.36362934 0 0 0 0 916002885.62057495 1436277810.8665905 0 1436277810.8665905 -15058017.435211182 0 0 0 0 725008901.49810791 1381705681.0996361 0 1381705681.0996361 746686602.11709595 0 0 0 0 974384662.88064575 1626534918.4935379 0 1626534918.4935379 425267582.97629738 0 0 0 0 607368477.8314209 1628775326.8139725 0 1628775326.8139725 1015769551.7266922 0 0 0 0 762994679.91552734 1591443055.4112186 0 1591443055.4112186 602433164.22535706 0 0 0 0 409044016.96572876 1706093541.428896 0 1706093541.428896 1029730171.7268219 0 0 0 0 557344306.32237244 1515474531.5217476 0 1515474531.5217476 616527918.70711517 0 0 0 0 558404086.8182373 1452073161.3160706 0 1452073161.3160706 389390043.54609728 0 0 0 0 337199062.08824158 1427756863.4807749 0 1427756863.4807749 795716147.54628372 0 0 0 0 338599869.237854 1562024743.5666924 0 1562024743.5666924 826808302.023283 0 0 0 0 -104879416.23780441 1547264793.2043874 0 1547264793.2043874 1186185126.4988022 0 0 0 0 117474891.59067917 1759687859.8027868 0 1759687859.8027868 1533021550.3811035 0 0 0 0 59253761.037780762 1523003155.8959999 0 1523003155.8959999 1142218119.4836407 0 0 0 0 966527362.96666336 1167424382.4323826 0 1167424382.4323826 1728663654.9228592 0 0 0 0 589808807.19623566 1722165582.8214111 0 1722165582.8214111 1603536995.6137238 0 0 0 0 657691694.50775146 1675048863.6314087 0 1675048863.6314087 1020570074.7209311 0 0 0 0 874540137.34411621 1775244427.3748245 0 1775244427.3748245 1368671274.9469719 0 0 0 0 -484999215.31451416 883312219.30481339 0 883312219.30481339 1014438442.4824982 0 0 0 0 -331485998.59759521 1551008548.9692059 0 1551008548.9692059 2429773038.994545 0 0 0 0 -61737955.822250366 154444322.39913559 0 154444322.39913559 -333353515.70516014 0 0 0 0 -10420185.53062439 325898692.99342537 0 325898692.99342537 167686204.75452805 0 0 0 0 -236166833.73486328 -143088310.91852188 0 -143088310.91852188 1009231994.8651848 0 0 0 0 -213543544.96591187 -208308048.1591444 0 -208308048.1591444 123223232.05508423 0 0 0 0 -240438.43126755953 -346966.85900381953 0 -346966.85900381953 3933071.5909466296 0 0 0 0 -13161443.978302002 108752391.91953659 0 108752391.91953659 70382207.668060303 0 0 0 0 -14292916.416925535 5683666.9722274076 0 5683666.9722274076 4108202.8404547721 0 0 0 0 64886295.772628784 62756857.525644302 0 62756857.525644302 -197553232.05523682 0 0 0 0 151546763.36419678 887027752.47546387 0 887027752.47546387 1277758459.4785023 0 0 0 0 170262529.55791855 1544831268.1144876 0 1544831268.1144876 -300897692.89243317 0 0 0 0 1039791.7035645545 5177718.9883177429 0 5177718.9883177429 4061298.810426522 0 0 0 0 614394679.71005249 -282348852.52936935 0 -282348852.52936935 157598898.09524155 0 0 0 0 160455022.22478485 612305776.35106754 0 612305776.35106754 3921532694.8011169 0 0 0 0 1291274.2575305104 3538612.9291068185 0 3538612.9291068185 -267195.64747713506 0 0 0 0 -18891873.178784087 10463026.011960767 0 10463026.011960767 8972956.3806030303 0 0 0 0 -58106052.59967041 -254160265.43319702 0 -254160265.43319702 1522379883.961998 0 0 0 0 -4477310.6676851287 446288.27344354242 0 446288.27344354242 13818789.674526699 0 0 0 0 -94353208.083007812 43830888.585140228 0 43830888.585140228 36296299.697113991 0 0 0 0 828087489.01394653 2268295012.934206 0 2268295012.934206 2997386784.1633148 0 0 0 0 628101392.22692871 1862549539.2488365 0 1862549539.2488365 2179474862.7526417 0 0 0 0 1194231464.0304565 2471923345.7616158 0 2471923345.7616158 3340379979.2816467 0 0 0 0 535307839.30587769 1814333494.8109646 0 1814333494.8109646 2764769160.1419907 0 0 0 0 1024032392.9301052 1542206780.576828 0 1542206780.576828 2191009487.278862 0 0 0 0 958632538.84735107 2084773068.1019478 0 2084773068.1019478 2594585141.3559933 0 0 0 0 778112198.88593292 1618093485.6680737 0 1618093485.6680737 1811627558.6143494 0 0 0 0 546574769.6182251 1576058579.802021 0 1576058579.802021 3033733228.6754813 0 0 0 0 735841592.86639404 1720843762.7245369 0 1720843762.7245369 1799975846.6061935 0 0 0 0 997913484.58468628 1609318468.8101158 0 1609318468.8101158 1016373204.9782977 0 0 0 0 1139201002.4301453 1701694594.1891556 0 1701694594.1891556 868049003.20413971 0 0 0 0 1554764345.2123413 1699431235.8465004 0 1699431235.8465004 1494897777.9834709 0 0 0 0 783121340.81298828 1323669871.1304893 0 1323669871.1304893 1360152711.6404285 0 0 0 0 1362052630.2041321 1210129148.2619667 0 1210129148.2619667 996158552.48413849 0 0 0 0 763552528.08126831 703004945.37345123 0 703004945.37345123 895143051.52220345 0 0 0 0 2066735061.8572388 925959748.71408463 0 925959748.71408463 2462763935.702508 0 0 0 0 953585682.28203583 1399222563.5406227 0 1399222563.5406227 2364213463.7724152 0 0 0 0 2296360289.7418976 2113526368.2159309 0 2113526368.2159309 2436695721.7316055 0 0 0 0 349012731.22979736 2233511406.0974655 0 2233511406.0974655 3918689269.8705702 0 0 0 0 754127459.79315567 1457679862.2640505 0 1457679862.2640505 2516970294.6370697 0 0 0 0 846960400.46372986 1105829468.7987785 0 1105829468.7987785 3770152057.9253845 0 0 0 0 424267067.17480469 1827434817.2115402 0 1827434817.2115402 2313133428.2610207 0 0 0 0 810449555.19885254 2186488817.9187164 0 2186488817.9187164 2467155765.5282593 0 0 0 0 644815133.30621338 2253878985.2740707 0 2253878985.2740707 1686315629.6742935 0 0 0 0 905684835.0562439 1456332126.598484 0 1456332126.598484 749057478.60710144 0 0 0 0 1833189588.511322 2818540963.1158791 0 2818540963.1158791 2022917012.9286575 0 0 0 0 2209173315.7448425 1299053691.6854706 0 1299053691.6854706 264054091.17279053 0 0 0 0 617666691.59191895 1381240275.1307297 0 1381240275.1307297 1155096089.3339462 0 0 0 0 156841994.16349792 2545578539.759882 0 2545578539.759882 2934255636.6348953 0 0 0 0 14185637.341827393 2275528885.1533279 0 2275528885.1533279 2504684305.0789795 0 0 0 0 968310103.36065674 2430201994.9159317 0 2430201994.9159317 1997635689.9686203 0 0 0 0 1145728317.7253885 3079535243.9928198 0 3079535243.9928198 3050280042.8211975 0 0 0 0 1037019776.106781 1824992308.6529121 0 1824992308.6529121 2837471846.0575562 0 0 0 0 61002.82080078125 22061066.149532318 0 22061066.149532318 28606855.571716309 0 0 0 0 -2629472.4804654717 5459201.4727186076 0 5459201.4727186076 7029601.7435756028 0 0 0 0 3680413323.4358215 3091321652.4063301 0 3091321652.4063301 2339756979.5060577 0 0 0 0 -62528.474304199219 21961185.4467659 0 21961185.4467659 28700921.834877014 0 0 0 0 1281810654.2352905 1654747342.4597225 0 1654747342.4597225 2187017645.9451122 0 0 0 0 1278575774.5770264 1599107383.9363842 0 1599107383.9363842 1426092766.9952545 0 0 0 0 -3462208.6335214376 5203782.7937810197 0 5203782.7937810197 7935172.8982160166 0 0 0 0 23429451.211227417 8232645.5122795105 0 8232645.5122795105 -30937699.11769104 0 0 0 0 27338059.458526611 34312056.324611664 0 34312056.324611664 5450944.4307556152 0 0 0 0 3560147.1048707282 -41009388.123078607 0 -41009388.123078607 -35437598.500025958 0 0 0 0 -23382588.188720703 -48698.852279663086 0 -48698.852279663086 12232309.962303162 0 0 0 0 4881776.9442749023 -3155511.2807006836 0 -3155511.2807006836 10579648.591639519 0 0 0 0 -4954097.5819702148 -3433143.6731300354 0 -3433143.6731300354 1186672.6657428741 0 0 0 0 3917475.6325661391 5122900.1143507287 0 5122900.1143507287 732828.36678474769 0 0 0 0 -759236088.19801331 66518934.147375107 0 66518934.147375107 -4628729.4235229492 0 0 0 0 -180999.66802978516 5940401.8758010864 0 5940401.8758010864 -3362378.3920440674 0 0 0 0 7575033.5395507812 1845342.0059700012 0 1845342.0059700012 -3877314.7777252197 0 0 0 0 -288213149.83830261 236375467.77835464 0 236375467.77835464 -189732318.47458267 0 0 0 0 -329765.53624276817 5304151.2374930009 0 5304151.2374930009 6064170.3992125914 0 0 0 0 -87163333.214981079 -13856741.07658577 0 -13856741.07658577 -1951970.4283161163 0 0 0 0 308602.76031967998 -1503285.3584858589 0 -1503285.3584858589 4530978.183233602 0 0 0 0 3401099.3711090386 2692701.7523688525 0 2692701.7523688525 1548608.1931882752 0 0 0 0 -161211910.05856323 71161729.671607971 0 71161729.671607971 -1377237.9095687866 0 0 0 0 -135959518.15090942 611601107.16274261 0 611601107.16274261 -647952413.64038086 0 0 0 0 -195832896.2131958 467347046.13134384 0 467347046.13134384 -340438069.79962921 0 0 0 0 52768520.579742432 308749609.38127518 0 308749609.38127518 -560417125.21697617 0 0 0 0 5849736.3874752671 3264191.0364672169 0 3264191.0364672169 -16299.118521125056 0 0 0 0 -156715848.30020142 155017958.07311249 0 155017958.07311249 -270296111.33578873 0 0 0 0 5027184.8179550171 4579489.8778305054 0 4579489.8778305054 4429403.9486923218 0 0 0 0 23803484.955978394 6026041.3343601227 0 6026041.3343601227 -1873263.6572532654 0 0 0 0 -3262395.5059868395 4614295.1927966103 0 4614295.1927966103 7319249.5236881599 0 0 0 0 988832847.44955444 842677891.86759186 0 842677891.86759186 881438678.19953918 0 0 0 0 486707227.59439087 659769743.67770004 0 659769743.67770004 1016313449.9121361 0 0 0 0 692529172.43032837 903997803.34798813 0 903997803.34798813 1083190269.6163025 0 0 0 0 -221708.63205941021 1073790.6891378239 0 1073790.6891378239 1455754.903380692 0 0 0 0 937451884.20999146 1588927851.2079926 0 1588927851.2079926 713593267.25888824 0 0 0 0 666161177.4972229 1064670391.7694817 0 1064670391.7694817 220705129.17843246 0 0 0 0 448856362.50671387 1265259602.0131912 0 1265259602.0131912 38345064.265190125 0 0 0 0 460021542.79138184 751907508.78866577 0 751907508.78866577 -785812806.05238342 0 0 0 0 501539417.62756348 1103835249.4646759 0 1103835249.4646759 21179526.175375938 0 0 0 0 236909932.71313477 -86996140.844841003 0 -86996140.844841003 -1319147116.0977955 0 0 0 0 -520208.61942397058 1164362.564023234 0 1164362.564023234 562520.64488536119 0 0 0 0 -560520051.64532471 801621692.57661438 0 801621692.57661438 -1112608738.6291275 0 0 0 0 498881529.15436745 1003245427.5107944 0 1003245427.5107944 -1358813313.6538544 0 0 0 0 -564250866.99182129 363399676.68125153 0 363399676.68125153 -584504429.56660461 0 0 0 0 -449794577.96582031 964676495.39390564 0 964676495.39390564 -1023498625.4215851 0 0 0 0 -865831514.26113892 626068021.55254364 0 626068021.55254364 -539952468.60643005 0 0 0 0 -57407083.874572754 577259996.38350677 0 577259996.38350677 -376387929.10020876 0 0 0 0 -269145859.97900391 654096493.59749603 0 654096493.59749603 -538784861.63138247 0 0 0 0 -507013799.54595947 789921792.52574539 0 789921792.52574539 -323658499.34439087 0 0 0 0 -409691042.59118652 375314738.96143341 0 375314738.96143341 -584315661.75709152 0 0 0 0 -323344930.22558594 779390395.15892601 0 779390395.15892601 -190341895.2217865 0 0 0 0 169301179.40579224 759070800.24200058 0 759070800.24200058 -357605473.72861481 0 0 0 0 224511407.80096817 747093656.14397335 0 747093656.14397335 -405229972.48924255 0 0 0 0 244279111.60934448 765877159.52960968 0 765877159.52960968 -641323514.90600455 0 0 0 0 90637796.091278076 749110262.75937271 0 749110262.75937271 -404407653.32448578 0 0 0 0 -281981149.76968384 819483745.96321106 0 819483745.96321106 -191629841.2165451 0 0 0 0 -27064849.100379944 929385538.73358917 0 929385538.73358917 -253964370.05747223 0 0 0 0 -438019045.36697388 911627614.76375961 0 911627614.76375961 -9154595.8066740036 0 0 0 0 -557447608.48608398 827082768.96068954 0 827082768.96068954 14888624.899963379 0 0 0 0 -525941866.550354 722495983.72612762 0 722495983.72612762 11785237.209435225 0 0 0 0 -1622432337.7998505 356062747.9832058 0 356062747.9832058 439845964.84223175 0 0 0 0 -187917.16313073318 1974039.7373616621 0 1974039.7373616621 2168733.5480995737 0 0 0 0 -1073736182.6196594 872107623.21496582 0 872107623.21496582 896881066.41471338 0 0 0 0 1133973070.733902 1098520450.2531204 0 1098520450.2531204 751131544.47396851 0 0 0 0 -670223168.69754028 307658537.69764709 0 307658537.69764709 -144294561.47318268 0 0 0 0 1162176.369033671 -207827312.57569936 0 -207827312.57569936 -81667902.807006836 0 0 0 0 -261355146.33630371 267075131.20527267 0 267075131.20527267 -154743886.62789917 0 0 0 0 -366889843.86578369 524525611.7750473 0 524525611.7750473 -357580931.00134659 0 0 0 0 -390303759.81735229 662497285.31640244 0 662497285.31640244 -267548891.52965546 0 0 0 0 -362745248.74227905 739506039.89141464 0 739506039.89141464 -204461062.58139038 0 0 0 0 -649046802.07327271 611768454.1179924 0 611768454.1179924 -87793415.770149231 0 0 0 0 -391697354.98065948 641822768.3150897 0 641822768.3150897 -170555004.87593079 0 0 0 0 -230280054.28909302 174192035.41544342 0 174192035.41544342 -128911474.36542511 0 0 0 0 -145635057.74110413 373866185.14815521 0 373866185.14815521 -607850391.69576752 0 0 0 0 339971.32246398926 245308992.30105972 0 245308992.30105972 -536749268.03648376 0 0 0 0 -10081535.457000732 206267709.8613739 0 206267709.8613739 -604890839.1051625 0 0 0 0 -44117034.979644775 471291122.55516052 0 471291122.55516052 -1119568010.6954651 0 0 0 0 121816388.05766296 -133378857.86398315 0 -133378857.86398315 -666803994.4511261 0 0 0 0 -796672670.99424744 681027308.58829498 0 681027308.58829498 -582275568.08320618 0 0 0 0 -82833142.923812866 -148543819.78253174 0 -148543819.78253174 -61108957.2759552 0 0 0 0 706120.94922763109 1177127.806868352 0 1177127.806868352 -2862732.5966287851 0 0 0 0 92068626.596298218 -208633.19018173218 0 -208633.19018173218 -47906289.078826904 0 0 0 0 44058353.815093994 46271563.626312256 0 46271563.626312256 -82134676.450191498 0 0 0 0 1788799.2739727944 2227378.9168278351 0 2227378.9168278351 -7529867.8240749985 0 0 0 0 -10907776.711791992 37581636.807472229 0 37581636.807472229 -16501987.303451538 0 0 0 0 4126741.7282104492 -963135.1517162323 0 -963135.1517162323 -113128032.81402588 0 0 0 0 2472709.7849246413 12449516.303983562 0 12449516.303983562 11512150.551080365 0 0 0 0 532742.87582397461 32854821.888435364 0 32854821.888435364 -14645447.341873169 0 0 0 0 -944859.87728881836 42913449.542900085 0 42913449.542900085 19148763.041259766 0 0 0 0 9899430.0897979736 9822281.3442993164 0 9822281.3442993164 -5263848.3468170166 0 0 0 0 -161947911.31828308 64222814.71100235 0 64222814.71100235 -14235262.037200928 0 0 0 0 -198212203.97447968 145916411.67994499 0 145916411.67994499 -165544126.11274719 0 0 0 0 -285834.06620788574 151741004.71483231 0 151741004.71483231 -281398944.81573486 0 0 0 0 81292.102233886719 60830078.126010895 0 60830078.126010895 -74381395.449539185 0 0 0 0 -103406505.97377014 184909926.85257721 0 184909926.85257721 -222769362.90122223 0 0 0 0 -78657899.707912445 50914293.329278946 0 50914293.329278946 9238871.5085296631 0 0 0 0 -81127389.847129822 34734261.764282227 0 34734261.764282227 -35131184.630935669 0 0 0 0 -25159367.024353027 156558598.57318115 0 156558598.57318115 41044619.786373138 0 0 0 0 3574420.9076409377 4042118.8192047775 0 4042118.8192047775 -12002447.88752529 0 0 0 0 -85804810.968261719 45332930.677116394 0 45332930.677116394 -55244073.330215454 0 0 0 0 98654327.836769104 272915090.77486038 0 272915090.77486038 705365055.0113678 0 0 0 0 333936859.75744629 -510603012.20223618 0 -510603012.20223618 499640672.76882935 0 0 0 0 558091351.90997314 -965677768.59518814 0 -965677768.59518814 1367450543.1033783 0 0 0 0 408549.19286924973 2779451.0511951596 0 2779451.0511951596 1522232.2573968247 0 0 0 0 -984788026.24938965 518163237.88822937 0 518163237.88822937 3503391673.505249 0 0 0 0 -119931343.76281738 -218616501.70081711 0 -218616501.70081711 1107113885.1811028 0 0 0 0 -546781.90368652344 -7747358.8600273132 0 -7747358.8600273132 643463953.27212524 0 0 0 0 -50153073.405090332 104053481.44618225 0 104053481.44618225 -66001685.616035461 0 0 0 0 501927.96827638149 -383608.2593575716 0 -383608.2593575716 -1600079.5012444854 0 0 0 0 1041311090.4352417 -961443985.05374146 0 -961443985.05374146 -494672226.0736084 0 0 0 0 86460134.704162598 1920352921.3395691 0 1920352921.3395691 2721836920.1034603 0 0 0 0 -216800642.54180908 790024982.18171692 0 790024982.18171692 2864642662.7175751 0 0 0 0 3061271.0875647366 -352915.94611872733 0 -352915.94611872733 115846.10401440784 0 0 0 0 -427082809.26069641 94711640.755836487 0 94711640.755836487 1078067549.8492432 0 0 0 0 -39680195.524353027 -427319745.06821442 0 -427319745.06821442 -560413250.62161255 0 0 0 0 254628033.92242432 467199572.49894714 0 467199572.49894714 56066484.674560547 0 0 0 0 265321526.24432373 1532207334.0456619 0 1532207334.0456619 1522987028.6370125 0 0 0 0 -544923016.76541138 621502333.28859711 0 621502333.28859711 1677610881.1485596 0 0 0 0 168855051.29406738 1922494715.0704308 0 1922494715.0704308 1913313972.4879303 0 0 0 0 -139017541.43135071 1120315844.3577003 0 1120315844.3577003 1164734925.7718506 0 0 0 0 611306121.89700317 1952901483.1381302 0 1952901483.1381302 1363228870.3027191 0 0 0 0 -4936668.042324557 2105332787.7569997 0 2105332787.7569997 2439046914.8115234 0 0 0 0 429633043.04533386 2150180494.0962143 0 2150180494.0962143 1987105718.075592 0 0 0 0 244776257.50189209 2269583436.8420792 0 2269583436.8420792 2497585524.7238655 0 0 0 0 50874436.944091797 1608446859.0956116 0 1608446859.0956116 2116084411.8722839 0 0 0 0 227973378.1133728 238417309.13625336 0 238417309.13625336 -32095226.318984985 0 0 0 0 679283929.36968994 -108631327.03512573 0 -108631327.03512573 -455766306.7406311 0 0 0 0 1421958939.3791656 1068774544.6665344 0 1068774544.6665344 304499953.03744507 0 0 0 0 232146223.86010742 269711587.48379517 0 269711587.48379517 -90861968.617233276 0 0 0 0 -227833542.38829803 1290698968.5432644 0 1290698968.5432644 860613372.60107422 0 0 0 0 154479768.73477173 1346738115.8143845 0 1346738115.8143845 1113043887.4788818 0 0 0 0 505511580.09277344 1619578603.0739136 0 1619578603.0739136 347070496.57655334 0 0 0 0 33151210.006866455 1083885337.8788452 0 1083885337.8788452 -264858373.9916687 0 0 0 0 182123371.86248779 803263768.68701172 0 803263768.68701172 7853295.7394104004 0 0 0 0 335040527.8380127 459958854.71325684 0 459958854.71325684 -102205983.30883026 0 0 0 0 470921241.2194519 1306933082.0039215 0 1306933082.0039215 402491253.1315155 0 0 0 0 615996038.24658203 804472324.9592514 0 804472324.9592514 -1085733105.4403687 0 0 0 0 746790204.25643921 100164550.64030457 0 100164550.64030457 -1130539681.6675844 0 0 0 0 -1295324.3901047707 4001393.5660945103 0 4001393.5660945103 -316630.07651755214 0 0 0 0 -1709520808.6504211 116418394.82790184 0 116418394.82790184 7815071.1643753052 0 0 0 0 -256667382.76048279 1693641152.2336121 0 1693641152.2336121 -1538802368.2226868 0 0 0 0 -964857909.19557571 1393399969.8200073 0 1393399969.8200073 -1030360941.7151947 0 0 0 0 743083254.92260742 304847371.05101013 0 304847371.05101013 -2165891984.2532921 0 0 0 0 -1690076213.1722412 -280551010.87010193 0 -280551010.87010193 631009807.3724823 0 0 0 0 213674789.78063965 -511920455.03102112 0 -511920455.03102112 382664052.97426605 0 0 0 0 644189634.49581909 152706222.14964294 0 152706222.14964294 -902627010.2694931 0 0 0 0 -20529371.179962158 234078153.18057251 0 234078153.18057251 975497772.65235901 0 0 0 0 2390441.0364320874 422700.49133498967 0 422700.49133498967 259643.62345993891 0 0 0 0 589802696.35406494 -138403820.82780457 0 -138403820.82780457 453863907.33918762 0 0 0 0 417660259.03210449 -155336723.10011292 0 -155336723.10011292 1027159094.6937923 0 0 0 0 500528537.42889404 -301732571.92411041 0 -301732571.92411041 452423092.36721992 0 0 0 0 2833195.646028474 7932132.8619953021 0 7932132.8619953021 7409622.5711144507 0 0 0 0 23539474.110923767 22748319.561594009 0 22748319.561594009 -25228640.465789795 0 0 0 0 332256872.03256226 -442241024.71144104 0 -442241024.71144104 391920172.24396706 0 0 0 0 -322232141.42480469 -74239784.979248047 0 -74239784.979248047 710861161.34272766 0 0 0 0 -576188696.25383186 497701348.97893667 0 497701348.97893667 -49206674.555969238 0 0 0 0 -675513195.22417831 -265964520.85485458 0 -265964520.85485458 548927296.30764771 0 0 0 0 312627370.57510376 -236254077.09438324 0 -236254077.09438324 416600092.33764648 0 0 0 0 -63919286.388687134 163367824.6958046 0 163367824.6958046 -106191906.43309021 0 0 0 0 236046329.88781738 137812973.03099823 0 137812973.03099823 -387156885.09411621 0 0 0 0 72917467.901672363 -137480055.40855408 0 -137480055.40855408 262651120.28852844 0 0 0 0 -1138467526.1339111 -1092150966.5139923 0 -1092150966.5139923 96252049.312374115 0 0 0 0 100825461.39291382 708174297.93793488 0 708174297.93793488 -1724856428.4065399 0 0 0 0 -1000884580.9350481 1128151219.8380463 0 1128151219.8380463 -597904452.1096344 0 0 0 0 -217941417.83462524 571107176.73327637 0 571107176.73327637 -260441368.94413757 0 0 0 0 -255799599.23802185 686476575.99143982 0 686476575.99143982 -607391938.17996216 0 0 0 0 -579400135.01257324 398381031.39914703 0 398381031.39914703 -225276806.88067627 0 0 0 0 -155165292.49960327 735167088.4291687 0 735167088.4291687 -639302267.15808868 0 0 0 0 -105401231.91088867 512387216.98571777 0 512387216.98571777 -198332245.15153503 0 0 0 0 20278422.407958984 15647178.012195587 0 15647178.012195587 -173703045.47261047 0 0 0 0 166643922.27641296 158545634.60813141 0 158545634.60813141 -1490470722.2192268 0 0 0 0 -11532850.858184814 134766307.53868103 0 134766307.53868103 -54537515.334754944 0 0 0 0 -42079491.456848145 312767935.73812866 0 312767935.73812866 -663275291.78757572 0 0 0 0 -159936182.84698868 57896953.830913544 0 57896953.830913544 -92211840.774185181 0 0 0 0 16509804.564216614 -36677530.52795887 0 -36677530.52795887 54203537.20715332 0 0 0 0 -113662060.57837677 -26315890.279652596 0 -26315890.279652596 89982387.541397095 0 0 0 0 4574594.0627496094 22402862.886893876 0 22402862.886893876 7403655.110749945 0 0 0 0 419670386.8384552 92956575.014110565 0 92956575.014110565 30743047.099110603 0 0 0 0 -502255941.50848389 -31091597.152366638 0 -31091597.152366638 8439219.0031356812 0 0 0 0 68598691.698307037 100006750.54236507 0 100006750.54236507 -2498331.5887756348 0 0 0 0 -3955019.0503083095 12937321.253967114 0 12937321.253967114 774494.99694286287 0 0 0 0 -33179553.224403381 162607841.31885338 0 162607841.31885338 -40990699.829376221 0 0 0 0 -479325023.70947266 -119887589.44007111 0 -119887589.44007111 154673025.49014282 0 0 0 0 778750976.24308777 317796684.17277145 0 317796684.17277145 -281200996.29205322 0 0 0 0 686473083.67658997 937413987.19956779 0 937413987.19956779 -1673087445.2318878 0 0 0 0 913354676.17356873 338232108.10567665 0 338232108.10567665 -386162871.38434601 0 0 0 0 378847577.92156982 418075181.28755569 0 418075181.28755569 -87181855.127723694 0 0 0 0 33462647.585489273 -95885979.173016548 0 -95885979.173016548 -21415014.694770813 0 0 0 0 1705814175.4754987 206969260.55925995 0 206969260.55925995 -2580462792.9656143 0 0 0 0 2137716.304067269 18845699.608708248 0 18845699.608708248 5459797.4091755264 0 0 0 0 1660970696.5940857 -1609542661.0162621 0 -1609542661.0162621 -223537840.19439459 0 0 0 0 11898813.896789551 59796756.199386597 0 59796756.199386597 -541978297.35695648 0 0 0 0 532852.2159781903 9927755.2370430883 0 9927755.2370430883 -2723759.1703502163 0 0 0 0 144544400.10565186 91849819.859619141 0 91849819.859619141 -15321846.75557375 0 0 0 0 -146532982.45739746 -100609561.06311798 0 -100609561.06311798 28136072.532592773 0 0 0 0 -965848766.89086819 291081552.48991656 0 291081552.48991656 96446615.148910522 0 0 0 0 322790338.90966797 1303621510.7225342 0 1303621510.7225342 -1262215042.9175472 0 0 0 0 912622.95626603067 3431048.1720998753 0 3431048.1720998753 -2113597.3761704564 0 0 0 0 86512792.441375732 -539513706.90847778 0 -539513706.90847778 -2061071032.5844879 0 0 0 0 174180441.49812317 164371351.05158234 0 164371351.05158234 -587066779.47249603 0 0 0 0 198971126.83855057 113068148.10669518 0 113068148.10669518 -535062288.29637146 0 0 0 0 -19614416.347747803 71641652.769218445 0 71641652.769218445 144081530.06197357 0 0 0 0 112476621.05626678 27583098.33842659 0 27583098.33842659 23995165.286804199 0 0 0 0 -21597810.589622498 8878760.2249803543 0 8878760.2249803543 22158763.37903595 0 0 0 0 44532105.794124603 110447423.32323647 0 110447423.32323647 -45617237.433532715 0 0 0 0 21776053.804933667 19338921.124848224 0 19338921.124848224 10224709.92528408 0 0 0 0 2275878.1179504395 43150789.600357056 0 43150789.600357056 -62676140.91506958 0 0 0 0 -5830815.4740017503 8800909.2251870297 0 8800909.2251870297 3012902.6662547486 0 0 0 0 15701546.60534668 -18238984.957611084 0 -18238984.957611084 11472108.245391846 0 0 0 0 -279228035.71031189 876858216.84984589 0 876858216.84984589 799020559.72715759 0 0 0 0 -7368133.3503987789 10986305.85797918 0 10986305.85797918 8286883.1331437593 0 0 0 0 -514089765.97720337 232916967.01470184 0 232916967.01470184 1528705936.5436401 0 0 0 0 -16372667.129997253 59205969.404841423 0 59205969.404841423 39874858.658485413 0 0 0 0 16059572.972259894 16997441.856805407 0 16997441.856805407 8906487.5695482194 0 0 0 0 814451.07676398754 3254403.1080332175 0 3254403.1080332175 3183401.1979828868 0 0 0 0 -73472127.908508301 -669197279.37122345 0 -669197279.37122345 838567790.85434723 0 0 0 0 6534787.7367248535 28085735.508529663 0 28085735.508529663 -55022827.862251282 0 0 0 0 437141785.50952148 -495126745.19482422 0 -495126745.19482422 -86014932.327312708 0 0 0 0 43844958.614562988 30458628.635169983 0 30458628.635169983 -181269998.51834106 0 0 0 0 17275497.546646118 29258718.147399902 0 29258718.147399902 -107004533.34634399 0 0 0 0 50380596.055114746 56962187.685913086 0 56962187.685913086 -101167308.86544037 0 0 0 0 14670769.633636475 38056326.211791992 0 38056326.211791992 -53639796.081817627 0 0 0 0 -11317542.12701416 76898404.43585968 0 76898404.43585968 -72114974.089118958 0 0 0 0 32961844.519165039 75445002.650764465 0 75445002.650764465 -106090539.72633362 0 0 0 0 -21004036.663146973 95119296.193443298 0 95119296.193443298 -108596925.42310429 0 0 0 0 2901537.7573699951 67015041.688171387 0 67015041.688171387 -125650307.75923157 0 0 0 0 182684853.40249634 38880252.383865356 0 38880252.383865356 -181858861.06980705 0 0 0 0 94330272.560432434 137755318.12460709 0 137755318.12460709 -204798980.44638062 0 0 0 0 -40668023.383987427 213294038.61539459 0 213294038.61539459 -237134616.17958832 0 0 0 0 -89805730.701339722 80131584.567352295 0 80131584.567352295 -164182703.92223358 0 0 0 0 -58293384.23866272 57802565.679573059 0 57802565.679573059 -110004576.0657959 0 0 0 0 -24269249.514801025 106760538.95608521 0 106760538.95608521 -153889622.32537842 0 0 0 0 10372118.721847534 42351331.379558563 0 42351331.379558563 -156846274.43737793 0 0 0 0 17620660.53131485 67674774.672086716 0 67674774.672086716 -108920744.47235107 0 0 0 0 4199660.8637199402 30691329.110050201 0 30691329.110050201 -88704844.724868774 0 0 0 0 -31859570.068359375 72453218.859802246 0 72453218.859802246 -71544561.809265137 0 0 0 0 35948771.041688919 22128532.947289772 0 22128532.947289772 5692503.3730002828 0 0 0 0 220377656.85644531 -270909576.23186493 0 -270909576.23186493 159223666.93554688 0 0 0 0 302656619.02108765 -222240381.10238647 0 -222240381.10238647 137916740.70243835 0 0 0 0 240234041.41711426 -283757053.58279419 0 -283757053.58279419 119421829.98272705 0 0 0 0 141851296.42127991 -108039152.12121582 0 -108039152.12121582 97550430.588651657 0 0 0 0 27824115.786068678 21474406.012048841 0 21474406.012048841 9861170.9865284264 0 0 0 0 15498521.263397217 62676020.495300293 0 62676020.495300293 -117049148.24318695 0 0 0 0 23121039.162948608 53760508.23923111 0 53760508.23923111 -157872868.37698364 0 0 0 0 18664701.673950195 47716818.820922852 0 47716818.820922852 -144170988.92712402 0 0 0 0 23934536.504974365 49449650.558738708 0 49449650.558738708 -171822472.24462891 0 0 0 0 20626236.719772339 54688895.742588043 0 54688895.742588043 -142289306.9246521 0 0 0 0 -6389717.7373657227 22488204.326461792 0 22488204.326461792 -170462740.60540771 0 0 0 0 -82332110.318847656 44076714.598327637 0 44076714.598327637 -97029876.909912109 0 0 0 0 -4296388.080871582 44871424.440979004 0 44871424.440979004 -127012486.96142578 0 0 0 0 -1992288.5471191406 80358474.517608643 0 80358474.517608643 -95919187.336853027 0 0 0 0 -6963148.4957122803 77213558.386257172 0 77213558.386257172 -90482143.253967285 0 0 0 0 -80508833.50378418 -182660657.62556458 0 -182660657.62556458 874895260.66747284 0 0 0 0 -26022120.404754639 89759149.134536743 0 89759149.134536743 -78372018.470092773 0 0 0 0 15664765.471679688 113121997.53967285 0 113121997.53967285 -69548883.563476562 0 0 0 0 35894920.10661146 31742439.632460602 0 31742439.632460602 7709411.6986675076 0 0 0 0 46072439.490356445 137977935.2986145 0 137977935.2986145 -103195461.03497314 0 0 0 0 100054277.63256836 145745536.05587769 0 145745536.05587769 -104297550.30157471 0 0 0 0 9904104.8480014652 -6473756.645342879 0 -6473756.645342879 -9089748.0240658298 0 0 0 0 -69886581.665161133 -374938627.90072632 0 -374938627.90072632 839521026.14385986 0 0 0 0 -62995057.921264648 45834774.081237793 0 45834774.081237793 -107495316.36827087 0 0 0 0 -5863322.2111206055 73365503.131561279 0 73365503.131561279 -100711123.35351562 0 0 0 0 -29385253.962585449 91582945.430969238 0 91582945.430969238 -86881341.580078125 0 0 0 0 -34200808.840332031 95268050.264221191 0 95268050.264221191 -87881163.630462646 0 0 0 0 6602199.1912841797 112299262.83343506 0 112299262.83343506 -82204835.539627075 0 0 0 0 3982222.8045654297 117138721.05691528 0 117138721.05691528 -89550994.631286621 0 0 0 0 -158286.49166870117 123226159.18401337 0 123226159.18401337 -69713737.22833252 0 0 0 0 61223674.534301758 145393246.17352295 0 145393246.17352295 -73436734.183532715 0 0 0 0 39015195.754516602 116400355.1071167 0 116400355.1071167 -69670111.461791992 0 0 0 0 38537811.02734375 134350784.79858398 0 134350784.79858398 -74211868.108299255 0 0 0 0 89868783.820709229 121446409.35501099 0 121446409.35501099 -53795403.303283691 0 0 0 0 45018026.30480957 129411517.39074707 0 129411517.39074707 -82706119.727905273 0 0 0 0 -6040927.3093261719 127373398.77354431 0 127373398.77354431 -82304685.940429688 0 0 0 0 -125983583.83410645 -317290695.04223633 0 -317290695.04223633 792586860.97866011 0 0 0 0 -107992441.52978516 -368478328.57189941 0 -368478328.57189941 726106337.43309784 0 0 0 0 -73818510.734375 -291200464.36448669 0 -291200464.36448669 602148048.75466919 0 0 0 0 -77113245.465759277 -275471761.26641846 0 -275471761.26641846 645218681.46591187 0 0 0 0 -85332984.749145508 -274451099.07617188 0 -274451099.07617188 745543286.43541718 0 0 0 0 -54011002.705810547 -167240606.56826782 0 -167240606.56826782 795053248.67101383 0 0 0 0 -25041084.454956055 -176958261.12329102 0 -176958261.12329102 696336694.3508606 0 0 0 0 69984915.260803223 -39279819.970611572 0 -39279819.970611572 810494742.01728821 0 0 0 0 156897621.19104004 -8470163.8218994141 0 -8470163.8218994141 744074006.0725708 0 0 0 0 -89284795.103271484 66629982.262031555 0 66629982.262031555 -97270877.317016602 0 0 0 0 -53561807.216796875 101356727.95904541 0 101356727.95904541 -93293515.913818359 0 0 0 0 372146153.07324219 -129118789.43490601 0 -129118789.43490601 -424128662.39157104 0 0 0 0 327849806.90516663 63394798.361686707 0 63394798.361686707 588635224.08413696 0 0 0 0 -402569089.71899414 281650759.72001648 0 281650759.72001648 458447805.60571289 0 0 0 0 -483603211.265625 -13534522.171264648 0 -13534522.171264648 885867469.36883545 0 0 0 0 396807343.44891357 -359128628.95330811 0 -359128628.95330811 606182104.11114502 0 0 0 0 509929931.93411255 -163139541.13658142 0 -163139541.13658142 531156472.57165527 0 0 0 0 145078192.44537354 144707411.06036377 0 144707411.06036377 -108239155.92724609 0 0 0 0 217710047.29248047 135285767.16241455 0 135285767.16241455 -111609858.02980042 0 0 0 0 104135621.68389893 134477452.2131958 0 134477452.2131958 -74883969.182434082 0 0 0 0 193855168.4017334 -433853467.53594971 0 -433853467.53594971 669897557.72088623 0 0 0 0 -75750230.667804718 -316950313.12641931 0 -316950313.12641931 609059581.24572754 0 0 0 0 -76209004.57598877 -369156468.37763977 0 -369156468.37763977 694591485.48501587 0 0 0 0 80037923.702331543 -344894382.45930481 0 -344894382.45930481 562067430.0168457 0 0 0 0 -79509095.165771484 -350627502.30705261 0 -350627502.30705261 666779027.08868408 0 0 0 0 76004938.804382324 -437194328.94335938 0 -437194328.94335938 683467801.88800812 0 0 0 0 116908544.28662109 -284879322.10609436 0 -284879322.10609436 586952954.83099365 0 0 0 0 131657905.84286499 -135832184.73431396 0 -135832184.73431396 534474800.34020996 0 0 0 0 228917090.74786377 -256167815.23995972 0 -256167815.23995972 550877499.1229248 0 0 0 0 -26921318.31652832 -209297629.70787048 0 -209297629.70787048 549988762.95202589 0 0 0 0 68093748.877288818 -147959039.9276886 0 -147959039.9276886 485743388.34979248 0 0 0 0 -105098920.52618408 -57987641.234436035 0 -57987641.234436035 541114252.97672844 0 0 0 0 -33530932.531158447 81071112.487106323 0 81071112.487106323 592333466.54815674 0 0 0 0 223618729.26184082 -63217697.070037842 0 -63217697.070037842 541083477.61828232 0 0 0 0 -236591875.91479492 -190252357.12281036 0 -190252357.12281036 395081771.39491272 0 0 0 0 -142446686.08636475 -141404263.82023621 0 -141404263.82023621 269660505.52029419 0 0 0 0 -159378510.60107422 -108617834.01435852 0 -108617834.01435852 479143913.62033081 0 0 0 0 -28382435.050521851 -267710598.9186554 0 -267710598.9186554 430945625.34628296 0 0 0 0 -203352441.91204834 -185926728.02688599 0 -185926728.02688599 396810495.7533493 0 0 0 0 -85129096.144500732 -293985889.73052979 0 -293985889.73052979 231026723.85357666 0 0 0 0 -57281828.018005371 -353357074.85864258 0 -353357074.85864258 576785471.59887695 0 0 0 0 -89485245.241333008 -247625634.87864685 0 -247625634.87864685 510614807.08862305 0 0 0 0 -54463369.604064941 -268919700.09457397 0 -268919700.09457397 445123013.07125854 0 0 0 0 -72462455.621566772 -313057364.37197876 0 -313057364.37197876 584619828.46383667 0 0 0 0 -69155480.184280396 -317066607.13066101 0 -317066607.13066101 368213822.07452393 0 0 0 0 -102822767.9130249 -245264008.58874512 0 -245264008.58874512 450158316.90665817 0 0 0 0 -78591846.845062256 -361056438.12293243 0 -361056438.12293243 17888217.622741699 0 0 0 0 -178872810.50418091 -213864506.20558167 0 -213864506.20558167 213205334.06860733 0 0 0 0 -369586351.7771759 -170371668.07431793 0 -170371668.07431793 265980512.48025513 0 0 0 0 -146763619.24842834 -249777831.7036972 0 -249777831.7036972 5973713.1158752441 0 0 0 0 335120503.66940308 -110788740.57420731 0 -110788740.57420731 330733289.55871582 0 0 0 0 137309156.84783936 -209970781.84716797 0 -209970781.84716797 346474021.10571289 0 0 0 0 231886142.85797119 -152867565.49139404 0 -152867565.49139404 242998708.30813599 0 0 0 0 267715767.4708252 -240483438.04450989 0 -240483438.04450989 130700869.21744156 0 0 0 0 257474638.24502563 -6868593.9031982422 0 -6868593.9031982422 574263697.80773926 0 0 0 0 217757861.66766357 -86616926.465026855 0 -86616926.465026855 416635810.80578613 0 0 0 0 94884755.737731934 -121413348.83128357 0 -121413348.83128357 539114461.47613525 0 0 0 0 71453799.355438232 -95168127.237800598 0 -95168127.237800598 640547004.02386475 0 0 0 0 9225874.9482269287 -164994581.51174164 0 -164994581.51174164 606278378.56039429 0 0 0 0 27852174.50390625 -203129937.03552246 0 -203129937.03552246 482260126.74816895 0 0 0 0 -25426154.097595215 -226011444.40956116 0 -226011444.40956116 460020544.05993652 0 0 0 0 -33093013.731933594 -256645379.48475647 0 -256645379.48475647 514264327.94711304 0 0 0 0 89441221.324920654 -202019566.63201904 0 -202019566.63201904 333900342.67153931 0 0 0 0 15860336.684997559 -258165981.22412109 0 -258165981.22412109 315259784.11655426 0 0 0 0 103172134.07551575 -147169954.80476379 0 -147169954.80476379 470045169.34558105 0 0 0 0 173080828.93527222 -244365429.3551712 0 -244365429.3551712 104469741.0848999 0 0 0 0 -45216259.176330566 -280843760.21095276 0 -280843760.21095276 191471476.32342529 0 0 0 0 43426021.806091309 -233516804.00393677 0 -233516804.00393677 207137152.00134277 0 0 0 0 106580730.78665161 -293616921.42701721 0 -293616921.42701721 -10518012.003265381 0 0 0 0 79242550.915802002 -308422332.12619781 0 -308422332.12619781 81232276.798706055 0 0 0 0 198574523.52008057 -258557050.10620117 0 -258557050.10620117 -47189040.944595337 0 0 0 0 247294633.11663818 -246060587.78587341 0 -246060587.78587341 2229400.0015716553 0 0 0 0 158511760.17089844 -230088413.96380615 0 -230088413.96380615 205919005.29595947 0 0 0 0 195645113.33190918 -312990666.7646637 0 -312990666.7646637 114053282.39852524 0 0 0 0 324648560.09472656 -250143579.65892029 0 -250143579.65892029 -197473782.34725952 0 0 0 0 215328100.94477081 -338699211.78863811 0 -338699211.78863811 -131943898.72085571 0 0 0 0 129366581.55630493 -354738633.58454132 0 -354738633.58454132 -175361290.368927 0 0 0 0 -10280903.600402832 -298362202.98216248 0 -298362202.98216248 -10549777.045713425 0 0 0 0 122544024.96008301 -287220937.4433136 0 -287220937.4433136 -196153882.60163116 0 0 0 0 90506640.597915649 -357682570.35903931 0 -357682570.35903931 -345408532.06292725 0 0 0 0 -140991108.0269165 -312820468.61054993 0 -312820468.61054993 -315277368.98442841 0 0 0 0 232770465.74453735 -374983828.92485046 0 -374983828.92485046 -367086541.74928284 0 0 0 0 389775086.08807373 -256934415.57568359 0 -256934415.57568359 -376550370.73244381 0 0 0 0 -304526858.77579498 -72674428.500644684 0 -72674428.500644684 -142974493.69424438 0 0 0 0 -432895611.22255707 -268911379.24930573 0 -268911379.24930573 15119014.151123047 0 0 0 0 -181595945.61993408 -331872147.13841248 0 -331872147.13841248 -107535345.41497803 0 0 0 0 -124577294.80331421 -267883620.37999725 0 -267883620.37999725 -256883059.07151794 0 0 0 0 21276939.13899231 -259207939.84956741 0 -259207939.84956741 -83688830.373291016 0 0 0 0 -418388999.39910889 -296021548.03779602 0 -296021548.03779602 -236958113.08522034 0 0 0 0 -93163224.429992676 -278336260.18961334 0 -278336260.18961334 -485306095.0304718 0 0 0 0 -335230601.54546356 -221316511.60427094 0 -221316511.60427094 -606327020.94787598 0 0 0 0 -1084627740.7316742 84053186.232597351 0 84053186.232597351 -447612736.54284668 0 0 0 0 -517478284.33026314 115074295.13186407 0 115074295.13186407 -686692914.12762451 0 0 0 0 -501438470.94958496 -47434782.315750122 0 -47434782.315750122 -523133601.41467285 0 0 0 0 -470299912.93081284 -271312911.74181604 0 -271312911.74181604 -373597213.9780426 0 0 0 0 -619923142.00242615 -100669486.64182281 0 -100669486.64182281 -523437446.2585907 0 0 0 0 509736903.3142395 -420462580.48397827 0 -420462580.48397827 -552172965.21295166 0 0 0 0 474572312.60005188 -284552801.7750206 0 -284552801.7750206 -600368383.35383606 0 0 0 0 153369425.06077576 -474602252.12345886 0 -474602252.12345886 -537377704.7164917 0 0 0 0 454867999.42080688 -637768502.7853775 0 -637768502.7853775 -372168908.34213638 0 0 0 0 -284532328.19258499 -621640499.33013153 0 -621640499.33013153 -330351760.80426025 0 0 0 0 1318081226.5571289 -476475848.65558624 0 -476475848.65558624 -658326233.19694519 0 0 0 0 986178855.74282837 427816272.35066986 0 427816272.35066986 -1488708376.4797287 0 0 0 0 448288318.43864441 -20333747.470022202 0 -20333747.470022202 -316346589.7752533 0 0 0 0 416842772.03819275 413327243.11757278 0 413327243.11757278 -390781703.76049805 0 0 0 0 441768042.552948 -250616384.07217026 0 -250616384.07217026 -575891384.48490906 0 0 0 0 304527216.85660458 -131456125.92277575 0 -131456125.92277575 -162774201.26843262 0 0 0 0 517207402.0584259 -118871414.21657181 0 -118871414.21657181 -350198920.58161926 0 0 0 0 295488701.11107635 -211876605.73654652 0 -211876605.73654652 -130819337.90881348 0 0 0 0 331558518.79754639 -267041485.19303894 0 -267041485.19303894 -303699210.79668236 0 0 0 0 190136798.15647888 58039145.778007507 0 58039145.778007507 -73143879.759284973 0 0 0 0 403338760.7124939 17374045.900787354 0 17374045.900787354 -151429322.69255543 0 0 0 0 177481056.6815033 119167868.10211182 0 119167868.10211182 152348672.713974 0 0 0 0 259764918.47451782 421358332.85015869 0 421358332.85015869 387113545.5461731 0 0 0 0 -1671929.9272762537 4450594.0353353471 0 4450594.0353353471 340801.31100613717 0 0 0 0 387077705.11459351 657070991.64900208 0 657070991.64900208 -1385042707.7451248 0 0 0 0 177590806.37390089 271270803.80959249 0 271270803.80959249 -580640684.00587463 0 0 0 0 -130594148.61843872 381357413.97884369 0 381357413.97884369 295300395.93871307 0 0 0 0 -125370013.69570923 309461302.50286102 0 309461302.50286102 -469601837.60800934 0 0 0 0 1521590459.8586426 -1750111693.1627846 0 -1750111693.1627846 850717205.14439392 0 0 0 0 3063748959.8283386 -719027578.65266418 0 -719027578.65266418 -1391308885.3858824 0 0 0 0 550796765.74172974 1630594449.2758636 0 1630594449.2758636 40306299.861328125 0 0 0 0 882782.62700080872 4314221.1309760287 0 4314221.1309760287 1836133.7900483124 0 0 0 0 3022139969.8783112 383303236.29525757 0 383303236.29525757 -410524366.63824463 0 0 0 0 823440413.13168335 325889972.32993317 0 325889972.32993317 1912204833.6470184 0 0 0 0 1655662973.5441895 -339667589.66996002 0 -339667589.66996002 -566369185.16641235 0 0 0 0 2836345632.3030462 -1457808284.3279562 0 -1457808284.3279562 218910553.55674744 0 0 0 0 1297850470.6368713 -420370919.29484558 0 -420370919.29484558 -35185977.656471252 0 0 0 0 1894093593.599823 -46757204.005592346 0 -46757204.005592346 -828486767.11125183 0 0 0 0 793171521.91357422 387220979.818573 0 387220979.818573 -605981731.52532959 0 0 0 0 701265033.87838745 40890153.718399048 0 40890153.718399048 20431934.454734802 0 0 0 0 15072486.311869144 115669421.60386395 0 115669421.60386395 -316981504.55377197 0 0 0 0 3017203.6920427382 13039636.778916068 0 13039636.778916068 3485993.6888488978 0 0 0 0 1303216137.8010406 355842057.26554108 0 355842057.26554108 -13802527.952418804 0 0 0 0 -5269054.5657386184 16337480.058755288 0 16337480.058755288 -7469661.6982359849 0 0 0 0 -5708774149.2114258 3608902399.4152222 0 3608902399.4152222 -487550331.94104004 0 0 0 0 1303537978.1454163 216406710.35324097 0 216406710.35324097 -430911230.66758728 0 0 0 0 850554671.55847168 569643399.67811584 0 569643399.67811584 -699561662.00602722 0 0 0 0 -2824646.0243879035 6262091.6142594647 0 6262091.6142594647 -3730262.7010091618 0 0 0 0 177362493.81436157 404655661.7947998 0 404655661.7947998 750180004.50186157 0 0 0 0 3856701611.3018646 -714460547.64323044 0 -714460547.64323044 1202032479.14534 0 0 0 0 -4532484.6217564642 6351392.5244505368 0 6351392.5244505368 -6314013.8999618627 0 0 0 0 -5361357725.7967529 -489161538.90783691 0 -489161538.90783691 1802470642.2500916 0 0 0 0 -5377552424.3617554 1810716087.9743805 0 1810716087.9743805 228580084.70071411 0 0 0 0 -4293101701.5892334 1134000423.8877869 0 1134000423.8877869 -29735413.033653259 0 0 0 0 -2611461276.6143799 2605044456.5766907 0 2605044456.5766907 -2336040390.0911255 0 0 0 0 -2013143765.3371735 512613236.05886459 0 512613236.05886459 -32375214.068115234 0 0 0 0 -2290651015.6634216 1545443350.5702438 0 1545443350.5702438 166891654.57117462 0 0 0 0 -2299004336.9721785 605051974.10412788 0 605051974.10412788 576919244.72009277 0 0 0 0 -693010383.30821228 1687607759.8919601 0 1687607759.8919601 -340611885.26842499 0 0 0 0 -779107425.12228394 1943191581.3086166 0 1943191581.3086166 853903116.97504425 0 0 0 0 -754580180.40620041 1892773512.788044 0 1892773512.788044 -871435753.64430237 0 0 0 0 -1747416870.4041138 1458604232.9872398 0 1458604232.9872398 72387989.419525146 0 0 0 0 -553930044.98892212 1248704143.9837646 0 1248704143.9837646 -117744819.04292297 0 0 0 0 515249924.15707397 309473358.21103668 0 309473358.21103668 -489317460.04143524 0 0 0 0 113404368.74810028 1028256063.3384514 0 1028256063.3384514 -1296082512.6154327 0 0 0 0 -660471359.44934082 927276216.24775696 0 927276216.24775696 -949768687.08912659 0 0 0 0 -3422366194.208313 2948419900.3667107 0 2948419900.3667107 -1249176711.5346603 0 0 0 0 -856481579.83004761 1710513514.571846 0 1710513514.571846 -3752417184.4894028 0 0 0 0 -4791551355.6549301 1328934009.5604477 0 1328934009.5604477 832048903.82331848 0 0 0 0 -4622965283.4413986 524929259.42541504 0 524929259.42541504 -458755988.78574371 0 0 0 0 -1874367546.9813995 -719114200.48629761 0 -719114200.48629761 -2414527372.9559021 0 0 0 0 843570421.5161438 588152063.73933411 0 588152063.73933411 -1658570455.6853638 0 0 0 0 -685591090.06520081 528890126.19007874 0 528890126.19007874 -1118507394.1976166 0 0 0 0 712009688.41345215 663155881.67565918 0 663155881.67565918 -265008850.46099854 0 0 0 0 -278972204.28392029 -108356639.44124222 0 -108356639.44124222 -766281636.13244629 0 0 0 0 284992062.29327393 -694883512.46921539 0 -694883512.46921539 108281084.70952988 0 0 0 0 -416673764.14533997 101163690.91255951 0 101163690.91255951 -14931048.873962402 0 0 0 0 -1810162335.2417297 -645931874.35488129 0 -645931874.35488129 -281165922.69605255 0 0 0 0 -808086350.83921814 -623559144.56272888 0 -623559144.56272888 198835364.70092773 0 0 0 0 478826156.78311157 -568449272.28650665 0 -568449272.28650665 -485212481.81173706 0 0 0 0 -1775951868.3305511 520721152.59550476 0 520721152.59550476 -190814215.34994507 0 0 0 0 -2078858144.7989159 868751430.38818026 0 868751430.38818026 -439553789.78114319 0 0 0 0 -1241368970.3837776 481348014.41729546 0 481348014.41729546 -556240801.11268616 0 0 0 0 -2257876516.4221573 1542075729.2544899 0 1542075729.2544899 -843160071.46516418 0 0 0 0 -2122889812.5502319 1603709342.4535751 0 1603709342.4535751 -955724888.54815674 0 0 0 0 -2057793990.6340485 1560272698.3603363 0 1560272698.3603363 -928890463.01226807 0 0 0 0 -739072809.06761169 899975621.73203278 0 899975621.73203278 -1228798264.7282696 0 0 0 0 1380661554.8874817 639739766.72986603 0 639739766.72986603 146046371.29743958 0 0 0 0 -3423476.6981088482 6503366.2232585512 0 6503366.2232585512 -12609885.180601105 0 0 0 0 -1957308026.6091385 2138913584.4730797 0 2138913584.4730797 -2374214132.9303741 0 0 0 0 -2427720180.7135696 -994224034.05599403 0 -994224034.05599403 -406898714.77804565 0 0 0 0 -7110168.6448402554 7246315.4054912627 0 7246315.4054912627 -433432.47696548328 0 0 0 0 -11314185.623114381 23724819.652941927 0 23724819.652941927 4159437.290190585 0 0 0 0 -2304561.9824066162 20760834.226417542 0 20760834.226417542 12577548.568901062 0 0 0 0 30052812.097473145 16802216.129909515 0 16802216.129909515 -21175721.150888443 0 0 0 0 1085951.6382025033 1517303.0620367862 0 1517303.0620367862 3905440.3356406316 0 0 0 0 -1985493804.6496387 -198620049.50953329 0 -198620049.50953329 -10955337.970932007 0 0 0 0 -9942853.431073904 23143370.581391752 0 23143370.581391752 23322481.34475708 0 0 0 0 -15494322.876110315 24205089.358387493 0 24205089.358387493 807324.23747886717 0 0 0 0 -9729593.885345459 18617630.60446167 0 18617630.60446167 14580391.694271088 0 0 0 0 -6333662.9017028809 427509405.78948975 0 427509405.78948975 315286479.47383118 0 0 0 0 -5631494.7581481934 22421257.686889648 0 22421257.686889648 17659964.534919739 0 0 0 0 -6715922.8543018252 25241939.5468667 0 25241939.5468667 -6115417.2528231256 0 0 0 0 -261271325.6532135 109662165.94186401 0 109662165.94186401 741017440.77156067 0 0 0 0 -13797686.584381104 379312112.29090881 0 379312112.29090881 1025456216.9922791 0 0 0 0 -1524158652.2353973 575855185.34275055 0 575855185.34275055 1003643618.3126144 0 0 0 0 -634595453.80148697 -205915723.90480423 0 -205915723.90480423 348884995.46339417 0 0 0 0 54879594.348937988 1440901269.9561005 0 1440901269.9561005 360101167.27871704 0 0 0 0 -2360765908.0902328 1392609883.6854401 0 1392609883.6854401 397483248.27049637 0 0 0 0 -3074838665.5994368 -1136502272.6033163 0 -1136502272.6033163 19623962.592666626 0 0 0 0 -2285282937.5470581 3173505888.0699615 0 3173505888.0699615 -4379547341.6764832 0 0 0 0 -6818372987.7892532 148915770.57561874 0 148915770.57561874 18722493.92868042 0 0 0 0 1228106.3341502063 5842438.7039632788 0 5842438.7039632788 -9758606.0797241628 0 0 0 0 -6008622655.4632149 2865627840.5423393 0 2865627840.5423393 -1042485438.4888916 0 0 0 0 -2993466433.9333649 -505650512.88040161 0 -505650512.88040161 -39711504.482833862 0 0 0 0 -2697002306.6267929 1734434149.7383575 0 1734434149.7383575 -747657368.11793518 0 0 0 0 -4040780666.310051 1374136492.1830215 0 1374136492.1830215 196739100.6234436 0 0 0 0 2007831383.7722511 213382475.78292465 0 213382475.78292465 -3472763230.8020325 0 0 0 0 -544267137.24310303 24665626.635669708 0 24665626.635669708 648400529.0428772 0 0 0 0 -2381556.1657853201 -765548.78335471451 0 -765548.78335471451 -3874972.7358858064 0 0 0 0 4389288712.4805298 636286073.15733337 0 636286073.15733337 -4309412331.065773 0 0 0 0 28680846.716217041 1143769211.4229584 0 1143769211.4229584 -3804193887.3394623 0 0 0 0 -3504814385.5687637 3212683568.7500324 0 3212683568.7500324 -2156180161.8453369 0 0 0 0 -861862700.14810181 741548589.1914444 0 741548589.1914444 -1572851243.0311508 0 0 0 0 -2137508196.3879242 1468989794.0247326 0 1468989794.0247326 -800255886.82341003 0 0 0 0 -520668013.32469177 154463735.70249939 0 154463735.70249939 -861374419.07461548 0 0 0 0 -852228769.94618225 58078760.125701904 0 58078760.125701904 -876331716.60284424 0 0 0 0 -673999674.5640564 -317649985.76875496 0 -317649985.76875496 -69068601.713821411 0 0 0 0 -696853410.24154663 -198835121.05215073 0 -198835121.05215073 -181195517.2028656 0 0 0 0 78209243.657089233 -373429358.95289612 0 -373429358.95289612 -2307075425.699379 0 0 0 0 -1122798769.0058289 865011375.95000458 0 865011375.95000458 -1433990818.9636078 0 0 0 0 -466791125.36993408 -138829157.61523438 0 -138829157.61523438 -981293579.2723465 0 0 0 0 -781834616.9890213 -100589249.62910652 0 -100589249.62910652 223369069.66143799 0 0 0 0 -814433743.99052429 155555705.09951019 0 155555705.09951019 262943764.93809509 0 0 0 0 21551745.284484863 215854035.23435974 0 215854035.23435974 127201207.43600464 0 0 0 0 68457756.440414429 -69045262.344184875 0 -69045262.344184875 988346647.52471924 0 0 0 0 -502871318.94293213 7178545.5159339905 0 7178545.5159339905 441236266.97491455 0 0 0 0 -603344422.76271057 312958948.53247833 0 312958948.53247833 983061592.04026794 0 0 0 0 -106584935.16018677 461147643.01417542 0 461147643.01417542 695245240.28256226 0 0 0 0 -278363033.58358765 279506997.39937592 0 279506997.39937592 614010838.58982849 0 0 0 0 -290552486.1456604 475295503.55943298 0 475295503.55943298 796876470.80459595 0 0 0 0 -209492360.31938171 778733559.26638603 0 778733559.26638603 1460663631.1769714 0 0 0 0 736264831.21539307 1056445305.0058517 0 1056445305.0058517 747157272.13286591 0 0 0 0 -337468829.0050354 -253889197.16881561 0 -253889197.16881561 -17008482.738342285 0 0 0 0 -605091970.545578 -36403757.742092133 0 -36403757.742092133 357946358.23796082 0 0 0 0 -593353943.3649292 140287666.66998291 0 140287666.66998291 310916522.25406647 0 0 0 0 -441722768.80975342 -65272605.66418457 0 -65272605.66418457 -14868554.144634247 0 0 0 0 -503650657.87296295 63277442.584169388 0 63277442.584169388 587328332.41168213 0 0 0 0 -432110722.75756836 290067721.58513641 0 290067721.58513641 693417728.69029236 0 0 0 0 -306565492.55404663 -11780162.663543701 0 -11780162.663543701 347736850.69959641 0 0 0 0 -329315587.75126648 38066049.207380295 0 38066049.207380295 511357306.33062744 0 0 0 0 43380644.256231137 39579811.445026755 0 39579811.445026755 -2022103.308453273 0 0 0 0 -102518107.65307617 133759592.93319702 0 133759592.93319702 644984624.76304626 0 0 0 0 -80264061.730224609 278318521.24731445 0 278318521.24731445 -75039294.457794189 0 0 0 0 -84908565.953521729 88716102.704299927 0 88716102.704299927 639788120.11503983 0 0 0 0 -175376809.82458496 137104346.36531067 0 137104346.36531067 655145695.0567627 0 0 0 0 -72268951.795288086 46835860.327911377 0 46835860.327911377 578310680.74780273 0 0 0 0 -92284136.542934418 74254100.225698471 0 74254100.225698471 565193348.08108521 0 0 0 0 -183674038.60168457 7372958.6348724365 0 7372958.6348724365 517682591.23784637 0 0 0 0 -313471778.34486389 117263190.03652954 0 117263190.03652954 633224530.60534668 0 0 0 0 -174109904.61004639 114559068.81506348 0 114559068.81506348 664109208.85861206 0 0 0 0 -179426921.49047852 126096086.71116638 0 126096086.71116638 633785340.140625 0 0 0 0 -163782184.93939209 143784360.92523193 0 143784360.92523193 651054736.3097229 0 0 0 0 -209565540.20970154 200044480.61550522 0 200044480.61550522 633290170.6519165 0 0 0 0 -127529726.44372559 185418854.28918457 0 185418854.28918457 635703356.85910034 0 0 0 0 -226507555.02050781 143038976.09341431 0 143038976.09341431 653685027.87045288 0 0 0 0 -248591036.90130615 182918760.64050293 0 182918760.64050293 620246489.01076126 0 0 0 0 -256814780.56524658 183039491.230896 0 183039491.230896 631955080.63337708 0 0 0 0 -232612115.746521 324727165.24934673 0 324727165.24934673 645101867.89620972 0 0 0 0 -98415641.582458496 190040045.63479614 0 190040045.63479614 540714243.66748047 0 0 0 0 -87697796.867675781 244324515.93590546 0 244324515.93590546 526840466.36798096 0 0 0 0 -140440323.44622803 207564276.24049377 0 207564276.24049377 597841734.96398926 0 0 0 0 -91274684.870483398 167508664.09225464 0 167508664.09225464 584737781.85977173 0 0 0 0 -131829133.39573669 133261652.43941498 0 133261652.43941498 650492807.28875732 0 0 0 0 -192485075.7958374 159100151.79098511 0 159100151.79098511 648172455.9727478 0 0 0 0 10147307.72946167 130814371.68458557 0 130814371.68458557 643048597.60650635 0 0 0 0 131717255.15974426 82995466.51342392 0 82995466.51342392 136532034.69881439 0 0 0 0 391640411.88401604 57762824.968578339 0 57762824.968578339 -29309232.507141113 0 0 0 0 99866601.091228485 292138952.74080753 0 292138952.74080753 252139624.69348145 0 0 0 0 320950816.91604614 428586528.39239502 0 428586528.39239502 331561460.66391754 0 0 0 0 92298204.44052124 516813240.10493469 0 516813240.10493469 298474579.71629333 0 0 0 0 78740273.092559814 537079630.14479065 0 537079630.14479065 582318125.94075012 0 0 0 0 -83014896.502105713 305548234.30246735 0 305548234.30246735 564963763.51612854 0 0 0 0 -76891849.938995361 393163557.95301819 0 393163557.95301819 460501827.06990051 0 0 0 0 86575152.481960297 355820864.12911606 0 355820864.12911606 435649424.59170532 0 0 0 0 24561141.988952637 256427965.54658508 0 256427965.54658508 363541862.33634949 0 0 0 0 47628561.485168457 24133979.562179565 0 24133979.562179565 484195191.68170929 0 0 0 0 63691546.511535645 230408787.43719482 0 230408787.43719482 377936964.33381653 0 0 0 0 4532750.48046875 216110887.46481323 0 216110887.46481323 535384790.49301147 0 0 0 0 -3167104.3067016602 246450898.48806763 0 246450898.48806763 454097034.94036865 0 0 0 0 -18075167.099609375 140077611.95310974 0 140077611.95310974 558377786.44538879 0 0 0 0 56951610.084228516 141960646.28936768 0 141960646.28936768 445873038.93747139 0 0 0 0 71040506.122039795 223590449.14382935 0 223590449.14382935 279734567.52349854 0 0 0 0 100901187.99862671 32253826.484085083 0 32253826.484085083 351377351.10805511 0 0 0 0 100851912.78204346 37356095.584503174 0 37356095.584503174 144455715.90914917 0 0 0 0 50126948.301193237 175171492.33120728 0 175171492.33120728 285332026.44769287 0 0 0 0 141879481.63569641 202146394.00941467 0 202146394.00941467 71448778.733459473 0 0 0 0 43159023.776626587 196077757.44358826 0 196077757.44358826 287338034.30743408 0 0 0 0 20260890.956633769 20173763.561652664 0 20173763.561652664 -24247934.333544731 0 0 0 0 696612646.06896973 97213412.4295578 0 97213412.4295578 -274408201.75050354 0 0 0 0 7833731.4036891796 21006324.741687484 0 21006324.741687484 -11628640.407781161 0 0 0 0 344238324.38796997 47395742.861747742 0 47395742.861747742 -64341907.334671021 0 0 0 0 -2332940642.3758698 907618941.51021576 0 907618941.51021576 -675906.32006835938 0 0 0 0 713143514.64345121 -162361959.84060144 0 -162361959.84060144 -189561433.42285156 0 0 0 0 -2039271846.9680786 1073467390.1074524 0 1073467390.1074524 1474094.3812866211 0 0 0 0 2840151.6140905228 4218998.6447500475 0 4218998.6447500475 -1811468.5776268244 0 0 0 0 -2276868694.2645874 1002354211.4526825 0 1002354211.4526825 -11564074.89849472 0 0 0 0 -2456640211.0002747 931778790.88647461 0 931778790.88647461 313578417.19796753 0 0 0 0 -700247246.46007156 -20460267.406219482 0 -20460267.406219482 -422430063.06427002 0 0 0 0 -2246961669.6173553 901929494.52719116 0 901929494.52719116 23187210.66355896 0 0 0 0 4990952.3098194078 18430547.732251391 0 18430547.732251391 -23764113.539804511 0 0 0 0 -683191341.07648468 92137270.165733337 0 92137270.165733337 320845441.50274658 0 0 0 0 1078431207.9618225 1072750775.2230034 0 1072750775.2230034 961433299.51541138 0 0 0 0 745954923.79003906 1471478060.5086594 0 1471478060.5086594 496399168.82038307 0 0 0 0 1365996677.3499603 453568215.21352386 0 453568215.21352386 -108791064.85335159 0 0 0 0 4275103.2953824848 6410087.0621162802 0 6410087.0621162802 -4693336.6909672841 0 0 0 0 8948611.6203079224 26900642.543483734 0 26900642.543483734 -16118254.08164978 0 0 0 0 10017629.929550171 31959803.105873108 0 31959803.105873108 -11125489.563537598 0 0 0 0 11974297.071929932 21637145.068450928 0 21637145.068450928 -7645597.6875610352 0 0 0 0 13822031.756759644 24257688.00976181 0 24257688.00976181 -27272346.259094238 0 0 0 0 9526210.7093811035 44377634.381362915 0 44377634.381362915 -43528553.738693237 0 0 0 0 10832411.571731567 33407449.479133606 0 33407449.479133606 -8556320.8595275879 0 0 0 0 13784426.79776001 24753813.389694214 0 24753813.389694214 -26709148.052490234 0 0 0 0 311749185.12509346 130505075.22515607 0 130505075.22515607 307894147.99130249 0 0 0 0 11713585.239278035 22404308.625421517 0 22404308.625421517 -11202032.993399195 0 0 0 0 415106453.92448521 127518496.70127106 0 127518496.70127106 -183694019.48693848 0 0 0 0 418580693.04396057 101354621.69694519 0 101354621.69694519 -2086247.7385444641 0 0 0 0 5480331.8229339216 7835471.7429501563 0 7835471.7429501563 -2950967.8778303117 0 0 0 0 291515674.82065904 -603420937.32979846 0 -603420937.32979846 280734414.45913696 0 0 0 0 -3391865.7621527985 6294864.5113660693 0 6294864.5113660693 1104975.0930063054 0 0 0 0 -1809619488.8356934 635400840.72901917 0 635400840.72901917 -456452023.99609375 0 0 0 0 372883401.52641296 -234637467.51734161 0 -234637467.51734161 52208892.836425781 0 0 0 0 73974.54691696167 16992998.915489197 0 16992998.915489197 -2239962.6175689697 0 0 0 0 5905484.9080810547 12535030.041938782 0 12535030.041938782 7795133.678817749 0 0 0 0 1550146.9100429267 17823700.304290716 0 17823700.304290716 -4072451.4644854292 0 0 0 0 11203201.343536377 10246640.69354248 0 10246640.69354248 -6807839.3417358398 0 0 0 0 -14459596.596069336 -305761.74306488037 0 -305761.74306488037 20402007.013767242 0 0 0 0 -7231821.4359353594 29166498.612549301 0 29166498.612549301 -368900.76474583149 0 0 0 0 -5975297.6539278626 46415321.091075107 0 46415321.091075107 17162846.409360833 0 0 0 0 191535858.31790161 120405943.71381378 0 120405943.71381378 -295174686.0776062 0 0 0 0 6133876.8572387695 89102627.554733276 0 89102627.554733276 -87652391.566681862 0 0 0 0 -7875433.6558227539 53481194.990585327 0 53481194.990585327 -37539364.37713623 0 0 0 0 -12307140.002746582 105526482.78196716 0 105526482.78196716 -15488947.078277588 0 0 0 0 -13017979.740707397 40971624.200269699 0 40971624.200269699 7646202.9592285156 0 0 0 0 34575614.133361816 70782996.356658936 0 70782996.356658936 2259538.7823944092 0 0 0 0 -1262366.9054552168 3358693.7141484525 0 3358693.7141484525 2589225.8110876977 0 0 0 0 13412390.470611572 17216394.844173431 0 17216394.844173431 -29872753.162475586 0 0 0 0 -34731623.984375 118776230.4159317 0 118776230.4159317 5521152.792755127 0 0 0 0 -103491978.1072998 -64614349.287353516 0 -64614349.287353516 11211999.362677574 0 0 0 0 -66506084.367767334 89911281.238128662 0 89911281.238128662 -43475682.333831787 0 0 0 0 11174959.905487061 36771728.391220093 0 36771728.391220093 -55739934.012878418 0 0 0 0 -14164968.924407959 41980999.031860352 0 41980999.031860352 222632.56341552734 0 0 0 0 -14118104.953842163 23003355.841308594 0 23003355.841308594 45557710.800994873 0 0 0 0 14387072.6927948 24875877.363052368 0 24875877.363052368 5054267.8758850098 0 0 0 0 72813042.646896362 12264820.352325439 0 12264820.352325439 5853320.9523620605 0 0 0 0 -44499273.685424805 58816771.857257843 0 58816771.857257843 38070189.180084229 0 0 0 0 -25521370.438630208 31777088.479541011 0 31777088.479541011 6676977.5821307003 0 0 0 0 -1159215.8362636194 26037690.696339615 0 26037690.696339615 -8914159.5941031445 0 0 0 0 -8833791.6181945801 42271978.606277466 0 42271978.606277466 6811524.9838485718 0 0 0 0 -8577145.213722229 39434481.699462891 0 39434481.699462891 27228831.007171631 0 0 0 0 -9110463.3922271729 34095260.987091064 0 34095260.987091064 20818434.691085815 0 0 0 0 -11958177.689651489 44371983.45300293 0 44371983.45300293 25468126.952026367 0 0 0 0 -3508734.665435791 36382817.590454102 0 36382817.590454102 11559197.257202148 0 0 0 0 -9068587.3888191283 21932987.988363389 0 21932987.988363389 -1408958.8513851129 0 0 0 0 2247599.1849060059 45634288.445526123 0 45634288.445526123 -8607331.9323120117 0 0 0 0 874426887.980896 -434218428.30551147 0 -434218428.30551147 -280470643.92730713 0 0 0 0 14298438.191705532 20729398.843154825 0 20729398.843154825 -15918447.266553462 0 0 0 0 -9980097.9516601562 17756770.207672119 0 17756770.207672119 -6348569.2904663086 0 0 0 0 -85523686.92817688 35596457.079856873 0 35596457.079856873 27971783.794067383 0 0 0 0 -36446323.96446991 61256600.751922607 0 61256600.751922607 40565048.830322266 0 0 0 0 -15510423.479278564 18921841.712127686 0 18921841.712127686 50830823.306854248 0 0 0 0 -4955865.4414099455 20091338.108972359 0 20091338.108972359 10621506.318593964 0 0 0 0 8090227.7508239746 52226077.242767334 0 52226077.242767334 20367717.270263672 0 0 0 0 -3780137.7694091797 53714559.874572754 0 53714559.874572754 36127645.43686676 0 0 0 0 -1046154.9291903712 -1927760.3847400397 0 -1927760.3847400397 1086490.1682989895 0 0 0 0 16494190.034557343 33382742.170375824 0 33382742.170375824 111159.65560913086 0 0 0 0 2892001.1615219116 44009914.127532959 0 44009914.127532959 8123219.6486816406 0 0 0 0 -19671726.39831543 38278427.143920898 0 38278427.143920898 7334735.6702766418 0 0 0 0 -4145771.8794250488 18621212.692092896 0 18621212.692092896 -10407753.711700439 0 0 0 0 -16623756.300300598 45486790.729736328 0 45486790.729736328 15888717.821502686 0 0 0 0 -12021094.175588727 48692205.51683414 0 48692205.51683414 16743011.686462402 0 0 0 0 -11145564.664299011 43710910.397018433 0 43710910.397018433 195740.71343994141 0 0 0 0 -17548000.501716614 44229618.505599976 0 44229618.505599976 6102616.7861022949 0 0 0 0 -25206436.96472168 33029097.200584412 0 33029097.200584412 -426762.4499206543 0 0 0 0 -70659280.501113892 27959859.584560394 0 27959859.584560394 2743125.1672058105 0 0 0 0 -52327345.019226074 10480004.754776001 0 10480004.754776001 -2764579.1308517456 0 0 0 0 -27173391.79283905 35508919.231742859 0 35508919.231742859 -3331617.9223632812 0 0 0 0 -48084024.555541992 22947919.22895813 0 22947919.22895813 -3088343.6968765259 0 0 0 0 -48373505.020829201 24863585.952648163 0 24863585.952648163 -12761349.77545166 0 0 0 0 -29286512.791435242 37052894.566841125 0 37052894.566841125 -2768632.0665435791 0 0 0 0 -20860910.204315186 30392513.306266785 0 30392513.306266785 -1381747.220123291 0 0 0 0 -23708185.257904053 37333030.98740387 0 37333030.98740387 8693.7143031344149 0 0 0 0 -46868665.106163025 20283134.594577789 0 20283134.594577789 -5803220.9105072021 0 0 0 0 -58766122.190635681 33868612.637599945 0 33868612.637599945 -21338.639526367188 0 0 0 0 -2093437.2675209045 37766545.703022003 0 37766545.703022003 -38370.07453918457 0 0 0 0 -11555575.766105652 28795103.624752045 0 28795103.624752045 -645626.78753662109 0 0 0 0 -12949989.048843384 42847102.557022095 0 42847102.557022095 5712112.0664863586 0 0 0 0 1818422.8814430237 33718557.831274033 0 33718557.831274033 23403071.05255127 0 0 0 0 484632.98908996582 39552837.4320755 0 39552837.4320755 3595298.2369842529 0 0 0 0 -12457997.321910858 46685992.780394554 0 46685992.780394554 17714262.042663574 0 0 0 0 -12219518.121192932 43464399.350723267 0 43464399.350723267 5176741.4633483887 0 0 0 0 -654788.9977722168 47989433.772994995 0 47989433.772994995 10607430.868743896 0 0 0 0 -74096330.567169189 11204508.602436066 0 11204508.602436066 81375931.76322937 0 0 0 0 1946532.8935585022 53242257.323062897 0 53242257.323062897 19288752.489212036 0 0 0 0 -12274455.383724995 8354943.1828312837 0 8354943.1828312837 8842580.4592838734 0 0 0 0 -33580263.987762451 11966524.34765625 0 11966524.34765625 8806517.9422225952 0 0 0 0 -662720.89031124488 -288330.23847733997 0 -288330.23847733997 -285268.26499207318 0 0 0 0 -193633413.43038559 -12461959.891784668 0 -12461959.891784668 28913452.720947266 0 0 0 0 62408926.19707489 65639431.820194244 0 65639431.820194244 1186808.4227294922 0 0 0 0 -81570858.576591492 35452920.411266327 0 35452920.411266327 33181.474548339844 0 0 0 0 -39338841.055664062 68340219.677497864 0 68340219.677497864 3684634.506690979 0 0 0 0 -56867440.77396965 44709879.339408875 0 44709879.339408875 -13246.805282592773 0 0 0 0 -61486228.489105225 29674684.091888428 0 29674684.091888428 -20092711.343719482 0 0 0 0 -69770864.413452148 45880934.376419067 0 45880934.376419067 14794659.507583618 0 0 0 0 -78159209.573791504 68925501.924247742 0 68925501.924247742 -28468650.057312012 0 0 0 0 -26714653.544128418 47103249.794483185 0 47103249.794483185 -18775034.522117615 0 0 0 0 -23155251.621408224 66005125.561130881 0 66005125.561130881 24511349.461364746 0 0 0 0 -22552350.151954651 41484135.907096863 0 41484135.907096863 6739123.7783737183 0 0 0 0 -69151227.172370911 58134377.775344849 0 58134377.775344849 104493278.85675049 0 0 0 0 28203465.420013428 212383427.47613907 0 212383427.47613907 300033703.42729187 0 0 0 0 1154488.5589467436 -5829.558028370142 0 -5829.558028370142 -648280.16244450212 0 0 0 0 128152223.22046208 180638347.68869007 0 180638347.68869007 -204497454.34120178 0 0 0 0 123634074.49542236 310172532.09411621 0 310172532.09411621 67456117.103416443 0 0 0 0 -48023757.104141235 113619542.40550232 0 113619542.40550232 243827194.10509491 0 0 0 0 109232465.23462677 97850256.003887177 0 97850256.003887177 121949113.73434448 0 0 0 0 -38772881.34343072 21549029.635092024 0 21549029.635092024 -3964004.141708158 0 0 0 0 -42191349.112622216 30340185.96324756 0 30340185.96324756 -2865275.6855330803 0 0 0 0 -19759071.430114746 74259459.540557861 0 74259459.540557861 35074239.282718658 0 0 0 0 -47468430.03086853 83394659.786170959 0 83394659.786170959 52820441.376815796 0 0 0 0 49383579.118293762 168578029.9697876 0 168578029.9697876 -30472530.641204834 0 0 0 0 50160020.630783081 164232599.03549194 0 164232599.03549194 -6751233.8455810547 0 0 0 0 80631713.257476807 133906367.38668823 0 133906367.38668823 -16358333.319488525 0 0 0 0 46357759.899841309 140330541.49696732 0 140330541.49696732 -37666306.795532227 0 0 0 0 7781935.1860961914 129517155.56095123 0 129517155.56095123 75784892.146335602 0 0 0 0 9697504.9770202637 74787989.325340271 0 74787989.325340271 7793390.4535293579 0 0 0 0 101660397.14251709 64323538.824813843 0 64323538.824813843 -33959023.071472168 0 0 0 0 131688749.1362915 73498067.447799683 0 73498067.447799683 -31207310.736206055 0 0 0 0 80922004.049575806 129124757.28249168 0 129124757.28249168 -34215281.077880859 0 0 0 0 181346149.46998596 120373732.44367599 0 120373732.44367599 -38538679.022247314 0 0 0 0 105990153.27001953 130630984.29328918 0 130630984.29328918 -6700843.1622009277 0 0 0 0 220207659.89941406 98977137.053375244 0 98977137.053375244 -64795139.366256714 0 0 0 0 270197525.53417969 124138815.84585571 0 124138815.84585571 -109296617.79371643 0 0 0 0 20070348.081085205 -9660404.0920524597 0 -9660404.0920524597 101522358.42565918 0 0 0 0 139220747.33728027 55012294.404029846 0 55012294.404029846 6605850.5751342773 0 0 0 0 488943787.97888184 -49081782.803482056 0 -49081782.803482056 -31529952.198791504 0 0 0 0 149267169.56018066 -358290706.41027832 0 -358290706.41027832 496436314.09292603 0 0 0 0 22905967.753540039 -35338221.419464111 0 -35338221.419464111 121165061.659729 0 0 0 0 50463948.968200684 133235999.3842392 0 133235999.3842392 -62627501.688201904 0 0 0 0 60618199.558486938 156621796.87185669 0 156621796.87185669 -38199492.347595215 0 0 0 0 41926440.871276855 138432419.26177979 0 138432419.26177979 -26296043.039886475 0 0 0 0 101586390.41604614 147609379.7804718 0 147609379.7804718 -57476635.763549805 0 0 0 0 83145856.020385742 129844449.79324341 0 129844449.79324341 -49358211.552856445 0 0 0 0 75384887.368652344 151795347.23590088 0 151795347.23590088 -47802444.4921875 0 0 0 0 50851149.846496582 125124952.03373718 0 125124952.03373718 -46466277.985351562 0 0 0 0 20471667.050628662 109074467.42178345 0 109074467.42178345 -66148491.925109863 0 0 0 0 15518895.980529785 123115547.23597717 0 123115547.23597717 -49756399.888427734 0 0 0 0 38491879.175231934 137328839.53948975 0 137328839.53948975 -57056571.638183594 0 0 0 0 30439553.503112793 85710053.331329346 0 85710053.331329346 -118728393.83283997 0 0 0 0 33919184.014343262 111223880.42835999 0 111223880.42835999 -78540367.68711853 0 0 0 0 16996152.970611572 77736466.591251373 0 77736466.591251373 -101668822.08828735 0 0 0 0 61579202.06463623 120690500.40208435 0 120690500.40208435 -87875279.346424103 0 0 0 0 36452786.385009766 146462351.94902039 0 146462351.94902039 -41462198.162185669 0 0 0 0 24596234.753417969 78724497.871292114 0 78724497.871292114 -107673944.25941467 0 0 0 0 27759506.046691895 88535892.323616028 0 88535892.323616028 -121648407.3916626 0 0 0 0 3095294.1267127991 26778524.804418564 0 26778524.804418564 -158227634.85035706 0 0 0 0 25391568.090026855 61066712.889541626 0 61066712.889541626 -147769138.32687759 0 0 0 0 57797731.594223022 62758275.37846756 0 62758275.37846756 -211790479.72930908 0 0 0 0 138938256.24504089 167172689.9958725 0 167172689.9958725 -105196299.46820068 0 0 0 0 38926445.430206299 161648993.67667389 0 161648993.67667389 -22017328.635093689 0 0 0 0 2136321.9209307879 90437.475787527859 0 90437.475787527859 -1157436.03167665 0 0 0 0 -68423986.200897217 275651663.83863068 0 275651663.83863068 -249766660.10354614 0 0 0 0 -76912318.567825317 92089412.331871033 0 92089412.331871033 -154818078.45314169 0 0 0 0 -39272876.667060852 134890689.02558327 0 134890689.02558327 -263999566.61108398 0 0 0 0 1283804.0724993348 -48236.393481485546 0 -48236.393481485546 -833838.72506261617 0 0 0 0 135337105.16781616 269130098.87631226 0 269130098.87631226 -406593968.90608215 0 0 0 0 24073609.2527771 237215489.25834656 0 237215489.25834656 -31165786.460906982 0 0 0 0 -117217649.12860107 224419748.3844986 0 224419748.3844986 -27891500.639266968 0 0 0 0 -18146338.745788574 110367827.04721832 0 110367827.04721832 -346577359.78329468 0 0 0 0 -163637003.79394531 94569582.227172852 0 94569582.227172852 17745527.08581543 0 0 0 0 -104557692.13347179 193243387.89089638 0 193243387.89089638 115612926.56256104 0 0 0 0 -104250577.36431885 80159818.020637512 0 80159818.020637512 220306409.11164856 0 0 0 0 -203937225.46554565 106056082.9675293 0 106056082.9675293 371458061.31655884 0 0 0 0 -139873210.22061157 44096594.120155334 0 44096594.120155334 378467108.30764771 0 0 0 0 -122109983.77105713 -3035370.3309326172 0 -3035370.3309326172 466890393.62336731 0 0 0 0 -25787036.472106934 13261610.546607971 0 13261610.546607971 238411776.49902344 0 0 0 0 -64743231.627380371 139000158.28152466 0 139000158.28152466 363335966.55072021 0 0 0 0 -50917222.053253174 -536260.36898803711 0 -536260.36898803711 579842551.91137695 0 0 0 0 -18069907.752410889 141424979.7109375 0 141424979.7109375 347424304.09688568 0 0 0 0 -57016704.303199768 232414990.73003006 0 232414990.73003006 282574382.60032654 0 0 0 0 53468030.652435303 122514863.20425415 0 122514863.20425415 373728404.43373489 0 0 0 0 -149625725.76928711 109997191.55406952 0 109997191.55406952 373968601.75727844 0 0 0 0 -127528869.05604553 234033845.75691223 0 234033845.75691223 300695297.17565918 0 0 0 0 -167557597.67062378 46504939.956260681 0 46504939.956260681 155076268.87610626 0 0 0 0 -104231452.95796204 212266270.11818695 0 212266270.11818695 401790509.18805695 0 0 0 0 -32889786.016556501 19083776.283145726 0 19083776.283145726 -5868376.8222372551 0 0 0 0 -28976391.195281982 53457761.551376343 0 53457761.551376343 63292105.991535187 0 0 0 0 -17153989.413230896 41586393.751808167 0 41586393.751808167 9464243.9965209961 0 0 0 0 -25652245.999931276 19561435.475371748 0 19561435.475371748 -9113057.2334365025 0 0 0 0 -57582238.505722046 139122390.98698425 0 139122390.98698425 525281627.06912231 0 0 0 0 -20648531.754669189 42947940.700569153 0 42947940.700569153 12526943.097854614 0 0 0 0 -14233256.593154907 51236257.552894592 0 51236257.552894592 12336916.202064037 0 0 0 0 -9870885.353805542 49457944.45954895 0 49457944.45954895 -4259069.5783996582 0 0 0 0 -26665117.336982727 43648458.029281616 0 43648458.029281616 922859.68371963501 0 0 0 0 -5008146.5550537109 47675100.115882874 0 47675100.115882874 -1618897.8013458252 0 0 0 0 -13521493.267440796 46707614.64604187 0 46707614.64604187 -1710081.6004638672 0 0 0 0 -13446226.500862122 54242337.851631165 0 54242337.851631165 -5835.9289245605469 0 0 0 0 48706628.938064575 20721212.04258728 0 20721212.04258728 -15981645.054412842 0 0 0 0 -11627322.478600919 4646154.8312351257 0 4646154.8312351257 -910381.59057301283 0 0 0 0 -5700119.1018981934 46968748.775169373 0 46968748.775169373 -833224.83377075195 0 0 0 0 17457827.072982788 55401539.075920105 0 55401539.075920105 -7731.0916748046875 0 0 0 0 -6688107.7581176758 17041526.155952454 0 17041526.155952454 -16141484.710662842 0 0 0 0 -10390465.310455322 27470657.114059448 0 27470657.114059448 -7689041.8853988647 0 0 0 0 19213070.13394165 36627765.685272217 0 36627765.685272217 -9102513.3952026367 0 0 0 0 -21695939.810411394 15194260.416740015 0 15194260.416740015 -6215596.9991262704 0 0 0 0 -17252134.886947632 26314546.628143311 0 26314546.628143311 -6153502.8294830322 0 0 0 0 -45417367.449157715 89571448.294296265 0 89571448.294296265 -38308934.389221191 0 0 0 0 -11735099.898521423 41949564.138442993 0 41949564.138442993 7687225.2257080078 0 0 0 0 -44568874.661376953 -58759618.102294922 0 -58759618.102294922 416914825.12657166 0 0 0 0 21535246.475391388 264126938.96081924 0 264126938.96081924 692726409.2227478 0 0 0 0 -5386739.0932005346 -2224778.7979889289 0 -2224778.7979889289 6167640.6429899409 0 0 0 0 -77056300.139099121 82587268.90020752 0 82587268.90020752 455290115.8010025 0 0 0 0 1505062.8910856545 3861864.334853027 0 3861864.334853027 -3295605.7693219632 0 0 0 0 -89051887.512512207 114794824.72305298 0 114794824.72305298 396048942.02490234 0 0 0 0 -260778.34261322021 70278066.801095009 0 70278066.801095009 426711717.42108154 0 0 0 0 -78806170.981994629 78522272.970153809 0 78522272.970153809 463939978.71359062 0 0 0 0 -138503699.91650391 25208460.081542969 0 25208460.081542969 425786506.36746216 0 0 0 0 -136823894.33839417 35696072.550888062 0 35696072.550888062 349656721.30633545 0 0 0 0 -125823392.36703491 -42133476.936859131 0 -42133476.936859131 444260733.22546387 0 0 0 0 -123359860.69967651 -55910653.519744873 0 -55910653.519744873 317761264.25458527 0 0 0 0 -48059713.161529541 9347141.5195159912 0 9347141.5195159912 159742606.86459351 0 0 0 0 -9794776.0337219238 -69357789.919487 0 -69357789.919487 303779611.20098877 0 0 0 0 -66510336.692810059 -1914875.5303344727 0 -1914875.5303344727 331773679.60565948 0 0 0 0 -80026575.554107666 94076222.453613281 0 94076222.453613281 109666755.21008301 0 0 0 0 40812009.429382324 -14709045.347229004 0 -14709045.347229004 116814115.05670166 0 0 0 0 116841231.77154541 -191166752.92532349 0 -191166752.92532349 219468146.34564972 0 0 0 0 -8674894.5477650762 1331988.4254747033 0 1331988.4254747033 -3338747.4319283813 0 0 0 0 -6509168.4674072266 -7506633.4777145386 0 -7506633.4777145386 132582909.9493866 0 0 0 0 -19286141.581802368 6302280.6075439453 0 6302280.6075439453 -15256634.355926514 0 0 0 0 -53044715.043228149 31326164.807655334 0 31326164.807655334 5495218.5137481689 0 0 0 0 -3194842.3564993069 8393063.5912788585 0 8393063.5912788585 -1053838.8177347332 0 0 0 0 -15844303.461229011 13400511.295649551 0 13400511.295649551 -7488665.7935150489 0 0 0 0 4922448.2129821777 -52328892.688308716 0 -52328892.688308716 46824865.778854609 0 0 0 0 -13957095.586362839 11711371.32281208 0 11711371.32281208 -13265798.434448242 0 0 0 0 -7616048.586151123 -50105296.815711975 0 -50105296.815711975 82123813.925369263 0 0 0 0 -10274143.623016357 -3441554.2332000732 0 -3441554.2332000732 46485317.419921875 0 0 0 0 -51469729.035163879 17419452.473542213 0 17419452.473542213 121511725.92034912 0 0 0 0 -15856913.829406738 -19372023.401123047 0 -19372023.401123047 161882964.88585281 0 0 0 0 -10964854.714141846 17745866.216629028 0 17745866.216629028 -10378583.402748108 0 0 0 0 -20445853.666992188 29991240.634277344 0 29991240.634277344 -5504817.4106445312 0 0 0 0 -12329790.288925156 6924320.1496326327 0 6924320.1496326327 -3584605.8575824648 0 0 0 0 -33349688.933563232 25561906.856258392 0 25561906.856258392 -2803846.9383850098 0 0 0 0 -3156342.5402526855 2498105.0406951904 0 2498105.0406951904 -767363.26411437988 0 0 0 0 -9657742.6237551868 12303787.036731832 0 12303787.036731832 -7718967.4947056249 0 0 0 0 -23881176.651611328 13151747.175598145 0 13151747.175598145 -20993533.847045898 0 0 0 0 -12377514.21295166 6410388.6575927734 0 6410388.6575927734 2716154.908782959 0 0 0 0 -406633.22866667807 426286.44680467993 0 426286.44680467993 -276867.56996713579 0 0 0 0 -7670532.7376776636 4232252.0828875825 0 4232252.0828875825 -1509053.8165956587 0 0 0 0 -13206400.747741699 13037546.688751221 0 13037546.688751221 -3997536.140625 0 0 0 0 -5678344.4382324219 20319256.433074951 0 20319256.433074951 -6346768.3144836426 0 0 0 0 -10087206.549346924 10896368.424865723 0 10896368.424865723 -3636978.0382080078 0 0 0 0 -27022872.702148438 19593402.083084106 0 19593402.083084106 -2942595.696472168 0 0 0 0 7820403.9621429443 8639975.8853607178 0 8639975.8853607178 -11927659.159515381 0 0 0 0 -9993574.7480746731 3930264.7867885083 0 3930264.7867885083 -1398996.3519300222 0 0 0 0 -16828294.675598145 26117409.124313354 0 26117409.124313354 -21502.127593994141 0 0 0 0 -40595680.010742188 17885934.735565186 0 17885934.735565186 -2063796.0761413574 0 0 0 0 -14416956.28817749 27877066.847869873 0 27877066.847869873 -7625890.7264404297 0 0 0 0 -4873327205.8745117 2537078735.3117065 0 2537078735.3117065 580750.40021961811 0 0 0 0 410764.25659179688 852449405.84741974 0 852449405.84741974 -511593797.04399109 0 0 0 0 -3840626815.0102234 4872063797.6772842 0 4872063797.6772842 -1786347989.3430405 0 0 0 0 -1032864551.1440887 -574099596.84028625 0 -574099596.84028625 -117051322.02220154 0 0 0 0 -2149353.0070530921 1974684.5630830973 0 1974684.5630830973 -721212.55090333521 0 0 0 0 -78338464.904571533 122923931.7811203 0 122923931.7811203 -182983476.02340698 0 0 0 0 63038565.166107178 -51166673.76020813 0 -51166673.76020813 -439852815.49282455 0 0 0 0 -5780311.9191413075 5977715.2792404443 0 5977715.2792404443 -2163835.8961395025 0 0 0 0 -5404313.8256106079 7688090.329200834 0 7688090.329200834 -3211777.1517859399 0 0 0 0 -400907706.54071808 116287756.15171051 0 116287756.15171051 -645999.06460571289 0 0 0 0 -102444931.63830566 -55275651.83152771 0 -55275651.83152771 -40950746.153808594 0 0 0 0 -318695459.17675781 -31423242.61050415 0 -31423242.61050415 10040189.446807861 0 0 0 0 -177772635.90042114 67630984.971496582 0 67630984.971496582 -26521418.580345154 0 0 0 0 -414584648.99672699 457003807.02299118 0 457003807.02299118 -283996518.41937256 0 0 0 0 -395194982.44709778 141323628.77684069 0 141323628.77684069 3114421.919921875 0 0 0 0 -1723114.5291747898 2707725.333011426 0 2707725.333011426 -6343389.3107928485 0 0 0 0 -1199952.9307540469 2705390.07990814 0 2705390.07990814 -1580135.4657821655 0 0 0 0 -49044262.316459656 34784789.797740936 0 34784789.797740936 -105335775.28823853 0 0 0 0 38865085.413238525 27427946.333496094 0 27427946.333496094 2467267.7955093384 0 0 0 0 -12265742.419219971 83637526.062728882 0 83637526.062728882 181773995.98435974 0 0 0 0 355261.82605524361 1510117.4891729951 0 1510117.4891729951 -6873439.5452294499 0 0 0 0 -80361928.231170654 441123098.38900757 0 441123098.38900757 1239964221.0882721 0 0 0 0 31733.54043988062 -12937412.044793641 0 -12937412.044793641 284667365.90100098 0 0 0 0 337355186.77398682 -285374315.0947113 0 -285374315.0947113 934210951.15722275 0 0 0 0 313318983.03573608 419270125.98603821 0 419270125.98603821 599793676.06828308 0 0 0 0 -120268958.23605347 393710200.42697906 0 393710200.42697906 1167599346.8586121 0 0 0 0 316433718.11703491 -566387668.75353241 0 -566387668.75353241 828805652.76481628 0 0 0 0 -174932983.23883057 108568076.03607178 0 108568076.03607178 77685493.04083252 0 0 0 0 297961.65850698948 2774757.5991368368 0 2774757.5991368368 -781062.44020467997 0 0 0 0 -181297250.98196411 -159738192.68591309 0 -159738192.68591309 1313902966.9898224 0 0 0 0 -57580449.903259277 -195754587.53727722 0 -195754587.53727722 543614853.13638306 0 0 0 0 -191381588.87817383 -19308660.751647949 0 -19308660.751647949 613972302.97175217 0 0 0 0 -72916895.380882263 -88412109.282115936 0 -88412109.282115936 628421444.78216553 0 0 0 0 -177711729.509552 -4730087.3517913818 0 -4730087.3517913818 466069015.22122192 0 0 0 0 -167467020.04327393 -13790834.098106384 0 -13790834.098106384 473718019.68577576 0 0 0 0 -169158107.20918274 101241647.53782654 0 101241647.53782654 281825950.24603271 0 0 0 0 -209252457.17338562 114549843.99396515 0 114549843.99396515 524144106.05270386 0 0 0 0 -195488413.18362427 216054062.55426025 0 216054062.55426025 326418623.89736938 0 0 0 0 -193838386.98977661 208115868.72593689 0 208115868.72593689 288101184.00668669 0 0 0 0 -67860448.96572876 103467562.52654266 0 103467562.52654266 579822789.90283203 0 0 0 0 -264290616.22763062 183402672.88784027 0 183402672.88784027 741050561.35648346 0 0 0 0 -235105755.87057495 401455443.49762726 0 401455443.49762726 452328059.5222702 0 0 0 0 -100538138.05418396 262483601.72493744 0 262483601.72493744 23445831.883071899 0 0 0 0 -287628098.53656006 414873496.50436401 0 414873496.50436401 132593410.2171936 0 0 0 0 -19943903.783126831 373410078.06213379 0 373410078.06213379 -331564181.40148926 0 0 0 0 -158444962.91775513 169903806.18412781 0 169903806.18412781 276983798.38078308 0 0 0 0 -70011738.539031982 666490083.0488205 0 666490083.0488205 -680846881.61550617 0 0 0 0 179182569.53947449 368229814.71958351 0 368229814.71958351 -333758585.40565491 0 0 0 0 -629738577.58921814 448523493.18984222 0 448523493.18984222 -41952295.290512085 0 0 0 0 -197186554.19355774 -53954520.334976196 0 -53954520.334976196 -666361135.71587372 0 0 0 0 103236759.74703979 -90616138.830848694 0 -90616138.830848694 -218187526.59599304 0 0 0 0 -48987.01198246119 171416020.08633637 0 171416020.08633637 339667197.30715942 0 0 0 0 91417906.416610718 82874126.99269104 0 82874126.99269104 176280389.80982971 0 0 0 0 -54136825.645252228 288939960.00091553 0 288939960.00091553 27655138.283966064 0 0 0 0 -1460363725.3550243 2026123255.6732407 0 2026123255.6732407 -1636259368.777771 0 0 0 0 -20145443.975799877 35131512.192520797 0 35131512.192520797 -34305840.322961383 0 0 0 0 -143399357.59883881 167617268.7171936 0 167617268.7171936 -263589426.2159729 0 0 0 0 355827616.08115387 1466984485.8922119 0 1466984485.8922119 -1306696877.4696503 0 0 0 0 1497193358.6685486 865415784.88665771 0 865415784.88665771 -1966247919.5516052 0 0 0 0 3571343146.8819809 -261609593.95414734 0 -261609593.95414734 -1355779459.8632965 0 0 0 0 1068233044.0620346 1109368029.815506 0 1109368029.815506 1280825983.5617676 0 0 0 0 401783104.51835632 1204942169.4290619 0 1204942169.4290619 -527323285.34694862 0 0 0 0 236986762.56239319 688754974.56884003 0 688754974.56884003 -802525752.97015762 0 0 0 0 -5575972.932247337 8049558.2817958854 0 8049558.2817958854 1105123.3714637458 0 0 0 0 540917423.15997314 995233791.37298584 0 995233791.37298584 -1026232313.381485 0 0 0 0 51164882.08984375 685618013.44496155 0 685618013.44496155 -776800778.98339844 0 0 0 0 59952713.479522705 706790098.66638947 0 706790098.66638947 -1348823584.3943787 0 0 0 0 -586882622.75313187 520396570.01187801 0 520396570.01187801 -1309999610.6208954 0 0 0 0 -529745015.79969788 808732897.29840851 0 808732897.29840851 -895520419.66312408 0 0 0 0 -371363004.9480896 1120608739.7691116 0 1120608739.7691116 103538221.08351135 0 0 0 0 -426049264.4854126 678257028.28588676 0 678257028.28588676 -80989668.752426147 0 0 0 0 -265739898.16472626 453444331.92343712 0 453444331.92343712 -866454843.51011658 0 0 0 0 -122530055.0608902 955302163.39318466 0 955302163.39318466 -613874673.48490906 0 0 0 0 354324306.84614563 613136768.09479523 0 613136768.09479523 -934590141.40925598 0 0 0 0 201288481.40469456 470582414.6762104 0 470582414.6762104 1188738064.9777679 0 0 0 0 -28831481.735037606 29810849.010633029 0 29810849.010633029 -19107137.003057435 0 0 0 0 269444176.95985413 845353351.52907372 0 845353351.52907372 489891275.63793945 0 0 0 0 1210432527.0336456 1539499188.7740784 0 1539499188.7740784 -351878050.20420074 0 0 0 0 884785357.45690918 1053876173.1104279 0 1053876173.1104279 1785022152.7488251 0 0 0 0 468696665.8956604 247003932.37512207 0 247003932.37512207 1293479862.0963898 0 0 0 0 614771558.92475414 848723917.53185654 0 848723917.53185654 1303351611.2784119 0 0 0 0 -44421040.189041138 1406684197.2964478 0 1406684197.2964478 1674509829.6138878 0 0 0 0 -155513838.40065002 985128065.15996552 0 985128065.15996552 2094410769.5257568 0 0 0 0 131320727.13880157 2059149384.9317017 0 2059149384.9317017 1637992190.2889709 0 0 0 0 -2812637.043252293 4591245.284833245 0 4591245.284833245 -1088671.2728551552 0 0 0 0 -39740785.284858704 376778729.15979004 0 376778729.15979004 1130632189.3115311 0 0 0 0 -383653278.43119049 413749541.99443054 0 413749541.99443054 2019159480.8287354 0 0 0 0 -458571775.22636795 1031015442.1415329 0 1031015442.1415329 157018594.25460815 0 0 0 0 -169052703.81654358 815057679.30270386 0 815057679.30270386 1417573233.5158691 0 0 0 0 168255160.46685028 380765660.77301025 0 380765660.77301025 366477756.89120483 0 0 0 0 634996616.91295624 458982581.32748413 0 458982581.32748413 -167053238.42303467 0 0 0 0 -225278769.27949524 264025656.28122711 0 264025656.28122711 3024316702.5519409 0 0 0 0 91259317.339450836 39010620.305160522 0 39010620.305160522 1439210374.6227722 0 0 0 0 1261932128.3296661 534585431.74430847 0 534585431.74430847 2144548829.4486084 0 0 0 0 390797803.77100372 1717867044.9214935 0 1717867044.9214935 218616809.73464966 0 0 0 0 -493064656.61680603 2029715350.7131348 0 2029715350.7131348 894468332.60961914 0 0 0 0 -608212450.66676331 1449515432.579071 0 1449515432.579071 733742932.1003418 0 0 0 0 -463254556.43882895 1771357883.5972652 0 1771357883.5972652 164952949.86810303 0 0 0 0 -492090524.79249573 1266380515.2368774 0 1266380515.2368774 -123720043.92044067 0 0 0 0 -1403628552.3371658 997767144.30749512 0 997767144.30749512 -361804753.23672485 0 0 0 0 -1435643480.7536087 -659105976.77587891 0 -659105976.77587891 4681635367.5582886 0 0 0 0 -884622.75547321141 2849076.0152864829 0 2849076.0152864829 1826033.0071157664 0 0 0 0 25465120.011192322 1175872265.6079407 0 1175872265.6079407 1312107239.410553 0 0 0 0 325597601.46607399 1113097361.149765 0 1113097361.149765 335790871.45846558 0 0 0 0 55668123.869691849 435677543.58937073 0 435677543.58937073 -49271645.468643188 0 0 0 0 -1723328.7859841846 2598761.1329539642 0 2598761.1329539642 -644769.24657503515 0 0 0 0 111672839.63358021 1076446656.2788315 0 1076446656.2788315 365115478.76161194 0 0 0 0 122746601.96320343 221910415.33312225 0 221910415.33312225 866120595.02317047 0 0 0 0 90597028.954989672 368284416.45542526 0 368284416.45542526 227314018.85736084 0 0 0 0 114033415.84730387 436011496.1579895 0 436011496.1579895 306757024.2593689 0 0 0 0 -301463168.82874489 348994256.806633 0 348994256.806633 2170729142.100975 0 0 0 0 439923.56110942364 9367880.2073475942 0 9367880.2073475942 4230767.4915589169 0 0 0 0 -140662918.58561897 894125882.22858429 0 894125882.22858429 251561338.81539154 0 0 0 0 219384520.71574402 641939052.17851257 0 641939052.17851257 394104180.47496033 0 0 0 0 53269877.835571289 959895894.49813461 0 959895894.49813461 469815744.85559082 0 0 0 0 200280754.45889711 806420405.86831284 0 806420405.86831284 57473791.964569092 0 0 0 0 205062944.27554989 791930377.65364075 0 791930377.65364075 93420835.947433472 0 0 0 0 312944077.24980164 561592652.61697388 0 561592652.61697388 -599926983.48852921 0 0 0 0 161103520.35353661 1089228907.1496506 0 1089228907.1496506 -388558734.64353943 0 0 0 0 75853142.52970314 263165586.70709991 0 263165586.70709991 -1467706509.7071915 0 0 0 0 619237093.70040894 -789632133.13036346 0 -789632133.13036346 -1956843856.3052673 0 0 0 0 -1834596054.2798615 60347366.747871399 0 60347366.747871399 -165277952.21115875 0 0 0 0 -1480752478.8781013 1401409981.9261703 0 1401409981.9261703 -472026756.76348877 0 0 0 0 1358196638.877573 1387785466.1304893 0 1387785466.1304893 -2735644938.6179504 0 0 0 0 1313104716.9971008 2675752626.7772369 0 2675752626.7772369 -1081818201.5454254 0 0 0 0 -1944919349.9441471 -602347487.58034134 0 -602347487.58034134 405612476.41479492 0 0 0 0 -353083.17556779087 5171415.8430728875 0 5171415.8430728875 -4707535.8642501086 0 0 0 0 -877946480.2497139 19058518.713710785 0 19058518.713710785 150090716.46081543 0 0 0 0 -286540278.13976669 715533428.11314392 0 715533428.11314392 592564133.29756737 0 0 0 0 432921681.91038513 920471407.37852478 0 920471407.37852478 -228887660.54785156 0 0 0 0 61440142.557387233 408597385.98782349 0 408597385.98782349 119807364.52558899 0 0 0 0 56317.497227964923 17396575.261617512 0 17396575.261617512 -12721897.39118959 0 0 0 0 -248571562.87405777 -94281851.431365967 0 -94281851.431365967 36203095.106172562 0 0 0 0 -4390985.1079740524 94335213.150886536 0 94335213.150886536 -35956188.101898193 0 0 0 0 6386367.2025596527 34483967.2735314 0 34483967.2735314 -18317167.145389125 0 0 0 0 95657735.140527725 -501235726.49862671 0 -501235726.49862671 -3960705.9415893555 0 0 0 0 -130275816.54866481 140479351.7354188 0 140479351.7354188 37544056.308792114 0 0 0 0 -31290410.681976318 180145244.68843079 0 180145244.68843079 12186227.261428833 0 0 0 0 -134555933.62670994 76844029.608664513 0 76844029.608664513 64466.727767944336 0 0 0 0 -149664665.45673132 -191555521.79217529 0 -191555521.79217529 -347051838.59094238 0 0 0 0 8644718.7258435357 3396175.8159881309 0 3396175.8159881309 -11164481.673914954 0 0 0 0 623098755.29050827 68244239.562484741 0 68244239.562484741 -136800862.76817322 0 0 0 0 306688731.0908432 410510772.50228882 0 410510772.50228882 -235386316.35700035 0 0 0 0 -100682319.48524475 154794135.71151733 0 154794135.71151733 43354326.250614166 0 0 0 0 -155548472.1649704 243083347.07782745 0 243083347.07782745 66537495.396728516 0 0 0 0 -61706588.436306 278666807.23892212 0 278666807.23892212 142805532.30172729 0 0 0 0 -56493139.530727386 230496131.00566864 0 230496131.00566864 -77222018.030700684 0 0 0 0 -89291373.322601318 424672289.04519653 0 424672289.04519653 -90167967.716217041 0 0 0 0 125584857.64949799 216137860.36228943 0 216137860.36228943 54552490.593048096 0 0 0 0 178020103.53525734 82416591.377006531 0 82416591.377006531 108239911.75231934 0 0 0 0 295755968.66064453 117400883.99897766 0 117400883.99897766 -72869418.544799805 0 0 0 0 448656510.68539429 -176008649.09371948 0 -176008649.09371948 185951950.30623627 0 0 0 0 -178383863.50898361 145669425.31803513 0 145669425.31803513 969329724.62231445 0 0 0 0 -479545348.48472595 1562507746.6214294 0 1562507746.6214294 161992090.94702148 0 0 0 0 -394319749.88698578 -893241760.92515564 0 -893241760.92515564 2143273867.4552002 0 0 0 0 963151.97792579979 4097505.552604042 0 4097505.552604042 -3281741.1551530035 0 0 0 0 359572525.08979988 176846090.10596085 0 176846090.10596085 -53001766.662902832 0 0 0 0 24207282.593227092 5082072.4976635166 0 5082072.4976635166 -28488901.237528834 0 0 0 0 287507879.23556137 -447116549.15881348 0 -447116549.15881348 382975325.86322021 0 0 0 0 56408.226226806641 14288527.438781738 0 14288527.438781738 -7191249.1506748199 0 0 0 0 66436989.161819458 67939281.762237549 0 67939281.762237549 -268452507.41848755 0 0 0 0 4822266.4081578329 29215681.979015995 0 29215681.979015995 -32773435.310377441 0 0 0 0 77677807.673667908 66834499.561782837 0 66834499.561782837 58282037.148925781 0 0 0 0 5705300.1572527951 20521470.356731489 0 20521470.356731489 -25974990.026809558 0 0 0 0 83193651.159332275 -12182874.770324707 0 -12182874.770324707 -94480746.109397888 0 0 0 0 31629880.594667919 7630518.1260443944 0 7630518.1260443944 -31076713.264878005 0 0 0 0 132390604.97328186 -93249916.523574829 0 -93249916.523574829 -200429336.54940796 0 0 0 0 190643070.10150146 -98031453.301147461 0 -98031453.301147461 -400426966.32333374 0 0 0 0 258460379.15515137 28892858.067001343 0 28892858.067001343 -274187983.34305573 0 0 0 0 237802477.08261108 -18267207.724464417 0 -18267207.724464417 -385429413.09591866 0 0 0 0 162397558.49505615 610242395.84273911 0 610242395.84273911 -578918796.49639893 0 0 0 0 445702247.91983032 23198473.476329803 0 23198473.476329803 -449880986.32959747 0 0 0 0 -608652.27975526918 9916881.7907392308 0 9916881.7907392308 -9861496.8988555372 0 0 0 0 -6519363.5868431851 41803432.900572009 0 41803432.900572009 -48501839.856613606 0 0 0 0 533566754.2176075 240661078.87114048 0 240661078.87114048 -254429559.74334717 0 0 0 0 357151010.72950745 -101193493.12088776 0 -101193493.12088776 -477332150.84661865 0 0 0 0 198168240.0928421 -108427854.95942879 0 -108427854.95942879 -567754968.76344299 0 0 0 0 135345616.81612778 355577069.94754124 0 355577069.94754124 -770728449.46202087 0 0 0 0 165572096.74810791 211864191.84872437 0 211864191.84872437 -169299472.69950104 0 0 0 0 118419814.08435822 599454016.28152084 0 599454016.28152084 -674773889.36642456 0 0 0 0 -18305956.498757128 46295086.545388043 0 46295086.545388043 -46225621.259864353 0 0 0 0 336342813.08530045 -193907290.91184235 0 -193907290.91184235 -627121897.54580688 0 0 0 0 16769128.6754077 -3510505.8133427352 0 -3510505.8133427352 -12465978.716225922 0 0 0 0 1180847014.5856667 2995583284.9064636 0 2995583284.9064636 114432448.39845276 0 0 0 0 -590923987.04843903 724741761.63001251 0 724741761.63001251 -1281544637.4998627 0 0 0 0 -690556146.29973602 517954633.64096069 0 517954633.64096069 -1581446613.4171448 0 0 0 0 -260060918.96502686 359147222.05254364 0 359147222.05254364 -1096331554.0344696 0 0 0 0 144695170.48098755 333668033.52628326 0 333668033.52628326 -844222750.6390686 0 0 0 0 113324970.17851257 454161604.12305069 0 454161604.12305069 -1282346713.2518311 0 0 0 0 264269176.24320984 670438150.1097374 0 670438150.1097374 -1073845910.5501709 0 0 0 0 -106549552.43026733 248038653.90863037 0 248038653.90863037 -885463902.6884079 0 0 0 0 172234462.00184631 -80573288.342712402 0 -80573288.342712402 -1025497739.8202858 0 0 0 0 -50364406.594944 317457106.04358864 0 317457106.04358864 -1605958354.9431763 0 0 0 0 -269837035.22412109 48866845.368011475 0 48866845.368011475 -1117062293.2766266 0 0 0 0 -165924790.38034058 -380338281.10249901 0 -380338281.10249901 -648513848.96992493 0 0 0 0 -79934060.311691284 179323315.6856842 0 179323315.6856842 -1027624228.9295959 0 0 0 0 219510057.17355347 36169766.657516479 0 36169766.657516479 -331632003.5220108 0 0 0 0 126337884.62103271 -215842273.88343048 0 -215842273.88343048 -507599491.92881513 0 0 0 0 78421327.226905823 -13210945.724945068 0 -13210945.724945068 -511218553.43165588 0 0 0 0 1889015.4808197021 -312388794.01496124 0 -312388794.01496124 -122572889.45272827 0 0 0 0 22160694.215216465 5856261.5091360062 0 5856261.5091360062 -18648345.309714671 0 0 0 0 159557825.29112244 7034369.8363723755 0 7034369.8363723755 -42568222.642341614 0 0 0 0 26287006.140457153 -94101504.262195587 0 -94101504.262195587 -198272245.50992203 0 0 0 0 26217567.122292653 -30652069.261920407 0 -30652069.261920407 25296990.256820679 0 0 0 0 9720908.7332550362 1333565.5187312104 0 1333565.5187312104 -7772280.5687215328 0 0 0 0 18662961.785904393 5127288.9686339349 0 5127288.9686339349 -15796362.187666511 0 0 0 0 -114790835.33616638 -9741189.7204284668 0 -9741189.7204284668 71894477.336105347 0 0 0 0 -305305592.01457214 -68833705.223047256 0 -68833705.223047256 146193968.10038757 0 0 0 0 29394729.082366943 -116391064.65405273 0 -116391064.65405273 113510497.54651642 0 0 0 0 -101418870.42238235 162628222.31326675 0 162628222.31326675 -73305637.150390625 0 0 0 0 93589212.492462158 53216641.354446411 0 53216641.354446411 -14612607.033752441 0 0 0 0 2225714.2392038405 5278959.8605135344 0 5278959.8605135344 -6434489.5648359172 0 0 0 0 -66353595.368637085 604101881.0014782 0 604101881.0014782 -196044282.51502991 0 0 0 0 1978201179.3499451 -27077032.58065033 0 -27077032.58065033 -196876414.55804825 0 0 0 0 791035.28534798324 1869452.2373052668 0 1869452.2373052668 -936604.30674244696 0 0 0 0 -209100.90701526403 3001720.5372729115 0 3001720.5372729115 -1965868.716865547 0 0 0 0 366746426.6242981 625309877.83801842 0 625309877.83801842 -2688676153.0457153 0 0 0 0 -384962275.90859032 112114051.30983925 0 112114051.30983925 -82141765.104598999 0 0 0 0 -308508107.36553955 -316954224.46660614 0 -316954224.46660614 -886099636.51879883 0 0 0 0 -1751803310.1904755 1039037101.7939148 0 1039037101.7939148 63685904.475898743 0 0 0 0 -3732389827.48526 2308045784.2218552 0 2308045784.2218552 -689915283.31587219 0 0 0 0 468135327.08627319 1142590008.256012 0 1142590008.256012 -312458740.9018631 0 0 0 0 180885654.94613647 1863345818.3370667 0 1863345818.3370667 608689936.53882217 0 0 0 0 -1487037736.0535278 2060475045.0672455 0 2060475045.0672455 -230213597.24729156 0 0 0 0 -1078453449.2488098 984775281.54263306 0 984775281.54263306 46641937.279891968 0 0 0 0 -2322554444.6105957 2653042369.7830849 0 2653042369.7830849 -2004239348.2049065 0 0 0 0 -1947482344.0905838 1769668164.0939064 0 1769668164.0939064 -161188465.07653809 0 0 0 0 -4339376901.2950745 3558289464.4489136 0 3558289464.4489136 -1987618556.6371918 0 0 0 0 -3360103311.4428482 2260417191.2562714 0 2260417191.2562714 -281409540.22674561 0 0 0 0 -2314767977.8999176 1850867283.7339172 0 1850867283.7339172 -247476526.04503632 0 0 0 0 -2723124084.6471252 2049971770.9380894 0 2049971770.9380894 -282643331.91665649 0 0 0 0 -2163653346.6403141 2685780348.2494068 0 2685780348.2494068 -838768589.99912262 0 0 0 0 -2419828805.3594513 2353125408.0851059 0 2353125408.0851059 -1129621053.2448349 0 0 0 0 -2246720316.2446136 1961439411.1279755 0 1961439411.1279755 -731934633.43154907 0 0 0 0 -2127024554.472847 1667969564.5858917 0 1667969564.5858917 -1086698889.3722687 0 0 0 0 -2358254572.3876953 1178922091.956665 0 1178922091.956665 -884055501.69886017 0 0 0 0 -1294630445.5774078 924107074.4509964 0 924107074.4509964 -228405825.33082962 0 0 0 0 -2702107653.4647217 1575800174.7363586 0 1575800174.7363586 -441265782.4655304 0 0 0 0 -2126526486.5086288 1725587399.9865227 0 1725587399.9865227 -545236269.59030151 0 0 0 0 -1632141804.5259399 746720347.57043076 0 746720347.57043076 -189911995.68884277 0 0 0 0 -775310928.4908371 364085731.82382584 0 364085731.82382584 -90154593.357040405 0 0 0 0 -380312228.09181595 1529357291.4555511 0 1529357291.4555511 -228514149.86695862 0 0 0 0 -911495482.88784027 442055748.53542709 0 442055748.53542709 24326209.405105591 0 0 0 0 -2809826885.9358292 1614487971.1160278 0 1614487971.1160278 -73187689.952106476 0 0 0 0 -2709045859.2089539 1217007916.0024796 0 1217007916.0024796 -409483529.61810303 0 0 0 0 -2334594719.2277832 1374792976.7558441 0 1374792976.7558441 -202264106.10984802 0 0 0 0 -2798701593.6674271 928385450.89028931 0 928385450.89028931 -1132314313.1731262 0 0 0 0 -3201216159.3648224 1320666379.512619 0 1320666379.512619 -1497914869.5913773 0 0 0 0 -4698374456.5284729 1846107053.8576965 0 1846107053.8576965 -950296815.40652466 0 0 0 0 -1961517298.9192505 981852916.94288635 0 981852916.94288635 -1489432879.0456772 0 0 0 0 -1936553950.410675 663149276.29720306 0 663149276.29720306 -1081747645.2472382 0 0 0 0 -3279169562.6986542 945905259.32408905 0 945905259.32408905 -1053582541.9579697 0 0 0 0 -1716355059.384903 773229421.82626343 0 773229421.82626343 -1216241489.0042496 0 0 0 0 -1723356788.2312021 1130955431.0792778 0 1130955431.0792778 -1403196030.457428 0 0 0 0 -331492239.72108364 742612178.35724545 0 742612178.35724545 -2099960961.1030273 0 0 0 0 -3517082591.1596527 1892228484.3937531 0 1892228484.3937531 -1444560133.1007576 0 0 0 0 -2096836538.0336418 1778512781.4122353 0 1778512781.4122353 -2512446971.2579346 0 0 0 0 -3344520056.9925385 808999295.94147491 0 808999295.94147491 -1144170584.7858124 0 0 0 0 206271881.20514297 -657201132.96216583 0 -657201132.96216583 953729215.88244629 0 0 0 0 -103560954.79370117 41013622.333171844 0 41013622.333171844 40799535.401283264 0 0 0 0 -6782798.1150230765 17741666.901072655 0 17741666.901072655 17437230.094956353 0 0 0 0 -19499092.486686707 18918085.878368378 0 18918085.878368378 16991730.279098511 0 0 0 0 -54639615.682830811 14290695.969070435 0 14290695.969070435 6702307.239440918 0 0 0 0 -26914473.726892047 4034767.2176658474 0 4034767.2176658474 19399427.694350287 0 0 0 0 -18301306.669675879 -249823.03571762517 0 -249823.03571762517 14864641.814114839 0 0 0 0 -7851280.9066027291 6145697.380126033 0 6145697.380126033 3239.2783918604255 0 0 0 0 6305242.1403274536 -36319299.769319534 0 -36319299.769319534 26166742.870231628 0 0 0 0 -100392561.52996063 -24812605.639797211 0 -24812605.639797211 79922544.065513611 0 0 0 0 -229760036.84301758 -139927721.59887505 0 -139927721.59887505 -100947213.39129639 0 0 0 0 -1113805720.0168762 254843240.5309639 0 254843240.5309639 70043018.453536987 0 0 0 0 -2062499017.401947 -1273309801.0488682 0 -1273309801.0488682 -791845870.36497116 0 0 0 0 -25339923.764587402 -519754.81873321533 0 -519754.81873321533 -9427217.4564056396 0 0 0 0 -3542323.7683212757 1431140.9065159857 0 1431140.9065159857 2230416.3811955154 0 0 0 0 -5634446287.5462017 1098873882.3467255 0 1098873882.3467255 636678436.97568512 0 0 0 0 -1892825870.4475708 -100915531.32778168 0 -100915531.32778168 650809210.18179178 0 0 0 0 -1658292593.8787003 516628148.80502319 0 516628148.80502319 254397881.73854828 0 0 0 0 -3719703701.6749954 1017838639.0386887 0 1017838639.0386887 254600139.43837738 0 0 0 0 -1578115709.8764343 432672523.13272858 0 432672523.13272858 -30359825.309112549 0 0 0 0 -1186526819.4290009 211338852.50967407 0 211338852.50967407 26816205.118679047 0 0 0 0 -1181163870.5988159 201791228.54402161 0 201791228.54402161 203325194.12281799 0 0 0 0 -1042717744.5176048 11065911.344888687 0 11065911.344888687 212870211.31814575 0 0 0 0 -1215076191.761879 222355335.91934586 0 222355335.91934586 110445251.97906494 0 0 0 0 -708513.71655556932 3647014.3752525784 0 3647014.3752525784 -1646505.5512409508 0 0 0 0 -42214828.509059906 -244957115.33976173 0 -244957115.33976173 132774844.70198059 0 0 0 0 -1319165795.8965607 9498991.2501602173 0 9498991.2501602173 127220365.55370903 0 0 0 0 -976342514.62795258 12506563.426555634 0 12506563.426555634 -8493953.811882019 0 0 0 0 -2176280.5320206024 8586819.7663476355 0 8586819.7663476355 9597655.6777264476 0 0 0 0 -163825378.62304401 124425690.80799294 0 124425690.80799294 2902685.5575942993 0 0 0 0 1336271921.5777435 -1969302880.3302002 0 -1969302880.3302002 235635304.83989334 0 0 0 0 -79228172.468978882 -236213453.06430054 0 -236213453.06430054 759648815.83491516 0 0 0 0 -744524145.60768127 -143494873.79203796 0 -143494873.79203796 1146844370.1000671 0 0 0 0 -2722204829.7920532 1755135136.893959 0 1755135136.893959 -367740788.31028938 0 0 0 0 -1038779118.2050514 2059839579.2716141 0 2059839579.2716141 -1649716418.1902161 0 0 0 0 -1448841313.9031982 1042019668.8538284 0 1042019668.8538284 -1300510255.8838501 0 0 0 0 -578547497.74407196 -321746281.51329041 0 -321746281.51329041 -4218771625.8282471 0 0 0 0 -511244706.461689 -1302191602.796824 0 -1302191602.796824 -1164546191.887619 0 0 0 0 -20723130.57460022 1348818671.2215195 0 1348818671.2215195 -2302527230.3069153 0 0 0 0 269776151.36927414 123051982.97509384 0 123051982.97509384 -402819499.69812012 0 0 0 0 1876631151.6602859 300064352.73207855 0 300064352.73207855 -1201328654.0424805 0 0 0 0 527839966.38264465 1048602469.7919617 0 1048602469.7919617 -1321787263.425415 0 0 0 0 -715937954.7134819 1072617716.6015987 0 1072617716.6015987 -419179296.81607056 0 0 0 0 464944618.17014599 -18976955.794155359 0 -18976955.794155359 544795835.54969788 0 0 0 0 320023931.05309296 815396417.54865265 0 815396417.54865265 -382256663.73306274 0 0 0 0 864844820.88577652 -506694002.31842422 0 -506694002.31842422 563686802.14524841 0 0 0 0 2429627880.9421997 -1291471624.2331142 0 -1291471624.2331142 -405087937.19535828 0 0 0 0 -875874533.99363708 21640701.881614685 0 21640701.881614685 130739604.80436707 0 0 0 0 -859826836.88879395 433487839.51523209 0 433487839.51523209 -125909304.18009758 0 0 0 0 1592954.7387849391 4655263.652306322 0 4655263.652306322 1912906.178046599 0 0 0 0 -821873600.66186523 422972048.21726227 0 422972048.21726227 -326618850.19799042 0 0 0 0 -925583347.09205627 80500339.439399719 0 80500339.439399719 76792706.508041382 0 0 0 0 -845369895.87644958 179434582.12391663 0 179434582.12391663 198632703.14652634 0 0 0 0 -1389309360.4088974 942475813.60865021 0 942475813.60865021 -10407246.754703522 0 0 0 0 2146669.427577354 2182058.4810561761 0 2182058.4810561761 -1113627.1856921986 0 0 0 0 -1067214569.6799011 270555134.69301605 0 270555134.69301605 483562785.77575684 0 0 0 0 -861460586.49716187 735046654.41653442 0 735046654.41653442 574369097.43621826 0 0 0 0 -822486623.86505699 1020414170.2944279 0 1020414170.2944279 95475575.532043457 0 0 0 0 -539890995.56524849 -415737293.90642071 0 -415737293.90642071 -195009067.57566833 0 0 0 0 -2573919271.9577026 -190664395.54128265 0 -190664395.54128265 119641568.48538971 0 0 0 0 -1744783925.3439484 990054094.38163757 0 990054094.38163757 -355635637.57595825 0 0 0 0 -458027259.38775635 745860404.8850708 0 745860404.8850708 -346125692.28742981 0 0 0 0 -887850099.43048859 1120604731.2538834 0 1120604731.2538834 -294032354.24723816 0 0 0 0 -587127059.13278961 1114179114.4782562 0 1114179114.4782562 -560630093.17483521 0 0 0 0 -3504039.7702178955 737043421.30508423 0 737043421.30508423 -191322163.9662323 0 0 0 0 -704282738.03373718 1622957380.1170502 0 1622957380.1170502 -699572262.88817978 0 0 0 0 -629468610.73468781 1339959635.2442322 0 1339959635.2442322 -317888239.49822998 0 0 0 0 -222193113.19941711 688761561.51725769 0 688761561.51725769 1726935.9645233154 0 0 0 0 -977541780.50033569 1265703270.9395294 0 1265703270.9395294 -287306824.42910767 0 0 0 0 -969879573.50510883 1299135168.8231802 0 1299135168.8231802 -445667689.30944824 0 0 0 0 -1389936602.1678619 1168763952.478363 0 1168763952.478363 -442076804.35702515 0 0 0 0 -1349486224.537735 1071374924.4799805 0 1071374924.4799805 -354570151.6295166 0 0 0 0 -2033359500.5667725 1049890508.7693787 0 1049890508.7693787 -169550504.73207092 0 0 0 0 -1728295247.7478638 1175665527.1472321 0 1175665527.1472321 -118973892.29541016 0 0 0 0 -2039538304.9341736 1294682104.8812256 0 1294682104.8812256 71948006.231201172 0 0 0 0 -1517568137.7386475 1477122279.4887848 0 1477122279.4887848 -154614192.31362915 0 0 0 0 -1398088896.9513931 1262463553.7070007 0 1262463553.7070007 -209373417.56134033 0 0 0 0 -1754844930.4512024 1734431714.653244 0 1734431714.653244 -376537311.30333328 0 0 0 0 -2712532697.7497597 1306380708.64888 0 1306380708.64888 93127268.961914062 0 0 0 0 -4286713783.1019173 -765190224.13653564 0 -765190224.13653564 -466252563.83834839 0 0 0 0 -3617706002.8995972 121832105.41647339 0 121832105.41647339 -448758751.60043311 0 0 0 0 -3434801881.4790497 -240581495.55222321 0 -240581495.55222321 75251597.838378906 0 0 0 0 -2175926440.7510223 587196701.01171875 0 587196701.01171875 -545074249.8812809 0 0 0 0 -1497118967.2593689 -278126352.27162933 0 -278126352.27162933 -79962833.219360352 0 0 0 0 -2143427272.7734375 -116981044.69204712 0 -116981044.69204712 -608871386.26403141 0 0 0 0 -1851051214.6803131 880678989.64883423 0 880678989.64883423 -863922638.2590332 0 0 0 0 -3675871725.3893585 341935834.41117859 0 341935834.41117859 -740949579.15061951 0 0 0 0 -6557822733.8732681 358886889.27893066 0 358886889.27893066 172087103.50695801 0 0 0 0 -3532282422.7512512 894828982.73303223 0 894828982.73303223 -784429661.74334717 0 0 0 0 -3230510.9963526353 7107588.7432457209 0 7107588.7432457209 246758.18072122335 0 0 0 0 -68156794.990592957 -106452457.28498077 0 -106452457.28498077 -377845859.00761414 0 0 0 0 -3023817.7206793148 4795224.0746013895 0 4795224.0746013895 2243133.5234012082 0 0 0 0 915761281.17766571 1057052089.5425186 0 1057052089.5425186 -468476422.19062805 0 0 0 0 577819625.93585968 3602687.0310592651 0 3602687.0310592651 -119123487.87252808 0 0 0 0 -399377271.99789429 -137684458.29196548 0 -137684458.29196548 522730829.38746643 0 0 0 0 -171621858.20635986 550891395.06429291 0 550891395.06429291 37501656.000802994 0 0 0 0 -673157576.73249054 -37102564.217475891 0 -37102564.217475891 310293246.08572388 0 0 0 0 -848131114.44553757 342552682.0897789 0 342552682.0897789 319895504.45214844 0 0 0 0 -805506755.85585785 308371861.32956314 0 308371861.32956314 159843618.84977722 0 0 0 0 -904668054.74477386 437551518.06417084 0 437551518.06417084 208378226.99721527 0 0 0 0 -5472037.4569944516 8435507.0486843754 0 8435507.0486843754 4011220.184549503 0 0 0 0 -772157468.26246643 357348756.99211121 0 357348756.99211121 29480500.571655273 0 0 0 0 -740383608.39759827 289113608.40129852 0 289113608.40129852 139202088.75794983 0 0 0 0 -789149823.00961304 255789339.47151184 0 255789339.47151184 246333122.60592651 0 0 0 0 -6473974.6572410846 14903132.227762796 0 14903132.227762796 -1555735.0156825036 0 0 0 0 425909990.17916489 558163009.50602341 0 558163009.50602341 -421542190.70483398 0 0 0 0 -3144859.61597321 4717514.9519253299 0 4717514.9519253299 2406372.1819564998 0 0 0 0 -231654045.00733185 -279466250.33010483 0 -279466250.33010483 -151286688.52020264 0 0 0 0 -2840325242.1350861 576194817.35467529 0 576194817.35467529 180851514.94079208 0 0 0 0 -3287223165.5809555 -731967420.72219086 0 -731967420.72219086 -101714945.73678589 0 0 0 0 -2055228110.5843658 289966373.63074493 0 289966373.63074493 -129433461.718647 0 0 0 0 -4528115072.8842487 -237940559.59549904 0 -237940559.59549904 486977998.18618774 0 0 0 0 -2102181631.2146301 545855103.41749573 0 545855103.41749573 448480495.12511826 0 0 0 0 -524223721.12454605 -574720536.94544601 0 -574720536.94544601 1011476168.7626343 0 0 0 0 -1431106205.3394699 1089836838.2293854 0 1089836838.2293854 663617100.00563812 0 0 0 0 -24950030.042022839 21260610.468390521 0 21260610.468390521 -9810097.2023136914 0 0 0 0 524019202.28822327 2159242301.3863983 0 2159242301.3863983 1001252411.643158 0 0 0 0 32067562.97807312 539727780.06785583 0 539727780.06785583 2019203048.2159729 0 0 0 0 1544834439.0751266 205647183.26669312 0 205647183.26669312 566190519.28285217 0 0 0 0 547105978.90109253 1046503878.4564972 0 1046503878.4564972 -142035448.27087402 0 0 0 0 -10655179.787524998 7865630.9850587286 0 7865630.9850587286 -2706369.1107907742 0 0 0 0 1592971803.1224132 2042121487.9559016 0 2042121487.9559016 -751602305.77520752 0 0 0 0 -6251984724.4040146 -2556054688.4001617 0 -2556054688.4001617 2014536284.6029434 0 0 0 0 -1499281469.9508152 19462996.993097782 0 19462996.993097782 121480737.71691895 0 0 0 0 -3046707938.2828217 -117912686.18106079 0 -117912686.18106079 492931150.7698288 0 0 0 0 -6900167.4913116321 17141058.927133031 0 17141058.927133031 -8474949.4631528109 0 0 0 0 -3747361907.1823654 158379613.63369751 0 158379613.63369751 797250501.0280304 0 0 0 0 -1638858042.8658829 22593618.077964783 0 22593618.077964783 292391351.00566101 0 0 0 0 -763962351.54023743 739532444.07838821 0 739532444.07838821 41918658.663101196 0 0 0 0 -2244686736.1676712 303126523.98761749 0 303126523.98761749 -86646983.026298523 0 0 0 0 790386857.36229897 1723953729.2400532 0 1723953729.2400532 -6079062316.5036011 0 0 0 0 -2755738063.6248245 507807213.2324295 0 507807213.2324295 -50474479.84487915 0 0 0 0 -4937017129.7599487 2664386310.1995239 0 2664386310.1995239 1689837220.4058228 0 0 0 0 -5053447.0452380776 12989936.015754431 0 12989936.015754431 -13513951.488035202 0 0 0 0 -3137246622.2607574 206520962.21324921 0 206520962.21324921 -232236400.84437561 0 0 0 0 -3150133216.8317108 1567798655.9951282 0 1567798655.9951282 -449011853.95373535 0 0 0 0 -7280970172.2608452 767238448.8441925 0 767238448.8441925 260487107.36082458 0 0 0 0 -2209081629.1120224 1315309124.4656219 0 1315309124.4656219 -1087321839.0271454 0 0 0 0 -2139778.2799904039 4428119.5803958513 0 4428119.5803958513 -6671258.1715130359 0 0 0 0 466980701.91692352 -85987303.767700195 0 -85987303.767700195 1241469476.2228394 0 0 0 0 1457876488.8377075 240678932.85781097 0 240678932.85781097 -449465386.52648926 0 0 0 0 -1288789921.3357544 1383893890.4107056 0 1383893890.4107056 63557218.924865723 0 0 0 0 -578365241.90633392 1750692069.5117188 0 1750692069.5117188 308944292.26241302 0 0 0 0 -1342953118.7483215 1263793442.3466644 0 1263793442.3466644 128160376.13141632 0 0 0 0 -793144964.50257111 1465638198.1389389 0 1465638198.1389389 -21481159.025024414 0 0 0 0 129035423.40802002 1295209046.3733063 0 1295209046.3733063 -28055684.975463867 0 0 0 0 81154519.360853195 1322908521.1050568 0 1322908521.1050568 -28440644.989807129 0 0 0 0 509636734.33701897 2211532552.7807121 0 2211532552.7807121 -316763885.06988525 0 0 0 0 -2107663190.8990936 1152649980.8482513 0 1152649980.8482513 2354228397.7959747 0 0 0 0 -757968865.67750549 3228395379.0708618 0 3228395379.0708618 -1027070106.1932144 0 0 0 0 -1729165059.8112411 2461525172.3168945 0 2461525172.3168945 -63897870.004760742 0 0 0 0 -1127245140.5651703 836856766.40936279 0 836856766.40936279 -365788218.85324097 0 0 0 0 -1136631350.8525314 863184011.44285583 0 863184011.44285583 -406558468.72731018 0 0 0 0 -1269835416.368042 774682221.39337158 0 774682221.39337158 -462911289.44229126 0 0 0 0 -1480138456.0664902 1005279350.3841629 0 1005279350.3841629 -387163847.21362305 0 0 0 0 -1158201233.0205841 1179773853.4996796 0 1179773853.4996796 -457270696.6682663 0 0 0 0 -1227477330.3859406 954684823.6191864 0 954684823.6191864 -543580038.5920105 0 0 0 0 -1131885070.5549088 1028105178.079155 0 1028105178.079155 -492446885.3314209 0 0 0 0 -1141775228.266243 1054794392.391304 0 1054794392.391304 -559426304.3661499 0 0 0 0 -882209000.16025543 1099538481.9526215 0 1099538481.9526215 -562373550.01586914 0 0 0 0 -903011318.80321217 1193869335.1931858 0 1193869335.1931858 -622272756.68621826 0 0 0 0 -860935860.83254242 1151294917.3917236 0 1151294917.3917236 -600151660.37234497 0 0 0 0 -783527010.04536438 1162667164.9134827 0 1162667164.9134827 -644270009.32327271 0 0 0 0 -731401003.01239014 935199266.26730347 0 935199266.26730347 -525190580.66061401 0 0 0 0 -825147917.44489288 1102793262.165329 0 1102793262.165329 -557883977.60501099 0 0 0 0 -1069986599.5107422 1330668520.3119812 0 1330668520.3119812 -608541348.18701172 0 0 0 0 -798279135.7484436 1146101009.1511688 0 1146101009.1511688 -665860578.39400673 0 0 0 0 -967793561.95256042 1280654302.3395691 0 1280654302.3395691 -681967340.99202347 0 0 0 0 -1027886629.6282959 1179300502.7047577 0 1179300502.7047577 -568478500.20266342 0 0 0 0 -992167130.55916405 1110544456.8885288 0 1110544456.8885288 -577415922.0640564 0 0 0 0 -1214382131.6231651 1082694533.5025711 0 1082694533.5025711 -579219991.30883789 0 0 0 0 -1726564712.8565979 1152910418.8147736 0 1152910418.8147736 -467967984.70046997 0 0 0 0 -1653216004.5256004 1019601374.326786 0 1019601374.326786 -325742578.55477905 0 0 0 0 -1758290842.1018028 1806663415.3938351 0 1806663415.3938351 -816679640.39596558 0 0 0 0 -2137399643.8446655 909171956.06300354 0 909171956.06300354 -335846454.66693974 0 0 0 0 -2184628104.6087875 1451587938.7985001 0 1451587938.7985001 -599331478.33293915 0 0 0 0 -630038684.00857401 1591020466.0074468 0 1591020466.0074468 -1359961278.1735992 0 0 0 0 -562631265.63658905 784214885.90722656 0 784214885.90722656 -440917121.71760559 0 0 0 0 -489701594.17625809 1426513228.1874161 0 1426513228.1874161 -994326856.4994812 0 0 0 0 -1061793208.3135605 1153320991.9010391 0 1153320991.9010391 -516225666.13577271 0 0 0 0 -191232440.30332947 722558440.89032745 0 722558440.89032745 -416525095.05234528 0 0 0 0 -404456535.87377167 1063839086.5075836 0 1063839086.5075836 -711766051.75050354 0 0 0 0 353137006.17895508 -92511462.171875 0 -92511462.171875 248798011.66158295 0 0 0 0 -27073234.496311188 841500844.03858185 0 841500844.03858185 -395040077.92199707 0 0 0 0 99818385.534088135 281390836.02855682 0 281390836.02855682 336950153.03377533 0 0 0 0 5700271.1143612601 7261845.596780248 0 7261845.596780248 -3096896.2448849231 0 0 0 0 313863690.02928352 369100070.8887825 0 369100070.8887825 -474167421.62324524 0 0 0 0 262927997.34556961 -383292947.33358002 0 -383292947.33358002 197232603.68713379 0 0 0 0 -441117533.49172592 428626710.74540234 0 428626710.74540234 -167305304.87940979 0 0 0 0 -57795847.728652954 48899049.476043701 0 48899049.476043701 10811046.280014038 0 0 0 0 -1949168.3092516195 -3560902.8261324465 0 -3560902.8261324465 1992279.8382008523 0 0 0 0 -2460886.8546634726 4090801.1922852099 0 4090801.1922852099 5068689.6525670588 0 0 0 0 -73866475.707942963 -13212998.112455368 0 -13212998.112455368 -12266246.294372559 0 0 0 0 521996541.00411224 -640251899.32190704 0 -640251899.32190704 -518040391.7782135 0 0 0 0 -3492225.698240811 10807688.905503705 0 10807688.905503705 8796368.9164478332 0 0 0 0 4378289.7017742489 4562223.1259927563 0 4562223.1259927563 -2440435.2903110236 0 0 0 0 1802250062.805954 -333614560.31422424 0 -333614560.31422424 -601658991.33375549 0 0 0 0 111217300.53078461 322262991.59522629 0 322262991.59522629 725141418.7822876 0 0 0 0 1097766926.0428467 608142512.5580101 0 608142512.5580101 -222561035.37338257 0 0 0 0 792499299.62645721 -689410201.47502136 0 -689410201.47502136 -1102518745.3117218 0 0 0 0 897472081.9798584 -585809546.06932068 0 -585809546.06932068 667327400.23718262 0 0 0 0 792567102.17954254 751311487.62704468 0 751311487.62704468 -340577474.11758423 0 0 0 0 363357580.22431946 112146986.12687683 0 112146986.12687683 -413903440.246521 0 0 0 0 393356033.46177459 936344687.93183136 0 936344687.93183136 -937570466.11862183 0 0 0 0 97843160.123006821 1068460616.4704781 0 1068460616.4704781 -1198965745.501709 0 0 0 0 -1202219925.9489441 742450297.96859741 0 742450297.96859741 -965888826.9361496 0 0 0 0 -712041017.76252747 102805816.58798218 0 102805816.58798218 -251957770.29856873 0 0 0 0 -1036640954.4820633 1233805993.6378288 0 1233805993.6378288 -1830096814.9590607 0 0 0 0 -451878908.49580288 1126601105.0293255 0 1126601105.0293255 -159693525.5059967 0 0 0 0 -115005257.51369095 31782774.953907013 0 31782774.953907013 282125959.79025269 0 0 0 0 -321271118.15102005 365825442.22927475 0 365825442.22927475 168934510.67982483 0 0 0 0 28571975.961662292 893274908.95505142 0 893274908.95505142 417354682.21716309 0 0 0 0 1985392947.2476349 797503742.60858154 0 797503742.60858154 1034650.3112640381 0 0 0 0 2018808775.1140137 988575375.93202209 0 988575375.93202209 -23717527.418365479 0 0 0 0 3296572489.1958427 -781080149.53769684 0 -781080149.53769684 -472316213.32937622 0 0 0 0 1653339.731465321 1250846.0027740002 0 1250846.0027740002 -764147.85351996124 0 0 0 0 12212909.115699768 252456362.27464294 0 252456362.27464294 1193662648.5162964 0 0 0 0 -52286549.591884613 66199856.52312088 0 66199856.52312088 1076.8019104003906 0 0 0 0 2874705621.1857452 331231753.6910553 0 331231753.6910553 -1499555727.143158 0 0 0 0 -2472187.3396699261 404615.82307828218 0 404615.82307828218 2173234.0870459527 0 0 0 0 -2146660.3620987777 -3922365.175281629 0 -3922365.175281629 2103384.924475804 0 0 0 0 -95261121.880889893 21262317.16153717 0 21262317.16153717 3071915.993927002 0 0 0 0 -3949788.350818634 5003732.3281707764 0 5003732.3281707764 -17702724.491943359 0 0 0 0 -44727636.121826172 25999191.288204193 0 25999191.288204193 -14335085.005462646 0 0 0 0 -2029767437.2359543 2305337930.647438 0 2305337930.647438 -975013053.3012619 0 0 0 0 -1061137520.8190041 1274581266.0856934 0 1274581266.0856934 -810396774.08224487 0 0 0 0 -776619901.15466452 986335534.6437254 0 986335534.6437254 -590711212.83332825 0 0 0 0 -903486682.7602005 1416589701.0509186 0 1416589701.0509186 -234320335.59382629 0 0 0 0 -633448372.14343214 1899443791.5450468 0 1899443791.5450468 -1443887056.7613525 0 0 0 0 1020855166.3176117 704793837.47628021 0 704793837.47628021 -940507794.07974243 0 0 0 0 -5320796847.8548279 2766796882.6304703 0 2766796882.6304703 -727893366.05690002 0 0 0 0 -2528184803.9530201 2621261326.6930771 0 2621261326.6930771 -1944014038.2207794 0 0 0 0 -2322233281.5518112 502081615.33992004 0 502081615.33992004 -301783367.14995575 0 0 0 0 -3071491290.4487324 1757285693.9095631 0 1757285693.9095631 66718895.506225586 0 0 0 0 -1693425390.3889923 1321994313.5723 0 1321994313.5723 658187.92315673828 0 0 0 0 -1787719014.651022 1260033108.7359085 0 1260033108.7359085 115828152.59254456 0 0 0 0 -1902273413.7784748 1388065845.499752 0 1388065845.499752 52962.767181396484 0 0 0 0 -1096171491.6846676 1469030221.8926315 0 1469030221.8926315 -434830133.01045227 0 0 0 0 -1438427693.3809509 1113836434.6798172 0 1113836434.6798172 -440546.5954284668 0 0 0 0 -1689057800.4110222 1443730107.2760773 0 1443730107.2760773 -430287970.83311462 0 0 0 0 -1331636311.2144279 1174428324.3990173 0 1174428324.3990173 -282809334.10612488 0 0 0 0 -1129774612.5186539 935471159.58153534 0 935471159.58153534 -108299.37406921387 0 0 0 0 -1125039773.419548 1260901441.9962082 0 1260901441.9962082 -426521174.36425781 0 0 0 0 -1420335867.3780518 842669618.69499207 0 842669618.69499207 -420291037.5345726 0 0 0 0 -697094016.84358215 671159014.02410126 0 671159014.02410126 -294902.91802978516 0 0 0 0 -945701569.81026268 967492645.19491959 0 967492645.19491959 -353304081.60890198 0 0 0 0 -403732883.20297241 859935532.67266846 0 859935532.67266846 -367341795.2926693 0 0 0 0 -576562135.19320297 674877676.56892776 0 674877676.56892776 -555363024.35231018 0 0 0 0 -1948300.7773207184 259154.98653461039 0 259154.98653461039 2262439.9482861012 0 0 0 0 204025614.14778519 524085913.21018982 0 524085913.21018982 -527580861.21087646 0 0 0 0 -136988190.84718513 1207993727.2725697 0 1207993727.2725697 -533492415.55712891 0 0 0 0 578095793.44659042 471863505.86036682 0 471863505.86036682 75249077.362976074 0 0 0 0 -69594560.271724701 312173212.59461975 0 312173212.59461975 381650587.40870667 0 0 0 0 -124595165.38184166 228513120.27107239 0 228513120.27107239 776895422.79724121 0 0 0 0 -479287892.34209824 392681856.47386932 0 392681856.47386932 757111900.56298828 0 0 0 0 -1032774043.1639557 1055018199.5644455 0 1055018199.5644455 -1024955257.9893036 0 0 0 0 572976.22583094053 1195074.6845864132 0 1195074.6845864132 -2681299.5924142897 0 0 0 0 -1769376284.8107719 714880680.36697388 0 714880680.36697388 24741014.18069458 0 0 0 0 -1401500077.8800888 -135979036.24742126 0 -135979036.24742126 13550323.141021729 0 0 0 0 -1078372009.2517347 976032089.04031372 0 976032089.04031372 -125933269.01559448 0 0 0 0 -1459273623.710659 1363232023.326416 0 1363232023.326416 -519380321.66416931 0 0 0 0 -818362564.54417419 1118390278.2949371 0 1118390278.2949371 -56100255.786682129 0 0 0 0 -405273415.80862427 920551969.38130188 0 920551969.38130188 38605860.731414795 0 0 0 0 -236029665.61988068 963862511.84724426 0 963862511.84724426 22628623.472579956 0 0 0 0 -124790626.43462372 798539606.65759277 0 798539606.65759277 189853114.8908844 0 0 0 0 363707071.25640106 592511353.57827759 0 592511353.57827759 114180947.93089294 0 0 0 0 345533247.39755249 42331441.907226562 0 42331441.907226562 -12591294.965545654 0 0 0 0 -195184250.02554893 398737683.02838993 0 398737683.02838993 69744678.066772461 0 0 0 0 -212153203.90672541 23277871.824934959 0 23277871.824934959 16238296.415496826 0 0 0 0 -269004094.39673615 440269059.1559906 0 440269059.1559906 46496281.198486328 0 0 0 0 -837705084.68299592 329346201.76800942 0 329346201.76800942 177749818.13015747 0 0 0 0 139278422.3526516 49820907.531216621 0 49820907.531216621 -40794704.816040039 0 0 0 0 316621.33259210363 3967409.3337968402 0 3967409.3337968402 -4967586.4475775063 0 0 0 0 128760438.7877121 -89495375.217529297 0 -89495375.217529297 -101124091.69046783 0 0 0 0 30741191.470583916 80027491.716709137 0 80027491.716709137 442522962.58789062 0 0 0 0 27227023.953773499 184211125.70890045 0 184211125.70890045 430396383.66517639 0 0 0 0 130593355.47518158 -10048408.916397095 0 -10048408.916397095 25927534.560653687 0 0 0 0 137289977.42498779 22550673.488677979 0 22550673.488677979 29371603.832853317 0 0 0 0 122040636.63176727 90548244.519714355 0 90548244.519714355 14258352.29246521 0 0 0 0 176502486.24742889 -18051205.20059967 0 -18051205.20059967 12758626.26675415 0 0 0 0 1360999557.5925674 15391198.204055786 0 15391198.204055786 -13877454.870910645 0 0 0 0 -796945.70671950281 1166561.969031319 0 1166561.969031319 1567003.8718662411 0 0 0 0 -3523962.390758276 180186180.94543552 0 180186180.94543552 -795330234.92974854 0 0 0 0 84692.66764661856 1173724.7296192497 0 1173724.7296192497 -1420794.4294478744 0 0 0 0 -1629501.2461301815 3437624.9424612299 0 3437624.9424612299 3428059.6637492031 0 0 0 0 -56652082.602100372 -253469430.2154541 0 -253469430.2154541 -279763841.82635498 0 0 0 0 -200820583.40590668 619305998.89257812 0 619305998.89257812 -696732617.29550171 0 0 0 0 -2111321803.753933 1200139805.5037842 0 1200139805.5037842 -835129694.88803101 0 0 0 0 -639973341.93171883 87029161.228019714 0 87029161.228019714 -556997540.27978516 0 0 0 0 -331514262.60407639 863797832.92159271 0 863797832.92159271 350914972.99359131 0 0 0 0 -1759051951.8534622 1313518669.462677 0 1313518669.462677 -17781729.286437988 0 0 0 0 -264748820.75099754 1181455338.0401459 0 1181455338.0401459 -1020171409.9038391 0 0 0 0 133561295.47071266 894933666.4319725 0 894933666.4319725 572693386.53189087 0 0 0 0 -85980331.59129715 344757889.496521 0 344757889.496521 -64888889.880615234 0 0 0 0 1027640891.8715057 954081455.74273682 0 954081455.74273682 393782960.57202148 0 0 0 0 276025869.85749817 1274208131.2640991 0 1274208131.2640991 217020380.47379303 0 0 0 0 428500554.76023483 851138402.80082703 0 851138402.80082703 1136175399.8110657 0 0 0 0 -851676.32946608216 2261168.993314974 0 2261168.993314974 -627550.59498315305 0 0 0 0 890658296.83027267 213804308.80639839 0 213804308.80639839 656497564.41223145 0 0 0 0 663538977.82006454 695313536.98301697 0 695313536.98301697 -300781130.45004272 0 0 0 0 -234758549.16594696 1173827928.875946 0 1173827928.875946 765962151.50770569 0 0 0 0 88327760.771247864 882658768.42922974 0 882658768.42922974 909901114.41470337 0 0 0 0 345687281.8100853 541060388.87017441 0 541060388.87017441 561193996.35803223 0 0 0 0 221540309.03237152 864004739.14401245 0 864004739.14401245 189995787.13037109 0 0 0 0 50799301.881235123 579095619.43806076 0 579095619.43806076 359459788.72964478 0 0 0 0 830579915.94644165 1179576113.2525177 0 1179576113.2525177 463760981.79860687 0 0 0 0 258053753.15869522 794547268.55018616 0 794547268.55018616 424458977.15878296 0 0 0 0 -95752248.099868059 118003035.90635109 0 118003035.90635109 -201935881.55438232 0 0 0 0 -38527352.518592834 315922386.05564499 0 315922386.05564499 -617708977.69476318 0 0 0 0 -269846234.47605133 407713678.58818054 0 407713678.58818054 -416045048.34884644 0 0 0 0 -83077865.478090286 220274325.9614563 0 220274325.9614563 -361664019.93493652 0 0 0 0 -84397675.600719452 96324229.405960083 0 96324229.405960083 -149127447.59477234 0 0 0 0 -75248163.245872736 65002894.906983376 0 65002894.906983376 -90516923.475402832 0 0 0 0 -67334304.067977428 136121422.08308792 0 136121422.08308792 -212852864.88043213 0 0 0 0 6370743.6416473389 -10726059.365962982 0 -10726059.365962982 -84505046.653442383 0 0 0 0 -3109931.1335945129 71207434.288742065 0 71207434.288742065 -201209489.27629089 0 0 0 0 664840.92615841143 11898132.596711971 0 11898132.596711971 3012837.3240535706 0 0 0 0 -22371173.746053696 -52273535.506286621 0 -52273535.506286621 49925662.780395508 0 0 0 0 53603415.883672833 -54953908.823493958 0 -54953908.823493958 -88635544.571380615 0 0 0 0 -103131560.39997292 -57680768.887634277 0 -57680768.887634277 184826294.7640686 0 0 0 0 -5438226.0824637543 5703415.4087874964 0 5703415.4087874964 3351571.5903617106 0 0 0 0 13345576.106773376 57181268.27935791 0 57181268.27935791 4898591.9064178467 0 0 0 0 33636198.478250504 93342415.991790771 0 93342415.991790771 -233767871.92311859 0 0 0 0 -122831607.31307602 -115796439.77350235 0 -115796439.77350235 -64027572.934616089 0 0 0 0 327617407.36769104 -207635802.92405701 0 -207635802.92405701 -537158631.66897583 0 0 0 0 387599497.38566971 301647831.23638916 0 301647831.23638916 -1125341606.578125 0 0 0 0 -1626730440.3561249 787458432.08016968 0 787458432.08016968 -916649818.49185181 0 0 0 0 -1837060847.2047501 571748473.36026001 0 571748473.36026001 -292456836.39678192 0 0 0 0 -662935880.40638351 738643771.93190765 0 738643771.93190765 -1045423238.5679932 0 0 0 0 -2214699.1957861409 2173264.3041669354 0 2173264.3041669354 795678.56274270453 0 0 0 0 -2248826999.3363972 637796305.15858078 0 637796305.15858078 -718021615.95080566 0 0 0 0 -2128873390.4688435 621551368.68827057 0 621551368.68827057 -161230038.87789917 0 0 0 0 -1337563695.1346703 489880078.58477783 0 489880078.58477783 -1053251323.5606995 0 0 0 0 -1084311500.5828094 1122901317.4450378 0 1122901317.4450378 -1060335933.4846222 0 0 0 0 13196588.278585434 449554751.61512756 0 449554751.61512756 -862915891.71032715 0 0 0 0 -175286980.91140747 321375274.07620239 0 321375274.07620239 -495096406.58852577 0 0 0 0 -448299894.81749344 603523809.27035522 0 603523809.27035522 -819178250.38484192 0 0 0 0 -398891720.68035889 789922490.06402588 0 789922490.06402588 -1147199806.601532 0 0 0 0 -801160128.17529106 706245521.60765076 0 706245521.60765076 -477997871.3024292 0 0 0 0 -480836466.015522 786166787.89614868 0 786166787.89614868 -773603990.55454254 0 0 0 0 -588399825.19797325 552587625.11819458 0 552587625.11819458 -313460678.81158447 0 0 0 0 -780496743.4835043 788684007.08058167 0 788684007.08058167 -355604151.84179688 0 0 0 0 -815636029.28655815 833680185.69657135 0 833680185.69657135 -527342181.45776367 0 0 0 0 -1039034145.7640171 321509773.74742126 0 321509773.74742126 -97776947.753513336 0 0 0 0 -1240716490.2771034 798979273.72654724 0 798979273.72654724 -318061456.73060608 0 0 0 0 -4234517.1838710941 3213732.8907302469 0 3213732.8907302469 4599105.1736399531 0 0 0 0 -306175680.68861008 16093417.512329102 0 16093417.512329102 530139474.79760742 0 0 0 0 -899013979.51478386 705971242.84875488 0 705971242.84875488 -370839800.86444092 0 0 0 0 -1241629145.929554 1285977054.0818176 0 1285977054.0818176 -362287012.41865516 0 0 0 0 -2021156.956823566 1100908.4925496578 0 1100908.4925496578 2283290.4030772746 0 0 0 0 -1011656426.0312691 833436768.6681366 0 833436768.6681366 486706364.98379517 0 0 0 0 -500927444.38235188 496034454.49113464 0 496034454.49113464 -77717642.324859619 0 0 0 0 -658801047.94050789 518012373.69387817 0 518012373.69387817 239989729.89859009 0 0 0 0 -664603043.64467049 695491959.58123779 0 695491959.58123779 -99074093.186080933 0 0 0 0 -435909401.13202286 481508650.01376343 0 481508650.01376343 -201637556.41841888 0 0 0 0 -215088669.16887665 300139088.41439819 0 300139088.41439819 -230727240.73342896 0 0 0 0 -314767934.901389 344628976.4156661 0 344628976.4156661 -237289255.55661011 0 0 0 0 -304327141.99649239 547178829.37046814 0 547178829.37046814 -495135436.48779297 0 0 0 0 -252430694.90791702 232750023.65505981 0 232750023.65505981 -119026557.4355011 0 0 0 0 -338016377.90532494 287203581.46092224 0 287203581.46092224 36710307.5206604 0 0 0 0 -162690099.92020416 204624887.58222961 0 204624887.58222961 -125634959.30474854 0 0 0 0 -322809813.01289749 301201846.06596375 0 301201846.06596375 26474499.262870789 0 0 0 0 -616412063.51533055 291461308.35830784 0 291461308.35830784 167808101.03134155 0 0 0 0 -638165862.4662962 225595297.41339111 0 225595297.41339111 224512830.1030426 0 0 0 0 -887931377.17553711 178072510.14624023 0 178072510.14624023 234903211.43397522 0 0 0 0 -931142562.51361036 400967451.10378265 0 400967451.10378265 368657897.58044434 0 0 0 0 -923453892.36832762 312797725.64702606 0 312797725.64702606 939072202.62368774 0 0 0 0 -932546573.96319008 267735487.3908844 0 267735487.3908844 502796481.73574829 0 0 0 0 -767935716.37400246 131180152.55276489 0 131180152.55276489 226138553.0358429 0 0 0 0 -968283490.96660519 312983859.52442932 0 312983859.52442932 61336117.402038574 0 0 0 0 -1052007777.45014 51818930.715103149 0 51818930.715103149 180316408.71110535 0 0 0 0 -1023592391.9851836 -134591071.71332264 0 -134591071.71332264 108336750.20620728 0 0 0 0 -1002882980.2775878 81454438.03098011 0 81454438.03098011 65281775.662017822 0 0 0 0 -731398168.00891399 -119157512.52949524 0 -119157512.52949524 46037102.221374512 0 0 0 0 -938826983.05499268 171535366.459198 0 171535366.459198 253941234.68099976 0 0 0 0 5500631.0822510719 -613888317.57131195 0 -613888317.57131195 1353959574.8922272 0 0 0 0 -610725877.54812241 458882360.98374176 0 458882360.98374176 1172407353.6350613 0 0 0 0 -409761657.4917469 127027075.95274353 0 127027075.95274353 291972864.02493286 0 0 0 0 -739484509.89310765 368816322.42111015 0 368816322.42111015 117894774.60464478 0 0 0 0 -694944346.84715652 240979825.21562195 0 240979825.21562195 41728287.024543762 0 0 0 0 -337128903.41769695 9258048.4383335114 0 9258048.4383335114 -20907395.165328979 0 0 0 0 -549014687.16962624 601535317.01131821 0 601535317.01131821 -364562558.60137939 0 0 0 0 -554541123.82038116 594550596.22071838 0 594550596.22071838 -177710880.36102867 0 0 0 0 -3702453.0791060142 608089.87711330503 0 608089.87711330503 3915114.4186796546 0 0 0 0 -458183963.28988504 363357762.06690598 0 363357762.06690598 -362462782.56613159 0 0 0 0 -4461119.1959265694 339179.06310899556 0 339179.06310899556 3644092.652878359 0 0 0 0 -647078766.66970825 424879056.48861694 0 424879056.48861694 -648010.16893005371 0 0 0 0 -718605982.43132973 545094144.31983185 0 545094144.31983185 -472590299.61959839 0 0 0 0 -670381182.25964928 557878837.26472473 0 557878837.26472473 -360188552.16725826 0 0 0 0 -796637683.43756413 -172269687.35422134 0 -172269687.35422134 -70574706.853500366 0 0 0 0 -1339881440.2760162 59961881.052215576 0 59961881.052215576 -278956131.20191097 0 0 0 0 -2107761518.1046219 -123966892.15841675 0 -123966892.15841675 -192098785.23018646 0 0 0 0 -1844705368.0599327 -220413030.60998535 0 -220413030.60998535 -290052876.24814987 0 0 0 0 -1573061228.7944927 -883680509.70593262 0 -883680509.70593262 -71810898.817581177 0 0 0 0 -393357.20867008064 469698.67896189541 0 469698.67896189541 158770.41428771615 0 0 0 0 -1445971396.3577614 -1417729.5261535645 0 -1417729.5261535645 52133063.258544922 0 0 0 0 -1013006064.1159897 228712992.26638794 0 228712992.26638794 -14427285.980957031 0 0 0 0 -866719330.18127632 482428936.50658417 0 482428936.50658417 -297552039.36972046 0 0 0 0 -1219152216.1818032 435547431.71581268 0 435547431.71581268 -171049628.46786499 0 0 0 0 -1857408731.7930222 325258195.28924561 0 325258195.28924561 -164182433.62500954 0 0 0 0 -1969537891.9268045 698603512.69517517 0 698603512.69517517 -1309267.3477499771 0 0 0 0 -761253010.01498938 405779724.48982811 0 405779724.48982811 -371509152.82525635 0 0 0 0 -994613304.03017759 656775877.22057343 0 656775877.22057343 -312862856.46875 0 0 0 0 -2808580754.0280542 -158384071.50597382 0 -158384071.50597382 134406340.00177002 0 0 0 0 3430659.2139025652 -1224868.8283959515 0 -1224868.8283959515 -2619487.1451382637 0 0 0 0 4194603.5623307228 6333315.5706863403 0 6333315.5706863403 2386.8163452148438 0 0 0 0 500395.64340305328 4136225.6663970947 0 4136225.6663970947 -649835.18954467773 0 0 0 0 -598688.85871967906 4616052.9655985385 0 4616052.9655985385 748272.74236122519 0 0 0 0 11723790.814829826 6291032.2029724121 0 6291032.2029724121 -13089082.980499268 0 0 0 0 21420744.701855659 -16483092.916152954 0 -16483092.916152954 7443376.9443740845 0 0 0 0 28562498.275924444 2246237.4359073639 0 2246237.4359073639 -38690567.011383057 0 0 0 0 -2203895.3862018585 5783551.4203491211 0 5783551.4203491211 -14130.359008789062 0 0 0 0 -7545999.9418334961 -44543104.750076294 0 -44543104.750076294 42388695.440734863 0 0 0 0 -1052217.7601204123 3987179.8676825762 0 3987179.8676825762 1197365.2851995341 0 0 0 0 -2503918.1215400696 3518371.4628295898 0 3518371.4628295898 -3450482.870300293 0 0 0 0 -2984351.3991127014 972437.68389892578 0 972437.68389892578 41930.842498779297 0 0 0 0 20269754.611537933 49642872.727172852 0 49642872.727172852 -42829116.507476807 0 0 0 0 41781721.578479767 1715331.4449310303 0 1715331.4449310303 -95751888.195343018 0 0 0 0 -74488.794784134254 219195.09895193577 0 219195.09895193577 35837.099747436121 0 0 0 0 -34100241.89006424 18133528.188995361 0 18133528.188995361 -56584841.751663208 0 0 0 0 -85369171.045322418 29934309.501113892 0 29934309.501113892 7755706.274810791 0 0 0 0 -24985357.588330269 34996520.120780945 0 34996520.120780945 -23165929.320652008 0 0 0 0 -27279126.138132095 -7788679.7374191284 0 -7788679.7374191284 4419909.9848308563 0 0 0 0 -11653778.944628382 297461.50351769477 0 297461.50351769477 5132999.7502564192 0 0 0 0 -20999102.358897146 4800165.4965400696 0 4800165.4965400696 531101.18814086914 0 0 0 0 -21142466.447476506 8327063.6903076172 0 8327063.6903076172 -3862020.1595230103 0 0 0 0 5877769.2616710663 8528823.9566497803 0 8528823.9566497803 -2759910.0801849365 0 0 0 0 -8634307.9208395015 245240.51929245144 0 245240.51929245144 4433496.0418491364 0 0 0 0 -2908377.3180027008 12108976.904251099 0 12108976.904251099 -3767413.4155273438 0 0 0 0 -179626.62685260363 2731025.1549375132 0 2731025.1549375132 -4994727.4650945067 0 0 0 0 -348681850.55964518 -36957539.676345825 0 -36957539.676345825 56558864.804321289 0 0 0 0 -242331691.25965071 95504311.570781708 0 95504311.570781708 11121624.952651978 0 0 0 0 -521573.0632207999 680448.71846806258 0 680448.71846806258 -3750024.5320991874 0 0 0 0 39837523.394378662 -24255052.151138306 0 -24255052.151138306 -36693890.602324486 0 0 0 0 172148709.56623459 74418451.01914978 0 74418451.01914978 -17668602.919158936 0 0 0 0 63854171.872859955 32227997.176437378 0 32227997.176437378 -28665263.57510376 0 0 0 0 53012721.363538742 41094512.007686615 0 41094512.007686615 -46992.755401611328 0 0 0 0 38478643.707191467 34680677.174911499 0 34680677.174911499 -2685208.6436157227 0 0 0 0 53589283.796927452 40307776.467567444 0 40307776.467567444 -9029345.0882263184 0 0 0 0 88153956.042991638 57254288.160583496 0 57254288.160583496 -7139660.4973716736 0 0 0 0 57308506.598033905 47379843.740974426 0 47379843.740974426 2785.3189392089844 0 0 0 0 19689871.08836937 27442347.749969482 0 27442347.749969482 14642185.124084473 0 0 0 0 65116051.023918152 60589754.349494934 0 60589754.349494934 13906628.991455078 0 0 0 0 42571639.092987061 71442283.335388184 0 71442283.335388184 78083551.592041016 0 0 0 0 26486451.277229309 28077912.535430908 0 28077912.535430908 6457275.0163383484 0 0 0 0 16557668.767810822 10191426.697093964 0 10191426.697093964 -1243243.9679107666 0 0 0 0 -8761789.0659828186 10688294.911224365 0 10688294.911224365 5702650.3595581055 0 0 0 0 -790025.79960475117 82869.04889046587 0 82869.04889046587 113114.20150341094 0 0 0 0 7573827.576385498 53698677.02355957 0 53698677.02355957 -46952.603363037109 0 0 0 0 90966611.962873459 18589201.474746704 0 18589201.474746704 -352076.28266906738 0 0 0 0 -5776265.6453537494 1116282.9531840906 0 1116282.9531840906 3792769.8301001638 0 0 0 0 16375344.322238922 123572641.08001709 0 123572641.08001709 20648660.333465576 0 0 0 0 -771726.63573791273 2203923.4701051563 0 2203923.4701051563 804063.25218701363 0 0 0 0 -56920149.456298828 -27011285.475448608 0 -27011285.475448608 -43113497.682434082 0 0 0 0 -51390124.597734451 28428806.479225159 0 28428806.479225159 47308672.504135132 0 0 0 0 -1174753.5203094482 12106188.502410889 0 12106188.502410889 11196805.572647095 0 0 0 0 -6685926.1422114093 1440837.8041816615 0 1440837.8041816615 3860446.6541957259 0 0 0 0 1159653.9698448181 4371869.5102462769 0 4371869.5102462769 -1180337.5742950439 0 0 0 0 -24628001.867649555 58110177.848907471 0 58110177.848907471 -26667289.216003418 0 0 0 0 -8728570.6917382628 6851554.1730517223 0 6851554.1730517223 173000.12007481046 0 0 0 0 -19586903.199726582 10222314.494651794 0 10222314.494651794 -1893871.006652832 0 0 0 0 -18961059.823000669 10350971.617115021 0 10350971.617115021 -5099179.3797607422 0 0 0 0 -32320915.844003677 51994584.959785461 0 51994584.959785461 34719655.383056641 0 0 0 0 -5296742.6333084106 -3304148.4206619263 0 -3304148.4206619263 -4395462.4693069458 0 0 0 0 1483752.5578316646 3331601.6061081644 0 3331601.6061081644 -1495401.5030614883 0 0 0 0 12037399.652843475 26181025.225769043 0 26181025.225769043 -93743377.271072388 0 0 0 0 3256468.5233869404 5644675.5186575577 0 5644675.5186575577 -2676755.9876688179 0 0 0 0 46103771.393505096 98717203.144302368 0 98717203.144302368 52721505.797531128 0 0 0 0 6053028.8765830994 -45034105.924377441 0 -45034105.924377441 147620353.38207245 0 0 0 0 -9647293.9691085815 -8800192.2032775879 0 -8800192.2032775879 70724285.476074219 0 0 0 0 9203864.0825424194 115001477.14639282 0 115001477.14639282 116909722.2416687 0 0 0 0 -29266976.993255615 29431450.09487915 0 29431450.09487915 121046217.47692871 0 0 0 0 397103616.6091156 140036225.87454224 0 140036225.87454224 -34189493.230651855 0 0 0 0 1186416.9378921688 2050655.8910234049 0 2050655.8910234049 -909704.09980241954 0 0 0 0 188574064.07288742 -80075436.541568756 0 -80075436.541568756 -127462219.87884521 0 0 0 0 -1593154.3575426955 -179585.8540013954 0 -179585.8540013954 2077644.4777670354 0 0 0 0 186818808.21582031 199107435.01669312 0 199107435.01669312 179846346.67887878 0 0 0 0 189307398.82785416 -467994735.63298035 0 -467994735.63298035 -103123284.12774658 0 0 0 0 418863891.32514954 70534880.615570068 0 70534880.615570068 -41832041.821198463 0 0 0 0 204099389.68550682 23772229.464813232 0 23772229.464813232 -35834014.101776123 0 0 0 0 4412905.4637961388 1449121.2615303993 0 1449121.2615303993 -37264935.661483765 0 0 0 0 3868834.6078443006 14012072.113088101 0 14012072.113088101 5302559.622446157 0 0 0 0 38769484.794235229 41455598.096199036 0 41455598.096199036 -128741790.04327393 0 0 0 0 14822273.507312775 -30956107.871620178 0 -30956107.871620178 -23908940.593261719 0 0 0 0 2188170.196018219 7364187.2146072388 0 7364187.2146072388 -81012269.880081177 0 0 0 0 -22504511.432292938 -9317129.8173828125 0 -9317129.8173828125 7768533.0974578857 0 0 0 0 2847872.0970359612 3333796.9422112033 0 3333796.9422112033 -2533859.0764999241 0 0 0 0 -35480767.801445484 18139167.390541077 0 18139167.390541077 -2329057.141254425 0 0 0 0 -23799929.95205307 -4417170.7667198181 0 -4417170.7667198181 -10728483.203430176 0 0 0 0 -8455385.3237485886 10341866.660385132 0 10341866.660385132 -9672161.2789306641 0 0 0 0 -204941740.3717804 378847990.21215057 0 378847990.21215057 -461632383.94909668 0 0 0 0 -210345708.60075569 365246321.58282471 0 365246321.58282471 -395007957.44616699 0 0 0 0 -176049966.18027496 552740445.31322479 0 552740445.31322479 -933803898.58966064 0 0 0 0 974764.0102048777 14661539.360865265 0 14661539.360865265 6100770.4518371373 0 0 0 0 387961831.15149307 303595692.00308228 0 303595692.00308228 -1440948419.9848022 0 0 0 0 -248306103.13770294 436165426.26208496 0 436165426.26208496 -615188410.25357056 0 0 0 0 -182604983.70050049 770776386.1111908 0 770776386.1111908 -211981801.42626953 0 0 0 0 -198591210.20089531 763086397.47552681 0 763086397.47552681 579465673.34613037 0 0 0 0 1165250456.5504074 1414032996.7023773 0 1414032996.7023773 -1308500157.641037 0 0 0 0 74768039.854660034 268834154.46959686 0 268834154.46959686 -1267785207.8603668 0 0 0 0 -59255961.543216705 -3760233.4757175446 0 -3760233.4757175446 -1148333469.414978 0 0 0 0 109138296.64683533 614175263.79753113 0 614175263.79753113 -1618104420.095787 0 0 0 0 104462389.34811687 67924210.336730957 0 67924210.336730957 5668897.6755981445 0 0 0 0 68683444.169379234 64442658.220245361 0 64442658.220245361 135873145.13049316 0 0 0 0 121347634.71655083 182229281.7124939 0 182229281.7124939 166395627.85277557 0 0 0 0 -7950538.0348989964 49872455.13331604 0 49872455.13331604 130161002.77197266 0 0 0 0 27637267.650447845 32779341.747161865 0 32779341.747161865 -35618285.511779785 0 0 0 0 61373544.132713318 70396495.488983154 0 70396495.488983154 6095041.1680526733 0 0 0 0 80451439.700914383 26933877.768463135 0 26933877.768463135 -64031520.262634277 0 0 0 0 35914999.797233582 19829222.459960938 0 19829222.459960938 -37210657.803894043 0 0 0 0 32420079.708385468 38765359.704620361 0 38765359.704620361 -1597655.4451293945 0 0 0 0 -18930892.86343956 53911935.028778076 0 53911935.028778076 -102640942.15791321 0 0 0 0 -19612146.737722397 47089107.740386963 0 47089107.740386963 -46294812.426452637 0 0 0 0 -181208158.09970737 161561299.38129044 0 161561299.38129044 -24853153.610839844 0 0 0 0 -92736378.089200974 72333441.440948486 0 72333441.440948486 59270328.452270508 0 0 0 0 115545571.66206551 53690702.696929932 0 53690702.696929932 -13612504.953781128 0 0 0 0 -63409791.563907623 101615043.8527832 0 101615043.8527832 4537792.403717041 0 0 0 0 -3715565.228509903 24908913.287185669 0 24908913.287185669 92595858.116027832 0 0 0 0 264973118.31237602 137758160.96057129 0 137758160.96057129 37905137.991210938 0 0 0 0 -146521648.46864986 54769872.527603149 0 54769872.527603149 26975232.635864258 0 0 0 0 171419341.38219261 43560948.291229248 0 43560948.291229248 70267691.404571533 0 0 0 0 -366765619.45743561 197830777.06892776 0 197830777.06892776 134585496.72210693 0 0 0 0 -130749682.20217323 29737797.232208252 0 29737797.232208252 194377981.39349365 0 0 0 0 -155286566.84361649 179455843.15649414 0 179455843.15649414 32548700.228904724 0 0 0 0 -11618806.316019058 10570261.908584595 0 10570261.908584595 3415953.7134399414 0 0 0 0 -27397702.441574335 -25301092.448860168 0 -25301092.448860168 13712578.710144043 0 0 0 0 101887244.2932663 157596854.25875854 0 157596854.25875854 212868553.41955566 0 0 0 0 -1098641.5461792091 159327.51318164915 0 159327.51318164915 399162.73057320714 0 0 0 0 -850142.45673641749 263432.87383198738 0 263432.87383198738 532121.35707899928 0 0 0 0 -20396092.087167829 3800532.4740142822 0 3800532.4740142822 21475654.157501221 0 0 0 0 -13037746.256959267 21663272.010700226 0 21663272.010700226 11828216.197570801 0 0 0 0 -29833773.98486805 6989729.3854675293 0 6989729.3854675293 5762504.6644287109 0 0 0 0 -28982073.563117027 41054448.401916504 0 41054448.401916504 -3646221.6672821045 0 0 0 0 -22285018.30929637 34103594.142196655 0 34103594.142196655 -12528916.524642944 0 0 0 0 -18591228.579178095 39907442.132522583 0 39907442.132522583 40847908.39944458 0 0 0 0 -20517426.858644605 29932231.395172119 0 29932231.395172119 -2837779.0748291016 0 0 0 0 24547801.715682507 64654661.535598755 0 64654661.535598755 -8926288.0904693604 0 0 0 0 -28730637.364578724 38997696.737258911 0 38997696.737258911 3125949.4197769165 0 0 0 0 2287651.2879757881 36648325.868347168 0 36648325.868347168 -41479354.09463501 0 0 0 0 5554679.0877799867 14532467.789325997 0 14532467.789325997 969057.62886206806 0 0 0 0 12949740.004620075 48539188.153686523 0 48539188.153686523 -50730961.197189331 0 0 0 0 -163759778.62182617 343731252.84559631 0 343731252.84559631 -553268583.03652954 0 0 0 0 6068762.0403031856 5242650.3153920546 0 5242650.3153920546 -6123322.3427891284 0 0 0 0 -3145635.3609180525 15952853.646059558 0 15952853.646059558 7384807.2365572713 0 0 0 0 -720188.67699050903 10077711.038600922 0 10077711.038600922 -30942243.378890991 0 0 0 0 1370139.8258841541 1288945.7150112074 0 1288945.7150112074 -1657275.4964950532 0 0 0 0 -202652347.43516541 368233812.20835876 0 368233812.20835876 -437932406.54170227 0 0 0 0 -184193656.49309921 401687831.89785767 0 401687831.89785767 -383356770.72457886 0 0 0 0 -132016564.36357117 173657452.60107422 0 173657452.60107422 -291985873.48571777 0 0 0 0 7042191.0299730301 27349944.217472076 0 27349944.217472076 -64261694.933868408 0 0 0 0 -281135183.83159256 152183884.31959534 0 152183884.31959534 -60278801.236480713 0 0 0 0 -4452093.9441452026 140550022.67622375 0 140550022.67622375 -180359440.14881897 0 0 0 0 -352346705.2532196 467669635.64123535 0 467669635.64123535 -380102268.59814453 0 0 0 0 3516584.8131792615 12304604.395398818 0 12304604.395398818 2208331.4294621535 0 0 0 0 -155566416.2119751 100782256.05149841 0 100782256.05149841 87851444.010025024 0 0 0 0 63727480.093029499 -141550.80428314209 0 -141550.80428314209 821601.08361816406 0 0 0 0 41207496.393600464 -1742543.8061676025 0 -1742543.8061676025 15817174.237548828 0 0 0 0 35781313.265532494 5194477.2498016357 0 5194477.2498016357 -61339071.849365234 0 0 0 0 8278827.8184443712 12626035.21344471 0 12626035.21344471 -60873750.772125244 0 0 0 0 59363345.979869843 38871825.297866821 0 38871825.297866821 -50570095.199111938 0 0 0 0 38570763.217393875 21492599.942626953 0 21492599.942626953 -53646906.691543579 0 0 0 0 18642071.444591522 29483640.088867188 0 29483640.088867188 -139166753.8931427 0 0 0 0 43538512.956389427 9963319.6925964355 0 9963319.6925964355 -93321246.411682129 0 0 0 0 14905978.087348938 10881188.540557861 0 10881188.540557861 -73715041.610534668 0 0 0 0 32474725.395358086 -2086651.173614502 0 -2086651.173614502 -77197288.803585052 0 0 0 0 15816634.997631073 20664692.651626587 0 20664692.651626587 -48110693.25453186 0 0 0 0 -1283913.031298426 7488512.7187603787 0 7488512.7187603787 3989748.4284428842 0 0 0 0 -11050375.270855904 18575277.472259521 0 18575277.472259521 43375664.459777832 0 0 0 0 41980867.361765623 247533682.01344299 0 247533682.01344299 159861433.55908203 0 0 0 0 30434689.89980793 341517423.1469574 0 341517423.1469574 310647460.36648178 0 0 0 0 114942478.4255361 463038428.49336815 0 463038428.49336815 -164430893.8243103 0 0 0 0 -195622.61577982083 3851320.5721867904 0 3851320.5721867904 732381.09185425192 0 0 0 0 41043090.051188707 183202203.85159302 0 183202203.85159302 -455115931.7489624 0 0 0 0 41270397.122180939 323949099.88062286 0 323949099.88062286 -722039076.90640259 0 0 0 0 156366670.59076178 519912518.42990112 0 519912518.42990112 -352117824.48388672 0 0 0 0 -29346641.660008132 488878953.62048244 0 488878953.62048244 -176075924.32250977 0 0 0 0 -16608962.582138777 337303298.30174685 0 337303298.30174685 -397117519.97433472 0 0 0 0 212948727.88998604 759295598.23390198 0 759295598.23390198 -262255316.88613892 0 0 0 0 202233662.63011265 687342508.97987366 0 687342508.97987366 -37358573.631477356 0 0 0 0 329139934.47854757 744869491.30805969 0 744869491.30805969 -297427288.98226166 0 0 0 0 312934783.19178665 583840201.18350637 0 583840201.18350637 -125794572.84461975 0 0 0 0 435630069.46380568 622754167.73860168 0 622754167.73860168 -318916867.04041672 0 0 0 0 188447683.10519028 265453867.49020767 0 265453867.49020767 -303568023.2381897 0 0 0 0 -1436744629.680336 558287128.16596985 0 558287128.16596985 526946663.33073425 0 0 0 0 -338896.48119185679 9468998.6600169875 0 9468998.6600169875 13979741.353247583 0 0 0 0 -124103905.35416991 368440628.29470277 0 368440628.29470277 -341246367.64489746 0 0 0 0 -125231166.86729431 307912766.82445526 0 307912766.82445526 -217821237.71827698 0 0 0 0 -203382024.5381012 251283359.78056335 0 251283359.78056335 -296563900.33396912 0 0 0 0 -256459296.18884277 261370036.91265869 0 261370036.91265869 -273441735.53192139 0 0 0 0 -226267314.04937744 248181082.02778625 0 248181082.02778625 -334120081.88095093 0 0 0 0 -248262910.19584656 277357597.80700684 0 277357597.80700684 -311706115.97631836 0 0 0 0 -195935937.35441017 288700744.17475891 0 288700744.17475891 -366357636.65388489 0 0 0 0 -143746631.80672073 359057868.208992 0 359057868.208992 -247951978.81819153 0 0 0 0 -253846870.65639496 273836059.41488647 0 273836059.41488647 -268535738.75557709 0 0 0 0 -324662796.20886421 423002621.87838745 0 423002621.87838745 -420674050.69651794 0 0 0 0 -372555349.4754653 188212808.82671738 0 188212808.82671738 -415929229.28375244 0 0 0 0 -159844332.64110756 324751563.75051689 0 324751563.75051689 -413438601.50527954 0 0 0 0 -124536732.89031219 270633807.13749695 0 270633807.13749695 -628289738.74082947 0 0 0 0 -218528661.66967392 305581509.1000824 0 305581509.1000824 -418217956.02531433 0 0 0 0 -219595376.88359833 306772877.24116516 0 306772877.24116516 -328854543.57452393 0 0 0 0 -235360928.26094055 359778853.34213257 0 359778853.34213257 -396165338.85626221 0 0 0 0 -308129277.78349304 315439388.4645462 0 315439388.4645462 -257344153.45941162 0 0 0 0 4669106.1335311309 7456328.6204667166 0 7456328.6204667166 7460413.340009287 0 0 0 0 -219958238.32219315 227055396.85632896 0 227055396.85632896 -246205302.47323608 0 0 0 0 -248167977.08842468 280695690.05110168 0 280695690.05110168 -295205655.46673203 0 0 0 0 -230786390.20331812 302369531.53875542 0 302369531.53875542 -330586959.30853271 0 0 0 0 721377668.34233379 -1318537556.9658823 0 -1318537556.9658823 -387495241.81124878 0 0 0 0 -202754350.74812317 173859820.55735779 0 173859820.55735779 527433294.42000103 0 0 0 0 1233345.0856872834 2363129.8387210369 0 2363129.8387210369 2710838.0849282146 0 0 0 0 -182643901.10208893 180677852.91348267 0 180677852.91348267 -114264399.66675186 0 0 0 0 693642884.22093964 117013276.1058197 0 117013276.1058197 -1562652828.0762177 0 0 0 0 616047261.17674255 -141438433.15145874 0 -141438433.15145874 -325323111.93273926 0 0 0 0 649243.13452399662 2977812.2312845532 0 2977812.2312845532 1102498.0497438908 0 0 0 0 -25535335.140304565 -73899870.600334167 0 -73899870.600334167 -101006200.20344543 0 0 0 0 271671453.05453491 31246222.216934204 0 31246222.216934204 -222278100.08947754 0 0 0 0 260130739.04354477 -231313365.84854126 0 -231313365.84854126 -226686371.61477661 0 0 0 0 14686751.278327942 -467346062.25662994 0 -467346062.25662994 -145282251.54246902 0 0 0 0 -8894881.0498569012 -171662624.72402263 0 -171662624.72402263 2391608837.5608826 0 0 0 0 -590315060.08275986 -90228625.456207275 0 -90228625.456207275 819100843.47767639 0 0 0 0 525173.32273025764 3945761.4327922873 0 3945761.4327922873 2727072.0726372451 0 0 0 0 1806870237.8347778 3951446478.4596329 0 3951446478.4596329 -978994450.72792053 0 0 0 0 4407253.6205469482 11076749.57019268 0 11076749.57019268 12602805.164624766 0 0 0 0 -265236435.16539764 288396885.50108337 0 288396885.50108337 -293597816.50636673 0 0 0 0 436248811.91355133 -1780641306.757164 0 -1780641306.757164 -232422131.77762604 0 0 0 0 1531439506.3647003 1463791053.6804657 0 1463791053.6804657 1433815469.1388016 0 0 0 0 100776.46355351061 1541126.2876817062 0 1541126.2876817062 9748022.7625510991 0 0 0 0 2654867777.2235832 749293062.39317703 0 749293062.39317703 238630164.52062988 0 0 0 0 -2008298952.1572914 -1230992327.1951752 0 -1230992327.1951752 1955805252.2428436 0 0 0 0 676197244.26424599 -1108832857.3363953 0 -1108832857.3363953 739738428.65551758 0 0 0 0 -903020415.02054596 -268640911.49856567 0 -268640911.49856567 292741622.91496277 0 0 0 0 1246228410.79356 1004433926.4966888 0 1004433926.4966888 317349661.23504639 0 0 0 0 1403388723.479248 86200586.821502686 0 86200586.821502686 -58947123.361190796 0 0 0 0 428671494.98381042 1024860.837890625 0 1024860.837890625 157152892.51841736 0 0 0 0 464119224.65238953 71545118.605636597 0 71545118.605636597 239457389.84416199 0 0 0 0 -755399785.97017288 -11298218.03584671 0 -11298218.03584671 566443360.19790649 0 0 0 0 1651859.8727583699 9194617.5145817231 0 9194617.5145817231 26075835.50945273 0 0 0 0 450936557.83637238 121008612.96715164 0 121008612.96715164 64213331.450653076 0 0 0 0 576110609.99958801 -269511986.55862427 0 -269511986.55862427 157205848.72756958 0 0 0 0 -3070235.2167324051 -56119.558134101331 0 -56119.558134101331 4097924.7431283519 0 0 0 0 -648793905.53253937 233578198.62004089 0 233578198.62004089 -259087572.50669289 0 0 0 0 484342609.2408371 392920813.07128906 0 392920813.07128906 -46700951.438720703 0 0 0 0 588711641.43939209 907528050.01022339 0 907528050.01022339 278532523.39715576 0 0 0 0 500823964.14600372 752430160.62501526 0 752430160.62501526 946158497.56109619 0 0 0 0 -78767848.233444214 747817709.48646545 0 747817709.48646545 1152539949.1721649 0 0 0 0 430214185.68844604 502630763.97675323 0 502630763.97675323 549177620.53248596 0 0 0 0 645514373.65161133 765988489.25532532 0 765988489.25532532 305462420.41662598 0 0 0 0 250622.56484542741 2299491.0485199448 0 2299491.0485199448 1604137.4577634782 0 0 0 0 833319317.72343445 1173336772.3471909 0 1173336772.3471909 557760713.14918518 0 0 0 0 -1451033536.3066702 1091993739.1430149 0 1091993739.1430149 1233260044.1922302 0 0 0 0 -1232487752.0033989 1167182766.3239517 0 1167182766.3239517 1259094096.3297424 0 0 0 0 -193746504.17421722 -132995306.6075325 0 -132995306.6075325 -178135192.32408142 0 0 0 0 -585519455.68600464 1030314160.6135559 0 1030314160.6135559 -804007876.62443542 0 0 0 0 -2004290.5328154564 135241904.9973526 0 135241904.9973526 237701485.95477295 0 0 0 0 411940330.92158508 398073431.78068542 0 398073431.78068542 36719149.674179077 0 0 0 0 -1220150794.1098938 630320115.47544861 0 630320115.47544861 -269175787.6857605 0 0 0 0 -64581334.039649963 130492904.53907776 0 130492904.53907776 -79725106.719512939 0 0 0 0 -498967240.38527679 448672497.33874512 0 448672497.33874512 -106120877.47364807 0 0 0 0 289154238.29162598 296837370.5118103 0 296837370.5118103 -484023130.69885254 0 0 0 0 89498440.775382996 270256806.25779724 0 270256806.25779724 -525332744.66445923 0 0 0 0 -8479089.6842842102 -71782082.499816895 0 -71782082.499816895 -274770208.33716583 0 0 0 0 3289337.795035487 3972004.0204403643 0 3972004.0204403643 -6128619.098516345 0 0 0 0 -1586504718.3030853 1158577420.6623383 0 1158577420.6623383 -234333888.47145844 0 0 0 0 25932925.248973846 45024767.210170746 0 45024767.210170746 -34738298.030853271 0 0 0 0 9538817.6423031073 12839048.236195628 0 12839048.236195628 -2374407.4750451148 0 0 0 0 324194629.10047913 -93776442.582679749 0 -93776442.582679749 -65863555.656051636 0 0 0 0 150011675.33297729 7047390.6654052734 0 7047390.6654052734 87291103.980102539 0 0 0 0 317154824.30382156 334753403.61061478 0 334753403.61061478 -195059600.77801514 0 0 0 0 -297630079.64525604 331236921.20653534 0 331236921.20653534 76946518.983413696 0 0 0 0 574016888.57126927 112429133.75300479 0 112429133.75300479 -164606577.43151855 0 0 0 0 674280875.9224453 -235036874.95107079 0 -235036874.95107079 -224156204.66136169 0 0 0 0 2488609.9865278937 2212476.5417629723 0 2212476.5417629723 -2615410.0676721781 0 0 0 0 58703777.151069641 -203367497.86036682 0 -203367497.86036682 157962812.04766846 0 0 0 0 -257872891.0881958 245548213.72113037 0 245548213.72113037 234759683.5399437 0 0 0 0 -208301963.40060616 -234122764.21541119 0 -234122764.21541119 170793281.76211548 0 0 0 0 -1592036.0189666748 1821983.0765609741 0 1821983.0765609741 5068396.7431411743 0 0 0 0 6827821.4332137108 118236571.95850921 0 118236571.95850921 -47178672.942108154 0 0 0 0 -666320451.17307281 904278834.36500549 0 904278834.36500549 -205846624.86380005 0 0 0 0 5786718.3961358778 21150834.437561154 0 21150834.437561154 32416114.800072044 0 0 0 0 -801517161.99567986 504397001.08066559 0 504397001.08066559 36566253.966003418 0 0 0 0 -237270870.23144531 489214996.69155884 0 489214996.69155884 -90583677.330322266 0 0 0 0 139887966.22574234 383429750.26982117 0 383429750.26982117 -792615960.02859497 0 0 0 0 873237517.45099258 483934983.05882263 0 483934983.05882263 -263159952.23007202 0 0 0 0 22971891.494913101 492805380.79104614 0 492805380.79104614 -257190549.12661743 0 0 0 0 -240912883.69259644 719909158.9348526 0 719909158.9348526 819856720.94805908 0 0 0 0 -81627168.931797028 365455574.23442078 0 365455574.23442078 -589385119.14907074 0 0 0 0 19459169.613527846 34196137.106994607 0 34196137.106994607 30853073.373107389 0 0 0 0 -39789542.774879456 799624249.3107605 0 799624249.3107605 -783521785.33245516 0 0 0 0 186512474.56553268 192994494.09899902 0 192994494.09899902 -494267051.76705933 0 0 0 0 173720899.13256645 62823841.960205078 0 62823841.960205078 -820036501.79454041 0 0 0 0 561233540.88350677 393327760.54351807 0 393327760.54351807 -617409437.66741943 0 0 0 0 277725566.68333203 699727952.62138367 0 699727952.62138367 -744425083.88174438 0 0 0 0 662989100.94290161 -427656457.51571655 0 -427656457.51571655 -1079586209.6748505 0 0 0 0 748109565.20942688 -731955870.73748779 0 -731955870.73748779 1579680.2743682861 0 0 0 0 -165313768.06588888 248450354.48873901 0 248450354.48873901 -645597795.65939331 0 0 0 0 505255703.03938198 48935065.272583008 0 48935065.272583008 -600185201.18978882 0 0 0 0 -190245888.64384475 -528142703.29387093 0 -528142703.29387093 -569337243.24072266 0 0 0 0 112800283.00231934 -255746089.72462463 0 -255746089.72462463 -368693947.85519409 0 0 0 0 -17994511.14800024 -242763823.68008423 0 -242763823.68008423 -74340774.252502441 0 0 0 0 685964541.83157253 -515373405.36598206 0 -515373405.36598206 27424073.862930298 0 0 0 0 418876423.20240593 202538906.24977112 0 202538906.24977112 316554801.46716309 0 0 0 0 261145744.58973885 126109870.95928955 0 126109870.95928955 -264088865.35824585 0 0 0 0 829357019.33896255 277795560.24291992 0 277795560.24291992 -253531352.84394455 0 0 0 0 2187232097.8497076 560457818.03308868 0 560457818.03308868 325694735.7192688 0 0 0 0 323640890.27841473 -462756187.99380493 0 -462756187.99380493 1396142816.4609833 0 0 0 0 -39844.958664894104 -22230163.032226562 0 -22230163.032226562 845640953.19085693 0 0 0 0 594760553.9970789 1146837573.215271 0 1146837573.215271 660524641.17939758 0 0 0 0 888621207.48078346 314719535.77360535 0 314719535.77360535 -450380800.08486176 0 0 0 0 -76224459.499240875 -823431712.81370544 0 -823431712.81370544 2330811264.2511444 0 0 0 0 -2205253.0481279641 3651381.4795767143 0 3651381.4795767143 7092334.6031764895 0 0 0 0 -227611408.88262558 -135931405.36426544 0 -135931405.36426544 741417814.65487671 0 0 0 0 -905690283.20675659 -180743845.93309021 0 -180743845.93309021 1201803028.7774048 0 0 0 0 -425375295.12888336 472903929.3482666 0 472903929.3482666 751052441.32785034 0 0 0 0 -678954371.20590591 380969499.04075623 0 380969499.04075623 737799095.44842529 0 0 0 0 -177842858.09058762 126948379.82587433 0 126948379.82587433 796221857.56781006 0 0 0 0 66478101.418144226 954143171.81455994 0 954143171.81455994 2269482737.6905422 0 0 0 0 -83666875.895301819 -21057611.630630493 0 -21057611.630630493 155490220.99677277 0 0 0 0 -21637451.558753967 85192142.092979431 0 85192142.092979431 -47911983.825149536 0 0 0 0 40111808.301184654 -191230618.09642696 0 -191230618.09642696 -164163551.09597778 0 0 0 0 -70809378.409570694 66842395.693611145 0 66842395.693611145 -104547068.39163208 0 0 0 0 2926170.7788076065 -1110490.9671160728 0 -1110490.9671160728 -508044.37444698438 0 0 0 0 -30449182.316001892 61569579.23928833 0 61569579.23928833 -131152104.4496994 0 0 0 0 -36725544.417131424 86242058.247711182 0 86242058.247711182 -142147828.42248535 0 0 0 0 13558117.353149414 -63200693.437553406 0 -63200693.437553406 65262354.473953247 0 0 0 0 -91284606.292984009 37714575.444252014 0 37714575.444252014 100796924.65621185 0 0 0 0 -6095953.6721882895 5465243.8393513374 0 5465243.8393513374 6448522.5766714178 0 0 0 0 6038329.8486718759 19177400.365403183 0 19177400.365403183 12009998.515912041 0 0 0 0 -130732471.25520325 5466274.2506332397 0 5466274.2506332397 102782318.92643356 0 0 0 0 12543709.04811573 14357763.891892433 0 14357763.891892433 43558707.583435059 0 0 0 0 -27000998.025577545 119932973.39830017 0 119932973.39830017 -66500215.104553223 0 0 0 0 53610480.901654243 -119120276.0985775 0 -119120276.0985775 234198605.0123291 0 0 0 0 6770576.5758462176 13410438.908903552 0 13410438.908903552 10669441.07870464 0 0 0 0 -100830684.29212189 26350194.893655777 0 26350194.893655777 243743619.84112549 0 0 0 0 -35108489.132324219 -936191.11627578735 0 -936191.11627578735 249244398.93451691 0 0 0 0 -199818913.90800476 152172153.89243317 0 152172153.89243317 167494096.84547043 0 0 0 0 -83194546.878873825 59342810.5748806 0 59342810.5748806 241254822.15812683 0 0 0 0 -279893613.98605347 170310690.35940552 0 170310690.35940552 247074481.90258789 0 0 0 0 -324392923.78720093 183176018.50144958 0 183176018.50144958 297581891.91288757 0 0 0 0 -175330815.63193893 29569611.854125977 0 29569611.854125977 380723655.53726196 0 0 0 0 121791344.37828636 -390989821.92776299 0 -390989821.92776299 548428687.22138977 0 0 0 0 -296515515.98410797 -82726488.650802612 0 -82726488.650802612 496277001.53131104 0 0 0 0 6430323.2910042144 9129686.8159840517 0 9129686.8159840517 7679844.0316950083 0 0 0 0 -373349294.48710632 76170863.768356323 0 76170863.768356323 -47750934.378749847 0 0 0 0 -326248706.65166664 -63258209.088481903 0 -63258209.088481903 318799952.73400879 0 0 0 0 -304613170.39427185 502142970.44713593 0 502142970.44713593 -74239171.409790039 0 0 0 0 -266154588.38037872 325406432.55018997 0 325406432.55018997 354782457.18515015 0 0 0 0 679873014.60112 799852847.03051758 0 799852847.03051758 580296616.1328125 0 0 0 0 721212355.09361267 1096803483.1766987 0 1096803483.1766987 303565858.61849976 0 0 0 0 -1791953718.3162842 -1095216409.3377075 0 -1095216409.3377075 310208710.21850586 0 0 0 0 -1048213562.697197 2412481438.8987885 0 2412481438.8987885 3258855445.3460846 0 0 0 0 -637005792.23967743 24895870.950576782 0 24895870.950576782 1170911587.8154221 0 0 0 0 -647443734.15699005 -434861513.87808228 0 -434861513.87808228 -47920818.912307739 0 0 0 0 219910032.61408997 160245383.14198303 0 160245383.14198303 28729104.647567749 0 0 0 0 10053252.068016507 11510786.055123318 0 11510786.055123318 3361971.9613932297 0 0 0 0 2876046809.4689713 707807865.8046875 0 707807865.8046875 -328734193.89515686 0 0 0 0 1376540262.1983032 -555910438.17364502 0 -555910438.17364502 32254049.67530632 0 0 0 0 4396297391.12146 2369791100.8529282 0 2369791100.8529282 595370484.75398254 0 0 0 0 4070148.0098774359 352648.07096549124 0 352648.07096549124 -132016.61069841683 0 0 0 0 4078612.1153106689 395006419.29995728 0 395006419.29995728 989204448.22647095 0 0 0 0 5596104131.4413452 1728911050.9286499 0 1728911050.9286499 1303862534.0827942 0 0 0 0 4266590426.982872 -662111584.0259552 0 -662111584.0259552 -23249996.186979294 0 0 0 0 4717592.9614222907 3830329.5341819655 0 3830329.5341819655 658650.5723336488 0 0 0 0 -391524293.44445801 2283687637.779808 0 2283687637.779808 1756602518.6571655 0 0 0 0 -26466294.528030396 144284358.65692902 0 144284358.65692902 -495779183.65205383 0 0 0 0 2206843689.2956047 844558876.51939392 0 844558876.51939392 -16669937.999389648 0 0 0 0 173123355.35800171 395609947.5398407 0 395609947.5398407 -89474151.528812408 0 0 0 0 1002581644.7408371 -87948271.90070343 0 -87948271.90070343 -293089885.01901245 0 0 0 0 914299248.44530869 -200387342.39794922 0 -200387342.39794922 -89800918.102142334 0 0 0 0 286314110.00301361 79205974.571990967 0 79205974.571990967 -311831737.13044739 0 0 0 0 297474318.58628082 53495832.576957703 0 53495832.576957703 -266649533.80471802 0 0 0 0 273267211.65985489 90933475.612251282 0 90933475.612251282 -272254591.48040771 0 0 0 0 -181985513.55931091 105188796.91669464 0 105188796.91669464 -184470500.54101562 0 0 0 0 191528769.24951172 301475034.79733276 0 301475034.79733276 -499476854.45304108 0 0 0 0 -170780211.23741913 -465175701.45722198 0 -465175701.45722198 -519589126.2419281 0 0 0 0 6839100.3076881841 -625186.4898699075 0 -625186.4898699075 -1110034.3131272011 0 0 0 0 -73868543.665405273 193944445.72640991 0 193944445.72640991 -243288028.08177185 0 0 0 0 181629884.51229858 -222598335.10472107 0 -222598335.10472107 -63430003.825073242 0 0 0 0 -219725485.00460434 107065647.45394135 0 107065647.45394135 -48380797.749816895 0 0 0 0 273811114.43026733 -12389559.8253479 0 -12389559.8253479 -193791316.94311523 0 0 0 0 -95487387.417495728 260645.55435180664 0 260645.55435180664 -47553115.61517334 0 0 0 0 1372514.873913981 -399172.24069197848 0 -399172.24069197848 -1234096.993655622 0 0 0 0 12714462.939544678 98779994.443847656 0 98779994.443847656 -226215698.11039734 0 0 0 0 -23878354.750049591 100013420.35577774 0 100013420.35577774 26353663.905670166 0 0 0 0 2489334.9477695823 -620129.51627206802 0 -620129.51627206802 -2151747.1616418809 0 0 0 0 197961234.53875351 88194894.659790039 0 88194894.659790039 -165630225.40917969 0 0 0 0 142798042.79554749 -3561087.5248641968 0 -3561087.5248641968 -192761654.64024353 0 0 0 0 46716579.490940094 101427484.72388458 0 101427484.72388458 229589112.58002472 0 0 0 0 70825753.310159683 94119823.388626099 0 94119823.388626099 8386156.3489837646 0 0 0 0 -263693019.46291256 364066892.06489372 0 364066892.06489372 -155059011.33010864 0 0 0 0 265791647.85206604 96173251.376815796 0 96173251.376815796 -275925008.0431366 0 0 0 0 262170415.70458221 93236108.576690674 0 93236108.576690674 -241015251.95455933 0 0 0 0 209882180.73296356 229447078.50585175 0 229447078.50585175 -14729709.054283142 0 0 0 0 219156568.0765152 212574429.66802216 0 212574429.66802216 -233183926.12820816 0 0 0 0 5641634.6242866516 121881723.20266724 0 121881723.20266724 3152494.091796875 0 0 0 0 536474632.26760483 592007966.63842392 0 592007966.63842392 567928506.29907227 0 0 0 0 326677960.13665009 263381227.97744751 0 263381227.97744751 56360903.805000305 0 0 0 0 811953.07148361206 106187824.11003876 0 106187824.11003876 652431091.81185913 0 0 0 0 -63046384.854408264 12971225.252876282 0 12971225.252876282 562461326.29670715 0 0 0 0 -3126629.7071121596 61244.883732266724 0 61244.883732266724 42041.118942549452 0 0 0 0 537443258.56462097 452235897.18786621 0 452235897.18786621 -1393911530.5801144 0 0 0 0 1002606438.9836407 887531597.57809448 0 887531597.57809448 -986568671.15472412 0 0 0 0 392923679.78765869 -1551551167.9743042 0 -1551551167.9743042 -1630207700.9211426 0 0 0 0 -449329684.88653564 -700913.09436035156 0 -700913.09436035156 1697999612.0591736 0 0 0 0 38172992.90420723 17367953.223255157 0 17367953.223255157 205716228.9644928 0 0 0 0 -82657497.017250061 26955065.332458496 0 26955065.332458496 213260070.15150452 0 0 0 0 35139514.904102325 88639848.879989624 0 88639848.879989624 222390949.98809814 0 0 0 0 -8879176.0529006794 146811.9132430926 0 146811.9132430926 457190.30516345892 0 0 0 0 -40499302.203475952 16125806.59703064 0 16125806.59703064 444772713.09986877 0 0 0 0 -386232878.3392334 306823296.11289978 0 306823296.11289978 -525182280.12663269 0 0 0 0 34705946.771286011 41300307.849319458 0 41300307.849319458 -736946831.74578857 0 0 0 0 -13206148.247104049 383822.73056221008 0 383822.73056221008 1370519.3048107084 0 0 0 0 -80028998.54839325 30475150.538085938 0 30475150.538085938 328397056.86620331 0 0 0 0 -3975358.631278038 9820578.591135025 0 9820578.591135025 183845986.88731384 0 0 0 0 -94487455.406776428 21046703.045211792 0 21046703.045211792 184049845.92148709 0 0 0 0 -6143165.1596946716 41532788.543830872 0 41532788.543830872 15425267.501663208 0 0 0 0 -87151998.40045929 170197606.14778137 0 170197606.14778137 -19345268.46100235 0 0 0 0 2402733.3110514469 -544712.25947601348 0 -544712.25947601348 -2009994.5567202568 0 0 0 0 -46245445.299705982 64902970.080579758 0 64902970.080579758 -92363072.152359009 0 0 0 0 -55621264.73462677 71370053.059082031 0 71370053.059082031 -94354310.840896606 0 0 0 0 10670516.165798187 98408043.813934326 0 98408043.813934326 -197014878.02020264 0 0 0 0 -37873745.564498901 55488842.344116211 0 55488842.344116211 -104446784.39272153 0 0 0 0 -7225133.2138633728 61069243.822166443 0 61069243.822166443 -89152445.669212341 0 0 0 0 -3088141.6453437805 63522295.861778259 0 63522295.861778259 -92585658.167419434 0 0 0 0 -20886871.437948227 43161502.073719025 0 43161502.073719025 -96640687.523208618 0 0 0 0 -46153730.771995068 65935094.247117996 0 65935094.247117996 -80920919.96685791 0 0 0 0 21884013.042629242 61873466.574424744 0 61873466.574424744 -103717334.96054077 0 0 0 0 1226772.9883336425 -299195.07345134765 0 -299195.07345134765 -1034683.1346516088 0 0 0 0 35063419.107345581 125088106.41176605 0 125088106.41176605 -26818879.501060486 0 0 0 0 -38150176.461460114 94831680.313591003 0 94831680.313591003 108686595.84350586 0 0 0 0 -11051477.591758728 26908300.267730713 0 26908300.267730713 86022595.229431152 0 0 0 0 42863655.584009171 70824916.29642868 0 70824916.29642868 101043856.26040649 0 0 0 0 16997250.587478638 95236354.686065674 0 95236354.686065674 167688751.81202698 0 0 0 0 -80746368.355939388 104632024.67294312 0 104632024.67294312 177855097.62466431 0 0 0 0 -26993420.306846619 63938894.379787445 0 63938894.379787445 146313055.98226929 0 0 0 0 317356808.88659668 238647263.09020996 0 238647263.09020996 -88112511.436767578 0 0 0 0 -17242935.530745141 2234261.0442290008 0 2234261.0442290008 3593795.3273390429 0 0 0 0 -5857850.4340591431 48402847.871276855 0 48402847.871276855 157425536.05981445 0 0 0 0 -23706113.663084984 -1450595.2616176605 0 -1450595.2616176605 59933404.476226807 0 0 0 0 -29094103.163467407 17881704.474960327 0 17881704.474960327 119698300.76928329 0 0 0 0 -82597873.69127655 39042099.815776825 0 39042099.815776825 41008942.627410889 0 0 0 0 -562071919.24237823 601506619.46983337 0 601506619.46983337 -271408807.81719971 0 0 0 0 -3137579.8306621686 1810037.0237907413 0 1810037.0237907413 1612844.7160754949 0 0 0 0 -42797389.468444824 16826576.25869751 0 16826576.25869751 52151549.771377563 0 0 0 0 -24365363.059211731 -3043271.5711517334 0 -3043271.5711517334 43100385.708862305 0 0 0 0 -210419146.00371552 574608069.20022202 0 574608069.20022202 -351284921.09210205 0 0 0 0 -214613802.68341446 550314598.0364399 0 550314598.0364399 -351958473.35559082 0 0 0 0 -505640570.3706665 368876956.42819214 0 368876956.42819214 -382868623.57830429 0 0 0 0 1168706.634765625 -110088573.41757965 0 -110088573.41757965 -57554054.890808105 0 0 0 0 -47757661.985847235 500479653.00558281 0 500479653.00558281 -413107941.22998047 0 0 0 0 -1042429.1544371918 569365.42011610791 0 569365.42011610791 660001.74473752081 0 0 0 0 -50443488.507102966 394346669.72133636 0 394346669.72133636 -389657832.4808445 0 0 0 0 -224013382.1975708 362049863.92019653 0 362049863.92019653 29200240.836181641 0 0 0 0 -302243351.66088867 118614420.4768219 0 118614420.4768219 -535676494.25448608 0 0 0 0 1631669.5379486084 246473126.52010345 0 246473126.52010345 -786516625.62695312 0 0 0 0 22425.54443359375 377532361.67507935 0 377532361.67507935 -464001792.81106567 0 0 0 0 -47515160.939193726 461277179.74693298 0 461277179.74693298 -526228395.38555908 0 0 0 0 241190137.3547821 88568616.834442139 0 88568616.834442139 -747653490.22836304 0 0 0 0 357101191.00170135 623011437.70254517 0 623011437.70254517 -1186585556.0532837 0 0 0 0 209222627.33969879 636175042.9868927 0 636175042.9868927 -682784655.11010742 0 0 0 0 223138434.3123436 669821078.12253571 0 669821078.12253571 -608001916.49493408 0 0 0 0 163433417.82293701 556401545.41033936 0 556401545.41033936 -773271858.65148449 0 0 0 0 -32891157.652252197 550764979.86912537 0 550764979.86912537 -553920983.90423584 0 0 0 0 -42696806.51512146 527061659.96798706 0 527061659.96798706 -487451212.46274567 0 0 0 0 33614020.682418823 650233286.95101929 0 650233286.95101929 -438595224.78152466 0 0 0 0 -119971213.3775444 709175937.20578766 0 709175937.20578766 -201692330.45880127 0 0 0 0 -5293067.914352417 638507826.07913208 0 638507826.07913208 -438726813.3454597 0 0 0 0 -215531088.73469543 592347051.35566711 0 592347051.35566711 -185417280.62332153 0 0 0 0 203914178.7876358 851584050.08686829 0 851584050.08686829 -186741421.84368896 0 0 0 0 94959649.280181885 800161698.90336609 0 800161698.90336609 -178077391.92071533 0 0 0 0 185157372.38717651 688027298.30397034 0 688027298.30397034 -609677779.8738327 0 0 0 0 135131202.46434021 743518352.16355896 0 743518352.16355896 -203574652.32859039 0 0 0 0 144463496.88832092 660852469.55804443 0 660852469.55804443 10042739.072998047 0 0 0 0 386875376.91363525 778087530.2088623 0 778087530.2088623 -69046953.592010498 0 0 0 0 318303902.16433716 683640282.97657776 0 683640282.97657776 -193373250.07073975 0 0 0 0 176561017.67921448 660164236.16116333 0 660164236.16116333 144657032.11009216 0 0 0 0 202402023.74197388 746731063.71348572 0 746731063.71348572 134394710.96298218 0 0 0 0 562282357.9488678 491703751.23597717 0 491703751.23597717 60655163.263217926 0 0 0 0 112155205.91720581 553062119.32501221 0 553062119.32501221 -15880899.846862793 0 0 0 0 -101865490.67327881 655844545.24514771 0 655844545.24514771 -153456184.81585693 0 0 0 0 -278850186.55249023 701671178.3732605 0 701671178.3732605 -2830567.0772705078 0 0 0 0 -95410990.429969788 693248382.60467529 0 693248382.60467529 53281643.988342285 0 0 0 0 -310512867.06806946 569139055.93040466 0 569139055.93040466 936784.49603843689 0 0 0 0 -393432122.55639648 628396719.42562866 0 628396719.42562866 -43500873.569213867 0 0 0 0 -661118669.69235229 535998204.44012451 0 535998204.44012451 35586952.896446228 0 0 0 0 -404396253.57263184 558177501.09300232 0 558177501.09300232 -130927880.99331665 0 0 0 0 -628876172.84698486 493540767.96534729 0 493540767.96534729 5232825.6039810181 0 0 0 0 -756360082.43113708 371659153.50389099 0 371659153.50389099 68364938.306976318 0 0 0 0 -713820367.54501343 420207286.02278137 0 420207286.02278137 -59009641.709838867 0 0 0 0 -676643574.98351288 391741514.23344421 0 391741514.23344421 -89262943.008003235 0 0 0 0 -530604222.77659607 478817390.24633789 0 478817390.24633789 -329820943.42417908 0 0 0 0 -239287003.10801697 548559110.54046631 0 548559110.54046631 -351788834.76433563 0 0 0 0 -240447716.65403748 573104809.26127625 0 573104809.26127625 -351173000.34539413 0 0 0 0 -520478021.98290825 529692555.91565704 0 529692555.91565704 -133764517.07870483 0 0 0 0 827620797.06817627 -86706409.57611084 0 -86706409.57611084 -1255048130.7323608 0 0 0 0 276762435.41999817 -398310919.27854156 0 -398310919.27854156 -234407074.53863525 0 0 0 0 1001152302.0169411 978997475.72336578 0 978997475.72336578 -15865193.367523193 0 0 0 0 176570615.63429832 758392994.87445831 0 758392994.87445831 2740159543.5566406 0 0 0 0 1685840248.4264488 137205536.20858383 0 137205536.20858383 -1471287492.6105957 0 0 0 0 292617.58558318159 563572.68117808551 0 563572.68117808551 125746.45850762725 0 0 0 0 504140657.07315063 257394061.36997986 0 257394061.36997986 -1062383176.9497986 0 0 0 0 -49395146.975028992 393413325.49841309 0 393413325.49841309 -1032525731.5665588 0 0 0 0 423953732.23966599 425750544.08775711 0 425750544.08775711 -1186553406.1401062 0 0 0 0 -4177386.0968017578 -212586715.44149017 0 -212586715.44149017 -988451036.94396973 0 0 0 0 329048057.98791122 -290299487.17340088 0 -290299487.17340088 -970766183.20217896 0 0 0 0 165476513.74302673 -181028203.61912537 0 -181028203.61912537 -709434681.65974426 0 0 0 0 -608272418.72814941 -1007340519.0252075 0 -1007340519.0252075 -1090997217.9567795 0 0 0 0 1205651.8492019251 704533.1443234235 0 704533.1443234235 -2633129.7824745327 0 0 0 0 164179616.9901104 -50632656.220846176 0 -50632656.220846176 -1951408643.2534485 0 0 0 0 -628401494.23455048 889170871.51994324 0 889170871.51994324 -443809391.69665527 0 0 0 0 -130820580.80963707 598324589.2034874 0 598324589.2034874 -1441935463.2316589 0 0 0 0 -1129633918.2030373 -297144853.69911194 0 -297144853.69911194 -1000924650.0973206 0 0 0 0 310896202.89805603 65716933.802856445 0 65716933.802856445 -2182349214.2084656 0 0 0 0 400405603.70974731 400220489.15283203 0 400220489.15283203 -1041123191.8548126 0 0 0 0 203966437.35160065 -152280214.36392212 0 -152280214.36392212 -1475340082.7966003 0 0 0 0 286870227.15000916 991949729.08302307 0 991949729.08302307 -1697390741.2954407 0 0 0 0 237768629.73151398 755503176.52357483 0 755503176.52357483 -605849306.10882568 0 0 0 0 418054566.93188477 680020844.96125793 0 680020844.96125793 -607712107.08459997 0 0 0 0 206559305.03787613 713566754.59159088 0 713566754.59159088 -183563726.98602295 0 0 0 0 554988914.65010071 74876449.449821472 0 74876449.449821472 -144178588.93225098 0 0 0 0 1307517484.6027374 -289466042.99734116 0 -289466042.99734116 -33810667.464904785 0 0 0 0 987826744.87969971 786358975.90750122 0 786358975.90750122 65031300.234619141 0 0 0 0 822011528.15171051 584784400.3183136 0 584784400.3183136 -177838383.85299683 0 0 0 0 397002475.82347107 549944848.9355011 0 549944848.9355011 325895192.27734375 0 0 0 0 1413695817.6812286 347050608.16075134 0 347050608.16075134 -10636095.965759277 0 0 0 0 733327167.19213867 490618156.5905304 0 490618156.5905304 32564401.655334473 0 0 0 0 559019038.3249054 378482105.34114075 0 378482105.34114075 411021855.54330444 0 0 0 0 745993920.61381531 324889092.83180237 0 324889092.83180237 844343843.36761475 0 0 0 0 1221197668.2519531 524755449.39079285 0 524755449.39079285 222685626.68936157 0 0 0 0 -41252318.804302216 27374686.704818726 0 27374686.704818726 4457994.2662658691 0 0 0 0 473254.07543137902 2616392.3375669979 0 2616392.3375669979 5467793.8542733938 0 0 0 0 -141077.89841701835 1496133.455965817 0 1496133.455965817 595522.32572954521 0 0 0 0 -44907975.024026871 -137762150.87958097 0 -137762150.87958097 -388206027.11231995 0 0 0 0 522041853.0697403 83470525.898925781 0 83470525.898925781 -102798299.14044189 0 0 0 0 3815695.1437753863 3556321.8942533098 0 3556321.8942533098 -6770520.5151334852 0 0 0 0 5955020.8958016671 11682085.608520165 0 11682085.608520165 3702422.063299004 0 0 0 0 -132242781.24894714 -165222388.50965118 0 -165222388.50965118 -350469751.18836975 0 0 0 0 -30046074.01373291 50435782.906112671 0 50435782.906112671 10070998.346496582 0 0 0 0 -36258662.088859558 38504864.508087158 0 38504864.508087158 -12834938.950508118 0 0 0 0 -24864921.663818359 46824453.186294556 0 46824453.186294556 -12373008.061431885 0 0 0 0 -5641387.9152832031 75585912.71648407 0 75585912.71648407 13573012.358703613 0 0 0 0 19060414.260428905 107854239.4051857 0 107854239.4051857 -89555386.989547729 0 0 0 0 385039402.29239655 7894292.7712554932 0 7894292.7712554932 -1325838863.9547348 0 0 0 0 5249938.5241931044 13086402.888170622 0 13086402.888170622 4651087.3690629601 0 0 0 0 -13007113.954223633 10937837.324554443 0 10937837.324554443 -23652330.256210327 0 0 0 0 -33511032.817550659 14329877.312713623 0 14329877.312713623 1367139.1663513184 0 0 0 0 -32677873.334671021 15387741.738521576 0 15387741.738521576 -18677928.856170654 0 0 0 0 -9748298.3625793457 -4343340.2169342041 0 -4343340.2169342041 -3238889.2134094238 0 0 0 0 -29796755.77481842 736600.8797454834 0 736600.8797454834 34476705.835449219 0 0 0 0 -29274928.381577224 27523534.978013933 0 27523534.978013933 36536153.976806641 0 0 0 0 -47042656.799598694 35899579.25769043 0 35899579.25769043 71294585.520324707 0 0 0 0 -46700173.432458878 36093720.284467697 0 36093720.284467697 15725680.153137207 0 0 0 0 -47741518.065349579 25603706.407535553 0 25603706.407535553 9073664.0800323486 0 0 0 0 -66560289.410993576 12084608.76776123 0 12084608.76776123 6279740.9530334473 0 0 0 0 -55756062.89516449 35104880.354019165 0 35104880.354019165 20518688.371414185 0 0 0 0 -65998426.615829468 33341141.246246338 0 33341141.246246338 23159279.16847229 0 0 0 0 -125923684.6322937 32017008.346366882 0 32017008.346366882 7724951.2552642822 0 0 0 0 1984713949.4540176 576967709.3493042 0 576967709.3493042 -69887441.508087158 0 0 0 0 1523361.2817196092 -311638.99301426113 0 -311638.99301426113 2220673.7244697511 0 0 0 0 1154305724.7241211 477795107.50878906 0 477795107.50878906 12894645.992279053 0 0 0 0 806976246.31187439 469753199.18062592 0 469753199.18062592 95973469.701461792 0 0 0 0 1524993271.3727798 280168109.23859406 0 280168109.23859406 -32743366.131851196 0 0 0 0 1482689134.0640345 289320426.10658503 0 289320426.10658503 215871752.22299194 0 0 0 0 1453833234.9407392 612593024.72345591 0 612593024.72345591 -92243560.454620361 0 0 0 0 1728702097.0953712 772196236.56517029 0 772196236.56517029 332187.79954528809 0 0 0 0 -303953330.02931404 289206553.51930237 0 289206553.51930237 1330768.2474365234 0 0 0 0 2883176995.9008598 371920997.59142303 0 371920997.59142303 -242945376.77523804 0 0 0 0 2116296.1492279447 -1812855.2853490002 0 -1812855.2853490002 264926.92255462706 0 0 0 0 -46987540.071128845 34657988.012031555 0 34657988.012031555 -39431385.11958313 0 0 0 0 -33366925.029678345 10885363.278167725 0 10885363.278167725 -16557949.782478333 0 0 0 0 -4060183.0500418507 -824704.9696809724 0 -824704.9696809724 4226985.0743871331 0 0 0 0 -42642007.408561707 28442280.274520874 0 28442280.274520874 13539.22945817153 0 0 0 0 -114931262.37664986 -3520224.7348899841 0 -3520224.7348899841 -10409437.231369019 0 0 0 0 -11542344.364406586 -12070016.448669434 0 -12070016.448669434 -22972105.749969482 0 0 0 0 -3345326.7691757884 -471584.32317525893 0 -471584.32317525893 4032364.319393903 0 0 0 0 -30820379.38470459 16322510.175415039 0 16322510.175415039 -22216022.802902222 0 0 0 0 32066235.833566666 32201310.710247993 0 32201310.710247993 -20995477.296783447 0 0 0 0 -173907314.90447426 40905647.292930603 0 40905647.292930603 54537185.748001099 0 0 0 0 -433185214.09651184 724920159.20820618 0 724920159.20820618 170031372.24107361 0 0 0 0 -1000079721.09272 479150135.71318054 0 479150135.71318054 194622499.32973194 0 0 0 0 -1356634681.6180611 494977221.90239716 0 494977221.90239716 165628227.07807159 0 0 0 0 -867337413.49494171 356951563.52838135 0 356951563.52838135 -2501069.5260772705 0 0 0 0 -998628212.30389404 310999790.84270477 0 310999790.84270477 53415202.461730957 0 0 0 0 -860790738.09902954 548630797.32740021 0 548630797.32740021 116513546.22485352 0 0 0 0 -824425417.32907486 595814157.67325401 0 595814157.67325401 214374270.39578247 0 0 0 0 -357453464.86831665 586885420.90203857 0 586885420.90203857 33265557.636367798 0 0 0 0 -517266867.81415558 674892232.70823669 0 674892232.70823669 109964705.32958984 0 0 0 0 -79530826.121261597 556496101.02072144 0 556496101.02072144 52673622.889663696 0 0 0 0 -122221541.62904358 758862457.58120728 0 758862457.58120728 94989425.135559082 0 0 0 0 -349789243.66407967 622459545.61523819 0 622459545.61523819 187340933.02453613 0 0 0 0 826200552.64144135 491927679.57434082 0 491927679.57434082 -1193048.4813995361 0 0 0 0 602858420.2406311 671480592.82103729 0 671480592.82103729 200333857.06297302 0 0 0 0 29325122.218132019 737402813.55078125 0 737402813.55078125 151180838.82536316 0 0 0 0 525430159.15709686 501983025.03553009 0 501983025.03553009 -47704979.123207092 0 0 0 0 -187899016.12602997 921733812.30158615 0 921733812.30158615 91529348.988967896 0 0 0 0 852431581.39823914 268687103.58481598 0 268687103.58481598 170979862.2232132 0 0 0 0 457360582.09487724 869098251.97869301 0 869098251.97869301 117753.22676086426 0 0 0 0 -651681076.03623199 337223422.39352417 0 337223422.39352417 44858207.83265686 0 0 0 0 -981951050.98989105 895219054.76362991 0 895219054.76362991 -774934.07720947266 0 0 0 0 -967487914.41399384 449102045.70727539 0 449102045.70727539 -15328091.546005249 0 0 0 0 -2987241800.6060944 106518663.00777435 0 106518663.00777435 187935934.46702576 0 0 0 0 214545744.76237488 74657546.603843689 0 74657546.603843689 65247.550735473633 0 0 0 0 103786355.1732254 145265196.75779724 0 145265196.75779724 -8210917.8469543457 0 0 0 0 -65107.938777113333 -1606629.9407929629 0 -1606629.9407929629 -2142024.0129630417 0 0 0 0 330643838.21078491 127097219.9899292 0 127097219.9899292 -49058418.203186035 0 0 0 0 185310113.19839478 97688374.456268311 0 97688374.456268311 33635637.307403564 0 0 0 0 183169935.36465693 52599441.29248476 0 52599441.29248476 -26392766.97442627 0 0 0 0 18118176.627258301 17327263.088668823 0 17327263.088668823 -19943085.620162964 0 0 0 0 253150104.06619263 124896898.8842926 0 124896898.8842926 -38790828.741943359 0 0 0 0 209567892.38374329 97743401.523040771 0 97743401.523040771 -7568074.2205810547 0 0 0 0 203319055.39733887 143585847.59796143 0 143585847.59796143 -46367128.646743774 0 0 0 0 236068538.6479187 62835096.365886688 0 62835096.365886688 -132732084.36172485 0 0 0 0 45557.780145674944 -1295998.6054279432 0 -1295998.6054279432 -205344.13336330652 0 0 0 0 78161468.046611786 -47055069.385253906 0 -47055069.385253906 80954684.473144531 0 0 0 0 371002769.31977081 97782174.82989502 0 97782174.82989502 -70289070.088928223 0 0 0 0 329166089.2202301 59361330.513916016 0 59361330.513916016 -39258504.998168945 0 0 0 0 227840416.43336487 76866068.170074463 0 76866068.170074463 16367719.823669434 0 0 0 0 49909314.812767029 88000965.680007935 0 88000965.680007935 77784971.346908569 0 0 0 0 -1801794180.2398376 -24238684.259151459 0 -24238684.259151459 120163828.27062988 0 0 0 0 261046.98425628617 395030.73424181342 0 395030.73424181342 -4687226.9122540355 0 0 0 0 -768310.88234273903 -580693.17548485473 0 -580693.17548485473 79761.099896162748 0 0 0 0 31842312.874900818 32550760.249343872 0 32550760.249343872 -44034869.458679199 0 0 0 0 301233832.30218506 160438717.13882446 0 160438717.13882446 -70911120.068084717 0 0 0 0 243286599.95529175 201428346.1919632 0 201428346.1919632 34835198.730102539 0 0 0 0 117731022.51386261 171248458.79935455 0 171248458.79935455 135225054.85037231 0 0 0 0 -1286825.9984072596 1671407.802002281 0 1671407.802002281 -284096.07993224263 0 0 0 0 273257841.6973877 -3603532.0511016846 0 -3603532.0511016846 -12254813.32244873 0 0 0 0 -5086817.2991790771 3487982.549911499 0 3487982.549911499 48072491.12121582 0 0 0 0 -1054291.6912296768 2723036.3758678213 0 2723036.3758678213 -1239921.3665981144 0 0 0 0 -894833087.76321411 221082632.27316284 0 221082632.27316284 94392996.537294388 0 0 0 0 -851729756.13224411 205241648.83125305 0 205241648.83125305 -282333.65579223633 0 0 0 0 657522.56583897211 1404309.1213794276 0 1404309.1213794276 -4955225.2441534549 0 0 0 0 -81382413.145278931 14317211.077728271 0 14317211.077728271 50660264.9868927 0 0 0 0 -115777767.77757263 108153425.20494843 0 108153425.20494843 108962550.57446289 0 0 0 0 271183386.56317139 142700952.49110413 0 142700952.49110413 19836736.182769775 0 0 0 0 85087053.676681519 223475437.38477325 0 223475437.38477325 142616138.86120605 0 0 0 0 237481734.1993866 -11281279.701812744 0 -11281279.701812744 -233742684.8359375 0 0 0 0 -272084040.99023438 117388531.6355896 0 117388531.6355896 228317709.99124146 0 0 0 0 582035.65540251881 1759996.2214632779 0 1759996.2214632779 -871747.63780748844 0 0 0 0 -168728943.88236618 -140319730.2308712 0 -140319730.2308712 -68852129.753494263 0 0 0 0 -105895884.57211685 136247260.35670853 0 136247260.35670853 -80758074.257003784 0 0 0 0 -296514798.37503052 -48715167.42848587 0 -48715167.42848587 12664062.371368408 0 0 0 0 12026991.000228882 41880475.974029541 0 41880475.974029541 33695002.456695557 0 0 0 0 -52578835.825424194 46829472.440849304 0 46829472.440849304 35353515.069747925 0 0 0 0 54543246.829208374 88854082.684539795 0 88854082.684539795 -114586.1399603094 0 0 0 0 -145821644.18732452 118933376.4553299 0 118933376.4553299 400507.49038696289 0 0 0 0 -148609168.47725677 136985653.64168549 0 136985653.64168549 70652977.653137207 0 0 0 0 3136533.9181653932 3327357.6727276146 0 3327357.6727276146 -3069935.0011122599 0 0 0 0 -81882801.503036499 59118268.075042725 0 59118268.075042725 155885931.28616333 0 0 0 0 8552772.1438903809 7658286.6923370361 0 7658286.6923370361 -8474.3289262330291 0 0 0 0 14100812.747680664 -945179.40530395508 0 -945179.40530395508 100506662.51351929 0 0 0 0 -42197994.94519043 26875603.389984131 0 26875603.389984131 88036776.930725098 0 0 0 0 29822766.873458862 6668913.4600372314 0 6668913.4600372314 56116366.888031006 0 0 0 0 -43806095.323028564 49000092.973892212 0 49000092.973892212 41484029.531967163 0 0 0 0 -31519701.378067017 29476633.987495422 0 29476633.987495422 55501552.592643738 0 0 0 0 107864042.67320251 97262970.767074585 0 97262970.767074585 123582843.77194214 0 0 0 0 36204196.844314575 43551756.299324036 0 43551756.299324036 40952396.715499878 0 0 0 0 53937340.055585861 88290980.664009094 0 88290980.664009094 123669715.35017395 0 0 0 0 81054376.779190063 38525651.173713684 0 38525651.173713684 122187.5514831543 0 0 0 0 2811887.1029761955 3101467.677961342 0 3101467.677961342 -2840558.7061196119 0 0 0 0 -5361525.4601325989 45992753.265022278 0 45992753.265022278 117017365.11871338 0 0 0 0 11897927.311203003 12906815.081466675 0 12906815.081466675 66126695.640075684 0 0 0 0 1509819.5207173601 1651658.0134987906 0 1651658.0134987906 -1511013.564158462 0 0 0 0 38432603.115722656 96540255.679611206 0 96540255.679611206 62054065.198699951 0 0 0 0 194090915.67440796 282667554.3429718 0 282667554.3429718 188522260.43514252 0 0 0 0 23011234.999145508 71464882.919822693 0 71464882.919822693 140211328.03541565 0 0 0 0 7653.8773040771484 30991410.175308228 0 30991410.175308228 -316144.10596466064 0 0 0 0 -13648255.062945366 -49263282.496212959 0 -49263282.496212959 57973153.159729004 0 0 0 0 569256.39956665039 35065620.922607422 0 35065620.922607422 50412770.097961426 0 0 0 0 -5381832.5432891846 11494200.47946167 0 11494200.47946167 5244906.1249084473 0 0 0 0 534321.13661692291 6071232.3994839266 0 6071232.3994839266 -796720.06831003726 0 0 0 0 15767476.683181763 -7535173.8086547852 0 -7535173.8086547852 -5487692.5116882324 0 0 0 0 -77663333.409851074 49157294.374580383 0 49157294.374580383 2987074.2369384766 0 0 0 0 285995051.73266602 -48181305.358505249 0 -48181305.358505249 -83982677.359649658 0 0 0 0 1993549.2086419314 1396494.9498258233 0 1396494.9498258233 -630337.14097153395 0 0 0 0 434353221.44332886 158785767.46229553 0 158785767.46229553 -1437525.6785430908 0 0 0 0 -783939.946212098 2461167.0346334502 0 2461167.0346334502 3553730.0371979475 0 0 0 0 4938951.1677856445 -381778.76908874512 0 -381778.76908874512 -5717418.9612121582 0 0 0 0 675886.08987054974 4004715.5396292955 0 4004715.5396292955 -1288870.8670290112 0 0 0 0 -23428544.618835449 37389720.324104309 0 37389720.324104309 38572312.604972839 0 0 0 0 -5897547.4498519897 12023060.047569275 0 12023060.047569275 5007508.9688415527 0 0 0 0 -15669392.199050903 -677674.04325866699 0 -677674.04325866699 10005925.374572754 0 0 0 0 -41848707.231124878 -20546631.151596069 0 -20546631.151596069 -2388478.3564300537 0 0 0 0 -59534322.866775513 -5709397.5938796997 0 -5709397.5938796997 28410311.369995117 0 0 0 0 -41283827.557037354 15537170.510284424 0 15537170.510284424 36324630.194656372 0 0 0 0 -60705241.95614624 -2553333.3106842041 0 -2553333.3106842041 61485946.217514038 0 0 0 0 -56833511.122802734 28801740.847518921 0 28801740.847518921 48368730.912109375 0 0 0 0 -33061637.101303101 40155083.497787476 0 40155083.497787476 21839556.917602539 0 0 0 0 -26518445.829910278 53274749.023880005 0 53274749.023880005 46923027.487701416 0 0 0 0 -32223170.239532471 34909387.48916626 0 34909387.48916626 11095025.423797607 0 0 0 0 -43569719.45526886 9158198.3745880127 0 9158198.3745880127 18544236.758544922 0 0 0 0 -20770105.547195435 22915881.431602478 0 22915881.431602478 -1193201.3791503906 0 0 0 0 -4757595.8212585449 11751216.269088745 0 11751216.269088745 4711744.9538192749 0 0 0 0 -24144148.599182129 23594961.862762451 0 23594961.862762451 26480960.504760742 0 0 0 0 -131015058.66448975 118592086.45230103 0 118592086.45230103 37621691.507781982 0 0 0 0 -12475681.606981277 31806351.440624714 0 31806351.440624714 3225800.9967651367 0 0 0 0 10804308.831180632 9872509.1662349235 0 9872509.1662349235 542075.98114670813 0 0 0 0 -11183485.456420898 51505604.261352539 0 51505604.261352539 -26930466.612792969 0 0 0 0 802522.8511441648 1164537.0449774116 0 1164537.0449774116 498525.58190512657 0 0 0 0 -55777045.735961914 60943504.337768555 0 60943504.337768555 1124359.7485046387 0 0 0 0 -25961066.506622314 39091327.548461914 0 39091327.548461914 -353036.96670532227 0 0 0 0 -10484392.532043457 48437828.296203613 0 48437828.296203613 -17405013.066101074 0 0 0 0 -10998699.720001221 48951861.300811768 0 48951861.300811768 444469.48370361328 0 0 0 0 -11604168.314861298 50771117.029724121 0 50771117.029724121 2016176.9351196289 0 0 0 0 -18423595.33895874 50399077.747756958 0 50399077.747756958 16587512.478271484 0 0 0 0 -27304034.417160034 39540376.102645874 0 39540376.102645874 14086939.63494873 0 0 0 0 32993017.491043091 -28598872.050071716 0 -28598872.050071716 -93360901.749267578 0 0 0 0 -193092265.10704803 10129855.416603088 0 10129855.416603088 -9531469.9058227539 0 0 0 0 -87225841.794692993 -98340770.566772461 0 -98340770.566772461 -124110465.79299927 0 0 0 0 6081795.7945759371 6304989.4395266268 0 6304989.4395266268 2385673.826945737 0 0 0 0 -4925654.7146606445 11194702.806976318 0 11194702.806976318 5025427.3825683594 0 0 0 0 53804801.175043106 50186606.791437149 0 50186606.791437149 -142272301.5737915 0 0 0 0 256691703.62353516 94713307.496047974 0 94713307.496047974 -133327936.86427307 0 0 0 0 -119609932.96156693 189011663.58104515 0 189011663.58104515 286290755.17498779 0 0 0 0 -146216645.41571045 -90753078.683685303 0 -90753078.683685303 280005480.05572844 0 0 0 0 183117937.32606506 -85020232.434341431 0 -85020232.434341431 -142444334.20978928 0 0 0 0 -14240350.108505249 -54512461.890151978 0 -54512461.890151978 275948768.35247803 0 0 0 0 325449.11704321206 622620.02452476695 0 622620.02452476695 423979.29499563575 0 0 0 0 32933225.454406738 3570077.9188079834 0 3570077.9188079834 -30666417.668380737 0 0 0 0 27116878.948486328 209220743.69737244 0 209220743.69737244 145341205.04735565 0 0 0 0 45377993.556016922 91797947.149997711 0 91797947.149997711 -203012884.39382935 0 0 0 0 715626.03826026618 -1971180.9239829555 0 -1971180.9239829555 -2169149.3837343734 0 0 0 0 8906242.8065948486 11131838.063232422 0 11131838.063232422 -20003449.49016571 0 0 0 0 16111499.847176984 12567238.243057832 0 12567238.243057832 -3834093.5217196718 0 0 0 0 6493547.21108298 11962340.84532252 0 11962340.84532252 4788869.3676696494 0 0 0 0 300280049.84803009 -164057932.98644638 0 -164057932.98644638 -275442791.84857178 0 0 0 0 42136862.830718994 79771139.174201965 0 79771139.174201965 -135714565.8895359 0 0 0 0 21130789.918429941 13917566.218746968 0 13917566.218746968 -6309811.4152650014 0 0 0 0 67551894.473220825 58335460.666130066 0 58335460.666130066 -289274291.06945801 0 0 0 0 25609337.853752136 67842750.795909882 0 67842750.795909882 -130317722.34020996 0 0 0 0 -19335761.929077148 52000585.470001221 0 52000585.470001221 -14573.441059112549 0 0 0 0 5010723.7657394409 13224353.900947571 0 13224353.900947571 -16875985.914398193 0 0 0 0 7249535.2459157556 16665555.786271283 0 16665555.786271283 5058099.5873009264 0 0 0 0 -2686373.7411499023 52331464.777099609 0 52331464.777099609 -3417531.2423400879 0 0 0 0 -663575.70877075195 58462849.793457031 0 58462849.793457031 -7054253.8929748535 0 0 0 0 1544027.8828582764 14289244.302368164 0 14289244.302368164 -2927336.6552505493 0 0 0 0 4325686.86286816 13333988.120538898 0 13333988.120538898 4076282.2890554816 0 0 0 0 -132148206.43539429 -125918784.54046631 0 -125918784.54046631 -102540252.6293869 0 0 0 0 4450941.5435333252 72688565.928359985 0 72688565.928359985 -58268926.79309082 0 0 0 0 2597845.6047363281 75737818.136619568 0 75737818.136619568 -34424550.277442932 0 0 0 0 12902202.996440828 22173033.937935024 0 22173033.937935024 6931119.2203836292 0 0 0 0 -18476366.056335449 25354868.163650513 0 25354868.163650513 -12028119.621017456 0 0 0 0 740527.91041929275 24129074.756660331 0 24129074.756660331 11378664.193589155 0 0 0 0 13322422.556625903 21746585.423815276 0 21746585.423815276 2310624.2861830145 0 0 0 0 11547122.201034546 48888181.631515503 0 48888181.631515503 -19115520.938095093 0 0 0 0 15453487.452667236 54453760.572067261 0 54453760.572067261 -11710027.492202759 0 0 0 0 -3253384.4594488144 47834680.481672287 0 47834680.481672287 -13133121.921478271 0 0 0 0 -384562.13502502441 55307550.489501953 0 55307550.489501953 -4717845.1772155762 0 0 0 0 37727188.092941284 28393515.114044189 0 28393515.114044189 -23622132.690109253 0 0 0 0 22410278.902381897 59405298.003730774 0 59405298.003730774 -9669356.5799255371 0 0 0 0 1443379.0723240227 20383324.572307691 0 20383324.572307691 4699649.5278522596 0 0 0 0 12936807.372713566 26677211.095337868 0 26677211.095337868 -24925257.011779785 0 0 0 0 16979422.407775879 22554947.324188232 0 22554947.324188232 7475722.2329101562 0 0 0 0 -11598246.317687988 14262156.614532471 0 14262156.614532471 2918577.7590637207 0 0 0 0 -6009233.1038513184 23290843.973640442 0 23290843.973640442 13292128.228942871 0 0 0 0 -15785302.339599609 102544.51293945312 0 102544.51293945312 17002842.246826172 0 0 0 0 6911596.298034668 17197298.202880859 0 17197298.202880859 6193049.6357650757 0 0 0 0 14787967.845336914 10430574.411529541 0 10430574.411529541 -4317285.3584899902 0 0 0 0 10168216.164001465 24243356.531295776 0 24243356.531295776 10879987.345428467 0 0 0 0 5721265.2044039369 8173079.556362465 0 8173079.556362465 5573130.7389496118 0 0 0 0 -218827.521050632 1535818.7634072453 0 1535818.7634072453 472375.5400251057 0 0 0 0 11549410.088473342 17077004.498895086 0 17077004.498895086 6692495.2927318066 0 0 0 0 15627391.70545578 25378005.212478638 0 25378005.212478638 25586531.983459473 0 0 0 0 -11211778.804910615 25522747.211501207 0 25522747.211501207 19599843.609446153 0 0 0 0 20379425.939819336 9837463.3951416016 0 9837463.3951416016 24273355.500205994 0 0 0 0 12683106.219787598 29750815.388671875 0 29750815.388671875 29221607.564453125 0 0 0 0 9236590.9207082912 23587313.325877134 0 23587313.325877134 -9508637.9688173309 0 0 0 0 -141838.34408357367 271062.52856934071 0 271062.52856934071 566911.92190736532 0 0 0 0 3025216.4203186035 23875433.371795654 0 23875433.371795654 17248178.947631836 0 0 0 0 -14349893.120361328 38690236.116851807 0 38690236.116851807 -3834569.2066879272 0 0 0 0 -23241936.213033505 12504898.94097174 0 12504898.94097174 9316646.4700824283 0 0 0 0 -37410941.095031738 49838645.917236328 0 49838645.917236328 6515107.0797729492 0 0 0 0 -1559100.2951049805 34700889.913208008 0 34700889.913208008 4888672.5478515625 0 0 0 0 7025740.7242431641 -243447.88012695312 0 -243447.88012695312 26719572.343505859 0 0 0 0 -11063784.364639282 39545409.310684204 0 39545409.310684204 8871024.6021118164 0 0 0 0 6421356.8616027832 27954874.796020508 0 27954874.796020508 12052425.334899902 0 0 0 0 -11309152.345153809 28594430.833312988 0 28594430.833312988 15536419.336486816 0 0 0 0 -11467113.04510498 29493343.612365723 0 29493343.612365723 14680017.256011963 0 0 0 0 -11889678.162689209 29077614.561508179 0 29077614.561508179 16307703.850036621 0 0 0 0 -20279347.963775635 35274565.431243896 0 35274565.431243896 18046386.958648682 0 0 0 0 -18162915.353858948 34877790.158348083 0 34877790.158348083 18101378.549621582 0 0 0 0 -6145843.6558380127 17311806.296096802 0 17311806.296096802 7545421.3877563477 0 0 0 0 -1626763.0115787806 -34476.628153081983 0 -34476.628153081983 9891.3071313649416 0 0 0 0 -44059352.350473404 36265913.058959007 0 36265913.058959007 26441585.954589844 0 0 0 0 -25487850.877075195 25838396.29574585 0 25838396.29574585 31926538.603542328 0 0 0 0 -23676956.997360229 28959800.76776886 0 28959800.76776886 18633457.376220703 0 0 0 0 -11850890.812591553 28256658.090576172 0 28256658.090576172 16966163.101257324 0 0 0 0 -14688779.710998535 24914342.181793213 0 24914342.181793213 18266542.219848633 0 0 0 0 -16131483.061187744 21012364.15372467 0 21012364.15372467 18194370.963623047 0 0 0 0 -17411896.030181885 14871425.071594238 0 14871425.071594238 14718182.708595276 0 0 0 0 -19510663.571594238 14899508.242553711 0 14899508.242553711 14752152.446960449 0 0 0 0 -25512566.190124512 15868050.354217529 0 15868050.354217529 30506829.928768158 0 0 0 0 -27109686.726623535 8548745.2797622681 0 8548745.2797622681 16077824.25390625 0 0 0 0 54949941.365919113 10003834.734251022 0 10003834.734251022 -10671501.581237793 0 0 0 0 56217667.023498535 25226541.852218628 0 25226541.852218628 8775034.2424316406 0 0 0 0 -59264220.637886047 5646813.3827362061 0 5646813.3827362061 11954450.723693848 0 0 0 0 2513611.2368946746 10606968.381325603 0 10606968.381325603 -10342707.650569409 0 0 0 0 3666529.1037012637 7426820.2808712944 0 7426820.2808712944 1718717.3034350872 0 0 0 0 19284621.062324524 30929557.277114868 0 30929557.277114868 -22557674.053512573 0 0 0 0 2229833.611000061 13499948.475082397 0 13499948.475082397 10760153.59588623 0 0 0 0 -30907568.522293091 3678507.4976348877 0 3678507.4976348877 11732429.182861328 0 0 0 0 39666315.504257202 15372075.180038452 0 15372075.180038452 5172625.6621704102 0 0 0 0 5433263.6920404658 2052489.5130006298 0 2052489.5130006298 -7883050.4856104255 0 0 0 0 76941810.212944031 35778712.952980042 0 35778712.952980042 -23108625.913726807 0 0 0 0 29404584.803649902 727692.03816986084 0 727692.03816986084 -3313547.2968597412 0 0 0 0 -19034843.737670898 15303041.833282471 0 15303041.833282471 -11604441.019958496 0 0 0 0 -6178981.032737501 3266844.5683878995 0 3266844.5683878995 2194988.8198919594 0 0 0 0 -17823220.052429199 11796155.226608276 0 11796155.226608276 -2299323.6826171875 0 0 0 0 -24873516.469955444 19015471.095291138 0 19015471.095291138 -3591388.2195510864 0 0 0 0 -9550220.3265838623 9052784.3680725098 0 9052784.3680725098 -758788.76849365234 0 0 0 0 -18234255.314865112 23139700.419250488 0 23139700.419250488 -8825912.6441650391 0 0 0 0 -36593073.116775513 2459563.9715270996 0 2459563.9715270996 2089008.7984619141 0 0 0 0 -1073113.8535498083 8690569.7724029943 0 8690569.7724029943 -1786441.5465701222 0 0 0 0 940183.16658423468 -293263.33167128265 0 -293263.33167128265 -286863.55042082071 0 0 0 0 -666144772.5385828 321744858.84831047 0 321744858.84831047 -82003279.107666016 0 0 0 0 764229.18350219727 260958.08582305908 0 260958.08582305908 -352106.02368164062 0 0 0 0 39543479.65171051 7020117.5625457764 0 7020117.5625457764 -242419.21606445312 0 0 0 0 -6627928.4362079836 7714061.9224095587 0 7714061.9224095587 -4588751.6911212504 0 0 0 0 -814682879.131073 253388948.03953552 0 253388948.03953552 -97870031.659275055 0 0 0 0 114445533.17060852 -19935305.379058838 0 -19935305.379058838 -9026499.3198547363 0 0 0 0 144582202.58274269 75584957.744970322 0 75584957.744970322 -11853395.776916504 0 0 0 0 55371147.24041748 104706079.79785156 0 104706079.79785156 15256008.457984924 0 0 0 0 55391167.381562173 109371108.05312422 0 109371108.05312422 41778703.289916992 0 0 0 0 -17115908.56539917 56303920.3306427 0 56303920.3306427 18552155.895355225 0 0 0 0 -6270406.5400390625 80886395.603256226 0 80886395.603256226 28620402.750991821 0 0 0 0 -7521328.637512207 58378151.201538086 0 58378151.201538086 18998093.027008057 0 0 0 0 15494900.937091827 60874541.103250504 0 60874541.103250504 -2766981.4058837891 0 0 0 0 15050228.91566658 58048598.801280975 0 58048598.801280975 -6589175.4773254395 0 0 0 0 45262538.815551758 50302788.8152771 0 50302788.8152771 -18288949.988998413 0 0 0 0 56013801.927856445 71866974.32774353 0 71866974.32774353 -2113880.3263549805 0 0 0 0 825849766.17956543 3606918686.9156837 0 3606918686.9156837 788487889.50937653 0 0 0 0 3959519.7794213709 2159198686.2188649 0 2159198686.2188649 2015847227.0409088 0 0 0 0 1562091754.9648933 2010619244.5402069 0 2010619244.5402069 1227906013.111145 0 0 0 0 -1022464.0793658644 3078139.3730344474 0 3078139.3730344474 1134323.5317653045 0 0 0 0 2930334318.5173416 4114824938.0510406 0 4114824938.0510406 -851276.08721923828 0 0 0 0 3859934828.768219 3409242559.4702606 0 3409242559.4702606 -767889108.34992218 0 0 0 0 6615851478.1619415 2697567847.1716614 0 2697567847.1716614 -606629167.06072998 0 0 0 0 6575906.5429838151 4119580.448859999 0 4119580.448859999 1443952.4249718636 0 0 0 0 7772601759.1038284 -1124936599.9715805 0 -1124936599.9715805 -193353794.51783752 0 0 0 0 3181814252.0624695 -676828229.28933907 0 -676828229.28933907 -151578089.35916138 0 0 0 0 1891766210.81353 786962938.27773094 0 786962938.27773094 -688729194.57073975 0 0 0 0 -700942.92018228769 1580793.8561187461 0 1580793.8561187461 422448.9941329062 0 0 0 0 1797437832.9055023 2111662914.8883896 0 2111662914.8883896 -1554605847.1790924 0 0 0 0 1526400838.0000305 771486102.20994568 0 771486102.20994568 849332940.56948471 0 0 0 0 2346863207.0677643 2670216609.9083862 0 2670216609.9083862 1475311233.025528 0 0 0 0 1223869232.4826355 862733504.59352112 0 862733504.59352112 -193945132.32336521 0 0 0 0 457796772.07771301 -429803282.79147339 0 -429803282.79147339 -317986897.17899799 0 0 0 0 141619241.01952362 116867387.14417648 0 116867387.14417648 -381516373.30508423 0 0 0 0 6219918.4249113724 17286625.003329575 0 17286625.003329575 18405025.81588684 0 0 0 0 -338512515.09645081 584689280.29013824 0 584689280.29013824 147662985.46029663 0 0 0 0 -153336052.70516205 111905113.30574036 0 111905113.30574036 111339634.70071411 0 0 0 0 150623875.8818512 -71540723.507545471 0 -71540723.507545471 -106085515.12896729 0 0 0 0 1609609000.3223724 448988675.79699707 0 448988675.79699707 -900722227.20767975 0 0 0 0 1653492206.7203064 150867277.85051727 0 150867277.85051727 -380807608.47014046 0 0 0 0 8997492.8043923751 11389715.36328062 0 11389715.36328062 9395732.0408184975 0 0 0 0 -81652469.644561768 60314745.837493896 0 60314745.837493896 -36643.291748046875 0 0 0 0 57749837.329795837 67240421.379482269 0 67240421.379482269 29504.107330322266 0 0 0 0 -23965623.591247559 -3425557.0754890442 0 -3425557.0754890442 -13559653.323669434 0 0 0 0 44319400.181274414 60307736.486831665 0 60307736.486831665 -55534008.848297119 0 0 0 0 43013539.237739563 45466614.181025028 0 45466614.181025028 11697687.942810059 0 0 0 0 108471546.43927002 85893952.43838501 0 85893952.43838501 -338944894.05889893 0 0 0 0 -601175754.55559731 -215786673.29451275 0 -215786673.29451275 111883381.36047363 0 0 0 0 166387623.85752869 27888943.676193237 0 27888943.676193237 -43146347.269004822 0 0 0 0 1851339.3318663477 -3110758.5068058968 0 -3110758.5068058968 -350008.77676473558 0 0 0 0 -119982852.47662354 42404379.188217163 0 42404379.188217163 -342319.20100521343 0 0 0 0 165750567.10095596 -5372708.5278396606 0 -5372708.5278396606 -77378573.149230957 0 0 0 0 506090164.85119629 183387285.15289307 0 183387285.15289307 -164352316.27749634 0 0 0 0 115193960.57821655 103217929.21728516 0 103217929.21728516 -24855456.990692139 0 0 0 0 -114581346.14144897 -352279096.98330688 0 -352279096.98330688 -116751353.48077393 0 0 0 0 101125460.07318115 -27438291.905342102 0 -27438291.905342102 445629043.07388306 0 0 0 0 1148097817.988678 -675729837.88122559 0 -675729837.88122559 838877777.70697021 0 0 0 0 205817716.24438477 488045485.04711914 0 488045485.04711914 531294165.52401733 0 0 0 0 -9821327.9787158966 -6181266.3021593094 0 -6181266.3021593094 343320588.32778931 0 0 0 0 -584299.15021570772 729193.08402114362 0 729193.08402114362 1553718.7160307318 0 0 0 0 69031120.83380127 43952690.938323975 0 43952690.938323975 -2191145.6357631683 0 0 0 0 600776254.98518372 -330711184.04463196 0 -330711184.04463196 23010061.286529541 0 0 0 0 246188335.8699646 629884198.12445831 0 629884198.12445831 368332395.71575928 0 0 0 0 44920859.157928467 38343593.851745605 0 38343593.851745605 23448137.770492554 0 0 0 0 2573998.9285241319 -829195.80336185545 0 -829195.80336185545 -1143016.238096863 0 0 0 0 -778982365.58425903 182286774.6051178 0 182286774.6051178 583967902.48387146 0 0 0 0 735181.09068933874 345015.55940029398 0 345015.55940029398 -1065171.6758553386 0 0 0 0 -80271748.63949585 -61969536.526817322 0 -61969536.526817322 -119772955.71688843 0 0 0 0 -4425698.0820465088 64416045.270187378 0 64416045.270187378 -37306381.973937988 0 0 0 0 9191570.5630809255 7947617.2097560093 0 7947617.2097560093 -4777180.2086371183 0 0 0 0 -15468302.020309448 357275.34342956543 0 357275.34342956543 494068.26400756836 0 0 0 0 -1883128.5949755311 2392690.4656445831 0 2392690.4656445831 3317364.056588769 0 0 0 0 -270031540.26746941 -184999977.32186508 0 -184999977.32186508 17500590.637145996 0 0 0 0 -209526430.7071991 409866964.29888916 0 409866964.29888916 -306021599.1966095 0 0 0 0 166417874.69445801 -410752928.15756226 0 -410752928.15756226 -506135880.75232697 0 0 0 0 -21757607.537261963 29975498.01914978 0 29975498.01914978 25210405.388839722 0 0 0 0 -3367363.3936767578 -7656253.9444580078 0 -7656253.9444580078 44491063.500762939 0 0 0 0 462145885.47290039 581201913.45324707 0 581201913.45324707 -248144533.8972168 0 0 0 0 172069.20763235539 1775686.3150501065 0 1775686.3150501065 1647900.4663740546 0 0 0 0 -3152433.9422779083 5839715.9676570892 0 5839715.9676570892 -2844125.1706237793 0 0 0 0 -4676261.1130897328 -1160515.7468109801 0 -1160515.7468109801 4048993.3978452086 0 0 0 0 3143202.2604072262 16717934.667505994 0 16717934.667505994 20863805.242153019 0 0 0 0 -36088701.279271126 -13186756.653552532 0 -13186756.653552532 55498242.494628906 0 0 0 0 -23429600.996627808 19978222.523208618 0 19978222.523208618 56541572.577854156 0 0 0 0 -16876974.911245346 4918671.9306812286 0 4918671.9306812286 79855620.603881836 0 0 0 0 39128080.27196312 120617731.83902264 0 120617731.83902264 -3318898.8128051758 0 0 0 0 -7776232.5045776367 40784412.522491455 0 40784412.522491455 22388928.52407074 0 0 0 0 -8425573.4507446289 43040218.825332642 0 43040218.825332642 107326414.52603149 0 0 0 0 16715159.740020752 21102986.58505249 0 21102986.58505249 -49310944.438896179 0 0 0 0 15619183.878679276 22780082.850545883 0 22780082.850545883 5080611.938873291 0 0 0 0 20436415.332172677 9020456.2321760952 0 9020456.2321760952 -8225265.3892841749 0 0 0 0 75096040.585662842 97874884.790145874 0 97874884.790145874 -797658546.42015076 0 0 0 0 913740.79082939029 2294922.2156977579 0 2294922.2156977579 304111.46686051413 0 0 0 0 -228565323.18718338 865666893.40534782 0 865666893.40534782 -2647244526.5182495 0 0 0 0 843255.92396529764 1819374.7799174264 0 1819374.7799174264 75110.917808502913 0 0 0 0 -10478838.308578491 32549591.550796509 0 32549591.550796509 15499523.47820282 0 0 0 0 -3185731.1857333677 12169849.600142069 0 12169849.600142069 24615450.004870221 0 0 0 0 -552856432.19297791 -100772045.32140732 0 -100772045.32140732 6190677.9300384521 0 0 0 0 -1042008264.7064333 215163736.16895151 0 215163736.16895151 7118390.5861053467 0 0 0 0 -215302998.85873413 336004533.96678925 0 336004533.96678925 -403902870.66088867 0 0 0 0 -238822242.14752197 155680819.22793579 0 155680819.22793579 -1227895221.2671051 0 0 0 0 -2142463512.2160645 179403980.29315186 0 179403980.29315186 253648590.02154541 0 0 0 0 256760708.66888428 -58644652.034088135 0 -58644652.034088135 -302255345.26183891 0 0 0 0 37235675.03490448 498282298.64399719 0 498282298.64399719 -160804524.50848389 0 0 0 0 56816023.220901489 201972249.11938095 0 201972249.11938095 517439110.87980652 0 0 0 0 -845577926.79324532 87453382.805118561 0 87453382.805118561 352895737.66017151 0 0 0 0 51883435.210571289 341952420.55522919 0 341952420.55522919 -29956909.403752327 0 0 0 0 341923469.0242157 173108026.36279297 0 173108026.36279297 -255255433.92542267 0 0 0 0 -692575.76232542098 -51925.223454870284 0 -51925.223454870284 1271166.4604884684 0 0 0 0 568424858.48922157 1096909749.818737 0 1096909749.818737 736027098.93830872 0 0 0 0 998350640.78911209 1223797882.9999428 0 1223797882.9999428 461913253.4105835 0 0 0 0 1344623503.3302765 603001918.60608673 0 603001918.60608673 187263890.84616089 0 0 0 0 -425393.14800018072 398821.0820068568 0 398821.0820068568 1300271.7896647975 0 0 0 0 568932223.96803284 729327666.61789703 0 729327666.61789703 548498040.56620789 0 0 0 0 671932202.7013855 468762349.23828888 0 468762349.23828888 77298476.998336792 0 0 0 0 302522305.53268433 193550992.46343994 0 193550992.46343994 140711088.01790237 0 0 0 0 522271176.94483185 384078811.38299942 0 384078811.38299942 28831439.609634399 0 0 0 0 313410593.06228638 123601026.38679504 0 123601026.38679504 194199471.14845276 0 0 0 0 405294271.59585571 127900904.89685059 0 127900904.89685059 28906957.842267852 0 0 0 0 345975365.16145325 261231631.05785751 0 261231631.05785751 556601253.42530823 0 0 0 0 451100020.06031799 320895097.86566925 0 320895097.86566925 271987993.56297684 0 0 0 0 -283308.03929837048 359029.105668284 0 359029.105668284 686732.22681190073 0 0 0 0 462363742.97421646 344594112.27394485 0 344594112.27394485 191787251.47944641 0 0 0 0 226583896.8789978 454223867.58287811 0 454223867.58287811 245073906.17082405 0 0 0 0 -16772890.254905701 671877728.29242706 0 671877728.29242706 2811765790.9524765 0 0 0 0 -86487.552056837245 1447072755.7745955 0 1447072755.7745955 987363015.42791748 0 0 0 0 2207200.5615234375 1449278703.6840057 0 1449278703.6840057 988317362.82960129 0 0 0 0 1261231827.9757843 819348437.61904144 0 819348437.61904144 106250444.40171051 0 0 0 0 941391807.41394806 2136133224.4709091 0 2136133224.4709091 682443397.27043915 0 0 0 0 1257249120.6147499 1049724764.590435 0 1049724764.590435 674277405.00360107 0 0 0 0 1824861600.9140701 1521708761.4134598 0 1521708761.4134598 763209012.59440613 0 0 0 0 -168229.9649105072 2411367.0930394009 0 2411367.0930394009 2581484.434364751 0 0 0 0 -5423976.8452453613 39982826.101482391 0 39982826.101482391 -195358274.56717682 0 0 0 0 -24531760.728530884 73687812.402992249 0 73687812.402992249 -159007931.4586792 0 0 0 0 20958.430694580078 91646615.290679932 0 91646615.290679932 -259135947.94281769 0 0 0 0 -49363.146375874392 85399917.030976355 0 85399917.030976355 -309851885.04818726 0 0 0 0 3141271.4344152659 -990955.78560514376 0 -990955.78560514376 -156834.77001719177 0 0 0 0 -11536174.373519897 66096515.394096375 0 66096515.394096375 -279588225.06898499 0 0 0 0 -10977236.692613184 120904965.41796097 0 120904965.41796097 -371563740.90527344 0 0 0 0 5962327.2791992426 1051977.8684442621 0 1051977.8684442621 619647.83824422583 0 0 0 0 285700792.44833374 -216030648.97781372 0 -216030648.97781372 857751198.75469208 0 0 0 0 302476251.39093971 -157958056.31125307 0 -157958056.31125307 78452126.886856079 0 0 0 0 -30018808.867768526 158953203.32617784 0 158953203.32617784 -518495798.01925659 0 0 0 0 -26615711.4402771 71571676.382621765 0 71571676.382621765 -293134928.51573181 0 0 0 0 2597679.7951660156 44677685.946922302 0 44677685.946922302 -298072150.81210136 0 0 0 0 -78422933.85508728 56715879.439311981 0 56715879.439311981 -181297099.69342804 0 0 0 0 -14676882.733215332 31667618.041473389 0 31667618.041473389 -177452703.43438911 0 0 0 0 -23516478.280838013 -495036.12809371948 0 -495036.12809371948 -191580149.07250023 0 0 0 0 125423611.53579712 54513113.523426056 0 54513113.523426056 -959113997.53404236 0 0 0 0 11437939.69856213 7153819.1540700626 0 7153819.1540700626 3362985.9083179943 0 0 0 0 -21710490.732391357 -19096099.490058899 0 -19096099.490058899 -378730351.18421936 0 0 0 0 -105750390.35336304 27236027.16293335 0 27236027.16293335 -186740848.69136238 0 0 0 0 112918097.33137512 -623429538.60634613 0 -623429538.60634613 797425095.29918671 0 0 0 0 8449593.3760064691 3570763.1565479413 0 3570763.1565479413 1744465.5600552857 0 0 0 0 -566122520.36444092 -416064734.52574158 0 -416064734.52574158 52686555.609458923 0 0 0 0 -270447070.17132568 -422153375.21409607 0 -422153375.21409607 -687145785.39632416 0 0 0 0 -1489829716.3791199 -379485586.44205761 0 -379485586.44205761 -569704483.17962646 0 0 0 0 -1730189373.7471924 1367445567.9857483 0 1367445567.9857483 -2186471472.4979706 0 0 0 0 -897203911.70056152 605591173.70275879 0 605591173.70275879 -472839206.6003418 0 0 0 0 -675257451.72949219 125500285.24871063 0 125500285.24871063 846887282.10639954 0 0 0 0 363715355.57085419 -253071349.05500793 0 -253071349.05500793 40951850.597610474 0 0 0 0 -126855791.3637085 -525182718.45220184 0 -525182718.45220184 1167638609.9249802 0 0 0 0 110659332.41897583 83186894.706321716 0 83186894.706321716 314665590.74243736 0 0 0 0 -272857983.53289795 298780527.67438507 0 298780527.67438507 269894283.17654419 0 0 0 0 -966670291.53662109 545887325.67932129 0 545887325.67932129 -254420237.58493042 0 0 0 0 -70680680.997039795 -14584482.242027283 0 -14584482.242027283 53942178.856399536 0 0 0 0 -912033161.84143066 249971723.93754578 0 249971723.93754578 -294042300.50247192 0 0 0 0 339594823.95814514 -211448924.09206867 0 -211448924.09206867 -1942251889.5011292 0 0 0 0 -901046041.512146 235828117.40255737 0 235828117.40255737 -694541371.31878662 0 0 0 0 1868675.0328063965 -16233097.201774597 0 -16233097.201774597 -346421335.42993164 0 0 0 0 -12352823.554084778 386155620.09173584 0 386155620.09173584 -373047781.76496887 0 0 0 0 -113855797.74459076 284893994.11048126 0 284893994.11048126 362437355.03450012 0 0 0 0 27369042.357894897 120980037.89179993 0 120980037.89179993 127149628.27456665 0 0 0 0 14978657.176026046 11480929.387407508 0 11480929.387407508 4889906.9362576194 0 0 0 0 -10933326.103713989 -89809960.636001587 0 -89809960.636001587 622317588.13760376 0 0 0 0 83152053.805007935 -260540639.05884552 0 -260540639.05884552 -34321943.236083984 0 0 0 0 554730984.93706894 494709027.57712746 0 494709027.57712746 -1095669012.5396194 0 0 0 0 -426489978.06237793 314547267.66609192 0 314547267.66609192 592126444.15553284 0 0 0 0 52479305.183929443 -398551249.92997742 0 -398551249.92997742 584455948.91226196 0 0 0 0 -167284520.50674438 17219023.569644928 0 17219023.569644928 472470942.30187988 0 0 0 0 257070478.03562164 410049827.23383141 0 410049827.23383141 291691799.29624939 0 0 0 0 258919367.94816589 289291846.63433552 0 289291846.63433552 101586930.78852844 0 0 0 0 169452503.98468018 6230881.9326934814 0 6230881.9326934814 -32602080.296161652 0 0 0 0 604432803.56197357 82967236.961700439 0 82967236.961700439 -24060452.139549255 0 0 0 0 1670874.5612665713 2895080.7990114018 0 2895080.7990114018 -1714210.0332955942 0 0 0 0 62183526.709609985 21842964.996177673 0 21842964.996177673 9669784.6437072754 0 0 0 0 137062598.27941895 19683261.360900879 0 19683261.360900879 -13206255.138000488 0 0 0 0 70487303.272644043 28369070.969947815 0 28369070.969947815 -4247534.1158447266 0 0 0 0 98716385.750305176 25511933.22593689 0 25511933.22593689 -18687799.294082642 0 0 0 0 52979077.260559082 33581294.617240906 0 33581294.617240906 -6307063.8556976318 0 0 0 0 45095522.704401016 119704655.85956383 0 119704655.85956383 43788409.68560791 0 0 0 0 71293676.494781494 38059558.600944519 0 38059558.600944519 -949532.41265869141 0 0 0 0 53545395.027923584 46221304.397186279 0 46221304.397186279 -4621770.2405929565 0 0 0 0 89578087.41544342 63688119.954077721 0 63688119.954077721 2409638.0621032715 0 0 0 0 121832057.60433197 167124964.17422771 0 167124964.17422771 44683529.93522644 0 0 0 0 146197756.38485718 66898211.66683197 0 66898211.66683197 -14101599.91709137 0 0 0 0 308963182.83792114 78082358.516769409 0 78082358.516769409 -43400342.145767212 0 0 0 0 134572593.16872215 68277202.590166569 0 68277202.590166569 -9426194.8788452148 0 0 0 0 56820235.030548096 178941178.17513275 0 178941178.17513275 44343989.501541138 0 0 0 0 8513421.3426742554 178937806.38895035 0 178937806.38895035 78285211.836578369 0 0 0 0 56918053.133850098 200898068.86082458 0 200898068.86082458 85700928.095848083 0 0 0 0 40626897.64453125 131639388.30466461 0 131639388.30466461 32741809.180969238 0 0 0 0 -37496188.555908203 96817587.405960083 0 96817587.405960083 37881879.107849121 0 0 0 0 -7958983.4622497559 139826799.63235474 0 139826799.63235474 84154271.86810112 0 0 0 0 -6703743.732635498 167255584.9529953 0 167255584.9529953 81167234.160679817 0 0 0 0 391485.51142120361 153336341.41816711 0 153336341.41816711 105646080.81250763 0 0 0 0 -32953998.935523987 130810050.60863304 0 130810050.60863304 66984962.032913208 0 0 0 0 -51130486.606536865 134452125.56189728 0 134452125.56189728 68772956.417663574 0 0 0 0 3052549.3504943848 242898445.546875 0 242898445.546875 191087081.23830032 0 0 0 0 -63499456.098709106 168993842.20708847 0 168993842.20708847 162589021.14812469 0 0 0 0 -110359119.41854858 21200542.056911469 0 21200542.056911469 27392991.486099243 0 0 0 0 -36549723.782501221 91190051.151287079 0 91190051.151287079 -43298828.396492004 0 0 0 0 -77394677.17729187 65773979.2579422 0 65773979.2579422 26192304.408874512 0 0 0 0 -42669955.712036133 157973152.11579132 0 157973152.11579132 106813043.46773529 0 0 0 0 -11714092.006774902 116896778.86337662 0 116896778.86337662 39466022.955059052 0 0 0 0 -1357117.0840911865 155881476.35031128 0 155881476.35031128 111053751.58905029 0 0 0 0 12604387.902267456 100808595.91266251 0 100808595.91266251 120213366.04663849 0 0 0 0 -17806298.794021606 136378126.32191467 0 136378126.32191467 94170861.803031921 0 0 0 0 -12401265.553603172 66546723.657156229 0 66546723.657156229 69092166.479034424 0 0 0 0 3669122.0675201416 105193548.73874283 0 105193548.73874283 129254066.768013 0 0 0 0 52720621.241607666 81629284.724185944 0 81629284.724185944 139717955.82299042 0 0 0 0 34438.101028442383 88265853.372299194 0 88265853.372299194 150764629.6858902 0 0 0 0 22669112.695198059 62040727.48497963 0 62040727.48497963 74660886.080535889 0 0 0 0 -56689.355651855469 102060244.39828491 0 102060244.39828491 58971902.924707413 0 0 0 0 27269750.117225647 84999468.84510994 0 84999468.84510994 -20581755.091140747 0 0 0 0 -42797878.967483521 50436413.834327698 0 50436413.834327698 -31080529.913188934 0 0 0 0 -16979586.321357727 34643117.489313126 0 34643117.489313126 -125612431.11558533 0 0 0 0 26268.138033143892 95019417.196360156 0 95019417.196360156 -127257150.00714111 0 0 0 0 61471092.374893188 61190482.506484985 0 61190482.506484985 51120878.978517532 0 0 0 0 78155592.415046692 114977437.80770874 0 114977437.80770874 79109650.382537842 0 0 0 0 -2301362.7193715274 23212721.12364329 0 23212721.12364329 8573088.2472402528 0 0 0 0 -5300472.6135617346 7060056.4011244811 0 7060056.4011244811 3513467.5158007219 0 0 0 0 49802880.770095825 81941522.048431396 0 81941522.048431396 77870027.115814209 0 0 0 0 245854672.97003174 -14194587.107940674 0 -14194587.107940674 -12747014.096328735 0 0 0 0 -32684963.688327789 39770690.794218063 0 39770690.794218063 17852583.116882324 0 0 0 0 -564599.69100952148 162221342.12535095 0 162221342.12535095 130796475.41308594 0 0 0 0 330121016.31335449 91649622.37322998 0 91649622.37322998 51984962.097593307 0 0 0 0 132499693.03076172 130805041.79081726 0 130805041.79081726 -66293347.907173157 0 0 0 0 163265453.91958618 22815415.987176895 0 22815415.987176895 -290936121.76930237 0 0 0 0 22832460.795676231 -48454641.316224098 0 -48454641.316224098 -146171536.35662842 0 0 0 0 246140586.60436225 127322054.50057073 0 127322054.50057073 -70808886.898071289 0 0 0 0 99239001.105682373 150911024.89675903 0 150911024.89675903 -16738692.05682373 0 0 0 0 159964820.21166992 110181205.00756073 0 110181205.00756073 -50962572.918807983 0 0 0 0 -31836671.2914505 45935258.104667664 0 45935258.104667664 2935715.1775054932 0 0 0 0 75358325.481842041 45458373.085739136 0 45458373.085739136 -24078934.806716919 0 0 0 0 11581144.388245627 31768788.914950591 0 31768788.914950591 -12919901.349248797 0 0 0 0 -23834787.94445613 21410370.435060862 0 21410370.435060862 15973318.084388029 0 0 0 0 -31926199.800346375 49273590.265861511 0 49273590.265861511 15408690.660675049 0 0 0 0 -39740410.244255066 56818485.053611755 0 56818485.053611755 9340944.8508453369 0 0 0 0 -34271580.419326782 42587967.530239105 0 42587967.530239105 42281208.144287109 0 0 0 0 -17889240.319341052 19042465.200706176 0 19042465.200706176 19490710.380552769 0 0 0 0 -58095600.741241455 31375578.101089478 0 31375578.101089478 89768738.153160095 0 0 0 0 -33073592.523086548 39507279.555419922 0 39507279.555419922 -1254971.1225509644 0 0 0 0 5693326.6952646784 19067500.271648668 0 19067500.271648668 2388561.2030398846 0 0 0 0 -35891380.365837097 70710608.836174011 0 70710608.836174011 -22150978.441095352 0 0 0 0 -25572605.877540588 107834369.31048012 0 107834369.31048012 -26925768.265335083 0 0 0 0 -20631279.089706421 10251704.214477539 0 10251704.214477539 9388199.7528610229 0 0 0 0 -5784328.8230068609 24821125.850601889 0 24821125.850601889 16336660.758658387 0 0 0 0 -20746117.630310059 30975318.011314392 0 30975318.011314392 -663971.78942108154 0 0 0 0 -58944670.004096031 79104063.356916428 0 79104063.356916428 14227422.323730469 0 0 0 0 -34074466.917041779 46254329.346405029 0 46254329.346405029 12364119.095306396 0 0 0 0 -4522414.5680640256 21546591.464033455 0 21546591.464033455 12228121.264108345 0 0 0 0 -62784219.636972427 68273083.566238403 0 68273083.566238403 43588721.030792236 0 0 0 0 -51306357.98197937 38377533.125854492 0 38377533.125854492 44637568.558730602 0 0 0 0 -36666679.642311096 16444880.246276855 0 16444880.246276855 41807753.591644287 0 0 0 0 -52338758.281814575 36454457.952911377 0 36454457.952911377 95452600.070480347 0 0 0 0 -52133195.905973315 40019599.696356297 0 40019599.696356297 48858984.523986816 0 0 0 0 -51909586.870567322 17927393.71031189 0 17927393.71031189 53636652.306091309 0 0 0 0 -1245926.9922790527 4911927.294418335 0 4911927.294418335 2332240.7629394531 0 0 0 0 30954522.077606201 15359539.353027344 0 15359539.353027344 5683476.7520141602 0 0 0 0 23048727.351396292 12668413.208516158 0 12668413.208516158 5795346.1511559039 0 0 0 0 -52078760.820045471 41765513.389205933 0 41765513.389205933 30179636.411529541 0 0 0 0 -51015603.704528809 18093807.56262207 0 18093807.56262207 29284499.922546387 0 0 0 0 2622664.1729899179 8462606.5679990798 0 8462606.5679990798 4860404.1734334379 0 0 0 0 12798451.879730225 15633575.716552734 0 15633575.716552734 6342917.2774658203 0 0 0 0 -6229609.4579712562 23256365.240475975 0 23256365.240475975 12979334.740446746 0 0 0 0 7172218.9035194665 10012791.708403997 0 10012791.708403997 324029.36864973605 0 0 0 0 23589825.725952148 15138057.969100952 0 15138057.969100952 -2406476.8918151855 0 0 0 0 4503326.6916503906 21286236.737846375 0 21286236.737846375 16286494.085087299 0 0 0 0 14455571.166366577 21184226.996780396 0 21184226.996780396 -5682314.2653198242 0 0 0 0 13540964.123748779 33210630.049468994 0 33210630.049468994 1589872.2978057861 0 0 0 0 3511277.6285552979 22258269.6668396 0 22258269.6668396 -9646310.6413269043 0 0 0 0 -3504586.1084599495 33501280.181185484 0 33501280.181185484 -6498470.1345825195 0 0 0 0 2052707.7307404354 21815340.936084576 0 21815340.936084576 12011800.436792791 0 0 0 0 -4317206.0687408447 13811930.114212036 0 13811930.114212036 402869.63046264648 0 0 0 0 17560920.973250479 18209368.429867968 0 18209368.429867968 4173751.4690969363 0 0 0 0 8430246.5326971374 7714195.5984246135 0 7714195.5984246135 3611262.5865547657 0 0 0 0 6703683.6748073548 3793229.2874089032 0 3793229.2874089032 1720652.0793843567 0 0 0 0 154743852.6887207 45060627.83114624 0 45060627.83114624 -2622501.3497314453 0 0 0 0 -1284771.6536560059 5001541.6998596191 0 5001541.6998596191 3095267.2259521484 0 0 0 0 17237632.850507915 11439753.637026623 0 11439753.637026623 -2759931.4917269647 0 0 0 0 1958843.8218688965 5033132.6927642822 0 5033132.6927642822 2912374.078125 0 0 0 0 70845794.517211914 34300752.640518188 0 34300752.640518188 26364482.304199219 0 0 0 0 -10999849.894978009 25411534.769083437 0 25411534.769083437 10369322.892435327 0 0 0 0 -19215316.953176416 24643543.77420149 0 24643543.77420149 15221252.985789798 0 0 0 0 -54222543.363708496 49214769.681442261 0 49214769.681442261 21975270.258850098 0 0 0 0 -29731268.303100586 36745825.738861084 0 36745825.738861084 15658058.897216797 0 0 0 0 -31668978.836029053 36266334.740402222 0 36266334.740402222 16633828.575042725 0 0 0 0 -28653677.50994873 40514059.092660904 0 40514059.092660904 17343443.113449097 0 0 0 0 -232996.29243469238 43291919.486022949 0 43291919.486022949 11114335.643127441 0 0 0 0 -16346294.046737671 52946959.564060211 0 52946959.564060211 5569983.035736084 0 0 0 0 -6013654.8664474487 68743941.448750496 0 68743941.448750496 -12475492.456207275 0 0 0 0 -35238772.48916626 90977186.943603516 0 90977186.943603516 10793371.062194824 0 0 0 0 -28505280.363754272 114398790.84674835 0 114398790.84674835 26182744.1875 0 0 0 0 8053030.4518585205 128353123.39665985 0 128353123.39665985 -36588470.621948242 0 0 0 0 -21983363.518508911 168078908.61686707 0 168078908.61686707 82970516.5599823 0 0 0 0 -61455298.356292725 117817004.97103119 0 117817004.97103119 26651727.743776321 0 0 0 0 -55805420.557159424 104644974.66519165 0 104644974.66519165 57311237.993469238 0 0 0 0 -64137083.175994873 87845731.928949356 0 87845731.928949356 30752552.813598633 0 0 0 0 69591640.616943359 139709399.01169586 0 139709399.01169586 -160819356.73850632 0 0 0 0 15625477.504432678 145798785.83187485 0 145798785.83187485 3457449.3631439209 0 0 0 0 24159870.979171753 147249375.10848236 0 147249375.10848236 3620651.2203502655 0 0 0 0 -10709046.943557739 131767457.63828278 0 131767457.63828278 182713074.55586243 0 0 0 0 30163721.429656982 225097680.89889526 0 225097680.89889526 -7717563.7796325684 0 0 0 0 6751906.3093414307 83527443.922424316 0 83527443.922424316 152020782.95248032 0 0 0 0 94643250.938598633 591196433.44167328 0 591196433.44167328 -1192460703.6222763 0 0 0 0 17114401.931172132 15690105.998980047 0 15690105.998980047 5711703.2192415036 0 0 0 0 53291672.893543243 -23832272.511198044 0 -23832272.511198044 264348596.00158691 0 0 0 0 -427644005.78076243 662902980.95154071 0 662902980.95154071 -159126718.49961853 0 0 0 0 -180744755.43798828 85209661.332927704 0 85209661.332927704 79846105.122589111 0 0 0 0 -95676406.053726196 565378.17926025391 0 565378.17926025391 -1460875.552230835 0 0 0 0 -61380123.450195312 104118709.2557373 0 104118709.2557373 100868280.07847977 0 0 0 0 -72035591.520294189 133440084.20613098 0 133440084.20613098 74688745.358200073 0 0 0 0 -123808813.54376221 197659616.96405792 0 197659616.96405792 131307933.28712463 0 0 0 0 124920462.35001373 121176048.85780144 0 121176048.85780144 34148536.919036865 0 0 0 0 -326502494.08883667 83415300.204544067 0 83415300.204544067 141114059.92301178 0 0 0 0 5279132.243094936 3074542.2344150096 0 3074542.2344150096 -1732192.8678628355 0 0 0 0 377140722.33117676 254055246.02630615 0 254055246.02630615 -412214934.32391357 0 0 0 0 -307429498.38575745 -89629649.167892456 0 -89629649.167892456 44146137.03768158 0 0 0 0 432218160.50334167 578302147.1415329 0 578302147.1415329 -265771981.02133179 0 0 0 0 154689677.79727173 445617381.27210999 0 445617381.27210999 151808452.60879517 0 0 0 0 -191581052.11593628 682470286.29085541 0 682470286.29085541 -17541395.497650146 0 0 0 0 -62495473.003191948 -339936560.31489658 0 -339936560.31489658 153091793.05605316 0 0 0 0 -337045819.82800293 -537018353.41917419 0 -537018353.41917419 -12663708.623733521 0 0 0 0 -1265830.8082322776 5209481.904833857 0 5209481.904833857 1057023.9261661619 0 0 0 0 16210735.877713412 20589388.629865851 0 20589388.629865851 5562420.5787838995 0 0 0 0 -38615109.718963623 213293175.30345917 0 213293175.30345917 -245221315.09215546 0 0 0 0 -151722029.71075439 343038932.1415863 0 343038932.1415863 -8176449.9210968018 0 0 0 0 -160932638.61053467 122247607.31712341 0 122247607.31712341 -74813647.844184875 0 0 0 0 -166607420.55783081 139221054.80117035 0 139221054.80117035 16691805.891479492 0 0 0 0 -106623835.60440063 80869010.7603302 0 80869010.7603302 -43911291.776428223 0 0 0 0 -116723617.14074707 105651557.90351868 0 105651557.90351868 -44184862.415077209 0 0 0 0 -764304.28457641602 47360254.422546387 0 47360254.422546387 -45837965.577720642 0 0 0 0 -1899722.959564209 3634338.7345275879 0 3634338.7345275879 -78808969.953186035 0 0 0 0 -43458649.463562012 77562858.254684448 0 77562858.254684448 -129057322.15063477 0 0 0 0 -16986724.373779297 35669288.393463135 0 35669288.393463135 -145056620.30525208 0 0 0 0 -37605472.131103516 53826905.54574585 0 53826905.54574585 -46182449.575714111 0 0 0 0 -267800449.72106934 -54448715.69883728 0 -54448715.69883728 241981294.01620483 0 0 0 0 -131077916.97027588 2486810.1914215088 0 2486810.1914215088 265468882.73687744 0 0 0 0 -220316437.32751465 311933285.10087585 0 311933285.10087585 316317020.5222168 0 0 0 0 -152531033.07739258 328598569.92770386 0 328598569.92770386 375905820.12260437 0 0 0 0 -388946751.20495605 175555012.81964111 0 175555012.81964111 337832669.79665184 0 0 0 0 -56647065.555847168 212985407.782547 0 212985407.782547 330962793.20062256 0 0 0 0 -116370599.50592041 -271383931.92169952 0 -271383931.92169952 -266481602.75915527 0 0 0 0 -95947214.534545898 273987502.2651062 0 273987502.2651062 327880157.86299133 0 0 0 0 -104706028.29644775 509114069.16662598 0 509114069.16662598 418187696.16992188 0 0 0 0 141889848.50509644 336737146.25972748 0 336737146.25972748 306390669.76708221 0 0 0 0 -225277579.55269623 62244035.425603867 0 62244035.425603867 16619719.941513062 0 0 0 0 -175181431.92572021 52198511.813606262 0 52198511.813606262 14171543.228233337 0 0 0 0 -2758358.1833188087 2994439.6219411343 0 2994439.6219411343 5158045.8202979937 0 0 0 0 151233060.86700439 93960945.576034546 0 93960945.576034546 305027679.75244141 0 0 0 0 1565200.8462094814 1013159.4309930541 0 1013159.4309930541 -2354705.8015108481 0 0 0 0 -138055882.11439514 -7733515.9231910706 0 -7733515.9231910706 257998883.33917236 0 0 0 0 -2584410.0141296387 28963214.263168335 0 28963214.263168335 196024183.51175022 0 0 0 0 -7252209.088508606 85511164.740848541 0 85511164.740848541 272571186.39703369 0 0 0 0 -128822759.83383942 12528747.822399139 0 12528747.822399139 247381326.54812622 0 0 0 0 -151421948.29107666 131642624.4863739 0 131642624.4863739 318889667.00244141 0 0 0 0 7072704.1151123047 198762658.51986694 0 198762658.51986694 322095214.91233444 0 0 0 0 -77773538.23248291 9916936.6423339844 0 9916936.6423339844 193735642.3752079 0 0 0 0 6009955.9288449287 9674516.5032480322 0 9674516.5032480322 -7454012.9577499628 0 0 0 0 57326994.656578064 41646833.056694984 0 41646833.056694984 -12555652.393508911 0 0 0 0 8063894.9828186035 11369028.931098938 0 11369028.931098938 -17619509.723449707 0 0 0 0 72713463.404956818 12807476.213942051 0 12807476.213942051 -30103894.856124878 0 0 0 0 -746859.38316925615 17694665.805031784 0 17694665.805031784 -8658328.9255720749 0 0 0 0 -459971.9812848866 17055051.641427755 0 17055051.641427755 15076517.719121166 0 0 0 0 -12915487.668838501 48747382.018404007 0 48747382.018404007 -31386875.983386993 0 0 0 0 -92149336.328460693 34572103.551605225 0 34572103.551605225 10702825.121961594 0 0 0 0 11505312.96723184 9436549.6869312115 0 9436549.6869312115 -15736947.934757426 0 0 0 0 80399097.7137146 29675639.43526268 0 29675639.43526268 -65509937.853187561 0 0 0 0 9326889.3118438721 3261869.9953079224 0 3261869.9953079224 -21425534.625347137 0 0 0 0 39419002.665374756 -2233706.1367416382 0 -2233706.1367416382 -12875349.70400238 0 0 0 0 7378303.8921871185 -16069633.79609859 0 -16069633.79609859 180495790.23313904 0 0 0 0 -5895231.1127228066 13764990.142150305 0 13764990.142150305 -14660578.636512578 0 0 0 0 -68486628.457748413 70757639.222236633 0 70757639.222236633 -19122887.210281372 0 0 0 0 -66540618.606300354 77974276.928720474 0 77974276.928720474 -737535.61584472656 0 0 0 0 -111228202.16088867 70173401.926654816 0 70173401.926654816 12105413.435211182 0 0 0 0 -4242321.6247135252 23916527.141460348 0 23916527.141460348 24529714.27982882 0 0 0 0 -101567346.88642883 95878755.483901978 0 95878755.483901978 -1388495.0540618896 0 0 0 0 -118808193.26780701 142979648.54307461 0 142979648.54307461 -30774699.220094681 0 0 0 0 -77540150.81590271 38410744.230987549 0 38410744.230987549 3363665.1600189209 0 0 0 0 -11820200.01049505 40449776.413004681 0 40449776.413004681 4801994.6150802821 0 0 0 0 63755036.295936584 114953013.10239792 0 114953013.10239792 15132226.304367065 0 0 0 0 -17677160.130447388 79866127.984107971 0 79866127.984107971 -917215.00562095642 0 0 0 0 22278584.96006012 94778311.560775757 0 94778311.560775757 37788570.29624939 0 0 0 0 -16071348.959873199 136226861.65744781 0 136226861.65744781 27213470.406906128 0 0 0 0 -36237250.559667587 68401948.191814423 0 68401948.191814423 29534610.576889038 0 0 0 0 -47539263.102661133 58477936.078216553 0 58477936.078216553 47345998.890541077 0 0 0 0 -25401098.628442764 101520089.44958305 0 101520089.44958305 83168234.408966064 0 0 0 0 -15593246.826293945 35007348.79850769 0 35007348.79850769 9886562.9540233612 0 0 0 0 58489249.42527771 62460248.923652649 0 62460248.923652649 -24916854.49911499 0 0 0 0 -13830940.78723428 38343779.800483778 0 38343779.800483778 4451318.2188558877 0 0 0 0 -8139991.298956424 27634724.262039281 0 27634724.262039281 7583038.401582012 0 0 0 0 5684383.5870895386 65166767.104228973 0 65166767.104228973 -1314076.9552459717 0 0 0 0 -6948730.2944488525 25152293.401576996 0 25152293.401576996 8367955.7431030273 0 0 0 0 -58854745.578125 23005647.925842285 0 23005647.925842285 -7817430.6395721436 0 0 0 0 -50046582.125858307 45904654.211038589 0 45904654.211038589 13924639.570510864 0 0 0 0 -64423943.433361053 70990658.484458923 0 70990658.484458923 87972543.026153564 0 0 0 0 11888226.817166567 27807245.486349531 0 27807245.486349531 4911350.4984778464 0 0 0 0 13492730.47354126 52312953.014587402 0 52312953.014587402 -6828460.1549606323 0 0 0 0 -14647218.390014648 24398636.540893555 0 24398636.540893555 5984434.0141296387 0 0 0 0 -44123813.05320961 20145484.031008042 0 20145484.031008042 12300690.382825039 0 0 0 0 5477054.7597770374 34372102.659759067 0 34372102.659759067 8677250.7208863944 0 0 0 0 15792329.817536797 34187945.627864972 0 34187945.627864972 -15721508.737461962 0 0 0 0 21584002.689338684 58790994.503829956 0 58790994.503829956 -19777671.91746521 0 0 0 0 5054204.1496810913 41574570.231481552 0 41574570.231481552 47639364.014801025 0 0 0 0 -10209612.204544067 48272286.852199554 0 48272286.852199554 -1830351.0827636719 0 0 0 0 993579.51596069336 132338349.5353241 0 132338349.5353241 281351965.1875 0 0 0 0 -161504760.88714695 366453525.65575457 0 366453525.65575457 63666224.621765137 0 0 0 0 9164154.1890692711 32373319.22478503 0 32373319.22478503 6533436.5529542975 0 0 0 0 96426041.444915771 135558740.22073364 0 135558740.22073364 -36704836.54385376 0 0 0 0 -59725384.92616272 41072216.481552124 0 41072216.481552124 39638288.326324463 0 0 0 0 -32667660.454357147 60582176.02630806 0 60582176.02630806 51923867.733856201 0 0 0 0 -83712459.991718292 92941803.843780518 0 92941803.843780518 20031438.699310303 0 0 0 0 -19611206.964286804 67678870.391479492 0 67678870.391479492 1787578.4755249023 0 0 0 0 13356749.282279372 65446014.819156528 0 65446014.819156528 -39872162.008270264 0 0 0 0 -21646776.419372559 74483933.84552002 0 74483933.84552002 -3285836.7326812744 0 0 0 0 -28885071.159393311 93505880.442520142 0 93505880.442520142 -46140119.106048584 0 0 0 0 -16174140.094665527 63546103.289871216 0 63546103.289871216 -42971653.600831985 0 0 0 0 -11871137.510386579 26918766.731054816 0 26918766.731054816 5344293.1422894597 0 0 0 0 -13317233.275436401 78457832.797866821 0 78457832.797866821 -38804702.44909668 0 0 0 0 -4209990.4550637007 9456316.9978712574 0 9456316.9978712574 1602989.7764687836 0 0 0 0 -39471197.98500061 155638075.64413452 0 155638075.64413452 -199118978.01726532 0 0 0 0 -156877118.78504181 148470410.22147369 0 148470410.22147369 -8918401.66588974 0 0 0 0 -136787105.56429291 37037407.612884521 0 37037407.612884521 219179595.36521912 0 0 0 0 -214192100.82655334 112891477.87328339 0 112891477.87328339 179441951.66586304 0 0 0 0 -131400232.53619385 124931896.57157898 0 124931896.57157898 167408603.7195282 0 0 0 0 -52402856.877471924 121854479.82385254 0 121854479.82385254 69655663.740280151 0 0 0 0 -43220030.03062439 59032819.964447021 0 59032819.964447021 115951740.18453979 0 0 0 0 -42894461.161392212 73306231.597328186 0 73306231.597328186 62300444.528717041 0 0 0 0 -102668987.35203552 107303384.9614563 0 107303384.9614563 125793185.66482353 0 0 0 0 -16801721.754814148 145954210.47188568 0 145954210.47188568 75364546.960241318 0 0 0 0 -88364064.087471008 206455145.77197647 0 206455145.77197647 36812204.536407471 0 0 0 0 -175266728.94795227 221464072.03453827 0 221464072.03453827 155716474.19833374 0 0 0 0 -136298621.29602814 176941942.14412689 0 176941942.14412689 144907777.57100677 0 0 0 0 -184653873.99401855 283450208.97380066 0 283450208.97380066 130987005.98961258 0 0 0 0 -71717983.866308212 232483096.39958191 0 232483096.39958191 -144321434.13859558 0 0 0 0 -70447596.114845276 208819063.38249207 0 208819063.38249207 100590598.9180603 0 0 0 0 45286876.305221558 216528673.92717743 0 216528673.92717743 33866878.182697296 0 0 0 0 29756898.371793747 156317045.80102158 0 156317045.80102158 -49430283.336791992 0 0 0 0 136988794.92645264 101892098.82323456 0 101892098.82323456 -219080461.01281738 0 0 0 0 112869570.67250443 145724356.92934036 0 145724356.92934036 -108078878.1658783 0 0 0 0 -78368531.568084717 102892306.68147278 0 102892306.68147278 -86172440.505115509 0 0 0 0 2481888.4810333252 185825491.27921295 0 185825491.27921295 -116474283.23630524 0 0 0 0 -46485539.497207642 2471609.1770553589 0 2471609.1770553589 -245218094.66122437 0 0 0 0 42733383.260627747 -87733395.3695755 0 -87733395.3695755 467199754.99533081 0 0 0 0 3553119.7109190151 3844040.4861154445 0 3844040.4861154445 3074687.1295613395 0 0 0 0 130840891.48651886 64653982.007751465 0 64653982.007751465 -398109808.36048889 0 0 0 0 -38739516.371902466 55352822.219985962 0 55352822.219985962 717342961.41947937 0 0 0 0 -819220764.57366943 614993192.50463867 0 614993192.50463867 864916750.5644989 0 0 0 0 160216458.10997009 -33328918.524223328 0 -33328918.524223328 165615083.45433044 0 0 0 0 13078008.178537071 27992643.854308888 0 27992643.854308888 -3229527.4428430162 0 0 0 0 10707514.789606102 11650134.135674838 0 11650134.135674838 10307722.049795639 0 0 0 0 20674452.606628418 79528728.211410522 0 79528728.211410522 258722783.89142609 0 0 0 0 47054436.074920654 132947255.72549438 0 132947255.72549438 207404479.2441864 0 0 0 0 82953262.254219055 151064729.60691071 0 151064729.60691071 120745114.81851196 0 0 0 0 13279017.043671429 37825054.398142621 0 37825054.398142621 -4170067.2993699163 0 0 0 0 7903565.1481170654 40211097.392627716 0 40211097.392627716 -20858061.294784546 0 0 0 0 56890579.556716919 57964148.786010742 0 57964148.786010742 84376316.611125946 0 0 0 0 -4424563.2784729004 42600522.79524231 0 42600522.79524231 14173991.567424774 0 0 0 0 9896205.4591064453 34280695.18746376 0 34280695.18746376 -9873150.0925140381 0 0 0 0 3575224.6060028076 32052892.470537186 0 32052892.470537186 4094120.4230575562 0 0 0 0 722561.4183807373 41000768.02407074 0 41000768.02407074 -6886783.2547836304 0 0 0 0 -32568438.18762207 43824021.197296143 0 43824021.197296143 12041675.889221191 0 0 0 0 -19876629.28729248 30094837.867107391 0 30094837.867107391 9883710.4034729004 0 0 0 0 -31498056.006958008 47047280.029026031 0 47047280.029026031 8602809.6470069885 0 0 0 0 -31567953.597669601 45500706.936712146 0 45500706.936712146 17191838.137680054 0 0 0 0 -18047546.801555634 63197658.821862221 0 63197658.821862221 -18983046.597557068 0 0 0 0 -28748930.884475708 39563907.772911072 0 39563907.772911072 7087661.3596343994 0 0 0 0 -40343581.939758301 57716433.821582794 0 57716433.821582794 -16910243.837127686 0 0 0 0 -37348836.281616211 41225024.9271698 0 41225024.9271698 12782889.261581421 0 0 0 0 -35481617.773925781 41647426.008300781 0 41647426.008300781 -11757431.929122925 0 0 0 0 -51829731.393035889 34167272.403137207 0 34167272.403137207 9778926.8377685547 0 0 0 0 6211267.4664845839 36948668.49394656 0 36948668.49394656 28252237.733312171 0 0 0 0 -25540182.531311035 22000655.805707932 0 22000655.805707932 25091000.028739929 0 0 0 0 -32690054.089294434 27116029.563616753 0 27116029.563616753 36378921.21269989 0 0 0 0 -36308478.021484375 50726312.836486816 0 50726312.836486816 55158358.55519104 0 0 0 0 12121260.779861044 5499636.3998870142 0 5499636.3998870142 -14940260.323290519 0 0 0 0 3084075.6869630814 97283207.178369522 0 97283207.178369522 235117583.41204834 0 0 0 0 -103604140.08782959 22769775.385681152 0 22769775.385681152 -102988942.07775879 0 0 0 0 38653572.357873186 35920127.528625771 0 35920127.528625771 -1548521.7571330499 0 0 0 0 2453145.8847045898 79016530.907913208 0 79016530.907913208 185912907.99200439 0 0 0 0 114503849.68286133 207155234.09210205 0 207155234.09210205 157785928.6315918 0 0 0 0 36907809.823253632 156672239.75052261 0 156672239.75052261 244504743.7795105 0 0 0 0 32092921.488067627 124400464.73791504 0 124400464.73791504 128779633.64648438 0 0 0 0 34112803.606719971 227414859.35745239 0 227414859.35745239 137359260.11105347 0 0 0 0 183098669.32316589 93229141.809402466 0 93229141.809402466 -133802006.94473267 0 0 0 0 -50910859.297729492 -35716058.423095703 0 -35716058.423095703 19434060.689880371 0 0 0 0 58397605.202682495 1734488.7423706055 0 1734488.7423706055 17996624.904434204 0 0 0 0 -102383221.88458252 -6999071.3298950195 0 -6999071.3298950195 60311306.350006104 0 0 0 0 32623207.189880371 37264486.695999146 0 37264486.695999146 130697255.87333679 0 0 0 0 80359023.893264771 142477212.23114014 0 142477212.23114014 66488268.995330811 0 0 0 0 64167488.708145142 135680304.25574493 0 135680304.25574493 130329750.77697754 0 0 0 0 -12626703.775817871 23830111.361450195 0 23830111.361450195 53096574.173522949 0 0 0 0 16653062.967459515 30749003.427729838 0 30749003.427729838 22441080.969677389 0 0 0 0 -61783247.864440918 27455482.503509521 0 27455482.503509521 57273860.915267944 0 0 0 0 -101345773.74523354 28430792.554515004 0 28430792.554515004 66783789.677032471 0 0 0 0 -8262511.5246385112 26348380.33413659 0 26348380.33413659 28258339.040833563 0 0 0 0 -24173018.590881348 48263910.364936829 0 48263910.364936829 9259612.3690948486 0 0 0 0 -34736108.051422119 50227806.274734497 0 50227806.274734497 12889453.413619995 0 0 0 0 -41100576.562164307 22643487.093971252 0 22643487.093971252 -4683710.8101196289 0 0 0 0 -18739708.299251392 41361560.788101077 0 41361560.788101077 46437076.912393317 0 0 0 0 -23151696.232177734 20848810.493988037 0 20848810.493988037 11083272.606781006 0 0 0 0 -11060615.294948421 52516751.235300183 0 52516751.235300183 9794338.8763475567 0 0 0 0 -9490949.5505104065 87007772.283279419 0 87007772.283279419 130686168.24765778 0 0 0 0 26341927.863857605 29657341.370411102 0 29657341.370411102 6227482.028166078 0 0 0 0 119421279.98989868 79546643.297988892 0 79546643.297988892 24976327.562145233 0 0 0 0 11382026.367322046 16134776.49702204 0 16134776.49702204 6723713.9554919004 0 0 0 0 -14483950.044828005 40359153.339791112 0 40359153.339791112 29068819.571331881 0 0 0 0 6405110.2304298468 7604655.0336429477 0 7604655.0336429477 3350664.6521363072 0 0 0 0 -83615791.902877808 -27118222.441841125 0 -27118222.441841125 119329468.54478455 0 0 0 0 53612413.456237793 321189435.07639217 0 321189435.07639217 257496985.58305359 0 0 0 0 126296844.17370605 145146331.32087708 0 145146331.32087708 -3332447.2594442368 0 0 0 0 74589049.136642456 79851327.564285278 0 79851327.564285278 -106601693.15977478 0 0 0 0 31082539.480038643 114428550.19522095 0 114428550.19522095 24778227.081222534 0 0 0 0 84430870.472801208 45427124.504768372 0 45427124.504768372 -5444298.1644134521 0 0 0 0 33133420.361816406 120431333.41701508 0 120431333.41701508 19505498.046405792 0 0 0 0 -90341377.287582397 79488854.061907768 0 79488854.061907768 -11457037.014877319 0 0 0 0 4411193.6167083532 3091305.4459644258 0 3091305.4459644258 -5477094.7047460154 0 0 0 0 370087484.96829224 50996777.196767807 0 50996777.196767807 -219744074.99351311 0 0 0 0 -360362512.81512451 65766617.879146576 0 65766617.879146576 485748983.42808533 0 0 0 0 214476704.64505005 223490141.5479641 0 223490141.5479641 144615314.95020676 0 0 0 0 240222140.09393311 226804242.31994057 0 226804242.31994057 99090448.065532684 0 0 0 0 230634839.77050781 204575367.07003212 0 204575367.07003212 90234013.857586861 0 0 0 0 -209474031.60595703 96660931.282306671 0 96660931.282306671 107678107.96868896 0 0 0 0 265954361.34932137 -858367.39423620701 0 -858367.39423620701 111786527.88863373 0 0 0 0 -330196300.03707886 204678300.44067574 0 204678300.44067574 130354817.64844894 0 0 0 0 -27872356.881357864 30802954.732034862 0 30802954.732034862 43587383.922992125 0 0 0 0 -210005785.74859619 -53656917.69600296 0 -53656917.69600296 -44628395.504573822 0 0 0 0 -99205539.567993164 -13704760.228713989 0 -13704760.228713989 -49940885.994190216 0 0 0 0 -22062396.908260033 30771598.258487254 0 30771598.258487254 38910264.560574561 0 0 0 0 98369276.271118164 -224243818.58624077 0 -224243818.58624077 31631626.962158203 0 0 0 0 109226204.89981079 -99033749.110498428 0 -99033749.110498428 -221583920.79023361 0 0 0 0 17383625.497192383 41019582.926845551 0 41019582.926845551 129301129.75341797 0 0 0 0 123255487.98416138 -37546410.994897842 0 -37546410.994897842 47069053.456817627 0 0 0 0 44062895.214996338 -71743760.144872665 0 -71743760.144872665 36567405.891410828 0 0 0 0 136597610.70062256 141064979.32078934 0 141064979.32078934 187858284.32478142 0 0 0 0 252596785.58319092 161180760.92178917 0 161180760.92178917 108896897.49495316 0 0 0 0 142849574.25805664 161468848.84265137 0 161468848.84265137 110874520.76734924 0 0 0 0 124828243.45629883 235375061.21938705 0 235375061.21938705 89388152.946405411 0 0 0 0 123076376.06292725 103183835.32396126 0 103183835.32396126 24175913.35383606 0 0 0 0 173173151.75785828 152932845.41384315 0 152932845.41384315 58222244.602912903 0 0 0 0 71378907.270202637 13597402.261745453 0 13597402.261745453 132760.9879989624 0 0 0 0 148021355.61904907 118923980.34889793 0 118923980.34889793 -144805876.34671783 0 0 0 0 8867616.0640563965 231252149.48979378 0 231252149.48979378 -9243770.0933856964 0 0 0 0 20391871.198989868 109064678.86761749 0 109064678.86761749 -29630078.694030762 0 0 0 0 125466108.12403107 78135341.574858665 0 78135341.574858665 -371383040.33149719 0 0 0 0 123297457.70391846 48533456.568056107 0 48533456.568056107 -88326814.663860321 0 0 0 0 23239942.403503418 196943236.09637022 0 196943236.09637022 295426817.46607208 0 0 0 0 68144345.59375 151293461.66337013 0 151293461.66337013 82749962.40719223 0 0 0 0 92084139.004516602 262034628.1285038 0 262034628.1285038 241920951.73528671 0 0 0 0 151833679.14038086 241586390.15063381 0 241586390.15063381 91840874.027150869 0 0 0 0 -9092991.8432899863 12968949.304030791 0 12968949.304030791 14718630.600759134 0 0 0 0 155541274.20185089 224545622.96522737 0 224545622.96522737 210181107.47783279 0 0 0 0 159930736.64898682 208129451.57555866 0 208129451.57555866 270052151.8783288 0 0 0 0 142387835.7991333 195942664.91383171 0 195942664.91383171 128681120.03996849 0 0 0 0 254770319.30969238 237057148.31125164 0 237057148.31125164 211073671.6278553 0 0 0 0 140737134.61912918 206543712.32740474 0 206543712.32740474 260823299.45602798 0 0 0 0 -30999762.214019775 137390428.89870262 0 137390428.89870262 -77189686.172179222 0 0 0 0 41715186.000915527 101936512.88351059 0 101936512.88351059 -317075609.65086365 0 0 0 0 52610667.968505859 23118341.64867878 0 23118341.64867878 -123171156.32002735 0 0 0 0 253030882.52716064 335081585.12318897 0 335081585.12318897 264303689.95405126 0 0 0 0 62862208.596496582 -41037559.611792803 0 -41037559.611792803 -466535994.88666344 0 0 0 0 -7807304.1581323147 5600150.9808816127 0 5600150.9808816127 8563870.1547121163 0 0 0 0 85467110.160202026 365824127.19775504 0 365824127.19775504 593791640.21344233 0 0 0 0 -19805113.739625916 23177630.466447104 0 23177630.466447104 44628182.199815214 0 0 0 0 8438071.9832763672 33709823.397361755 0 33709823.397361755 15930741.071186066 0 0 0 0 -128230850.94683838 26507598.187997818 0 26507598.187997818 87260323.59118402 0 0 0 0 13567107.905916266 35074749.473296672 0 35074749.473296672 11013485.537646331 0 0 0 0 7998979.3444213867 30784116.772686005 0 30784116.772686005 30465153.662138939 0 0 0 0 8327775.577737689 37495271.320205107 0 37495271.320205107 20734527.710050818 0 0 0 0 11069466.818359375 29899830.231220245 0 29899830.231220245 13976369.170349121 0 0 0 0 -1301565.3817555606 13547567.240245907 0 13547567.240245907 5795553.3788332669 0 0 0 0 66820835.449981689 -21359121.437970161 0 -21359121.437970161 43676121.495868206 0 0 0 0 -4454854.1709899902 135731802.4007597 0 135731802.4007597 277669725.66737938 0 0 0 0 -7227953.8127610385 596536.50457645208 0 596536.50457645208 6439116.829781644 0 0 0 0 -12680241.242141724 146577453.96431255 0 146577453.96431255 -153248335.14604378 0 0 0 0 2236918.9846634716 27295162.025180407 0 27295162.025180407 13208049.77956678 0 0 0 0 -29197628.655103683 7742815.0993483663 0 7742815.0993483663 -16129465.025261879 0 0 0 0 815014.80429077148 28593827.847663879 0 28593827.847663879 14098190.385604858 0 0 0 0 18445101.87814654 34169847.479922913 0 34169847.479922913 5661525.6599364616 0 0 0 0 11114407.974502563 43778468.040208817 0 43778468.040208817 -8052851.1637191772 0 0 0 0 -468222064.19732666 419251726.42840958 0 419251726.42840958 -230919060.88612747 0 0 0 0 69736155.978408813 -1444219.1939005852 0 -1444219.1939005852 -746883116.57288361 0 0 0 0 2766613.1527189687 10086618.938568734 0 10086618.938568734 2817869.1537942868 0 0 0 0 -329278057.87445068 217371794.77999878 0 217371794.77999878 -2136211.2437351942 0 0 0 0 -125862840.46658325 537799895.26796532 0 537799895.26796532 -723173871.57025909 0 0 0 0 116822481.22189331 184909091.03027439 0 184909091.03027439 -326042620.24845558 0 0 0 0 77177144.936859131 289954139.90443134 0 289954139.90443134 -489766039.4931469 0 0 0 0 241053905.32828522 154489763.6342963 0 154489763.6342963 -585024381.89879227 0 0 0 0 178893604.40551758 -53952480.303911209 0 -53952480.303911209 -1005382894.3633051 0 0 0 0 -460073445.13114929 616784556.01509571 0 616784556.01509571 -557240172.66086006 0 0 0 0 38602854.113616943 429930166.72337723 0 429930166.72337723 -1068703745.6857977 0 0 0 0 113847238.88957977 98433746.474910259 0 98433746.474910259 -430086038.59055614 0 0 0 0 17235274.141220093 52166618.306641102 0 52166618.306641102 -440788117.47757912 0 0 0 0 -69740943.143081665 -85478895.510075569 0 -85478895.510075569 -461660627.33433723 0 0 0 0 121006676.38630676 118979744.38663769 0 118979744.38663769 -529033440.31423569 0 0 0 0 223891153.79470825 53626457.271369934 0 53626457.271369934 -572140835.53241777 0 0 0 0 317213422.23208618 -96457389.049541473 0 -96457389.049541473 -415077577.09827232 0 0 0 0 186676754.26084137 -26691313.748363972 0 -26691313.748363972 -406308607.02118492 0 0 0 0 93477072.775817871 9005972.6915540695 0 9005972.6915540695 -335430674.07218266 0 0 0 0 88099374.532049179 -68370822.737533748 0 -68370822.737533748 -193808284.44664383 0 0 0 0 24167649.758239746 -123125872.15978813 0 -123125872.15978813 30384407.967107773 0 0 0 0 198599571.3359375 -156885770.73796844 0 -156885770.73796844 -210663184.18130875 0 0 0 0 17610125.355529785 -106372266.58117485 0 -106372266.58117485 -10586588.255392075 0 0 0 0 44707989.65002203 -149546089.75641617 0 -149546089.75641617 -43133459.106769562 0 0 0 0 44403118.825122356 -157966911.420699 0 -157966911.420699 13064340.999843597 0 0 0 0 313168917.1661377 -274412144.04985332 0 -274412144.04985332 -81051803.337591171 0 0 0 0 189716617.01850891 -82546385.975865364 0 -82546385.975865364 -333098831.82834148 0 0 0 0 -514433.97369384766 -56167947.89995575 0 -56167947.89995575 137530758.56562233 0 0 0 0 375146783.21984863 -265879858.03712273 0 -265879858.03712273 -80854010.033966064 0 0 0 0 32849805.926055908 -222678716.52533054 0 -222678716.52533054 273036233.93322372 0 0 0 0 123666482.75387573 -306627202.60949707 0 -306627202.60949707 579447767.45450306 0 0 0 0 -15078441.731964111 -114954151.84022856 0 -114954151.84022856 30916749.471439362 0 0 0 0 3649044.5597229004 -95213737.400268555 0 -95213737.400268555 49858393.204437256 0 0 0 0 51409371.483886719 363794664.12268162 0 363794664.12268162 -455474926.42915535 0 0 0 0 120257642.84295654 357685672.94091797 0 357685672.94091797 -240724826.18957138 0 0 0 0 357838328.75869751 489681605.58237839 0 489681605.58237839 -408509321.29213142 0 0 0 0 637128844.7857666 -66040249.745022774 0 -66040249.745022774 -556115190.09091878 0 0 0 0 66430557.471115112 173067527.72456884 0 173067527.72456884 -163857240.82748032 0 0 0 0 655410675.65338135 -44939777.40058136 0 -44939777.40058136 -113353623.30046797 0 0 0 0 951069789.85809326 335658686.46412051 0 335658686.46412051 306966096.33000946 0 0 0 0 822445324.25073242 -637178517.23991203 0 -637178517.23991203 227313852.15431213 0 0 0 0 1411172412.9034424 -629430696.18945885 0 -629430696.18945885 568538277.24410152 0 0 0 0 505713749.72982788 531024557.31707072 0 531024557.31707072 -168885869.94306946 0 0 0 0 713097966.72418213 64909710.402383804 0 64909710.402383804 -44169644.108654976 0 0 0 0 185749747.47705078 256876355.85584354 0 256876355.85584354 237175988.91622353 0 0 0 0 -45193639.967773438 272413782.02170372 0 272413782.02170372 -51411373.336431503 0 0 0 0 -62582207.333221436 484244568.95779133 0 484244568.95779133 -530234516.34980202 0 0 0 0 215174548.56877899 438055445.61290479 0 438055445.61290479 -316009713.26618195 0 0 0 0 -125511567.87878418 551865600.56811333 0 551865600.56811333 -160689504.20698261 0 0 0 0 162707970.39767075 540874557.44001198 0 540874557.44001198 -404118962.44999313 0 0 0 0 -280812001.5657959 676538294.12252045 0 676538294.12252045 -321101725.12932205 0 0 0 0 -122982001.38574219 510040189.96943378 0 510040189.96943378 -475220890.60161972 0 0 0 0 -75690880.976318359 631914737.85172081 0 631914737.85172081 -505302416.82723236 0 0 0 0 -82078124.587768555 666215338.58728886 0 666215338.58728886 -367093078.67229939 0 0 0 0 -376700614.55828857 515093052.13190079 0 515093052.13190079 -508114387.53998661 0 0 0 0 -800573090.71221924 527221137.25926971 0 527221137.25926971 -332459097.30473709 0 0 0 0 -327850530.66481018 659799342.57388687 0 659799342.57388687 -410953833.04896164 0 0 0 0 -391665414.84152222 429883796.81946564 0 429883796.81946564 -308754437.99025345 0 0 0 0 -644403045.27215576 758383275.48496962 0 758383275.48496962 -577870346.2635498 0 0 0 0 -895714457.29823303 721452255.956496 0 721452255.956496 -362617237.65167046 0 0 0 0 201651888.68847656 55399077.641689301 0 55399077.641689301 -167052560.71406555 0 0 0 0 -813760181.54678345 518568006.20968246 0 518568006.20968246 -529055562.92578506 0 0 0 0 -187252046.70118713 151329744.23632431 0 151329744.23632431 44354399.786710739 0 0 0 0 -87309517.61239624 -388037756.4722538 0 -388037756.4722538 56806746.219909668 0 0 0 0 9734102.9966039062 8456738.5244552307 0 8456738.5244552307 4162259.5490928469 0 0 0 0 9641440.4449462891 -26237840.9322505 0 -26237840.9322505 312921531.35511315 0 0 0 0 70785224.826965332 -104257794.18220389 0 -104257794.18220389 -321395977.25785923 0 0 0 0 29691395.81588402 28192255.110752184 0 28192255.110752184 12633573.835538171 0 0 0 0 -113289653.17071533 313055957.34394836 0 313055957.34394836 -171075847.4615078 0 0 0 0 1709549.8931121826 47362131.059501648 0 47362131.059501648 -17210274.229774475 0 0 0 0 156468692.41159058 274381697.53055 0 274381697.53055 -338234669.44039726 0 0 0 0 77177204.074066162 208402257.93814135 0 208402257.93814135 -183526102.54527187 0 0 0 0 189810067.80410767 -56605506.481380463 0 -56605506.481380463 -97632428.561215401 0 0 0 0 -149072580.40209961 38538146.302785873 0 38538146.302785873 -92556333.312555313 0 0 0 0 11800703.409578905 2893938.4233679548 0 2893938.4233679548 -13228413.96652136 0 0 0 0 17761706.02493766 15185770.379855603 0 15185770.379855603 6067465.7412081435 0 0 0 0 21210815.19519043 90168469.704978943 0 90168469.704978943 -111807458.89464188 0 0 0 0 119948635.53912354 32763034.243770599 0 32763034.243770599 -153394933.70756149 0 0 0 0 -265800282.8354187 -151866859.83269501 0 -151866859.83269501 -182152386.31825638 0 0 0 0 -340550923.15539551 -28851712.037635803 0 -28851712.037635803 -41593875.78061676 0 0 0 0 398025882.94299316 -86958301.372066498 0 -86958301.372066498 -426099602.55883408 0 0 0 0 237431505.31640625 331559304.45608091 0 331559304.45608091 65463902.152759552 0 0 0 0 -28418.248168945312 210749087.16593933 0 210749087.16593933 175465003.83650208 0 0 0 0 3827859.0767211914 44111883.10521698 0 44111883.10521698 -19792944.633609772 0 0 0 0 2439642.1746826172 42583070.293674469 0 42583070.293674469 -17975342.837417603 0 0 0 0 2056447.1454925537 43746948.328895569 0 43746948.328895569 -17741101.93862915 0 0 0 0 2281203.0049743652 42594897.364303589 0 42594897.364303589 -15110014.43353653 0 0 0 0 1666657.5023956299 41961574.33216095 0 41961574.33216095 -15169897.798423767 0 0 0 0 4397646.3516235352 42282822.556556702 0 42282822.556556702 -17777989.618643045 0 0 0 0 3484948.7365493774 44011359.814777374 0 44011359.814777374 -16345467.539871216 0 0 0 0 4692038.1840820312 42102989.959259033 0 42102989.959259033 -16164092.583754539 0 0 0 0 5135797.5355935097 43211906.048509955 0 43211906.048509955 -14590868.223083496 0 0 0 0 4889650.6758189201 38461997.665232897 0 38461997.665232897 -9551108.8600616455 0 0 0 0 4284886.1838226318 46056251.603546143 0 46056251.603546143 -18134257.799972534 0 0 0 0 30175729.299776509 25643513.332270443 0 25643513.332270443 -3945906.1160906255 0 0 0 0 2021787.7230987549 46075718.209629059 0 46075718.209629059 -17041617.213653564 0 0 0 0 -26459969.187561035 109942710.66125488 0 109942710.66125488 72947496.950767517 0 0 0 0 166627876.96166992 249950336.25068283 0 249950336.25068283 55233517.265838623 0 0 0 0 17245934.408492632 4378291.7351901792 0 4378291.7351901792 -15108765.572861832 0 0 0 0 -5519345.1901855469 182339793.60649109 0 182339793.60649109 162752609.01595688 0 0 0 0 -58536043.221878052 38176378.785705566 0 38176378.785705566 -65172636.009002686 0 0 0 0 -65124162.331604004 18929152.526298523 0 18929152.526298523 -60889774.497253418 0 0 0 0 -22224628.762542725 -29468798.141925812 0 -29468798.141925812 -260151751.49615479 0 0 0 0 -17416634.696472168 138318260.90821457 0 138318260.90821457 81351278.516586304 0 0 0 0 -53236346.201599121 105918078.80220032 0 105918078.80220032 53624736.059997559 0 0 0 0 -8427819.2941894531 133657980.42849731 0 133657980.42849731 60286906.931100845 0 0 0 0 -33127946.300079346 134463410.52049637 0 134463410.52049637 98489746.916931152 0 0 0 0 -40749301.169647217 109106200.71908188 0 109106200.71908188 54191442.504516602 0 0 0 0 -25033770.173828125 122633286.55473328 0 122633286.55473328 60774379.986953735 0 0 0 0 -52035476.060359955 76568354.96492362 0 76568354.96492362 -2571752.3337097168 0 0 0 0 57021409.641601562 208362350.95149231 0 208362350.95149231 41233684.743667603 0 0 0 0 -39929686.971435547 81121583.650131226 0 81121583.650131226 54221287.299920082 0 0 0 0 158636968.87255859 -39465732.847629547 0 -39465732.847629547 -440627436.52933502 0 0 0 0 239093325.88546753 64348321.71219635 0 64348321.71219635 -449821833.2989502 0 0 0 0 372447205.16625977 267799298.7690773 0 267799298.7690773 -330472953.13562012 0 0 0 0 2318417.0803651214 3470930.1108486019 0 3470930.1108486019 2078052.0828922549 0 0 0 0 79904317.396362305 105682686.38856506 0 105682686.38856506 -106687844.04750061 0 0 0 0 17553388.260009766 132161591.70436859 0 132161591.70436859 -99662627.633117676 0 0 0 0 -73202248.529083252 70403385.142148972 0 70403385.142148972 -3732736.1727619171 0 0 0 0 -40732836.252441406 93125965.799095154 0 93125965.799095154 2795349.1929016113 0 0 0 0 -45527075.552185059 37237974.177436829 0 37237974.177436829 -29797993.033481598 0 0 0 0 26278422.875556946 -35891124.084450245 0 -35891124.084450245 -511531726.92874336 0 0 0 0 -21645128.476715088 65417893.666801453 0 65417893.666801453 -148035220.64324951 0 0 0 0 26635849.749666885 26167506.337648906 0 26167506.337648906 3558736.5218682261 0 0 0 0 -212138642.97427368 -107326068.73219681 0 -107326068.73219681 338935992.04022217 0 0 0 0 -103193048.16815186 -117177013.96385193 0 -117177013.96385193 -121045368.84992599 0 0 0 0 -34777108.831054688 61711866.19487381 0 61711866.19487381 -17960281.552465439 0 0 0 0 -90857931.243041992 74245957.264451981 0 74245957.264451981 143346128.74881363 0 0 0 0 -112112923.2918396 175918541.85208511 0 175918541.85208511 301986015.44183731 0 0 0 0 20261325.525085449 392519550.15953064 0 392519550.15953064 -406487593.49849606 0 0 0 0 -248324362.9955864 573424027.24590504 0 573424027.24590504 -523365045.95427322 0 0 0 0 194130457.19981384 19081082.150399208 0 19081082.150399208 -78297791.859798431 0 0 0 0 21206557.666877903 18519486.485690434 0 18519486.485690434 2034449.9927875325 0 0 0 0 -239582047.02142334 620225930.75409412 0 620225930.75409412 -479193468.09640217 0 0 0 0 12152289.379847221 5476132.62719322 0 5476132.62719322 -6969246.4737758311 0 0 0 0 29377477.199645996 145017600.30012703 0 145017600.30012703 43891027.965660095 0 0 0 0 15954995.003967285 191204359.53932571 0 191204359.53932571 138157570.4076767 0 0 0 0 76005.336990356445 40518165.015699387 0 40518165.015699387 -15739688.067298889 0 0 0 0 16925375.377681851 35410532.354193211 0 35410532.354193211 -26019914.378570557 0 0 0 0 19131970.838806152 51660170.311447144 0 51660170.311447144 -75618259.125740051 0 0 0 0 16962485.417663574 39905628.777709961 0 39905628.777709961 -52690959.659843445 0 0 0 0 8809260.575012207 110825587.87612534 0 110825587.87612534 -106769612.77815247 0 0 0 0 15480338.533596039 76474466.422359705 0 76474466.422359705 -46233719.286010742 0 0 0 0 8449471.3847045898 111777523.29364777 0 111777523.29364777 69727353.517829895 0 0 0 0 -26927.30876159668 75598820.006690979 0 75598820.006690979 192075048.50436401 0 0 0 0 51422368.592514038 52826733.392967224 0 52826733.392967224 120216801.22494507 0 0 0 0 22764979.315002441 61589473.193570137 0 61589473.193570137 177781322.79618835 0 0 0 0 12301090.610031128 91449215.40764904 0 91449215.40764904 230909551.09790039 0 0 0 0 7254645.3323898315 134904132.44245911 0 134904132.44245911 435636915.25532532 0 0 0 0 204163770.89801025 27560586.809394836 0 27560586.809394836 -210981835.04629517 0 0 0 0 85428175.681945801 135858737.2232132 0 135858737.2232132 204644317.46453476 0 0 0 0 -359777.30800190568 -1848400.2842925675 0 -1848400.2842925675 230894.9264518749 0 0 0 0 -127114146.00134277 1219877.9321556091 0 1219877.9321556091 -17037559.860191345 0 0 0 0 17425554.424880981 113465056.69736481 0 113465056.69736481 220655176.01565552 0 0 0 0 42196922.82964325 70145791.886833191 0 70145791.886833191 196047764.63554382 0 0 0 0 29361321.650360107 130164014.07939529 0 130164014.07939529 158472155.60510254 0 0 0 0 35159307.875030518 49822305.603599548 0 49822305.603599548 236522580.66566467 0 0 0 0 29103857.150177002 57217272.584918976 0 57217272.584918976 131008781.27896118 0 0 0 0 3168944.0786132812 118877253.93093109 0 118877253.93093109 152268556.85546112 0 0 0 0 -607788.75628720224 -3172663.1553854868 0 -3172663.1553854868 4976.5025688065216 0 0 0 0 -7471992.9961547852 -2540579.008392334 0 -2540579.008392334 -39524567.490055084 0 0 0 0 25176488.083435059 -2169199.9722976685 0 -2169199.9722976685 -63841386.130455017 0 0 0 0 6230496.1119384766 93790783.117715836 0 93790783.117715836 249185918.33695221 0 0 0 0 4647956.4440078735 31695378.035414696 0 31695378.035414696 -14597391.978782654 0 0 0 0 1817822.2281005979 -600871.10054503195 0 -600871.10054503195 -3532199.8187121339 0 0 0 0 -13779563.440429688 -27518698.468719482 0 -27518698.468719482 -14832546.509368896 0 0 0 0 13673817.253380775 57677004.387040377 0 57677004.387040377 -81621523.583595276 0 0 0 0 -6629415.7046813965 33228711.789207458 0 33228711.789207458 -80134637.038814545 0 0 0 0 -25421100.866638184 35808453.987876892 0 35808453.987876892 -38062293.136795044 0 0 0 0 -25099843.874465942 35298701.597610474 0 35298701.597610474 -48879034.079711914 0 0 0 0 -15289713.968292236 24512262.395233154 0 24512262.395233154 -66908308.023475647 0 0 0 0 -7685105.3461914062 10142043.601150513 0 10142043.601150513 9402014.678237915 0 0 0 0 3232031.6385011077 238934.96232894808 0 238934.96232894808 -9830176.3608743772 0 0 0 0 -29062493.95904541 30912216.396385193 0 30912216.396385193 -44640079.029418945 0 0 0 0 -1209881.0816726685 12090770.44824028 0 12090770.44824028 368219.71133422852 0 0 0 0 -4834521.4922270849 13120488.056249 0 13120488.056249 -23536993.358269513 0 0 0 0 -3435085.1769668758 11440540.237927876 0 11440540.237927876 3440604.9870001674 0 0 0 0 -8322546.4116210938 11170816.183166504 0 11170816.183166504 11468908.62096405 0 0 0 0 -2089234.2486076355 44661341.107095718 0 44661341.107095718 33181675.768104553 0 0 0 0 3882177.0091112554 10499661.824691303 0 10499661.824691303 -29111710.643908381 0 0 0 0 -15453005.061767578 -17027913.956687927 0 -17027913.956687927 17320041.283706665 0 0 0 0 -4637210.870300293 18255571.297912598 0 18255571.297912598 -5033637.4560852051 0 0 0 0 -1893961.7083740234 9106228.8679733276 0 9106228.8679733276 -6902412.7942638397 0 0 0 0 -10100877.272460938 15848093.359924316 0 15848093.359924316 9195041.6776332855 0 0 0 0 -71699.646026611328 12966001.220420837 0 12966001.220420837 -15757343.898155212 0 0 0 0 783117.63613891602 69244681.152061462 0 69244681.152061462 96781731.25944519 0 0 0 0 -475005.92943811417 -2642849.7479842864 0 -2642849.7479842864 -1064333.1447434835 0 0 0 0 3401682.7971496582 9125255.9098930359 0 9125255.9098930359 -22524541.061752319 0 0 0 0 21992431.837760925 79072398.310108185 0 79072398.310108185 74118579.258743286 0 0 0 0 12272833.142883301 92136176.511131287 0 92136176.511131287 95117626.129058838 0 0 0 0 2167900.0942964554 135952095.19609642 0 135952095.19609642 69298620.839523315 0 0 0 0 4263744.927520752 145852684.43210602 0 145852684.43210602 41269920.269927979 0 0 0 0 -65307989.943786621 115537146.59997559 0 115537146.59997559 46403958.868364334 0 0 0 0 39041184.938110352 -2580393.0614776611 0 -2580393.0614776611 19214562.892703056 0 0 0 0 1289430.0987091064 123881656.65620041 0 123881656.65620041 9892852.2004394531 0 0 0 0 -49465271.042274475 74296754.412912369 0 74296754.412912369 -684819.173828125 0 0 0 0 -1268176.9567160048 5879997.9738742039 0 5879997.9738742039 2381217.230928123 0 0 0 0 -69106262.048187256 102685287.78968239 0 102685287.78968239 -152745596.85139465 0 0 0 0 -62935570.179626465 -39493845.648635864 0 -39493845.648635864 -24102451.733383179 0 0 0 0 -318375.41175171733 -665400.44217428192 0 -665400.44217428192 536677.31737562269 0 0 0 0 -42455375.772994995 -7020525.8659610748 0 -7020525.8659610748 24260826.421188354 0 0 0 0 939946.54386901855 6686183.6944389343 0 6686183.6944389343 -15379006.185211182 0 0 0 0 -311967.14263974503 705772.20133824646 0 705772.20133824646 199933.40235541016 0 0 0 0 85484284.559204102 136556665.10509109 0 136556665.10509109 -8766657.7273025513 0 0 0 0 -118941556.36597824 162988364.73413372 0 162988364.73413372 12100010.26335144 0 0 0 0 -7267149.8223742619 14118139.065733545 0 14118139.065733545 -20615476.53394191 0 0 0 0 -106205188.62969971 22570652.596351624 0 22570652.596351624 2140653.01171875 0 0 0 0 -133627992.7784729 152077022.52346039 0 152077022.52346039 -64609073.641731262 0 0 0 0 71732002.290496826 -43587803.751407623 0 -43587803.751407623 -49929381.647247314 0 0 0 0 -55081467.563049316 104910435.85157776 0 104910435.85157776 34159171.861282349 0 0 0 0 8935754.2830505371 6317599.5136871338 0 6317599.5136871338 4064114.1094207764 0 0 0 0 -7192262.852421388 14031572.290468819 0 14031572.290468819 -18212781.583499327 0 0 0 0 134530132.53445435 65047749.192848206 0 65047749.192848206 -39392007.192493439 0 0 0 0 -357546360.05999756 642076750.23714256 0 642076750.23714256 -807860693.0619278 0 0 0 0 71676294.194976807 38132047.440387726 0 38132047.440387726 -6874718.9356842041 0 0 0 0 175900120.60896301 -198516616.95396042 0 -198516616.95396042 -405576466.9777832 0 0 0 0 -333242657.13574219 317594682.79111862 0 317594682.79111862 -199329265.03801346 0 0 0 0 -381070013.79216957 -45506578.484366655 0 -45506578.484366655 48511238.830511093 0 0 0 0 150964298.92126465 -419366234.01757336 0 -419366234.01757336 465001957.89278221 0 0 0 0 -4977215.2942504883 243909356.84726715 0 243909356.84726715 -579357524.26505661 0 0 0 0 -2516082.5411186367 1703015.5301963165 0 1703015.5301963165 312188.7304368671 0 0 0 0 -259652228.9793396 211918262.94820023 0 211918262.94820023 -59407396.344179153 0 0 0 0 -153332351.19448853 166823810.32651234 0 166823810.32651234 96471511.697219849 0 0 0 0 119713370.71105957 126476631.45242405 0 126476631.45242405 60140955.689315796 0 0 0 0 -29466222.835784912 161542287.8562932 0 161542287.8562932 267225601.39763927 0 0 0 0 160002541.42089844 69318428.756103516 0 69318428.756103516 -86575719.464583397 0 0 0 0 -93066521.011310577 -140167413.32782173 0 -140167413.32782173 -27391199.804483414 0 0 0 0 -176980305.52780151 310887110.02004623 0 310887110.02004623 -105612077.95650482 0 0 0 0 2211207.3687532246 -2558557.8679664358 0 -2558557.8679664358 -10059739.600031598 0 0 0 0 -102724521.05249023 89133383.825647354 0 89133383.825647354 205142837.98431206 0 0 0 0 -32350067.869262695 -49086210.014877319 0 -49086210.014877319 -18948629.348899841 0 0 0 0 104683978.55535889 29093327.935124397 0 29093327.935124397 186943400.22920406 0 0 0 0 -13258372.390625 20471140.127038002 0 20471140.127038002 -77480389.338100433 0 0 0 0 158930713.56085205 -143465282.74054909 0 -143465282.74054909 -30500631.336742401 0 0 0 0 289969794.59802246 595111387.45833182 0 595111387.45833182 136494248.92345381 0 0 0 0 362719166.01382446 423778297.90026999 0 423778297.90026999 -42765618.892526627 0 0 0 0 443027353.59289551 610842782.34929657 0 610842782.34929657 64936488.573932648 0 0 0 0 92040319.541107178 648115558.3662734 0 648115558.3662734 873413539.58757281 0 0 0 0 238466820.53016186 111221012.13035601 0 111221012.13035601 270560809.89777756 0 0 0 0 31797172.368286133 217946410.77397346 0 217946410.77397346 724247327.83105111 0 0 0 0 2263870.9175109863 -183114495.85880661 0 -183114495.85880661 -757537214.71537781 0 0 0 0 -3424708.13409172 1165725.2447950989 0 1165725.2447950989 3236999.5280959285 0 0 0 0 254055979.19915771 61676379.546590328 0 61676379.546590328 -1636840769.9648991 0 0 0 0 104674982.84292603 -314215805.90791321 0 -314215805.90791321 30151927.839449883 0 0 0 0 -21352889.678588867 92086730.29134655 0 92086730.29134655 -376674927.86788464 0 0 0 0 -650392021.67529297 1458253535.7112675 0 1458253535.7112675 405017549.4988327 0 0 0 0 281713258.03681946 136305468.69847107 0 136305468.69847107 8668372.1967458725 0 0 0 0 439810465.8182869 655968779.68665767 0 655968779.68665767 -557721765.64959908 0 0 0 0 1472655673.3463135 -1747706717.0612221 0 -1747706717.0612221 -259320328.04700422 0 0 0 0 1903913.7125233561 303334.34389917552 0 303334.34389917552 -3501467.253964413 0 0 0 0 2084240.5492951218 -6256061.9894770607 0 -6256061.9894770607 -1937586.5698406945 0 0 0 0 -10178236.405334473 -24265663.931536674 0 -24265663.931536674 38683569.82872963 0 0 0 0 1776097.7358242124 -710782.58756216988 0 -710782.58756216988 -32665164.530443635 0 0 0 0 424708053.9552002 20511648.344591141 0 20511648.344591141 -175846070.71209908 0 0 0 0 1022238.4574595727 10063504.660693735 0 10063504.660693735 -33181476.606399126 0 0 0 0 110397270.03131104 -72513605.047862053 0 -72513605.047862053 -42778195.603539467 0 0 0 0 -58033837.909423828 -30939818.787870407 0 -30939818.787870407 -92160671.182472229 0 0 0 0 9605116.7691040039 72330233.743967056 0 72330233.743967056 -374791757.84032822 0 0 0 0 23571790.847900391 -53946119.128884315 0 -53946119.128884315 -145399752.85241127 0 0 0 0 63432223.927276611 -132384712.29725456 0 -132384712.29725456 -121254450.36351681 0 0 0 0 111467569.41448975 -71522094.533326626 0 -71522094.533326626 -59678468.290246964 0 0 0 0 36936505.17300415 -107190921.1186738 0 -107190921.1186738 -42864479.735715866 0 0 0 0 24291858.341629028 -95762972.765544891 0 -95762972.765544891 5818144.4195137024 0 0 0 0 13126779.941009521 -77481007.016212463 0 -77481007.016212463 13449470.168881893 0 0 0 0 16076739.105052948 -60177583.496103644 0 -60177583.496103644 -19681843.00957489 0 0 0 0 47992372.329105377 3450689.1000058651 0 3450689.1000058651 -68540932.942775726 0 0 0 0 -18118195.762542725 -1956303.7752456665 0 -1956303.7752456665 -45064475.658967972 0 0 0 0 61892486.981323242 -47701273.049049377 0 -47701273.049049377 -29451595.202683568 0 0 0 0 98014004.58190918 -65743563.072048187 0 -65743563.072048187 -20189252.14123106 0 0 0 0 94062484.072013855 -48400593.167227387 0 -48400593.167227387 -10427416.786178589 0 0 0 0 731031.8512378633 1994910.8583594193 0 1994910.8583594193 -5472948.1520534642 0 0 0 0 154328251.6849823 -54590109.825415134 0 -54590109.825415134 -55807401.64597702 0 0 0 0 1358852.9299159423 6177299.564033404 0 6177299.564033404 -34644193.614114895 0 0 0 0 191741996.45135498 66967248.348236084 0 66967248.348236084 -56097582.358253479 0 0 0 0 235226729.93917847 93153112.054132462 0 93153112.054132462 -213614093.99800873 0 0 0 0 180053261.76220703 -96026419.144882202 0 -96026419.144882202 -262438822.08740997 0 0 0 0 -203920374.50250244 168567535.65699768 0 168567535.65699768 311313164.67227173 0 0 0 0 -135772512.38769531 -199820279.62286377 0 -199820279.62286377 -53185458.285552979 0 0 0 0 -37291694.665405273 -274822824.35387802 0 -274822824.35387802 -404057956.80994415 0 0 0 0 177712939.42695618 178541183.86510849 0 178541183.86510849 301423244.19803619 0 0 0 0 374092178.3397522 166269987.5831604 0 166269987.5831604 -512376423.51192474 0 0 0 0 -2310472.7059887648 2677536.2123988345 0 2677536.2123988345 -15220830.896998171 0 0 0 0 9634820.032043457 -44661837.024204254 0 -44661837.024204254 74070062.934276581 0 0 0 0 1114654.7490228266 -2922000.493075382 0 -2922000.493075382 -14443581.560129154 0 0 0 0 3399401.0767822266 -1648333.7358016968 0 -1648333.7358016968 -7248484.5012245178 0 0 0 0 3643457.0284329616 4535942.0702152848 0 4535942.0702152848 -23294847.670098737 0 0 0 0 -429608455.97712708 -440890512.38473511 0 -440890512.38473511 -115928330.68268585 0 0 0 0 -6354916.9716259837 -1355231.8986078501 0 -1355231.8986078501 -7950594.6674418841 0 0 0 0 -108942098.2300415 76966690.167375565 0 76966690.167375565 -117364246.31686115 0 0 0 0 2025047.6444257945 991735.60051435977 0 991735.60051435977 -5862163.5394476429 0 0 0 0 -26384337.1796875 8361535.8209285736 0 8361535.8209285736 -25721148.66286087 0 0 0 0 -492346206.17678833 -216180584.13557434 0 -216180584.13557434 35156540.458068848 0 0 0 0 -132505.72608585656 350019.9288874194 0 350019.9288874194 -864716.79828877002 0 0 0 0 -252574233.94807434 258831617.57714844 0 258831617.57714844 113342274.60158539 0 0 0 0 -512624050.3875885 61520155.20652771 0 61520155.20652771 98464122.227424622 0 0 0 0 -65882908.333938599 60606325.273084641 0 60606325.273084641 -55110367.035263062 0 0 0 0 -160159028.57733917 6421351.5838055611 0 6421351.5838055611 -16983093.01574707 0 0 0 0 -74828051.150390625 76951238.164070129 0 76951238.164070129 -60011811.358840942 0 0 0 0 251846.59629511833 -557976.75252426416 0 -557976.75252426416 -3527035.947093755 0 0 0 0 -58103440.956970215 77138398.214488983 0 77138398.214488983 -48860493.849349976 0 0 0 0 -81507833.40284729 65033949.561579704 0 65033949.561579704 -47252757.474090576 0 0 0 0 -83407355.238342285 36996321.228546143 0 36996321.228546143 -28886889.306488037 0 0 0 0 -157270987.8951416 66654691.683334351 0 66654691.683334351 -29104733.752067566 0 0 0 0 -89650460.249923706 84547058.229463577 0 84547058.229463577 -57610203.875488281 0 0 0 0 -64921728.743286133 -147173441.08235168 0 -147173441.08235168 45621442.757026672 0 0 0 0 96366896.022651672 -21504894.952188492 0 -21504894.952188492 -67181720.657821655 0 0 0 0 225952118.25906372 -25391171.854934692 0 -25391171.854934692 -240166092.09639359 0 0 0 0 1379453.0641979426 -1691203.1346785277 0 -1691203.1346785277 -1590905.9831664599 0 0 0 0 -70933908.171081543 -26734421.718414307 0 -26734421.718414307 24361425.222396851 0 0 0 0 12800687.429626465 -134313550.74902344 0 -134313550.74902344 -24357614.321578979 0 0 0 0 -21456065.93963623 -63078372.767997742 0 -63078372.767997742 90862943.417144775 0 0 0 0 -65779983.936828613 -105308029.54772949 0 -105308029.54772949 61456732.446670532 0 0 0 0 34485909.663879395 -36432664.659629822 0 -36432664.659629822 -31269175.442611694 0 0 0 0 6160876.5832831636 -6756066.0902463272 0 -6756066.0902463272 -6907855.1020198204 0 0 0 0 7364741.2637634277 -13145514.366825104 0 -13145514.366825104 11042009.804958344 0 0 0 0 39562075.282958984 -4245121.6131782532 0 -4245121.6131782532 -29786385.137176514 0 0 0 0 2531631.0516801476 1854285.157665994 0 1854285.157665994 -38577008.802725844 0 0 0 0 -540371.80517578125 -2094424.6067199707 0 -2094424.6067199707 -17558869.241889954 0 0 0 0 889767.37360022962 -6292934.0735623315 0 -6292934.0735623315 -4016214.5528724268 0 0 0 0 4476640.3211165853 2225585.4759468958 0 2225585.4759468958 -9288838.0986796319 0 0 0 0 -3349013.9635009766 -37448542.161933899 0 -37448542.161933899 -21627631.254394531 0 0 0 0 8845062.4743652344 -246262.40937042236 0 -246262.40937042236 -6133788.3299636841 0 0 0 0 -15962631.722106934 17837675.271121979 0 17837675.271121979 -34065111.655227661 0 0 0 0 -48089716.773635864 40542493.534915924 0 40542493.534915924 -36919793.94329834 0 0 0 0 -45054195.483886719 32605654.14402771 0 32605654.14402771 -17264803.06149292 0 0 0 0 -68289780.639282227 47230489.254196167 0 47230489.254196167 -23033205.447097778 0 0 0 0 -60065259.114257812 13764788.115631104 0 13764788.115631104 1624018.812286377 0 0 0 0 -101043842.08456421 29091390.40864563 0 29091390.40864563 4450068.7766265869 0 0 0 0 713168.69783880562 -542957.88134799153 0 -542957.88134799153 -936390.91860833019 0 0 0 0 -18675466.788024902 48665825.360797882 0 48665825.360797882 -41502269.953334808 0 0 0 0 -28965546.885864258 52302684.257011414 0 52302684.257011414 -41067706.475776672 0 0 0 0 -17182321.272949219 50952850.369235992 0 50952850.369235992 -42323402.411920547 0 0 0 0 -17818954.463592529 43041150.788291931 0 43041150.788291931 -44346846.417526245 0 0 0 0 -10552706.82585907 51235137.480953217 0 51235137.480953217 -43506341.465736389 0 0 0 0 12993564.527557373 38667417.045806885 0 38667417.045806885 -60333356.69638443 0 0 0 0 12712122.79810524 40884603.571810246 0 40884603.571810246 -7819793.6948318481 0 0 0 0 22806713.699752808 -3209294.5632019043 0 -3209294.5632019043 -38906667.291633606 0 0 0 0 66954111.971496582 32517703.441425323 0 32517703.441425323 -71217413.8904953 0 0 0 0 -20387463.078063965 83439893.955575943 0 83439893.955575943 -84032099.438056946 0 0 0 0 292789498.97003174 66130304.744270325 0 66130304.744270325 -88125604.166003227 0 0 0 0 34663297.383087158 -25597876.819610596 0 -25597876.819610596 -29999434.382865906 0 0 0 0 -10746527.608726501 -17603959.002197266 0 -17603959.002197266 -30676647.075927734 0 0 0 0 -4793100.5821832865 -2181633.7982400972 0 -2181633.7982400972 -4068156.7004437428 0 0 0 0 9682693.2402191162 -2861928.1440210342 0 -2861928.1440210342 -28632031.593852997 0 0 0 0 12263444.507476807 -1742736.868434906 0 -1742736.868434906 -33598242.359668732 0 0 0 0 18411003.428222656 -1101517.3008995056 0 -1101517.3008995056 -39273304.594414711 0 0 0 0 8253520.1318817139 10111180.782678604 0 10111180.782678604 -41385433.780483246 0 0 0 0 4138049.5922393799 9669544.3974113464 0 9669544.3974113464 -21857817.763130188 0 0 0 0 -3500.3333588501296 21267227.709663726 0 21267227.709663726 -6251369.6718330383 0 0 0 0 -10934.221908569336 23803233.963424683 0 23803233.963424683 -38732095.037548065 0 0 0 0 -4024194.3446005583 -357835.10373906791 0 -357835.10373906791 3987326.8660004511 0 0 0 0 19039178.617797852 2693611.7668457031 0 2693611.7668457031 -74969267.716178894 0 0 0 0 18625146.422424316 -744189.53153419495 0 -744189.53153419495 -21594450.662376404 0 0 0 0 20034234.637969971 -3786728.8070545197 0 -3786728.8070545197 -36196009.074137688 0 0 0 0 -2219361.8346823007 -187002.1283127144 0 -187002.1283127144 2180783.3172370493 0 0 0 0 16543175.734130859 4015499.5561676025 0 4015499.5561676025 -63815885.327780724 0 0 0 0 2453.7073516845703 26833688.455184937 0 26833688.455184937 16421282.513576508 0 0 0 0 15042757.47555542 6127854.9377355576 0 6127854.9377355576 -11445438.510513306 0 0 0 0 -10429016.55065918 71031291.823968887 0 71031291.823968887 -65014902.311953545 0 0 0 0 -7100389.2847900391 83796490.178432465 0 83796490.178432465 -16136939.751026154 0 0 0 0 13112557.73600769 64299917.153798103 0 64299917.153798103 -94870637.488182068 0 0 0 0 14842324.684387207 55816343.880037308 0 55816343.880037308 -59741394.305802345 0 0 0 0 -42758924.41394043 210369046.55587006 0 210369046.55587006 65602344.753170013 0 0 0 0 -42221183.053344727 -119762734.99356079 0 -119762734.99356079 -397443277.86572266 0 0 0 0 21265383.10055542 66989377.701543808 0 66989377.701543808 -105383441.99487305 0 0 0 0 -51303231.19128418 31767766.839046478 0 31767766.839046478 -124486906.979496 0 0 0 0 16176739.218200684 88207304.982185364 0 88207304.982185364 -163376802.52038193 0 0 0 0 -68679160.006164551 -14432342.172615051 0 -14432342.172615051 -186863507.05405045 0 0 0 0 -8378214.1967163086 40141893.626686096 0 40141893.626686096 -224283368.74459839 0 0 0 0 40434085.01651001 148818831.52815247 0 148818831.52815247 -138957624.61937714 0 0 0 0 -4150222.3683776855 103046928.99555206 0 103046928.99555206 -108202095.76846504 0 0 0 0 -2895020.4595947266 118225454.18904114 0 118225454.18904114 -87655581.67730999 0 0 0 0 5696462.8289179057 610168.31586802378 0 610168.31586802378 -5744164.6848462708 0 0 0 0 -323219524.81130981 662571786.18700981 0 662571786.18700981 -952900696.39550161 0 0 0 0 -37277608.863128662 55965385.923494339 0 55965385.923494339 -30061258.873085022 0 0 0 0 -43933648.207054138 38349049.689056873 0 38349049.689056873 102603878.34695435 0 0 0 0 -19110959.527450562 47931534.443716049 0 47931534.443716049 -54454660.115598679 0 0 0 0 -4549.1987829338796 58327186.267705224 0 58327186.267705224 -49549744.41166687 0 0 0 0 -450734607.1652832 857546925.75587273 0 857546925.75587273 -1729965098.9352658 0 0 0 0 -73937.17648300709 48150794.233141169 0 48150794.233141169 -56532815.856517792 0 0 0 0 4404691.7787883878 195178.05369624496 0 195178.05369624496 -5673816.3803979475 0 0 0 0 -5227222.6886816835 1288370255.0344539 0 1288370255.0344539 -1736195254.7575836 0 0 0 0 -80841146.67590332 579305611.43187714 0 579305611.43187714 -2425155369.3998241 0 0 0 0 -2286682.7038291395 -2721465.0005515404 0 -2721465.0005515404 -2858549.6407895833 0 0 0 0 78889667.064834595 55425477.849924088 0 55425477.849924088 -1457048698.5096664 0 0 0 0 -208936827.44448853 514365452.03728485 0 514365452.03728485 -980851807.13245678 0 0 0 0 -522040886.13315201 747840886.51260281 0 747840886.51260281 -1151564503.4915619 0 0 0 0 -186614965.44514847 352100879.81830645 0 352100879.81830645 -784801099.54308319 0 0 0 0 -125156204.17388916 166637643.09358597 0 166637643.09358597 -610826294.87794876 0 0 0 0 5340128.6354064941 23720481.674586296 0 23720481.674586296 -341899906.57077026 0 0 0 0 58352537.499130249 129645808.07819176 0 129645808.07819176 -796707240.68347549 0 0 0 0 -113717207.1434021 402099075.98392296 0 402099075.98392296 -761188782.52945781 0 0 0 0 -26758536.342071533 284503323.97847271 0 284503323.97847271 -698291788.40141296 0 0 0 0 3606464.0220184326 322487792.32463837 0 322487792.32463837 -800765073.79813004 0 0 0 0 -137460056.10641479 398870889.92772484 0 398870889.92772484 -752133918.32370472 0 0 0 0 -181610808.15647888 363710427.822896 0 363710427.822896 -671824896.68326569 0 0 0 0 -61588902.288146973 318540580.60658169 0 318540580.60658169 -675521453.64739227 0 0 0 0 -376806811.16519165 525116488.58633804 0 525116488.58633804 -773036793.25839627 0 0 0 0 -384259881.59194946 236802641.4197731 0 236802641.4197731 40931573.161159039 0 0 0 0 -2511445.5516694486 -929285.32605391368 0 -929285.32605391368 1791203.0273496732 0 0 0 0 96507795.655151367 -39858502.497020721 0 -39858502.497020721 -459142455.06729674 0 0 0 0 -290774988.23522949 -407828494.6760006 0 -407828494.6760006 -94016772.906040192 0 0 0 0 164268450.68963623 277297363.93798447 0 277297363.93798447 -284236512.11188698 0 0 0 0 127733795.82036591 84673721.41672945 0 84673721.41672945 -452969147.5884285 0 0 0 0 7128141.6319528669 1346743.567874141 0 1346743.567874141 -5801144.8801687909 0 0 0 0 -166602064.11773682 388930755.4140234 0 388930755.4140234 -675117256.4306736 0 0 0 0 -174010189.38683319 373201455.16637611 0 373201455.16637611 -620982546.37909317 0 0 0 0 -70440040.432632446 286876658.31462288 0 286876658.31462288 -654749986.21325302 0 0 0 0 -149073438.59667969 275054941.27952766 0 275054941.27952766 -396835423.15024513 0 0 0 0 -27463998.705413818 289063416.04825401 0 289063416.04825401 -735298036.15198421 0 0 0 0 -76441622.583129883 215359063.68375015 0 215359063.68375015 -489597121.08011246 0 0 0 0 -195988997.79071045 390085630.04972935 0 390085630.04972935 -669484700.87572861 0 0 0 0 -96078264.658813477 316096930.85232735 0 316096930.85232735 -659365530.21781158 0 0 0 0 -307658885.42980957 196776902.15615654 0 196776902.15615654 -693055637.12947845 0 0 0 0 -245518639.27880859 237303611.85448456 0 237303611.85448456 -680613936.30267143 0 0 0 0 -34400746.939277649 275567738.98465014 0 275567738.98465014 -828944595.10722351 0 0 0 0 -110127402.4271698 299503330.93981934 0 299503330.93981934 -643197455.49576187 0 0 0 0 -60370177.482513428 307304576.34746361 0 307304576.34746361 -745033809.56119633 0 0 0 0 -7054538.6084594727 299622182.13694763 0 299622182.13694763 -751583848.55927277 0 0 0 0 -6496383.0286865234 297933799.55932617 0 297933799.55932617 -726152432.71401405 0 0 0 0 -38071962.828338623 286469678.74416733 0 286469678.74416733 -728069195.86229706 0 0 0 0 -68287745.986572266 288940076.74882889 0 288940076.74882889 -590781528 0 0 0 0 -77422467.304443359 289957366.9357605 0 289957366.9357605 -590174475.82944489 0 0 0 0 -24797349.207946777 317469133.85404587 0 317469133.85404587 -646814247.85046387 0 0 0 0 -70991292.64276123 169450120.47818375 0 169450120.47818375 -313431661.56266022 0 0 0 0 -13120044.465545654 68690810.841209412 0 68690810.841209412 -217488760.88102722 0 0 0 0 8523414.5311584473 168614184.35500717 0 168614184.35500717 -664016413.32425404 0 0 0 0 -129690738.48132324 202447520.14118576 0 202447520.14118576 -268448150.62290573 0 0 0 0 -70932517.842559814 116322947.14559555 0 116322947.14559555 -224672625.69221497 0 0 0 0 115365551.4057312 960761.41948890686 0 960761.41948890686 -156411473.19086456 0 0 0 0 707397.23747012205 -1217036.19945582 0 -1217036.19945582 -7510221.2987236939 0 0 0 0 26840951.1329422 -47886170.200419426 0 -47886170.200419426 -126280848.0528183 0 0 0 0 37411697.969451904 -52387330.366909027 0 -52387330.366909027 -75572639.922210693 0 0 0 0 -133603927.99969482 106652761.93062592 0 106652761.93062592 -96093913.068706512 0 0 0 0 -184886894.39373779 316991916.50666428 0 316991916.50666428 -274126843.7215147 0 0 0 0 -382818206.31402588 140136340.49076843 0 140136340.49076843 125233293.55866241 0 0 0 0 -530725017.01184082 441724834.23640823 0 441724834.23640823 -210319679.74427032 0 0 0 0 -412457.36399128847 -1244710.046700038 0 -1244710.046700038 -884095.01043834537 0 0 0 0 130657395.92919922 -232927097.55906582 0 -232927097.55906582 -448284080.29093933 0 0 0 0 -161418273.64337158 265450113.37246323 0 265450113.37246323 -322180553.46115112 0 0 0 0 -323841659.08691406 576549523.05875397 0 576549523.05875397 -568842312.93831635 0 0 0 0 -125239873.58518982 244555975.2832756 0 244555975.2832756 -1075683335.0127716 0 0 0 0 -96510800.278106689 345207271.52997971 0 345207271.52997971 -727517204.45212555 0 0 0 0 -261104578.79139328 382996856.03679848 0 382996856.03679848 -628924216.3338623 0 0 0 0 -63360295.849365234 150096167.02075577 0 150096167.02075577 -218578672.39341736 0 0 0 0 69038318.142211914 157242587.35705948 0 157242587.35705948 -787821427.17478943 0 0 0 0 -173616791.79766846 -6040791.1826705933 0 -6040791.1826705933 -27302448.537120819 0 0 0 0 3987141.9351226985 -7370048.9467723146 0 -7370048.9467723146 -14142836.86789226 0 0 0 0 -1956723.403813839 -3050000.2718266752 0 -3050000.2718266752 -3145241.1721302662 0 0 0 0 546349.4906539917 -229846.9886443615 0 -229846.9886443615 -2378943.7297515869 0 0 0 0 28086916.446624756 842809.71106815338 0 842809.71106815338 -46367074.945808172 0 0 0 0 11164200.153327942 -34602418.02697897 0 -34602418.02697897 -22157585.310604095 0 0 0 0 3453870.1991832554 -14451122.328559563 0 -14451122.328559563 -7859126.9905676674 0 0 0 0 831464.84271240234 -17711902.030151367 0 -17711902.030151367 -27769868.491303921 0 0 0 0 -179262.08888421953 -612950.92309840024 0 -612950.92309840024 2329891.4222542476 0 0 0 0 -48507764.380256653 9819657.1324489117 0 9819657.1324489117 -190976038.58715439 0 0 0 0 27358886.744064331 154337785.74259567 0 154337785.74259567 -444580206.96500778 0 0 0 0 -169438637.90640259 351508952.99603271 0 351508952.99603271 -519791555.80479622 0 0 0 0 -112214585.17363739 192576849.82349086 0 192576849.82349086 -377395513.9615097 0 0 0 0 -124593451.59863281 207486857.42266464 0 207486857.42266464 -380978508.78967094 0 0 0 0 -210276668.64205933 391799833.38159561 0 391799833.38159561 -578810825.06691933 0 0 0 0 -86619015.058105469 314201475.17030907 0 314201475.17030907 -625462279.76747513 0 0 0 0 -331707757.90222168 641433627.28878403 0 641433627.28878403 -726884533.49992609 0 0 0 0 -127295366.15293884 325259568.21332455 0 325259568.21332455 -616163002.46731567 0 0 0 0 -240394893.08511353 372979039.10678768 0 372979039.10678768 -424765413.89880562 0 0 0 0 -150038189.04208374 416082417.7473011 0 416082417.7473011 -463435754.65599823 0 0 0 0 -242386071.0447998 595260883.86656046 0 595260883.86656046 -4583521.2552652359 0 0 0 0 -141879206.92379761 637541021.72250938 0 637541021.72250938 -465793487.52262485 0 0 0 0 -170372529.21813965 452013121.72620535 0 452013121.72620535 1135701547.8689747 0 0 0 0 13075414.142425537 290265238.71903706 0 290265238.71903706 -1518910057.8188953 0 0 0 0 -776951.52299912274 -390995.61508449726 0 -390995.61508449726 99073.855597488116 0 0 0 0 144954665.14071655 154871886.23402882 0 154871886.23402882 456183657.75444221 0 0 0 0 -190549581.09579468 679481936.92299414 0 679481936.92299414 434050881.75598526 0 0 0 0 118862214.13843536 176515886.82901663 0 176515886.82901663 102884324.94545937 0 0 0 0 117297505.93880987 244424619.42359978 0 244424619.42359978 379020760.20378494 0 0 0 0 -47840623.302825928 267203570.43072295 0 267203570.43072295 78985531.685846329 0 0 0 0 -30271614.617927551 332913556.83155239 0 332913556.83155239 -167164760.78307152 0 0 0 0 31627839.827636719 357685647.84852952 0 357685647.84852952 10227797.843643665 0 0 0 0 -57722924.758796692 -8254979.7750663757 0 -8254979.7750663757 218035268.64480019 0 0 0 0 217562606.86733627 190676896.44134074 0 190676896.44134074 -52337582.279257774 0 0 0 0 224794392.48908997 209507806.30204672 0 209507806.30204672 -59306303.324574441 0 0 0 0 199838563.88565063 -45361698.001937866 0 -45361698.001937866 -462555192.91772652 0 0 0 0 38375923.427909851 359191621.15925121 0 359191621.15925121 640519778.38693559 0 0 0 0 948166.9575625062 -1146721.6232017698 0 -1146721.6232017698 -220737.6512484143 0 0 0 0 1721593.8931793869 -1715346.8730354626 0 -1715346.8730354626 -369124.17593605875 0 0 0 0 -82070909.409492493 252410591.09794092 0 252410591.09794092 137272547.94865084 0 0 0 0 119912154.58242798 218123764.53206789 0 218123764.53206789 -157967274.78979945 0 0 0 0 112339853.91659546 171660208.86394978 0 171660208.86394978 147657384.11002839 0 0 0 0 -31433731.715538025 171657681.67225862 0 171657681.67225862 401878559.88807869 0 0 0 0 -84532.405151367188 24604191.084283829 0 24604191.084283829 835900832.94337273 0 0 0 0 239577393.69024658 97141032.132400513 0 97141032.132400513 -26494751.331956387 0 0 0 0 194552953.10498047 345973346.72869301 0 345973346.72869301 360282660.39303303 0 0 0 0 89574025.751525879 35838725.978067875 0 35838725.978067875 430852992.14995956 0 0 0 0 -1316867.0743985176 -33658.363069055602 0 -33658.363069055602 -343745.62009914126 0 0 0 0 244532940.46728516 372177055.5804081 0 372177055.5804081 548841471.16802025 0 0 0 0 -71072880.865692139 204359341.92389297 0 204359341.92389297 -470882738.8766346 0 0 0 0 129913.55365724862 222083.52236544713 0 222083.52236544713 -325422.2244846276 0 0 0 0 137436601.03271484 332122804.29116249 0 332122804.29116249 651076426.22315311 0 0 0 0 32576648.241477966 154173004.35318899 0 154173004.35318899 -573663669.57033539 0 0 0 0 -7780539.7210746408 234680.01776179299 0 234680.01776179299 2715380.5526756546 0 0 0 0 7236605.1142898798 3281842.4376768805 0 3281842.4376768805 -4214816.9185991157 0 0 0 0 -76156063.882476807 110698545.54479504 0 110698545.54479504 -396670882.11722946 0 0 0 0 -26197520.994476318 185742666.37984371 0 185742666.37984371 -530975653.80663586 0 0 0 0 84482584.602172852 59351203.686238766 0 59351203.686238766 24442947.505467415 0 0 0 0 42247405.626434326 112394023.23420525 0 112394023.23420525 59023055.480195045 0 0 0 0 -216855784.66854858 -22432534.445120811 0 -22432534.445120811 152216978.17910862 0 0 0 0 -167861254.28515625 -145229699.17312193 0 -145229699.17312193 84494377.938919067 0 0 0 0 -106950354.30633545 -77609520.654188156 0 -77609520.654188156 97946605.434329987 0 0 0 0 -3292374.6690725237 -1137298.9134968277 0 -1137298.9134968277 1401542.2497019856 0 0 0 0 -122024488.9095459 9465015.4480409622 0 9465015.4480409622 162137410.51421547 0 0 0 0 85517304.964797974 207228468.95451808 0 207228468.95451808 -155374423.29889297 0 0 0 0 -60268493.169815063 191545049.06780314 0 191545049.06780314 410605059.48002911 0 0 0 0 46666533.034942627 153051677.19205189 0 153051677.19205189 163956839.78645897 0 0 0 0 -8264975.9714050293 128703686.25268126 0 128703686.25268126 160043849.04601002 0 0 0 0 24230669.869049072 273583886.96386051 0 273583886.96386051 -20878831.007206887 0 0 0 0 351199088.84307861 188497699.32289261 0 188497699.32289261 -529463422.15936673 0 0 0 0 233487674.54629517 31635961.907640427 0 31635961.907640427 -424364958.42359424 0 0 0 0 -65794688.315505981 21545435.237361312 0 21545435.237361312 -16195701.977674574 0 0 0 0 880303.88899667561 -1168140.8785447651 0 -1168140.8785447651 -232851.17270863106 0 0 0 0 -75600620.211433411 110246723.22623062 0 110246723.22623062 402881676.42914009 0 0 0 0 -67956733.791931152 355380837.79708695 0 355380837.79708695 660038393.47340989 0 0 0 0 399655269.69242859 -123785667.55975723 0 -123785667.55975723 368495468.90483665 0 0 0 0 -1602763.3253727481 5005540.0597542077 0 5005540.0597542077 -925287.16310362099 0 0 0 0 426577923.92431641 87513038.325099945 0 87513038.325099945 266078393.40882397 0 0 0 0 270859469.75100708 275510038.30917251 0 275510038.30917251 -214807519.21267962 0 0 0 0 345677973.69747925 165411543.63292909 0 165411543.63292909 -295557419.99308312 0 0 0 0 248427339.76568604 147793102.37011772 0 147793102.37011772 -73780521.354030326 0 0 0 0 334251227.66111755 200355126.59352988 0 200355126.59352988 -97074709.811804175 0 0 0 0 -1357244.3304142617 4193021.7064029276 0 4193021.7064029276 -193924.20253792382 0 0 0 0 -15949.381744384766 6839598.0055925846 0 6839598.0055925846 1116335.7914886475 0 0 0 0 -1457.0522766113281 8766196.8762459755 0 8766196.8762459755 436071.8459854126 0 0 0 0 5333477.4740066528 8892946.7447981834 0 8892946.7447981834 -1205954.1847019196 0 0 0 0 4039811.050994873 7135905.0038499832 0 7135905.0038499832 816788.19169139862 0 0 0 0 2478012.4612121582 10791630.78269577 0 10791630.78269577 -1507460.9020357132 0 0 0 0 -114541450.23931885 621724190.28485155 0 621724190.28485155 180273608.90556145 0 0 0 0 -955324445.36425781 -489434975.02065945 0 -489434975.02065945 907650624.11819077 0 0 0 0 -40185672.075866699 14496931.888145447 0 14496931.888145447 70259400.657577515 0 0 0 0 67671036.728210449 291410893.82782364 0 291410893.82782364 -212634773.3041153 0 0 0 0 -569448603.1005249 1052726254.3369331 0 1052726254.3369331 -929313370.75591469 0 0 0 0 -22106339.842041016 -89647834.974319458 0 -89647834.974319458 93119476.402521133 0 0 0 0 137208153.3772583 183615872.98514748 0 183615872.98514748 -145692002.52955627 0 0 0 0 -1634634.5189547613 5034887.6900296286 0 5034887.6900296286 -560326.60124447197 0 0 0 0 -30049241.776794434 -35598443.623146057 0 -35598443.623146057 91993092.7865448 0 0 0 0 93954275.523132324 -49232604.913736343 0 -49232604.913736343 53577586.297237396 0 0 0 0 -97422380.094390869 44189844.390236855 0 44189844.390236855 10320279.874343872 0 0 0 0 -155739.54411969706 273270.40702782571 0 273270.40702782571 98281.617132853717 0 0 0 0 10190686.925598145 -10079226.462818146 0 -10079226.462818146 -52843082.64822197 0 0 0 0 115235080.27636719 -13208628.999450684 0 -13208628.999450684 -221953836.07823181 0 0 0 0 68710.610534667969 57572430.355892181 0 57572430.355892181 -52035459.926058769 0 0 0 0 -2612074.2985253185 -2736090.0981137119 0 -2736090.0981137119 538982.95176715218 0 0 0 0 6919954.4337234497 759050.32552611828 0 759050.32552611828 -15638111.958730698 0 0 0 0 -6638646.8434143066 48873172.65162468 0 48873172.65162468 -13299976.021193981 0 0 0 0 372756769.63748169 -283799807.07881355 0 -283799807.07881355 -293132215.77717495 0 0 0 0 -81975314.899108887 -28490971.333669662 0 -28490971.333669662 -406433343.99387681 0 0 0 0 481013919.74116516 -232160936.74764299 0 -232160936.74764299 -434559194.30730438 0 0 0 0 543022502.47320557 -489549106.9051528 0 -489549106.9051528 -257145382.44668055 0 0 0 0 545657033.05456543 -276920906.11972904 0 -276920906.11972904 -353862108.98765182 0 0 0 0 692017903.58102417 -484367070.31823015 0 -484367070.31823015 -195851019.46941638 0 0 0 0 613351031.35275269 -36086332.079612732 0 -36086332.079612732 -206913199.81010509 0 0 0 0 524985251.80973053 123676340.55894709 0 123676340.55894709 -466101383.13848114 0 0 0 0 361618632.84213257 -169163475.89770126 0 -169163475.89770126 -271671444.97613716 0 0 0 0 226753798.70343018 386825560.91552639 0 386825560.91552639 -295226828.6951046 0 0 0 0 294110481.39987183 442337509.0145731 0 442337509.0145731 -336326862.78124428 0 0 0 0 482572102.33435059 207273773.91625834 0 207273773.91625834 -192841220.58580971 0 0 0 0 256373641.18203735 487973652.79048109 0 487973652.79048109 -76005529.485509872 0 0 0 0 328168021.4152832 406820610.04194641 0 406820610.04194641 -601254608.92600632 0 0 0 0 54286622.285400391 494693633.80613852 0 494693633.80613852 -336947120.28387451 0 0 0 0 34602390.183410645 530342848.50114441 0 530342848.50114441 -588065669.68660653 0 0 0 0 -127903440.69613647 721836811.59412479 0 721836811.59412479 -794639820.56607437 0 0 0 0 79123800.046203613 -50696156.826087952 0 -50696156.826087952 -300465879.46861601 0 0 0 0 184037823.09432983 280863268.17249012 0 280863268.17249012 -530167729.92645884 0 0 0 0 1806099.264465332 234920664.68536472 0 234920664.68536472 -518500608.12717342 0 0 0 0 31266700.690841675 -21151420.055219173 0 -21151420.055219173 -746193112.51550102 0 0 0 0 -352881188.53575134 492529899.07281208 0 492529899.07281208 -677410251.7158165 0 0 0 0 -338688478.60128784 535444755.67627811 0 535444755.67627811 -1578765496.9066277 0 0 0 0 -571346030.7171936 376899248.23123693 0 376899248.23123693 -733816559.47462273 0 0 0 0 -11034549.694535255 799896050.45904684 0 799896050.45904684 -748719059.04920578 0 0 0 0 -642292202.3314209 226492578.08819294 0 226492578.08819294 -903602965.36865234 0 0 0 0 -748435398.61654663 898166389.23682499 0 898166389.23682499 -683669492.1053257 0 0 0 0 -260931630.48623657 1145576948.6952105 0 1145576948.6952105 -843479250.76236343 0 0 0 0 198648485.53511047 -138405397.9251318 0 -138405397.9251318 -321689043.7485733 0 0 0 0 -106719549.09494019 421326680.32977295 0 421326680.32977295 -1147882176.352047 0 0 0 0 1738625.3568421751 -318811.32596995682 0 -318811.32596995682 -2606196.4535244126 0 0 0 0 -1682836821.7639465 1365886518.4572763 0 1365886518.4572763 -829529824.12222672 0 0 0 0 -1132365269.5081177 1239227713.1787891 0 1239227713.1787891 -1370577250.0800219 0 0 0 0 -558407548.80944824 610649286.56421757 0 610649286.56421757 -933724430.459095 0 0 0 0 -1587179062.6766968 824928589.32433772 0 824928589.32433772 -512318493.33826065 0 0 0 0 -246410787.56317139 337304538.560709 0 337304538.560709 -657367971.96750569 0 0 0 0 -280229392.10590363 310971341.0842514 0 310971341.0842514 -326958435.19019318 0 0 0 0 142534079.88546753 120519090.42492008 0 120519090.42492008 -602602101.57798958 0 0 0 0 -619035806.65577698 584674970.92728662 0 584674970.92728662 -724613437.51772308 0 0 0 0 -132702268.95950317 136324914.26349831 0 136324914.26349831 -846172763.68191671 0 0 0 0 305178123.13473511 -129908515.61137962 0 -129908515.61137962 -605605466.88331985 0 0 0 0 -191968216.56985474 124384867.93624878 0 124384867.93624878 -406319632.07948685 0 0 0 0 249005593.36968994 -285195098.45757294 0 -285195098.45757294 -199630058.98326874 0 0 0 0 476183135.23724365 -125470323.52554989 0 -125470323.52554989 -406618655.0232563 0 0 0 0 100108803.59646606 6146044.846162796 0 6146044.846162796 -109194734.49141884 0 0 0 0 362322970.3870163 118981010.14258695 0 118981010.14258695 -363626772.10212326 0 0 0 0 329789165.44496536 17610232.994032145 0 17610232.994032145 215841019.18897247 0 0 0 0 798031785.7220459 -235852982.27625847 0 -235852982.27625847 -153205947.09068298 0 0 0 0 863710150.3835144 -98078387.376259804 0 -98078387.376259804 327279.98255157471 0 0 0 0 1211421061.567749 -407926082.56025505 0 -407926082.56025505 203620753.74126434 0 0 0 0 1506165020.4844971 -254046087.83670044 0 -254046087.83670044 61701842.085432053 0 0 0 0 681857250.7789917 22973099.374157429 0 22973099.374157429 425229446.10640335 0 0 0 0 2342443809.6146545 -280766897.52331352 0 -280766897.52331352 -46128556.674772263 0 0 0 0 2257155536.3503418 -300107955.51222229 0 -300107955.51222229 67618013.749771118 0 0 0 0 1614794445.2150116 65359303.539357185 0 65359303.539357185 288609730.28996658 0 0 0 0 -187139.17339293938 -4896967.1078134403 0 -4896967.1078134403 683245.36625138484 0 0 0 0 -73856984.16361618 105997726.09306878 0 105997726.09306878 243851614.0976181 0 0 0 0 58237.950437992811 -269000.07987476105 0 -269000.07987476105 -405764.13515970297 0 0 0 0 1189807265.8929443 -136062027.98664856 0 -136062027.98664856 346482005.24803734 0 0 0 0 2144305305.3981323 291788072.21219826 0 291788072.21219826 -65882613.966518879 0 0 0 0 6064106.5003505172 -114964.33863383532 0 -114964.33863383532 -22721179.994715706 0 0 0 0 1331406163.9117279 -97480813.808158875 0 -97480813.808158875 -145517148.02019978 0 0 0 0 1238876255.7120972 -11389353.389689207 0 -11389353.389689207 -142508980.35565567 0 0 0 0 68585438.298065186 -22083360.293298721 0 -22083360.293298721 -60276998.088989258 0 0 0 0 560854532.71480179 -385090034.47007757 0 -385090034.47007757 -91926561.801790237 0 0 0 0 475405975.93652892 -245066551.41933811 0 -245066551.41933811 -24176036.064281464 0 0 0 0 811177700.04614258 -207000872.5864563 0 -207000872.5864563 -224027422.37574863 0 0 0 0 917532582.03010559 -369492002.90255547 0 -369492002.90255547 -59632001.468063354 0 0 0 0 -37997674.017700195 -1526682.8174743652 0 -1526682.8174743652 34507314.381257296 0 0 0 0 111393628.64086914 -45705668.711013794 0 -45705668.711013794 -2687656.4944877625 0 0 0 0 5017915.7320928276 -13470784.197701471 0 -13470784.197701471 -5645449.8036685167 0 0 0 0 6627342.7579956055 -22112347.143651962 0 -22112347.143651962 7078087.8106327057 0 0 0 0 -36629341.436221123 -63662712.484665871 0 -63662712.484665871 136493615.51721191 0 0 0 0 -13871043.370483398 -1120917.6502456665 0 -1120917.6502456665 22626328.424819469 0 0 0 0 -559343.36291503906 -50171739.513463974 0 -50171739.513463974 -39794823.621940613 0 0 0 0 -110698886.66793823 213959778.09700775 0 213959778.09700775 -326966763.42792416 0 0 0 0 -36874912.343338013 72179176.933612823 0 72179176.933612823 -122307716.97652817 0 0 0 0 -39582347.799316406 68257145.639225006 0 68257145.639225006 -127948188.42120171 0 0 0 0 25823445.734359741 93993759.90149498 0 93993759.90149498 -151700491.64187145 0 0 0 0 -13887171.424430847 -14432830.580684662 0 -14432830.580684662 7302444.4117660522 0 0 0 0 -142342044.13063049 92290068.382260799 0 92290068.382260799 -8667506.1044807434 0 0 0 0 -220226364.43443298 313990996.40457535 0 313990996.40457535 -269599821.74577045 0 0 0 0 -140214400.90441132 371928960.80329776 0 371928960.80329776 -267645730.35510445 0 0 0 0 709167593.7487793 -405429910.71938848 0 -405429910.71938848 -222886321.6662569 0 0 0 0 680462517.6479702 -259411275.97624919 0 -259411275.97624919 -126914178.22573471 0 0 0 0 2881523.8182273638 1479556.2272184789 0 1479556.2272184789 -16224697.972738715 0 0 0 0 710599896.61257935 -183832861.10550737 0 -183832861.10550737 -8364413.5784742832 0 0 0 0 440101818.59248352 -225131005.42650962 0 -225131005.42650962 -85694159.409549952 0 0 0 0 417760050.27857971 -479335938.83113122 0 -479335938.83113122 -110808275.60045558 0 0 0 0 554203697.9188385 -443839424.0533824 0 -443839424.0533824 -104881650.76672935 0 0 0 0 1027947.1008258425 1420666.3259084374 0 1420666.3259084374 -9401961.4860172812 0 0 0 0 -95421558.504104614 -356200644.86542773 0 -356200644.86542773 93480332.653512836 0 0 0 0 -136494379.03507996 -104591823.85877396 0 -104591823.85877396 -136086708.88057643 0 0 0 0 -896622816.81689453 -250842781.20336306 0 -250842781.20336306 231567857.34084725 0 0 0 0 86335.948570675217 730650.88962626457 0 730650.88962626457 -2970272.1727200807 0 0 0 0 164099736.22007751 -574260487.73930585 0 -574260487.73930585 206746141.05637896 0 0 0 0 350950705.51665497 -335476899.60793424 0 -335476899.60793424 141978827.57518637 0 0 0 0 -274872940.26541138 506767075.63234186 0 506767075.63234186 -233171746.5384773 0 0 0 0 -360089376.19400883 254107672.13439971 0 254107672.13439971 -124171479.37586975 0 0 0 0 -1493748449.9079742 493116545.1694994 0 493116545.1694994 31207167.014951468 0 0 0 0 -674476120.75570679 203877630.20257616 0 203877630.20257616 -49225232.496823788 0 0 0 0 -473729053.65110779 643048097.18018472 0 643048097.18018472 -142881708.98650837 0 0 0 0 -217377043.85942078 325578799.916219 0 325578799.916219 44945880.03625679 0 0 0 0 -210712931.34846497 315476202.41627681 0 315476202.41627681 -349422515.44884306 0 0 0 0 -659697502.35339355 700013849.27135265 0 700013849.27135265 -542980168.33904219 0 0 0 0 -390146410.67274475 -75509327.843234956 0 -75509327.843234956 -246977390.15216208 0 0 0 0 -1150701435.3510742 390275765.54535812 0 390275765.54535812 755749615.1931957 0 0 0 0 -360673949.38020325 156435511.24010265 0 156435511.24010265 553323065.39025736 0 0 0 0 141924458.15640259 -196431739.88242006 0 -196431739.88242006 801266355.33164382 0 0 0 0 26724245.234222412 98242203.077990055 0 98242203.077990055 71294720.199119329 0 0 0 0 327365629.19421387 387667762.73565936 0 387667762.73565936 256434656.42483974 0 0 0 0 -218212653.76939392 -303715609.37622476 0 -303715609.37622476 -410012044.31592584 0 0 0 0 -378548329.84259033 1134505370.1534116 0 1134505370.1534116 -172336132.90910459 0 0 0 0 -315002129.9956665 799608708.75865507 0 799608708.75865507 1259753768.2118359 0 0 0 0 -106431532.23513746 885479635.93911588 0 885479635.93911588 1786337288.2165442 0 0 0 0 598211225.65576172 672847177.56284952 0 672847177.56284952 1126193001.3338203 0 0 0 0 828134844.58724976 84961009.037837029 0 84961009.037837029 2625075602.5682259 0 0 0 0 1084448361.6713715 1384981272.3847952 0 1384981272.3847952 1656839031.6248269 0 0 0 0 1532170093.1631775 401850204.04460216 0 401850204.04460216 1959525368.7592459 0 0 0 0 1194091290.600708 -48149339.185336947 0 -48149339.185336947 797197476.16576147 0 0 0 0 1413625467.3442383 -634391160.54955626 0 -634391160.54955626 2231859167.5657167 0 0 0 0 431109609.28494263 -36113971.79575491 0 -36113971.79575491 1816122271.5275209 0 0 0 0 748489773.20495605 -577602422.6823833 0 -577602422.6823833 221634293.38484734 0 0 0 0 776844067.63990784 -275792740.26490718 0 -275792740.26490718 405971014.15543836 0 0 0 0 1194758418.3270874 -689446835.08132482 0 -689446835.08132482 815308239.95564568 0 0 0 0 1485750955.8401794 -14874935.236345172 0 -14874935.236345172 417802558.17189741 0 0 0 0 1303004733.7882996 -295671620.353181 0 -295671620.353181 195508663.42632508 0 0 0 0 984497269.88148308 -70793394.227515548 0 -70793394.227515548 38113427.102468252 0 0 0 0 993512508.61932993 -614100079.80256033 0 -614100079.80256033 109437648.73194587 0 0 0 0 632287979.05389404 -385416579.71663457 0 -385416579.71663457 -32692550.857162297 0 0 0 0 620844846.24459839 -615159438.97097659 0 -615159438.97097659 -28931588.354815125 0 0 0 0 534173803.88043213 610067687.219347 0 610067687.219347 404833783.08864403 0 0 0 0 809961005.88427734 362914442.65947902 0 362914442.65947902 133518980.82273683 0 0 0 0 524682665.81332397 545278289.37967885 0 545278289.37967885 207832288.45454597 0 0 0 0 240889514.83795166 555076643.52012813 0 555076643.52012813 210696365.22425747 0 0 0 0 490093202.78341675 399379569.30336416 0 399379569.30336416 131925633.06675673 0 0 0 0 532726565.01361084 391566786.56637168 0 391566786.56637168 -59174671.096333504 0 0 0 0 762533866.29608154 313177931.09205151 0 313177931.09205151 -153151534.20913386 0 0 0 0 982127300.11560059 -201234005.20982933 0 -201234005.20982933 -140726206.32947814 0 0 0 0 604564569.19947815 148849067.33394742 0 148849067.33394742 52974342.861075401 0 0 0 0 776221277.5932312 408793464.92984229 0 408793464.92984229 400950388.88183796 0 0 0 0 1167999973.9540405 96977791.608220816 0 96977791.608220816 56827743.810587391 0 0 0 0 1216694672.0583496 352201803.65875977 0 352201803.65875977 401552012.11407733 0 0 0 0 1200280869.2251587 201409225.09160459 0 201409225.09160459 262127792.65666723 0 0 0 0 1677075258.5957642 -50376547.844519138 0 -50376547.844519138 367579565.05420303 0 0 0 0 1416524464.0005188 -144581656.58436728 0 -144581656.58436728 853606996.45985746 0 0 0 0 1410896044.7330322 630000683.09792066 0 630000683.09792066 789593118.04202747 0 0 0 0 1045100082.1808167 865800709.29737186 0 865800709.29737186 802745748.12134707 0 0 0 0 587443457.89245605 857820087.61874866 0 857820087.61874866 1166816156.3004932 0 0 0 0 774425435.2399292 527945346.6228776 0 527945346.6228776 421708178.85692477 0 0 0 0 404651192.36171722 652694867.16909516 0 652694867.16909516 631474279.46377993 0 0 0 0 408861716.02978516 696973589.59369779 0 696973589.59369779 1023162551.8974094 0 0 0 0 1209844434.5472717 1362520740.3208899 0 1362520740.3208899 2084918308.8115616 0 0 0 0 902454217.72198486 744376654.5562849 0 744376654.5562849 1143277201.1131718 0 0 0 0 180794752.23208618 654917368.58572102 0 654917368.58572102 2063629802.6317406 0 0 0 0 2557960217.1763306 -96293367.273864746 0 -96293367.273864746 850525900.55122304 0 0 0 0 2351760540.8291931 517428887.26703548 0 517428887.26703548 794475090.06780362 0 0 0 0 4413701380.7525635 -243523951.92500401 0 -243523951.92500401 1395815191.1299243 0 0 0 0 2021164846.6327972 257281563.52892232 0 257281563.52892232 1330111574.2691536 0 0 0 0 -82215174.944107056 -140281589.09233761 0 -140281589.09233761 2338670780.3055305 0 0 0 0 1807994899.6796722 -549374944.74767828 0 -549374944.74767828 4882951250.1927681 0 0 0 0 1775192431.3914032 1960304943.1154943 0 1960304943.1154943 3961229531.656414 0 0 0 0 3582341764.3505249 1944585268.3582511 0 1944585268.3582511 2577143506.1597261 0 0 0 0 67652204.081054688 414871625.11781311 0 414871625.11781311 2266268406.4211121 0 0 0 0 627455559.68783569 421916780.49641228 0 421916780.49641228 2352879579.1889572 0 0 0 0 630376436.69830322 458712289.42287636 0 458712289.42287636 1703441983.7628536 0 0 0 0 -41909605.796051025 -451266397.55362129 0 -451266397.55362129 2233657541.1372948 0 0 0 0 6844970.8568725586 -198061474.7994709 0 -198061474.7994709 1369978969.181282 0 0 0 0 -238146505.99517822 64072423.108734131 0 64072423.108734131 1636661593.0162992 0 0 0 0 -53497972.241943359 -325287084.20740509 0 -325287084.20740509 1317172349.81073 0 0 0 0 -5801752.6350860596 93812051.541457415 0 93812051.541457415 1498895228.8920975 0 0 0 0 -335176993.59762573 335099688.56978512 0 335099688.56978512 1271904385.0480504 0 0 0 0 -219747696.86421967 66496683.718848705 0 66496683.718848705 1148191454.0256577 0 0 0 0 -355575949.91676331 153119616.75819206 0 153119616.75819206 940189560.71716499 0 0 0 0 -361183574.62158203 144631878.01221466 0 144631878.01221466 927357531.76151466 0 0 0 0 -466741636.68791962 353869413.37726688 0 353869413.37726688 951485130.77535057 0 0 0 0 -339310073.42414856 19219690.539463997 0 19219690.539463997 1230316362.7946758 0 0 0 0 -402887366.90936279 242229076.01757336 0 242229076.01757336 1145328319.1897717 0 0 0 0 -468090569.28674316 474093652.54332733 0 474093652.54332733 1089065079.1593924 0 0 0 0 -389496940.40106201 514160206.58540916 0 514160206.58540916 1100195815.4546604 0 0 0 0 -242491758.860672 436455532.5183754 0 436455532.5183754 1012210557.5049715 0 0 0 0 -168424010.73974609 600746692.42175484 0 600746692.42175484 1375946883.8555725 0 0 0 0 -28170029.246887207 447564485.72292137 0 447564485.72292137 1248017846.5612249 0 0 0 0 183612010.85576725 604362931.20841765 0 604362931.20841765 1326906797.1868668 0 0 0 0 -174763970.02349854 435258440.09639835 0 435258440.09639835 1816102334.8361559 0 0 0 0 -228813343.69114685 261627298.6226778 0 261627298.6226778 1259577849.7109699 0 0 0 0 -79729289.083920479 447067104.71598417 0 447067104.71598417 697057216.3318615 0 0 0 0 -353163560.18417358 514083803.69655037 0 514083803.69655037 694372736.778023 0 0 0 0 -528907609.41030884 339621877.62232256 0 339621877.62232256 980246153.96968174 0 0 0 0 -555849939.43369675 516486937.27445006 0 516486937.27445006 877246076.23416901 0 0 0 0 -456604335.78237915 504437309.13002491 0 504437309.13002491 803345844.88798141 0 0 0 0 -449577345.52622986 611899608.14064693 0 611899608.14064693 943941753.8278656 0 0 0 0 -215237651.07046509 620656282.86025238 0 620656282.86025238 768187455.78003693 0 0 0 0 -218877263.20297623 715219423.61586761 0 715219423.61586761 569745456.5450592 0 0 0 0 -586110250.95025253 965473983.02419496 0 965473983.02419496 1036911932.108984 0 0 0 0 -834772231.35897827 420757122.89894938 0 420757122.89894938 886051425.49665928 0 0 0 0 -544264264.07974243 669355225.05991507 0 669355225.05991507 425468940.78315407 0 0 0 0 -502915650.01609802 451530317.75980735 0 451530317.75980735 404305558.89210129 0 0 0 0 -562714959.78086853 471405819.84630871 0 471405819.84630871 797959990.90034485 0 0 0 0 -445079998.95568848 587869609.84813714 0 587869609.84813714 239966820.44289374 0 0 0 0 -457865233.42849731 785577295.89991152 0 785577295.89991152 151045530.33543479 0 0 0 0 -418233270.50485229 680835765.11225557 0 680835765.11225557 -24219216.375525475 0 0 0 0 -458512173.27285767 734381128.66165733 0 734381128.66165733 87016309.034907997 0 0 0 0 -597689258.36111999 496912357.40902472 0 496912357.40902472 -36787406.866228454 0 0 0 0 -597914849.58828735 500965889.45111239 0 500965889.45111239 115168002.12492132 0 0 0 0 -137189007.08810425 683824541.66084301 0 683824541.66084301 720045465.24922419 0 0 0 0 -109165415.20108032 700093262.14672148 0 700093262.14672148 469104180.29812837 0 0 0 0 65817014.625457764 792267056.04324055 0 792267056.04324055 1161939121.4124069 0 0 0 0 -22643448.385284424 583350897.88320732 0 583350897.88320732 668901481.7002933 0 0 0 0 -268507171.00718689 650934215.89533281 0 650934215.89533281 1148236029.0011635 0 0 0 0 -295236062.78767395 518354815.17771411 0 518354815.17771411 728469472.69581032 0 0 0 0 -328148548.58303833 601970399.58355331 0 601970399.58355331 531465664.97874904 0 0 0 0 -412069681.51464844 619553995.81716967 0 619553995.81716967 808430629.33313441 0 0 0 0 -302091517.51146793 590219618.47456002 0 590219618.47456002 408093121.60543871 0 0 0 0 -291993732.31948853 749369155.20941567 0 749369155.20941567 257631975.46299934 0 0 0 0 -490007340.8840332 631606859.34141922 0 631606859.34141922 554582684.86664152 0 0 0 0 -466455914.0657959 793858683.3815546 0 793858683.3815546 65566261.007254601 0 0 0 0 -396693532.06004333 634597439.97592473 0 634597439.97592473 157399956.38034439 0 0 0 0 -139954082.92333984 726880857.5404768 0 726880857.5404768 142567053.12604618 0 0 0 0 -62482289.636634827 541151641.31304121 0 541151641.31304121 52469360.641413689 0 0 0 0 144938633.86853027 662572536.37888503 0 662572536.37888503 661250778.76538372 0 0 0 0 137552668.32836914 585019489.3026613 0 585019489.3026613 326371250.8345201 0 0 0 0 257525250.80105591 506203970.21036935 0 506203970.21036935 -23737302.443487167 0 0 0 0 -12063832.242675781 670199023.50237894 0 670199023.50237894 332948889.6882515 0 0 0 0 20243657.150146484 549801648.13211346 0 549801648.13211346 -21099523.627515018 0 0 0 0 51056510.226577759 532762188.19716167 0 532762188.19716167 -278733025.8283577 0 0 0 0 -189667712.01177979 627112882.65368176 0 627112882.65368176 33482748.757110357 0 0 0 0 -159608902.45648193 648859196.48753476 0 648859196.48753476 -168148122.25902176 0 0 0 0 -138081684.85925293 554014008.29321527 0 554014008.29321527 -532313295.5068264 0 0 0 0 99158765.578170776 513666922.46223259 0 513666922.46223259 -652572962.02492714 0 0 0 0 -183525090.62030029 535341512.69385529 0 535341512.69385529 -278484334.21664059 0 0 0 0 73338055.586299896 717488517.04046917 0 717488517.04046917 -1002570981.9991608 0 0 0 0 -31675500.716125488 522106289.2628994 0 522106289.2628994 -640950036.71609116 0 0 0 0 -20750910.404327393 507247934.96535158 0 507247934.96535158 -970257993.18238831 0 0 0 0 -472055077.69445801 493009913.94279099 0 493009913.94279099 -541237537.40377808 0 0 0 0 192612113.32421875 620477267.70244789 0 620477267.70244789 -1369588254.490263 0 0 0 0 -193299508.22137451 418360559.78598022 0 418360559.78598022 -1011049063.4783554 0 0 0 0 -259150922.46789551 200593214.65126324 0 200593214.65126324 -1378750484.4197731 0 0 0 0 37267596.948425293 366219138.03161621 0 366219138.03161621 -1384113993.1490483 0 0 0 0 34876598.973754883 397417401.06738472 0 397417401.06738472 -1589763021.8948288 0 0 0 0 200414044.95037842 738654680.28287506 0 738654680.28287506 -1018507578.2783222 0 0 0 0 -798929583.57821655 600128604.63785362 0 600128604.63785362 -1101092026.8442802 0 0 0 0 -897117445.27349854 879306730.68084335 0 879306730.68084335 -907645220.99867249 0 0 0 0 -389226867.28295898 828921330.35697937 0 828921330.35697937 -1429775526.3779144 0 0 0 0 -525209469.89440918 799453985.49021912 0 799453985.49021912 -1434606037.9867287 0 0 0 0 -1941313967.960144 1055660068.9287586 0 1055660068.9287586 -1242599362.8543892 0 0 0 0 -705879114.77545166 776587590.39657021 0 776587590.39657021 -944783890.7763958 0 0 0 0 -409600598.61932373 471655338.16683388 0 471655338.16683388 -748216960.81572425 0 0 0 0 -1045239510.3738403 401981482.37886906 0 401981482.37886906 -751683001.83375168 0 0 0 0 -766630868.87185669 655264384.26588726 0 655264384.26588726 -436651565.24308014 0 0 0 0 -544334433.86126709 807948598.45731544 0 807948598.45731544 -643495424.37146187 0 0 0 0 -820840477.24212646 688254574.05720329 0 688254574.05720329 -684133256.16823196 0 0 0 0 -523407872.86077881 814794382.7175312 0 814794382.7175312 -900283123.90415955 0 0 0 0 -555724459.6026001 677916839.99599075 0 677916839.99599075 -453177654.48372459 0 0 0 0 -444927139.69510651 769533600.73319864 0 769533600.73319864 -275761283.01426315 0 0 0 0 -559803505.59409714 816860247.96449304 0 816860247.96449304 -289555005.11120033 0 0 0 0 -424055787.6098938 526556809.43671131 0 526556809.43671131 -221389467.14301682 0 0 0 0 -404604261.0880127 720192276.53391933 0 720192276.53391933 -290211306.93133926 0 0 0 0 -514975983.15685272 590488555.82691908 0 590488555.82691908 -421718561.45517349 0 0 0 0 -351648682.06402588 602937182.44783306 0 602937182.44783306 73410058.172010422 0 0 0 0 -298032793.59414673 705652141.35195589 0 705652141.35195589 -54815081.451421738 0 0 0 0 -482820092.25396729 636716572.94556999 0 636716572.94556999 -76149378.305871964 0 0 0 0 -454119996.37139893 677009071.96244907 0 677009071.96244907 -50543709.498903275 0 0 0 0 -452995856.42703247 835395674.25744343 0 835395674.25744343 -150314614.59597778 0 0 0 0 -334795030.60809326 688516662.66651726 0 688516662.66651726 -307217026.99371719 0 0 0 0 -307254018.38250732 701790173.28255367 0 701790173.28255367 -441004580.25650215 0 0 0 0 -532366782.21443176 587521014.58316612 0 587521014.58316612 -165198798.2942915 0 0 0 0 -260894164.4710083 573413813.77343369 0 573413813.77343369 -172354318.71897793 0 0 0 0 -37946520.991631508 100385945.88056445 0 100385945.88056445 -91825551.358657837 0 0 0 0 -68355652.362792969 384888151.67733955 0 384888151.67733955 -652507739.5062294 0 0 0 0 -99915586.924301147 315190785.53678131 0 315190785.53678131 -583520187.67603111 0 0 0 0 -431551609.63427734 835046854.26953793 0 835046854.26953793 -642681880.09599304 0 0 0 0 -209192225.25344849 672741525.65001488 0 672741525.65001488 -740040200.83090401 0 0 0 0 -447754870.78460693 824946410.22889757 0 824946410.22889757 -431672810.54308319 0 0 0 0 -548766346.37432861 802544073.6647377 0 802544073.6647377 -612811015.20635605 0 0 0 0 -231233493.18222046 611838462.76064491 0 611838462.76064491 -412200489.21384525 0 0 0 0 -294212163.15710449 797828994.81790733 0 797828994.81790733 -916995256.36114883 0 0 0 0 -389951384.93701172 765860628.63770294 0 765860628.63770294 -902302112.37077713 0 0 0 0 -6648661.3278808594 376750048.18747711 0 376750048.18747711 -1167242540.5951996 0 0 0 0 171866210.55554199 287258236.16770172 0 287258236.16770172 -1418129421.9671249 0 0 0 0 -252576888.92419434 850511601.57315063 0 850511601.57315063 -2001656650.235405 0 0 0 0 -47393628.243286133 449875420.35260773 0 449875420.35260773 -1223580259.3988419 0 0 0 0 180061268.12988281 412687187.12041664 0 412687187.12041664 -2007972708.5469513 0 0 0 0 198818480.16394043 382838682.3803978 0 382838682.3803978 -2001157340.5679169 0 0 0 0 47602484.707009882 27474025.826577537 0 27474025.826577537 3825712.4824496047 0 0 0 0 66847485.262748718 36633482.854804993 0 36633482.854804993 -40878986.266288757 0 0 0 0 7560433.2021789551 82935857.438236237 0 82935857.438236237 -14287331.585037231 0 0 0 0 22632866.905349731 56677547.738891602 0 56677547.738891602 -46233262.507926941 0 0 0 0 160809648.66205978 10241289.547065735 0 10241289.547065735 -262084260.21662903 0 0 0 0 145387746.77679443 55617346.150161743 0 55617346.150161743 -90908080.70954895 0 0 0 0 81804126.277580261 238727102.31523132 0 238727102.31523132 -41356682.439559937 0 0 0 0 86533841.952453613 103249889.37820816 0 103249889.37820816 -125856660.25086975 0 0 0 0 123014304.04345703 329328754.64705086 0 329328754.64705086 142011471.51938629 0 0 0 0 28696254.56816864 105459434.91450119 0 105459434.91450119 8564599.366104126 0 0 0 0 62018629.807327271 83674340.524620056 0 83674340.524620056 -32435658.503322601 0 0 0 0 -1239651.2646026611 89105695.061920166 0 89105695.061920166 20209194.743963242 0 0 0 0 -5471863.6081695557 70770901.839500427 0 70770901.839500427 -7580660.83385849 0 0 0 0 7157643.7810554504 83833621.12866497 0 83833621.12866497 1166029.2964553833 0 0 0 0 260465975.67889404 -1066531260.8395472 0 -1066531260.8395472 -425379026.61127305 0 0 0 0 587879453.26463318 510562364.38939238 0 510562364.38939238 -244148566.16721725 0 0 0 0 -100776282.37750244 526949010.23248863 0 526949010.23248863 -157521491.67438126 0 0 0 0 3053093.783464402 2624342.9862907678 0 2624342.9862907678 1354094.4489009725 0 0 0 0 -143348024.23397827 1007177952.0221195 0 1007177952.0221195 -745944308.1366539 0 0 0 0 109062021.02972412 1509347116.5658646 0 1509347116.5658646 123506775.33647633 0 0 0 0 409063926.23266602 1359878219.5396385 0 1359878219.5396385 -867690657.89872169 0 0 0 0 -3710921.9855594635 984743208.56247008 0 984743208.56247008 -1181581156.2239761 0 0 0 0 1185742224.3425903 1968108352.7201729 0 1968108352.7201729 -891792535.53236771 0 0 0 0 542293338.00041199 1042488859.1810079 0 1042488859.1810079 -1994100646.4363861 0 0 0 0 1753509698.5264587 561783657.34732008 0 561783657.34732008 -3219736744.4246292 0 0 0 0 -1555517651.7279663 -673025426.71737289 0 -673025426.71737289 -1885912717.8400459 0 0 0 0 32642355.479280531 35831668.493627399 0 35831668.493627399 29182691.532347828 0 0 0 0 -446222099.32485962 1106504375.5641899 0 1106504375.5641899 798179913.12930489 0 0 0 0 -1733217405.3419189 -672168737.45196533 0 -672168737.45196533 -515052926.32924652 0 0 0 0 -873703151.00097656 1296307584.065033 0 1296307584.065033 -2135215636.7737045 0 0 0 0 -288183774.49108887 1006589891.5480614 0 1006589891.5480614 -2534909020.5219717 0 0 0 0 -5346138.0442926586 12883724.02804788 0 12883724.02804788 7102015.374944428 0 0 0 0 1025053784.4243469 -451047836.31290436 0 -451047836.31290436 142190494.59039688 0 0 0 0 178966920.43234253 48563977.101158142 0 48563977.101158142 -132681826.00484467 0 0 0 0 124669665.73268127 -1624973493.7961311 0 -1624973493.7961311 -616619877.38210487 0 0 0 0 2877687866.2472534 -464811593.27543259 0 -464811593.27543259 -1439652205.5220401 0 0 0 0 3212654758.9441528 274146862.35395813 0 274146862.35395813 -1340645803.003798 0 0 0 0 1807732488.9545288 31084379.598293304 0 31084379.598293304 -789305652.22631073 0 0 0 0 2044926630.0965271 -35230029.861526489 0 -35230029.861526489 -1328724474.9913919 0 0 0 0 1861103275.4122925 -735047803.78227234 0 -735047803.78227234 -1387374751.9415741 0 0 0 0 1244153651.8068542 -427388128.67729187 0 -427388128.67729187 -589189276.34021759 0 0 0 0 1699200446.9926758 -98396538.866958618 0 -98396538.866958618 -478374770.69532013 0 0 0 0 1619147523.5416107 -353954618.67514801 0 -353954618.67514801 -431790456.11521912 0 0 0 0 1158376917.4593353 123768138.23732758 0 123768138.23732758 -800605602.09352875 0 0 0 0 1862922514.3137894 -356238538.39112091 0 -356238538.39112091 -95934459.189163208 0 0 0 0 3327409167.1430206 800710621.74485779 0 800710621.74485779 -725662037.57330322 0 0 0 0 1628659850.3158183 381715918.13686842 0 381715918.13686842 -729149079.8265686 0 0 0 0 1626277781.6605225 -297005811.27309418 0 -297005811.27309418 -674392888.19923401 0 0 0 0 -667588089.05749512 1335235672.3716087 0 1335235672.3716087 21093905.537918091 0 0 0 0 1093708927.3825684 486931234.95159912 0 486931234.95159912 -655921396.60404968 0 0 0 0 1604828488.2912903 1919675686.2544708 0 1919675686.2544708 -562770319.67120361 0 0 0 0 1975087135.4529114 1704826048.7595215 0 1704826048.7595215 -488316398.37241745 0 0 0 0 1866854603.7463226 1606261105.5058823 0 1606261105.5058823 -523759345.26417542 0 0 0 0 4455369869.5783386 2032958041.5627289 0 2032958041.5627289 -468414493.23316193 0 0 0 0 5714155.5784348845 3038122.0423044525 0 3038122.0423044525 -2834043.977353666 0 0 0 0 386184770.62322998 1149386692.7116928 0 1149386692.7116928 -7330566.79637146 0 0 0 0 863572036.96286011 -1525175740.0487366 0 -1525175740.0487366 -3286650466.4841309 0 0 0 0 243413231.21964264 2714845058.1868668 0 2714845058.1868668 -1270564512.2797699 0 0 0 0 -52186954.982620239 2685983552.7579193 0 2685983552.7579193 -245499670.62844849 0 0 0 0 1263610581.2094116 2247022510.2975235 0 2247022510.2975235 -1476364350.2384338 0 0 0 0 1457156874.0653839 2795002533.5399742 0 2795002533.5399742 -13006502.856628418 0 0 0 0 215572716.38552856 241875539.63168335 0 241875539.63168335 -3168741481.6629639 0 0 0 0 481046294.51396179 510593511.13710785 0 510593511.13710785 -593012114.32711792 0 0 0 0 415053990.94110107 245742149.2127533 0 245742149.2127533 -1631522177.6525764 0 0 0 0 157767519.28905392 5131467896.8485012 0 5131467896.8485012 530672799.50767517 0 0 0 0 108767275.22035217 -183259670.34366608 0 -183259670.34366608 -1054229255.8286667 0 0 0 0 125655288.50856018 -44298473.010971069 0 -44298473.010971069 -300710778.77869034 0 0 0 0 -87106803.275947571 -78091813.304611206 0 -78091813.304611206 53713133.617824554 0 0 0 0 10985701.548417749 10894995.194530956 0 10894995.194530956 -7386451.7229187451 0 0 0 0 43862226.070710778 23579396.001323789 0 23579396.001323789 3141093.7993488084 0 0 0 0 -124205269.86534119 -220042067.88629341 0 -220042067.88629341 -389701414.20751953 0 0 0 0 850442893.49220276 1905237833.2276192 0 1905237833.2276192 -1465914556.5785046 0 0 0 0 -1051450883.2374229 -167850312.85320473 0 -167850312.85320473 1078243558.5346775 0 0 0 0 451546446.23808289 266070300.71923208 0 266070300.71923208 216422187.519063 0 0 0 0 170441796.47702026 240381258.54347706 0 240381258.54347706 426399838.52950764 0 0 0 0 30386374.11089462 6543634.9376757648 0 6543634.9376757648 -907882.6101560659 0 0 0 0 -99795746.345016479 205697388.91019249 0 205697388.91019249 -188007852.65785313 0 0 0 0 12900395.607293174 10353838.806759205 0 10353838.806759205 12919292.280592643 0 0 0 0 -941514526.46743774 400726818.37344182 0 400726818.37344182 31000996.359273788 0 0 0 0 -456545013.48727417 337218099.45792627 0 337218099.45792627 -4519414.4659395218 0 0 0 0 1115902016.0985413 612494780.26041222 0 612494780.26041222 88479085.960174561 0 0 0 0 1393849858.3205719 763246694.6356802 0 763246694.6356802 151463169.62974358 0 0 0 0 831367172.228302 874801468.74942112 0 874801468.74942112 230892216.84123993 0 0 0 0 1313737778.0501709 1088188458.7333698 0 1088188458.7333698 -138788781.17858791 0 0 0 0 1000473632.4691772 830794505.700387 0 830794505.700387 91478874.265516281 0 0 0 0 1239375184.6951447 1197057815.0918036 0 1197057815.0918036 305992426.6428051 0 0 0 0 966392507.0903244 1127311344.5356925 0 1127311344.5356925 487297987.83185577 0 0 0 0 2012435785.3700104 -1151527076.7212543 0 -1151527076.7212543 -1969919526.4614201 0 0 0 0 42043418.610595703 451084582.39452124 0 451084582.39452124 1923581116.3048043 0 0 0 0 11991703.14981278 -52047.216174785048 0 -52047.216174785048 -518848.61497268989 0 0 0 0 1250256649.5929871 1585853259.4006166 0 1585853259.4006166 706069694.65569162 0 0 0 0 228844168.04232788 1977745297.6974516 0 1977745297.6974516 5027794263.2226315 0 0 0 0 1394988315.5681763 1249126552.4081349 0 1249126552.4081349 204005439.68680573 0 0 0 0 -495320065.2613678 2184462358.9627686 0 2184462358.9627686 8238980770.1400852 0 0 0 0 2390107914.5008545 3932568839.4400902 0 3932568839.4400902 2951004353.7181282 0 0 0 0 6091588109.4423218 3858513804.9488077 0 3858513804.9488077 -3645110429.1217499 0 0 0 0 -651573116.13161278 -588204520.43794632 0 -588204520.43794632 -303912575.7428894 0 0 0 0 -35055797.042280048 20834908.302332021 0 20834908.302332021 28111438.019929528 0 0 0 0 494143981.72583008 -433108974.11556911 0 -433108974.11556911 -498464472.97649097 0 0 0 0 -767555598.80627942 -406722691.26527667 0 -406722691.26527667 -206518000.66860962 0 0 0 0 2741342985.3656616 -320093230.82033038 0 -320093230.82033038 -2061524973.2849388 0 0 0 0 -269295607.30573845 -361826324.02457428 0 -361826324.02457428 -389114922.15887451 0 0 0 0 -1562839764.7900543 -816176959.0501709 0 -816176959.0501709 -508758195.52095795 0 0 0 0 28322071.801439285 209336504.92692184 0 209336504.92692184 -713819460.51460266 0 0 0 0 -223103533.23339128 -603987947.17537594 0 -603987947.17537594 -599243965.83937073 0 0 0 0 990315135.91648102 833733674.82628751 0 833733674.82628751 111396924.13751984 0 0 0 0 1121532714.8779449 968788806.32533121 0 968788806.32533121 203090647.30797386 0 0 0 0 997198780.06967163 857054698.27197456 0 857054698.27197456 453574818.31235695 0 0 0 0 823281465.70258713 810036623.22721946 0 810036623.22721946 461008431.90431976 0 0 0 0 870536785.32525635 656980844.96343708 0 656980844.96343708 124339774.02940083 0 0 0 0 567200344.48373413 644171632.84009933 0 644171632.84009933 481872910.79481316 0 0 0 0 -1014279471.9540749 -1423509229.2225952 0 -1423509229.2225952 -406543938.6494751 0 0 0 0 -717973071.51330566 -1083257782.8522186 0 -1083257782.8522186 172433679.18499756 0 0 0 0 1122384.797554926 -699064.72723615356 0 -699064.72723615356 -882173.39027905837 0 0 0 0 -36876492.262216114 18411615.933294952 0 18411615.933294952 28167309.362048332 0 0 0 0 441660998.96289062 897189050.43918228 0 897189050.43918228 593742801.08947754 0 0 0 0 541458397.09375 809219041.78551292 0 809219041.78551292 638283774.50005722 0 0 0 0 569597085.23274231 1133474888.3898382 0 1133474888.3898382 295953424.9285202 0 0 0 0 -777137803.12697983 -203547482.57516479 0 -203547482.57516479 -1518706.4566040039 0 0 0 0 -765887032.09625626 111758997.73960876 0 111758997.73960876 -1442835853.2717438 0 0 0 0 -651304423.13764 -416147979.16863251 0 -416147979.16863251 -317073976.91268158 0 0 0 0 -615698490.27751541 -612517295.56797028 0 -612517295.56797028 139161681.18447876 0 0 0 0 -763081018.83001137 -1170755025.1774216 0 -1170755025.1774216 662390303.44091797 0 0 0 0 -597963274.29500961 -554111377.30808258 0 -554111377.30808258 230668052.8631134 0 0 0 0 -568191769.32089615 -876157644.46943665 0 -876157644.46943665 1447625586.435318 0 0 0 0 312463095.73355007 -1231210073.3345852 0 -1231210073.3345852 597208874.26351929 0 0 0 0 -975161636.9412384 -448364866.97854614 0 -448364866.97854614 131809665.67816162 0 0 0 0 6797419.6300412845 2302301.2539962456 0 2302301.2539962456 7499491.4264466651 0 0 0 0 -589817385.8394928 580355878.15147758 0 580355878.15147758 3904353.5722363405 0 0 0 0 1198204056.980423 773541136.89226151 0 773541136.89226151 331369584.99023056 0 0 0 0 1998596872.3637695 610804311.31267929 0 610804311.31267929 342569793.46892464 0 0 0 0 1251227518.2396851 813462179.11206055 0 813462179.11206055 239621941.88159156 0 0 0 0 884328274.18214417 912568496.35111952 0 912568496.35111952 802968999.31258202 0 0 0 0 1117387798.3106308 1195878549.0230856 0 1195878549.0230856 630258750.08537292 0 0 0 0 895100188.81576538 917178241.47255898 0 917178241.47255898 425121081.76817703 0 0 0 0 1054484414.0136108 185605918.32534218 0 185605918.32534218 -190487635.69942284 0 0 0 0 1406904594.7171326 637754660.58775902 0 637754660.58775902 485004060.05701256 0 0 0 0 960917928.41046143 803539201.25468063 0 803539201.25468063 -282237152.34548569 0 0 0 0 951004998.89065552 789632721.27879667 0 789632721.27879667 506815025.96722412 0 0 0 0 992759391.11212158 65100141.964235306 0 65100141.964235306 285125065.57032299 0 0 0 0 1401219243.2579498 1841178749.2894158 0 1841178749.2894158 1632030108.8437881 0 0 0 0 1966499688.5559387 1111040249.2189121 0 1111040249.2189121 559044961.58739376 0 0 0 0 3920890521.563324 1581244520.0100336 0 1581244520.0100336 143073243.91762161 0 0 0 0 -1940546781.0072784 200257403.17074537 0 200257403.17074537 606672203.81353569 0 0 0 0 2265869.2450081166 -113102.0865239054 0 -113102.0865239054 2439783.3493198091 0 0 0 0 488323571.40036011 1145803852.8280945 0 1145803852.8280945 782177464.12329292 0 0 0 0 594525353.51651001 677153669.82275391 0 677153669.82275391 1959604580.1782804 0 0 0 0 668972062.3331604 839538866.4230175 0 839538866.4230175 186366824.34112358 0 0 0 0 785998084.55235291 532590205.46193409 0 532590205.46193409 579845147.08249283 0 0 0 0 -1314024022.9110146 -56353424.688728333 0 -56353424.688728333 163154933.42242432 0 0 0 0 389523771.65545654 -101172097.8488121 0 -101172097.8488121 486435530.72113037 0 0 0 0 170342619.43551636 375614885.35579491 0 375614885.35579491 544314132.02768707 0 0 0 0 -45242004.409213722 18736629.798406728 0 18736629.798406728 27311883.628462512 0 0 0 0 192740903.78701782 461959099.57487679 0 461959099.57487679 699090328.29686737 0 0 0 0 406212690.26367188 641230507.90054321 0 641230507.90054321 793606001.25800896 0 0 0 0 953765858.72238159 538337101.68003273 0 538337101.68003273 672631488.01105499 0 0 0 0 350088426.29895401 140506589.19384205 0 140506589.19384205 821029543.74474335 0 0 0 0 920877023.77630615 503819149.3230648 0 503819149.3230648 1142613433.4864063 0 0 0 0 772028276.72744751 152549571.51877069 0 152549571.51877069 746508500.25526428 0 0 0 0 -1169778681.8818436 -77617791.44442749 0 -77617791.44442749 52559713.720916748 0 0 0 0 -1042091007.9430027 93741170.999931335 0 93741170.999931335 -156144239.41857147 0 0 0 0 205664895.00889587 623422805.85930204 0 623422805.85930204 -729382214.27946472 0 0 0 0 467709522.90899658 223280549.08430481 0 223280549.08430481 58027395.587024689 0 0 0 0 -7582622.3348590955 -9389.4156963005662 0 -9389.4156963005662 5635289.6642626682 0 0 0 0 -28680264.562726602 34391133.059007935 0 34391133.059007935 21196802.250420205 0 0 0 0 196830478.05795288 250516330.2578392 0 250516330.2578392 133101686.01799774 0 0 0 0 245355168.3538208 387206692.15914536 0 387206692.15914536 -18098963.881663322 0 0 0 0 -89940261.526359558 353481453.04968083 0 353481453.04968083 288560712.26418304 0 0 0 0 382491943.76422119 672110252.22219658 0 672110252.22219658 480399287.12326622 0 0 0 0 -744969277.85588455 62020080.294250488 0 62020080.294250488 502900157.71463013 0 0 0 0 -91807650.44074297 232505866.3344326 0 232505866.3344326 709390751.88116455 0 0 0 0 -502414947.03533173 -153755544.10620117 0 -153755544.10620117 387893103.80776215 0 0 0 0 -892647465.15075874 15386615.517715454 0 15386615.517715454 356471442.34129715 0 0 0 0 -545230561.39078093 23675577.683729172 0 23675577.683729172 153307166.78753662 0 0 0 0 -906317951.1163969 110026001.19208145 0 110026001.19208145 -191501370.1373291 0 0 0 0 -1371985461.4847355 242077944.07548523 0 242077944.07548523 -22584724.197921753 0 0 0 0 -1193102914.7791862 -7290471.4910964966 0 -7290471.4910964966 299296319.43060303 0 0 0 0 -944644070.79750443 48306960.195144653 0 48306960.195144653 158160203.27696228 0 0 0 0 -1154778839.2643452 127470776.21578979 0 127470776.21578979 245975584.80697632 0 0 0 0 -872686356.64315605 229633436.79438019 0 229633436.79438019 349901325.56598663 0 0 0 0 -903181819.61046529 387330981.37522888 0 387330981.37522888 37932536.238265991 0 0 0 0 -929894005.14574623 327352712.42301178 0 327352712.42301178 -54747031.808303833 0 0 0 0 -858614625.05137825 226896033.40639305 0 226896033.40639305 260625348.72981262 0 0 0 0 -1027836609.4793262 208981954.96789551 0 208981954.96789551 308321312.26398468 0 0 0 0 -444317227.08158112 334360820.75909805 0 334360820.75909805 182045194.38581467 0 0 0 0 -326019755.82300162 -183888966.49046326 0 -183888966.49046326 658917429.47974396 0 0 0 0 -120843407.98969746 -151694901.31753922 0 -151694901.31753922 527438908.82636261 0 0 0 0 396082322.9485178 -573229865.41800022 0 -573229865.41800022 696353605.34918976 0 0 0 0 417596519.10210419 -94615270.072673798 0 -94615270.072673798 1046532032.1096764 0 0 0 0 766237258.76480103 464053213.70419312 0 464053213.70419312 692964671.24285889 0 0 0 0 -232996557.77086163 -108253028.30765915 0 -108253028.30765915 1341867254.5748138 0 0 0 0 2158844439.7455826 2109206246.3226089 0 2109206246.3226089 2159773600.9719772 0 0 0 0 515806296.149436 662507104.71769524 0 662507104.71769524 919562947.43994904 0 0 0 0 4328364885.6138496 858328102.65942383 0 858328102.65942383 -25166920.466280937 0 0 0 0 1089409645.5628014 210346302.74570847 0 210346302.74570847 64372429.225135803 0 0 0 0 599250.58697244292 2634909.2417656435 0 2634909.2417656435 5388276.644543007 0 0 0 0 19941150.447434425 -832076984.17985535 0 -832076984.17985535 3154907202.0498199 0 0 0 0 43237824.860418797 1805845742.885025 0 1805845742.885025 3999429223.5978432 0 0 0 0 4244944025.9066324 370671156.03636169 0 370671156.03636169 683983312.55686188 0 0 0 0 -384401162.49790955 58076424.348625183 0 58076424.348625183 3515733232.07724 0 0 0 0 1588886942.1838884 -914005172.09329987 0 -914005172.09329987 -1524084799.2480316 0 0 0 0 8875981.5845995136 772799.02314308286 0 772799.02314308286 -1856609.5415888801 0 0 0 0 -462820064.86659288 366515167.47343636 0 366515167.47343636 794353562.81074524 0 0 0 0 16487589.890626907 -42277684.812931061 0 -42277684.812931061 -194922355.14899826 0 0 0 0 18650572.909972727 2292139.3323974609 0 2292139.3323974609 -138100344.93965912 0 0 0 0 16047959.891689301 -190745790.58713531 0 -190745790.58713531 -347637432.83211899 0 0 0 0 96147680.208169192 -53515900.766331673 0 -53515900.766331673 -362409294.30564117 0 0 0 0 -79172254.337360382 -560467287.9591713 0 -560467287.9591713 -901529176.79623985 0 0 0 0 -226475417.29916382 -179776667.04854202 0 -179776667.04854202 -272310260.39760971 0 0 0 0 688705275.14984894 -200459856.32287216 0 -200459856.32287216 -461915744.72956848 0 0 0 0 114695563.14896035 263588652.85183334 0 263588652.85183334 145401779.94432068 0 0 0 0 -148776834.48323917 -852174004.68233109 0 -852174004.68233109 566705605.66889191 0 0 0 0 3590710.9393256013 -35334.972856853157 0 -35334.972856853157 -499315.23762340099 0 0 0 0 -983199297.09968185 -155813181.46405029 0 -155813181.46405029 1210416993.0573006 0 0 0 0 -95782801.857469559 116855392.40370941 0 116855392.40370941 639178538.5876236 0 0 0 0 -371715921.74321365 109255361.70722961 0 109255361.70722961 176839232.99763489 0 0 0 0 32677941.621818542 250407196.78979874 0 250407196.78979874 331659215.58374786 0 0 0 0 2294977.2860400006 3832259.9359417893 0 3832259.9359417893 -203923.63303314149 0 0 0 0 -203491298.52994108 -233996563.0167532 0 -233996563.0167532 -93069411.366966248 0 0 0 0 -47396800.510528564 585636885.57166672 0 585636885.57166672 822992542.28020477 0 0 0 0 312269718.30008602 839795275.39450836 0 839795275.39450836 904162590.04026413 0 0 0 0 -89899402.801944733 363410630.55789948 0 363410630.55789948 1036949680.6729469 0 0 0 0 -36376508.714183211 285619822.36757278 0 285619822.36757278 565676582.40325928 0 0 0 0 -87287381.083170712 224738099.17233276 0 224738099.17233276 239309836.5214386 0 0 0 0 159461835.81765652 -352516142.41239929 0 -352516142.41239929 419482829.54327583 0 0 0 0 -49201125.523385048 1248180039.9988747 0 1248180039.9988747 1591881190.251503 0 0 0 0 -181023917.96889043 10036779.466537476 0 10036779.466537476 2282703063.9345551 0 0 0 0 320874573.28630543 1143462706.0479298 0 1143462706.0479298 1084187487.4706573 0 0 0 0 9231512.8547031172 2437367.526832208 0 2437367.526832208 -2696948.8497749232 0 0 0 0 1255253108.5931575 551450309.41843033 0 551450309.41843033 -808311454.50495911 0 0 0 0 4225627.2813476855 2029857.1237537879 0 2029857.1237537879 -1615323.1661316697 0 0 0 0 460075453.62490082 1288837586.0128117 0 1288837586.0128117 1234343334.54702 0 0 0 0 77925598.129974365 1039815527.9030571 0 1039815527.9030571 1157925100.1404457 0 0 0 0 55501380.210830688 536785402.47792435 0 536785402.47792435 790894723.51003265 0 0 0 0 976759368.41724014 793748232.42969894 0 793748232.42969894 775998922.67441213 0 0 0 0 -4810012.5182304382 517210226.41254425 0 517210226.41254425 840245396.71218109 0 0 0 0 229400588.39622307 173983905.02288342 0 173983905.02288342 1055609574.6575699 0 0 0 0 715137205.46327114 458087535.68515778 0 458087535.68515778 6940536.9555740356 0 0 0 0 -67908025.914901733 500179066.57205963 0 500179066.57205963 456446648.61348534 0 0 0 0 -645029037.33178139 262979145.71030903 0 262979145.71030903 384762638.16130066 0 0 0 0 -55501798.149278641 624877122.05996704 0 624877122.05996704 1013916182.6022415 0 0 0 0 549354889.5268116 -253193484.56684685 0 -253193484.56684685 -272418392.45949936 0 0 0 0 241774330.32933903 -40534472.598038197 0 -40534472.598038197 -338667174.38712311 0 0 0 0 123781698.92462349 -244509680.64471054 0 -244509680.64471054 1339807.2230701447 0 0 0 0 11637285.709027767 -36414324.152475357 0 -36414324.152475357 -182335500.6014328 0 0 0 0 29338903.470032215 -117252759.26844025 0 -117252759.26844025 -127462392.43600845 0 0 0 0 212181607.74892616 -148632207.38053131 0 -148632207.38053131 -252626879.80522537 0 0 0 0 67221865.749909878 -65430274.811616898 0 -65430274.811616898 -299477231.2652359 0 0 0 0 76485395.418533325 -43978943.644752502 0 -43978943.644752502 -329018312.05132675 0 0 0 0 67401652.333169937 17917974.105300903 0 17917974.105300903 -412134394.46879387 0 0 0 0 139976991.43535852 122624854.63955116 0 122624854.63955116 -308144590.33287811 0 0 0 0 146853912.07168388 123902671.92823029 0 123902671.92823029 -403273691.35247803 0 0 0 0 186440593.18062592 -57319574.340763092 0 -57319574.340763092 -375626139.4260788 0 0 0 0 166439799.28536224 -41693358.644290924 0 -41693358.644290924 -338502271.67479706 0 0 0 0 318311259.91180897 -24358275.690272331 0 -24358275.690272331 -756294656.1205864 0 0 0 0 -50854308.540449142 -99011204.687801361 0 -99011204.687801361 -383291445.24763107 0 0 0 0 -15265725.531581879 323198208.68473053 0 323198208.68473053 -633294678.41437149 0 0 0 0 -611307075.48670673 871845661.52938557 0 871845661.52938557 -1439969642.1433792 0 0 0 0 30169558.588384628 285775751.42655754 0 285775751.42655754 -216766253.89573288 0 0 0 0 -764859088.47536898 -399979593.69281292 0 -399979593.69281292 -807915020.11865997 0 0 0 0 -161332590.51895332 -190669311.97459412 0 -190669311.97459412 -106508556.97044563 0 0 0 0 -47189267.729122624 -176579763.57344246 0 -176579763.57344246 -321857594.67729568 0 0 0 0 1889264.9421366663 -406395.14777196199 0 -406395.14777196199 -1854243.2645903006 0 0 0 0 -194204882.04797935 -292003902.05737305 0 -292003902.05737305 -184007348.51847839 0 0 0 0 -614229972.71531296 -139890310.59223938 0 -139890310.59223938 -215922346.64299011 0 0 0 0 -300093555.7578392 -188589882.89157104 0 -188589882.89157104 -259178551.6084137 0 0 0 0 -138340894.11675739 -279310951.4590683 0 -279310951.4590683 -315881930.71032715 0 0 0 0 -419089810.09191465 -217124793.94433212 0 -217124793.94433212 -266466066.97872925 0 0 0 0 2777376.1720772302 -1039433.6132210046 0 -1039433.6132210046 -2394501.1386204809 0 0 0 0 -611479564.1451416 -303888982.40753174 0 -303888982.40753174 -152671948.02960205 0 0 0 0 -335886282.43132401 -352979751.91387177 0 -352979751.91387177 -177716248.78009033 0 0 0 0 -761387031.77659786 -205192808.40064192 0 -205192808.40064192 -96091443.403198242 0 0 0 0 -80444809.554350615 -58433008.255811691 0 -58433008.255811691 -280548264.83088684 0 0 0 0 19310960.40986824 -37146666.322212219 0 -37146666.322212219 -242194267.65585327 0 0 0 0 -30236200.436375141 -104765772.42668152 0 -104765772.42668152 -226605419.62130833 0 0 0 0 6499737.9386005402 -70959428.817876816 0 -70959428.817876816 -208229042.77375031 0 0 0 0 -29433247.608522892 -119549862.2687149 0 -119549862.2687149 -176064354.14378357 0 0 0 0 -121444546.1843781 -40862261.387676239 0 -40862261.387676239 -137925218.9268589 0 0 0 0 -31291784.966693401 -42926234.638256073 0 -42926234.638256073 -304339918.76263428 0 0 0 0 -44300445.926382065 -94786722.135475159 0 -94786722.135475159 -299235384.7726469 0 0 0 0 -17066663.834319115 -80555832.592838287 0 -80555832.592838287 -205545082.99874496 0 0 0 0 72479776.612156868 -82361722.317933559 0 -82361722.317933559 -306861904.31015015 0 0 0 0 4960608.1671533585 -26360995.876817703 0 -26360995.876817703 -319502093.85174561 0 0 0 0 8287459.1847677231 -56431379.407218933 0 -56431379.407218933 -315491152.40934944 0 0 0 0 8641735.5249557495 -60178631.918521881 0 -60178631.918521881 -295040697.69010162 0 0 0 0 -70314667.051357746 -56691635.40486145 0 -56691635.40486145 -294258975.50867844 0 0 0 0 -66048110.209703803 -89746833.974700928 0 -89746833.974700928 -279604224.11688232 0 0 0 0 -16517460.825088616 -5792280.2934657596 0 -5792280.2934657596 10245626.884744171 0 0 0 0 -63391652.070402622 -83346907.269523621 0 -83346907.269523621 -276035042.36774063 0 0 0 0 -279757227.96576118 130477399.24773598 0 130477399.24773598 1477738.1765899658 0 0 0 0 -42738110.476655699 43813362.759570025 0 43813362.759570025 3804211.9008167423 0 0 0 0 -79757094.109978318 -156378935.1890583 0 -156378935.1890583 -603210002.90955353 0 0 0 0 -291772374.79161263 354416093.02942276 0 354416093.02942276 -468425152.53394318 0 0 0 0 -12311024.06202364 -93379966.321437836 0 -93379966.321437836 -80948048.602970123 0 0 0 0 -3805309.6058510053 -1264669.3155290578 0 -1264669.3155290578 1784428.7666512392 0 0 0 0 -398671029.57081223 -218138959.95448303 0 -218138959.95448303 -77268789.884880066 0 0 0 0 -498070727.47916222 180974603.64750671 0 180974603.64750671 -357573811.43058014 0 0 0 0 -753938560.27585936 -279387659.67349052 0 -279387659.67349052 532896508 0 0 0 0 -239140268.88907623 -329652866.16951752 0 -329652866.16951752 -61196437.966583252 0 0 0 0 -21237635.737868547 -156999832.88700676 0 -156999832.88700676 -162030446.5291748 0 0 0 0 -39902575.570927829 30402155.344751723 0 30402155.344751723 22221333.900855977 0 0 0 0 -585250566.18862295 -862141417.10917211 0 -862141417.10917211 1252221870.4761658 0 0 0 0 -196460263.16062164 -321993356.64762115 0 -321993356.64762115 -124549885.43302917 0 0 0 0 -183030310.85859108 -404316896.9475975 0 -404316896.9475975 3202784.4273376465 0 0 0 0 1238277474.6911011 821233554.65659332 0 821233554.65659332 -663124676.42416763 0 0 0 0 -357290859.59490967 621414442.3228569 0 621414442.3228569 -228182405.29490662 0 0 0 0 458211448.49865723 220839022.76270294 0 220839022.76270294 -122143150.87585068 0 0 0 0 546494352.36480713 323408864.39138794 0 323408864.39138794 -210504411.69734573 0 0 0 0 680157653.60678101 84922663.67565155 0 84922663.67565155 -81099999.518417358 0 0 0 0 672815360.95864868 230371095.73540497 0 230371095.73540497 -226208463.80020142 0 0 0 0 32883300.072433472 131571627.85046005 0 131571627.85046005 -185588125.48970032 0 0 0 0 30960979.133169323 18159865.439035691 0 18159865.439035691 -7852529.5291590709 0 0 0 0 -451628401.85186005 201647065.16199112 0 201647065.16199112 1193781350.971405 0 0 0 0 89539379.070587158 1823645.9461975098 0 1823645.9461975098 978023040.646492 0 0 0 0 -254164502.67259216 157112121.04955292 0 157112121.04955292 519368054.10133362 0 0 0 0 418768045.84161377 389388873.71498871 0 389388873.71498871 431373982.57524109 0 0 0 0 51698824.816345215 519990891.52339172 0 519990891.52339172 837922357.07946396 0 0 0 0 -1506946280.6892395 457133135.47155762 0 457133135.47155762 777554176.26220322 0 0 0 0 1346139.1113214791 1335896.4878295362 0 1335896.4878295362 -822712.59382178634 0 0 0 0 516242871.49277496 770018835.84916306 0 770018835.84916306 756035255.66343689 0 0 0 0 256665846.7361412 103966317.15037727 0 103966317.15037727 1170445599.4850693 0 0 0 0 999949183.11949921 758040798.12740707 0 758040798.12740707 710798570.92471313 0 0 0 0 -58563653.361938477 158038114.81867981 0 158038114.81867981 -56850964.704562187 0 0 0 0 -67538754.11210835 -79649615.456693649 0 -79649615.456693649 140673830.00803375 0 0 0 0 -54307864.840028614 39334611.339739658 0 39334611.339739658 54226.981967993081 0 0 0 0 -2104069.2677305071 13157918.654782949 0 13157918.654782949 -2042081.3630011841 0 0 0 0 48014146.874134064 111771544.62879181 0 111771544.62879181 -24320867.697599888 0 0 0 0 15735541.114736557 -94504180.646742821 0 -94504180.646742821 102898932.224823 0 0 0 0 -45514408.243343376 27650453.067482851 0 27650453.067482851 -12032243.799110644 0 0 0 0 518623860.62756348 273409871.27047348 0 273409871.27047348 37621674.296569824 0 0 0 0 -192113216.48435211 349878528.01288986 0 349878528.01288986 1125370963.4929199 0 0 0 0 -10868532.510943118 4895484.1728424206 0 4895484.1728424206 12629495.411922909 0 0 0 0 333661524.63885498 1510553448.0648651 0 1510553448.0648651 885424387.27032471 0 0 0 0 497881711.39047241 1158957296.5360222 0 1158957296.5360222 1529989778.2118225 0 0 0 0 -362040604.41192627 -51916125.362976074 0 -51916125.362976074 300825611.70120239 0 0 0 0 501709470.32387543 -325408826.49070358 0 -325408826.49070358 -224721622.56166077 0 0 0 0 1066673064.7073593 573684891.44210815 0 573684891.44210815 112009856.96990967 0 0 0 0 -72465874.223892212 45406331.253448486 0 45406331.253448486 -97224651.054000854 0 0 0 0 109851340.56848145 748982760.06982422 0 748982760.06982422 1019447249.8748741 0 0 0 0 416113100.24741364 415075385.67187119 0 415075385.67187119 -139760684.20430756 0 0 0 0 -172019635.04037476 274884778.32604218 0 274884778.32604218 493696464.10688782 0 0 0 0 -129016291.82181263 809519577.37207556 0 809519577.37207556 2037004293.5447998 0 0 0 0 2430341.8717772663 5140113.4428579323 0 5140113.4428579323 2566971.9185820706 0 0 0 0 91751585.521594048 180676998.12131786 0 180676998.12131786 -209149519.79699707 0 0 0 0 40939120.79649353 236210189.58407593 0 236210189.58407593 -219893204.003685 0 0 0 0 8376343.0653835461 -184593.36199161597 0 -184593.36199161597 -5334046.2433760762 0 0 0 0 117156411.21911621 122971289.1001091 0 122971289.1001091 -379062769.43991089 0 0 0 0 782511.45260238647 10065257.265775681 0 10065257.265775681 -12335073.728668213 0 0 0 0 4599322.165411666 3807551.9884802587 0 3807551.9884802587 213303.05228542164 0 0 0 0 132543343.46963501 -106594038.40464973 0 -106594038.40464973 -275671586.3683548 0 0 0 0 -6139.1132202148438 7015415.7227478027 0 7015415.7227478027 -24021798.001556396 0 0 0 0 10020083.646735065 5682347.7332702428 0 5682347.7332702428 -2241776.7097183615 0 0 0 0 29610.139572143555 7964265.6884460449 0 7964265.6884460449 -12114393.869432449 0 0 0 0 -411539668.40200806 337308594.10719299 0 337308594.10719299 -564692272.8814621 0 0 0 0 10265873.550333992 8712876.4132817946 0 8712876.4132817946 -4388021.3244983554 0 0 0 0 56264108.376281738 564052742.27217102 0 564052742.27217102 -799715124.47827911 0 0 0 0 -12127015.615005493 1676696.1709899902 0 1676696.1709899902 6912194.2579879761 0 0 0 0 1689683.1135119721 813073.12621760368 0 813073.12621760368 -579678.79891208187 0 0 0 0 -222065461.11306763 466610143.81864166 0 466610143.81864166 -430730908.31903076 0 0 0 0 10497250.597702026 663255437.61752701 0 663255437.61752701 -314633362.8306427 0 0 0 0 -215388483.51815796 333555399.85910034 0 333555399.85910034 -72166637.580528259 0 0 0 0 385490301.76287842 188127807.18964005 0 188127807.18964005 -376451293.70640564 0 0 0 0 274717610.62587357 498802879.92876148 0 498802879.92876148 446696756.75878906 0 0 0 0 284932281.44627571 512896560.59644794 0 512896560.59644794 -10678840.988006592 0 0 0 0 4685343.6599467993 4011972.3216271996 0 4011972.3216271996 -4616219.7157853395 0 0 0 0 -300327600.06964111 -212468796.78618622 0 -212468796.78618622 -36273248.694946289 0 0 0 0 -255315595.51879287 277213082.16422009 0 277213082.16422009 -154621646.90942383 0 0 0 0 -352956567.08917236 732114203.36973572 0 732114203.36973572 -299129889.42938232 0 0 0 0 -859893213.00845718 644629327.71417236 0 644629327.71417236 -208934409.01370239 0 0 0 0 -581684753.16037703 497747850.64693403 0 497747850.64693403 -21038601.484203339 0 0 0 0 -121136216.44187927 364658409.86727905 0 364658409.86727905 -487054283.24988365 0 0 0 0 -207888884.15201473 226472187.08391476 0 226472187.08391476 -422742647.53774261 0 0 0 0 -128584620.84265375 329129615.82242966 0 329129615.82242966 -107032944.03986359 0 0 0 0 4856995.0338382721 336646659.09677887 0 336646659.09677887 -127224123.30753517 0 0 0 0 -43060008.361686707 397597824.35251617 0 397597824.35251617 76032017.378207207 0 0 0 0 -417601614.07871246 336649458.13700485 0 336649458.13700485 -21785221.037063599 0 0 0 0 -41928068.399577916 30904147.800830349 0 30904147.800830349 -17677793.096562982 0 0 0 0 40322093.469031811 165881370.94392872 0 165881370.94392872 27036778.388027191 0 0 0 0 32700361.151788712 260477882.6198349 0 260477882.6198349 -401656419.43196106 0 0 0 0 50747044.851360321 38975052.658744812 0 38975052.658744812 -269328649.64515305 0 0 0 0 -55117139.897354126 -123715980.46032715 0 -123715980.46032715 -143502976.68183899 0 0 0 0 2863178630.7559052 1152172181.4470215 0 1152172181.4470215 38936556.495193481 0 0 0 0 1724310839.7315903 -802932746.72425842 0 -802932746.72425842 -1758247052.1453094 0 0 0 0 2270749029.2074127 3274998898.875515 0 3274998898.875515 681069727.0435791 0 0 0 0 3228978.0485299677 1415455.2686277553 0 1415455.2686277553 -643989.00203066692 0 0 0 0 -5029991.6279296875 -338849683.78761292 0 -338849683.78761292 -83511796.554260254 0 0 0 0 -1436297138.3600616 1521771109.9074516 0 1521771109.9074516 508179886.47089386 0 0 0 0 947638362.8573761 588502408.65528107 0 588502408.65528107 -451928457.36737061 0 0 0 0 -150413671.70545959 673539555.85903931 0 673539555.85903931 -442171036.04969978 0 0 0 0 3075039.407982802 6256007.9200492762 0 6256007.9200492762 -4397964.5580704659 0 0 0 0 -2379153964.9048767 111132443.23183441 0 111132443.23183441 346630728.12615967 0 0 0 0 -5087069591.9036255 589354405.3515625 0 589354405.3515625 181958094.34864807 0 0 0 0 575944420.75285339 -201276545.77306366 0 -201276545.77306366 24976309.95965147 0 0 0 0 -39898568.167110533 32520472.232155263 0 32520472.232155263 -17276473.928084847 0 0 0 0 -192671747.43741798 469418474.73709583 0 469418474.73709583 260833609.97167587 0 0 0 0 662344226.31266022 365492521.00912857 0 365492521.00912857 -13551163.392215729 0 0 0 0 -246300433.17741776 84745198.996598244 0 84745198.996598244 176322650.21398163 0 0 0 0 -72716923.910362244 344476403.97756577 0 344476403.97756577 24050468.462055206 0 0 0 0 264872775.77763367 156515210.51013184 0 156515210.51013184 51064031.947555542 0 0 0 0 199437976.96395874 258965291.89619446 0 258965291.89619446 118162060.47438049 0 0 0 0 158298948.34069824 97642092.190551758 0 97642092.190551758 84916595.890155792 0 0 0 0 128733391.21348953 134145306.81425095 0 134145306.81425095 52131677.264251709 0 0 0 0 177681.77822113037 93791352.566596985 0 93791352.566596985 62193039.130615234 0 0 0 0 43655196.87553215 299309289.58339357 0 299309289.58339357 48885275.540618896 0 0 0 0 237646921.44342804 291685664.4059267 0 291685664.4059267 21404438.893173218 0 0 0 0 11357054.708364435 23229901.885651529 0 23229901.885651529 -10427038.457200721 0 0 0 0 397677335.11907959 210003303.1126976 0 210003303.1126976 13243504.696891785 0 0 0 0 -288383176.42442322 24989137.11643219 0 24989137.11643219 19074961.736999512 0 0 0 0 181202006.4041748 221937432.05352783 0 221937432.05352783 51681277.334259033 0 0 0 0 -110461714.86120605 -34110142.713562012 0 -34110142.713562012 10311444.457427979 0 0 0 0 -102946776.04840088 -20918929.111663818 0 -20918929.111663818 14568800.54196167 0 0 0 0 -72622966.684997559 11301978.310211182 0 11301978.310211182 20817341.742004395 0 0 0 0 -158429219.78942871 617939.6015625 0 617939.6015625 29068398.009674072 0 0 0 0 -159297945.49249268 -28167931.95501709 0 -28167931.95501709 12942196.322113037 0 0 0 0 -186908939.12341309 -10129840.930007935 0 -10129840.930007935 26548112.358093262 0 0 0 0 -88495853.00658226 105934953.94443154 0 105934953.94443154 49904235.04675293 0 0 0 0 -204661926.1574707 82052882.428161621 0 82052882.428161621 31264845.689331055 0 0 0 0 -90136335.808868408 51709238.918273926 0 51709238.918273926 31179239.948150635 0 0 0 0 -108854491.2756958 61639627.173431396 0 61639627.173431396 54194458.097229004 0 0 0 0 48467342.603149414 164325292.9561615 0 164325292.9561615 -35261859.265960693 0 0 0 0 -38561534.244842529 68637564.470596313 0 68637564.470596313 7386672.7251434326 0 0 0 0 -135413019.40869522 182121361.49443436 0 182121361.49443436 -34959275.300811768 0 0 0 0 -101408744.66934204 113232978.63117981 0 113232978.63117981 -24246316.84487915 0 0 0 0 -94834648.02130127 98890167.187660217 0 98890167.187660217 -24371394.755803466 0 0 0 0 -234898843.76223755 345039020.99312592 0 345039020.99312592 -67489101.24987793 0 0 0 0 -339343064.36086845 269798708.57579327 0 269798708.57579327 -121111466.09951782 0 0 0 0 183254996.8380127 400376982.0819397 0 400376982.0819397 -421112919.45853424 0 0 0 0 -226358069.29623413 552373075.14614868 0 552373075.14614868 -230993697.93600464 0 0 0 0 -410946483.6501236 564384121.12311935 0 564384121.12311935 -215468264.95166016 0 0 0 0 -225825553.85140991 549988006.46217346 0 549988006.46217346 -237618881.46218872 0 0 0 0 3021782.7230592594 2777567.3331746357 0 2777567.3331746357 -3254229.7552157044 0 0 0 0 500010059.23771095 104423861.20347595 0 104423861.20347595 35408361.551239014 0 0 0 0 501178310.97366333 105624968.83262634 0 105624968.83262634 -202208955.71484375 0 0 0 0 162530742.34855652 56403438.208366394 0 56403438.208366394 54969969.907409668 0 0 0 0 338486744.11955261 -142174800.74999619 0 -142174800.74999619 -304506613.85992432 0 0 0 0 359511757.89006042 51484470.795570374 0 51484470.795570374 -42521636.105133057 0 0 0 0 2196712.6853122953 3435667.6305381879 0 3435667.6305381879 -1294129.0047276914 0 0 0 0 159714222.47784424 169240217.15553284 0 169240217.15553284 38504469.416137695 0 0 0 0 151056205.75810242 -5527855.7104644775 0 -5527855.7104644775 15097114.899475098 0 0 0 0 125044601.42815018 18695484.116275787 0 18695484.116275787 -34908492.02557373 0 0 0 0 50651066.081298828 52577119.444961548 0 52577119.444961548 13431881.269821167 0 0 0 0 78212915.304794312 55916899.983222961 0 55916899.983222961 -57878547.08505249 0 0 0 0 -45295119.49571228 74085009.251342773 0 74085009.251342773 26877925.055984497 0 0 0 0 -28849526.257049561 92956747.03969574 0 92956747.03969574 53293512.240203857 0 0 0 0 71401869.528556824 127326331.96399689 0 127326331.96399689 48898347.277587891 0 0 0 0 9878488.5127868652 73906634.842437744 0 73906634.842437744 22157588.698539734 0 0 0 0 -9306990.6999206543 120640976.56103516 0 120640976.56103516 43705078.358810425 0 0 0 0 51914062.6432724 71620403.700218201 0 71620403.700218201 42356477.380401611 0 0 0 0 -59485293.138397217 59160645.572875977 0 59160645.572875977 50452174.187774658 0 0 0 0 -63601830.556732178 58342120.722839355 0 58342120.722839355 51139443.160844803 0 0 0 0 16035495.859306335 20044326.108093262 0 20044326.108093262 9088528.1546020508 0 0 0 0 1336066.1683748253 33555342.825342119 0 33555342.825342119 19678303.721388653 0 0 0 0 -10823830.436546326 50666860.405635834 0 50666860.405635834 14329042.533874512 0 0 0 0 -33798145.572692871 17073269.316452026 0 17073269.316452026 26268899.803710938 0 0 0 0 14918853.160182185 16300925.348250154 0 16300925.348250154 -19197927.179653518 0 0 0 0 115075854.5098114 161339139.05923462 0 161339139.05923462 119247089.527565 0 0 0 0 28250712.070702612 51839355.372551262 0 51839355.372551262 -14726356.369955644 0 0 0 0 -33335808.304840088 69973388.010742188 0 69973388.010742188 -1250739.1025390625 0 0 0 0 1357396.3108282089 -85132113.52961731 0 -85132113.52961731 -588311069.09881592 0 0 0 0 30265238.756782532 2839787.8959960938 0 2839787.8959960938 -467599531.14477539 0 0 0 0 -32187976.433322906 106708077.99490166 0 106708077.99490166 9128189.147354126 0 0 0 0 30739506.089115418 48260428.871595517 0 48260428.871595517 26753118.75904277 0 0 0 0 -148232925.83655095 98413277.706489563 0 98413277.706489563 222187560.89556885 0 0 0 0 -136622.65682156268 22679526.62682857 0 22679526.62682857 13560872.31767574 0 0 0 0 44726952.359346956 27253393.122848824 0 27253393.122848824 -71812362.688503265 0 0 0 0 327549740.01942611 512239592.67037964 0 512239592.67037964 -120875771.71195793 0 0 0 0 47842374.233019494 26814135.323478453 0 26814135.323478453 -71479640.672826767 0 0 0 0 133254049.32673645 140789604.15549469 0 140789604.15549469 -28536897.337280273 0 0 0 0 228160859.0178833 185093192.52770233 0 185093192.52770233 -15361508.816444397 0 0 0 0 114116115.77283478 86903384.826114655 0 86903384.826114655 126856440.10838318 0 0 0 0 327325180.95144653 39227243.090385437 0 39227243.090385437 -104812094.03398895 0 0 0 0 134958541.11316299 124597943.07574463 0 124597943.07574463 -7224743.5210571289 0 0 0 0 139718677.13541746 28754313.117851734 0 28754313.117851734 -64826575.337417603 0 0 0 0 111617765.79864502 194180707.42654657 0 194180707.42654657 222283826.12399292 0 0 0 0 10420493.506365996 681782.87197047472 0 681782.87197047472 -13554544.751070455 0 0 0 0 -4325919.7279281616 19770758.038024902 0 19770758.038024902 -51783293.089996338 0 0 0 0 13062222.695743814 16523806.039218847 0 16523806.039218847 577997.05429191142 0 0 0 0 -22716971.28024292 -38841231.87902832 0 -38841231.87902832 75509085.992668152 0 0 0 0 -101380187.5438385 52295359.362167358 0 52295359.362167358 45343463.934509277 0 0 0 0 -11534039.10760498 -82322222.605529785 0 -82322222.605529785 -4118740.8586959839 0 0 0 0 150016875.02598572 -61712214.98097229 0 -61712214.98097229 -33326040.882217407 0 0 0 0 -114953773.76054382 21892937.517734528 0 21892937.517734528 3136959.0374603271 0 0 0 0 -93312285.629394531 -21958022.28975296 0 -21958022.28975296 -2707005.9336090088 0 0 0 0 -2973575.073676832 474766.05053248815 0 474766.05053248815 -197111.38481447101 0 0 0 0 -68910311.878444672 13772616.212665558 0 13772616.212665558 1027697.9147033691 0 0 0 0 -60140731.775878906 165672399.87127686 0 165672399.87127686 -106825879.80488586 0 0 0 0 42301420.1771698 -114388232.06034851 0 -114388232.06034851 141658524.47127819 0 0 0 0 -123031760.4495697 68930047.781738281 0 68930047.781738281 160030569.36660767 0 0 0 0 -594241821.61371613 778201564.5929718 0 778201564.5929718 -372110877.74167633 0 0 0 0 177895945.81011963 449958205.53242493 0 449958205.53242493 -326704197.56889343 0 0 0 0 2498297.6874348298 558786.90993997641 0 558786.90993997641 -3065370.5552283973 0 0 0 0 -552786463.59253693 634256457.48246002 0 634256457.48246002 -581533731.42585754 0 0 0 0 -563337841.51502228 846274300.33644295 0 846274300.33644295 -799228597.95721436 0 0 0 0 -45325420.1095047 44247146.302223206 0 44247146.302223206 40175997.113861084 0 0 0 0 -466973022.11921692 507881556.50186157 0 507881556.50186157 -794744257.93338227 0 0 0 0 2804224.0473424718 1427700.6647576522 0 1427700.6647576522 -4845389.8399737179 0 0 0 0 -261839809.0149765 585048525.91004181 0 585048525.91004181 -727689062.1728363 0 0 0 0 -849802136.46696472 852454578.53183365 0 852454578.53183365 -578169223.3586731 0 0 0 0 -662500798.38565063 209864778.59718323 0 209864778.59718323 -20329752.86428833 0 0 0 0 -562927867.03263092 618092945.97606659 0 618092945.97606659 -300591707.49998474 0 0 0 0 350978223.8784256 88283847.518280029 0 88283847.518280029 -286598298.4848938 0 0 0 0 4673542.2681548037 4229825.2535162047 0 4229825.2535162047 -5021073.9133584797 0 0 0 0 95436447.727581024 55488731.346118927 0 55488731.346118927 -333618951.82681274 0 0 0 0 -159940301.01982117 157754004.52603912 0 157754004.52603912 238231544.70726013 0 0 0 0 5327627.3574231919 7530760.5049846563 0 7530760.5049846563 -2085698.1107077897 0 0 0 0 -161432195.14583588 451811443.2292099 0 451811443.2292099 -92241481.01361084 0 0 0 0 -543883017.27653503 339829829.95254517 0 339829829.95254517 -480450581.57979584 0 0 0 0 -104528937.87898254 505818077.39821243 0 505818077.39821243 -450647369.5085144 0 0 0 0 -165313384.96074677 193420865.72828674 0 193420865.72828674 -229404896.80081177 0 0 0 0 -2714570.6929088831 2010289.7933708243 0 2010289.7933708243 -2122352.0764895231 0 0 0 0 -811608573.91359138 857814805.57513428 0 857814805.57513428 -504149792.18751526 0 0 0 0 -466675112.64178944 482005703.00239563 0 482005703.00239563 -535854998.45059204 0 0 0 0 -62369057.142879486 11448593.280609131 0 11448593.280609131 28784045.703987122 0 0 0 0 -164207321.70814896 121319031.77776527 0 121319031.77776527 149006128.3061676 0 0 0 0 13144686.619775822 17918342.299659997 0 17918342.299659997 588605.84557154775 0 0 0 0 838221971.67699432 -29023611.905265808 0 -29023611.905265808 -79618617.065841675 0 0 0 0 1128431315.564291 458502948.00596428 0 458502948.00596428 -60498366.532913208 0 0 0 0 1341100921.0198898 508668466.52339172 0 508668466.52339172 -330693315.91523361 0 0 0 0 863964556.51798248 347967493.13092422 0 347967493.13092422 -73700014.881469727 0 0 0 0 92160210.622085571 -81744627.307235718 0 -81744627.307235718 67210127.09438324 0 0 0 0 840884906.74198151 302880859.87754059 0 302880859.87754059 126609629.86351013 0 0 0 0 327925.5422288999 -674208.37490343116 0 -674208.37490343116 -1246654.8800882287 0 0 0 0 388413149.00756836 -69159507.43951416 0 -69159507.43951416 204132906.0555439 0 0 0 0 72680560.367584229 88988398.677621841 0 88988398.677621841 -13279952.130783081 0 0 0 0 243075205.28996277 117173501.78407478 0 117173501.78407478 -34282668.915618896 0 0 0 0 842030274.06311035 140531157.85779953 0 140531157.85779953 -208441577.28187561 0 0 0 0 1233973948.7927094 -452065278.59887695 0 -452065278.59887695 -10718201.75160408 0 0 0 0 1381776655.5056915 -361373510.9107132 0 -361373510.9107132 -232142441.03411865 0 0 0 0 254948689.93980408 153238085.18838501 0 153238085.18838501 209679223.75431824 0 0 0 0 458662693.37078857 116853355.16906738 0 116853355.16906738 -81956979.522064209 0 0 0 0 647853587.0868988 325563913.29206467 0 325563913.29206467 5174450.6459350586 0 0 0 0 1626077.1340981126 -909004.25048187748 0 -909004.25048187748 -880077.69581166469 0 0 0 0 -80958378.821628571 -99286408.128110886 0 -99286408.128110886 73816058.180587769 0 0 0 0 576643355.44676971 56858042.879463196 0 56858042.879463196 -161443005.79968643 0 0 0 0 1731711862.0513992 125336800.28198624 0 125336800.28198624 -192773151.34051132 0 0 0 0 1554181533.8427734 -582702872.95367813 0 -582702872.95367813 49774015.955886841 0 0 0 0 1041707040.357605 -343105737.79583931 0 -343105737.79583931 961295262.35487366 0 0 0 0 819715543.66545486 699230816.67561722 0 699230816.67561722 558695751.81254578 0 0 0 0 3232612.2900653593 2101360.26334491 0 2101360.26334491 436694.86054765433 0 0 0 0 623624153.4884491 -657065991.7668457 0 -657065991.7668457 1628196396.8854446 0 0 0 0 1473304498.8718472 763801096.46691895 0 763801096.46691895 -372783377.08853912 0 0 0 0 1062300791.1775742 789279432.38523102 0 789279432.38523102 756115454.76408577 0 0 0 0 1263903889.2436724 346792656.63324165 0 346792656.63324165 -468467041.51773071 0 0 0 0 5807125.9650542326 5689651.2589302026 0 5689651.2589302026 3823264.276164338 0 0 0 0 463193891.36220169 -724178017.71430588 0 -724178017.71430588 569629795.94426727 0 0 0 0 -457812423.44882584 -521964183.32240677 0 -521964183.32240677 -83909761.384857178 0 0 0 0 515596260.9539032 -161342394.69668579 0 -161342394.69668579 95581624.924057007 0 0 0 0 -177786553.9611969 -97958385.482406616 0 -97958385.482406616 557955915.94850492 0 0 0 0 -287168070.12892532 451681349.20403671 0 451681349.20403671 -121064855.15466309 0 0 0 0 -161353829.03766632 -2693059.9327392578 0 -2693059.9327392578 319666629.40048218 0 0 0 0 -573567242.74194336 235581294.12882233 0 235581294.12882233 382985037.46534729 0 0 0 0 -398971876.026474 57441472.641212463 0 57441472.641212463 398470829.91650391 0 0 0 0 -1411899998.6018906 476552635.38738251 0 476552635.38738251 233862596.65649796 0 0 0 0 -347093988.19949913 898590813.01284027 0 898590813.01284027 -607626999.72122192 0 0 0 0 -30695290.206665039 395805899.45684052 0 395805899.45684052 -134749997.27325439 0 0 0 0 354788984.93365479 564450524.91285706 0 564450524.91285706 -759019273.2538147 0 0 0 0 -199711394.76438904 550951430.65195084 0 550951430.65195084 -275800008.16687012 0 0 0 0 359495688.0091095 187086257.95545959 0 187086257.95545959 -357490351.26692963 0 0 0 0 -41043832.631637573 295922538.63789368 0 295922538.63789368 -382723535.76080704 0 0 0 0 101368926.92593384 448292948.90383911 0 448292948.90383911 194196872.44739723 0 0 0 0 3685611.1055796407 670987.99072538316 0 670987.99072538316 -4719654.9761426747 0 0 0 0 262558752.6224823 2960171660.3964233 0 2960171660.3964233 -553080180.449646 0 0 0 0 -46132943.65461731 -530857074.04212952 0 -530857074.04212952 1342068461.4239502 0 0 0 0 -1385557668.0445881 413906010.4579277 0 413906010.4579277 88824828.533737183 0 0 0 0 454389.47779936343 4987660.0920749232 0 4987660.0920749232 3040917.6057159752 0 0 0 0 45811207.16828537 -68377633.484718323 0 -68377633.484718323 -922288597.08744812 0 0 0 0 -1164411931.0590591 -65263738.533622742 0 -65263738.533622742 44042701.068557739 0 0 0 0 5895727.580958955 22070461.256936368 0 22070461.256936368 20441083.450684488 0 0 0 0 -754328014.0063858 -54252088.506538391 0 -54252088.506538391 3253961.212146759 0 0 0 0 -652540418.10798645 479152863.20132446 0 479152863.20132446 55772238.435108185 0 0 0 0 -3048200.0346679688 43809724.97439003 0 43809724.97439003 2553079.8752822876 0 0 0 0 -4506012.455871582 37643321.738714218 0 37643321.738714218 -489307.72015380859 0 0 0 0 862072.85192251205 38036173.684413671 0 38036173.684413671 -5748656.2823257446 0 0 0 0 -111435889.79377747 667993957.85144806 0 667993957.85144806 216123690.59944153 0 0 0 0 -189229238.84529114 -69425592.439918518 0 -69425592.439918518 643721947.4347229 0 0 0 0 -257686051.56878662 338878730.18154144 0 338878730.18154144 -593419098.70839691 0 0 0 0 -1027690761.5395355 766547467.76470184 0 766547467.76470184 9216639.1807403564 0 0 0 0 -939669916.64250946 560981496.64196777 0 560981496.64196777 83545623.290851593 0 0 0 0 -278470441.30979156 428762182.41204834 0 428762182.41204834 -23853384.953338623 0 0 0 0 -745034839.38510513 707397284.80682373 0 707397284.80682373 -317956619.08120728 0 0 0 0 113682865.79196167 504784405.67476654 0 504784405.67476654 -87527210.367607117 0 0 0 0 482639448.41953278 169020948.11715698 0 169020948.11715698 -16352463.185745239 0 0 0 0 -159303586.05365753 249109967.94132233 0 249109967.94132233 -270955860.42660522 0 0 0 0 -90880674.713775635 535056756.35761261 0 535056756.35761261 -299885040.71922064 0 0 0 0 2287254.3197672628 -264239.05982993729 0 -264239.05982993729 -2865036.7157413438 0 0 0 0 -964975865.37737441 857002053.11092591 0 857002053.11092591 -237114703.46559143 0 0 0 0 5977251.6901922598 17112641.094679613 0 17112641.094679613 19358868.023812171 0 0 0 0 -26653827.943054199 59407864.396972656 0 59407864.396972656 -24560547.270904541 0 0 0 0 -43838729.586929321 36435256.89547348 0 36435256.89547348 -7430003.8042831421 0 0 0 0 -20569085.579544067 39906721.445644379 0 39906721.445644379 -32783042.12172699 0 0 0 0 -996858866.91792512 283070284.42641199 0 283070284.42641199 -529141081.66110229 0 0 0 0 -996597801.49331665 1405124689.0973434 0 1405124689.0973434 -364060770.12884712 0 0 0 0 -2369358.7604675293 40127649.91289711 0 40127649.91289711 -6638771.7431488037 0 0 0 0 -3496805.0036010742 40839533.825416565 0 40839533.825416565 -14782762.09369278 0 0 0 0 -5442163.0654983521 44831912.054719925 0 44831912.054719925 -13720657.614601135 0 0 0 0 -29433622.141273499 50916189.1984272 0 50916189.1984272 -9085067.8950195312 0 0 0 0 -17060626.200332642 38603304.584108353 0 38603304.584108353 -537316.69029998779 0 0 0 0 -14044035.418106079 42052838.194534302 0 42052838.194534302 -14541893.389904022 0 0 0 0 -20943942.90776062 43267899.836988449 0 43267899.836988449 -11509586.986877441 0 0 0 0 -11039889.108875275 43757913.403184891 0 43757913.403184891 -13356572.669685364 0 0 0 0 -10963665.62411499 42504770.697093964 0 42504770.697093964 -21256377.721694946 0 0 0 0 -5456176.3077697754 43010823.678962708 0 43010823.678962708 -14265911.406007767 0 0 0 0 -4810555.1085205078 44436221.943058014 0 44436221.943058014 -13980006.074542999 0 0 0 0 -635699.41233825684 43793536.742401123 0 43793536.742401123 -16143806.605125427 0 0 0 0 2020335.0599803925 44184754.11868906 0 44184754.11868906 -16238157.660415649 0 0 0 0 2192870.3511962891 51365895.381187201 0 51365895.381187201 -8459878.7948684692 0 0 0 0 -13443587.603599548 50041124.283252716 0 50041124.283252716 4489952.3528251648 0 0 0 0 -19545354.701202393 42791663.213821411 0 42791663.213821411 -1098483.0538768768 0 0 0 0 -14613715.378051758 41057265.104232788 0 41057265.104232788 -1816807.7498550415 0 0 0 0 -19123306.304077148 32243699.121089935 0 32243699.121089935 -982276.70376586914 0 0 0 0 -21730233.465919495 41173154.803913116 0 41173154.803913116 18911557.140411377 0 0 0 0 -23344307.109443665 56847926.479862213 0 56847926.479862213 24352857.710659027 0 0 0 0 -26804326.472938538 50628905.2472229 0 50628905.2472229 14830240.035995483 0 0 0 0 32125176.846362334 32481988.58356826 0 32481988.58356826 22375358.76262062 0 0 0 0 -23324189.986701965 57385967.536020279 0 57385967.536020279 7169102.2775878906 0 0 0 0 -406768167.29627228 427202079.04340529 0 427202079.04340529 -29384904.550738335 0 0 0 0 6216819.1875300705 13222445.846197642 0 13222445.846197642 14533903.453389369 0 0 0 0 -44819235.054000854 83487569.238243103 0 83487569.238243103 -17235232.362197876 0 0 0 0 8067177.8596496582 58811811.640792847 0 58811811.640792847 -29797600.974575043 0 0 0 0 -22043225.547637939 47903435.880214691 0 47903435.880214691 -2205508.9871063232 0 0 0 0 -13239705.985351562 18221922.435344696 0 18221922.435344696 26857554.284713745 0 0 0 0 -13553902.930297852 96958277.033088684 0 96958277.033088684 42030894.775913239 0 0 0 0 -30771510.972105026 53702740.233244896 0 53702740.233244896 70941271.659439087 0 0 0 0 20755222.383071899 -70332504.178756714 0 -70332504.178756714 151012827.55147552 0 0 0 0 -31018270.823623657 119360324.0284462 0 119360324.0284462 99289389.015426636 0 0 0 0 -8485618.6630477905 192903052.35311127 0 192903052.35311127 264346621.71617889 0 0 0 0 -33765452.491973877 273396727.06974792 0 273396727.06974792 137773092.45546293 0 0 0 0 6666235.5077685043 8277039.5166311702 0 8277039.5166311702 5069853.3017435297 0 0 0 0 -507957096.99736023 485680717.42007446 0 485680717.42007446 1585862102.8905315 0 0 0 0 -8157772.4469451904 -256488515.48596573 0 -256488515.48596573 902288344.84655762 0 0 0 0 -2555788575.7765198 1518312913.6246567 0 1518312913.6246567 -143510800.42112732 0 0 0 0 -18791865.915603638 1749611729.0354767 0 1749611729.0354767 -539089691.84393311 0 0 0 0 5744891.4849900007 -367488.49007278867 0 -367488.49007278867 -5824919.4057973176 0 0 0 0 -811002147.11122179 -458108073.06234741 0 -458108073.06234741 -265009098.21284485 0 0 0 0 4160592006.1671906 -997311401.66944122 0 -997311401.66944122 -1255093119.4075012 0 0 0 0 1223525131.1636505 -1816001638.6322937 0 -1816001638.6322937 -804845527.08065796 0 0 0 0 6504679572.1148071 4376172803.9868469 0 4376172803.9868469 5743877350.9156189 0 0 0 0 5210220.975884825 -244645.0270850407 0 -244645.0270850407 -4616682.9012621343 0 0 0 0 120101162.52913189 -1134619602.5240643 0 -1134619602.5240643 -770877774.41694641 0 0 0 0 -129217765.83350372 -1030543193.5291061 0 -1030543193.5291061 1170393404.1923981 0 0 0 0 -1335101321.2861328 -1016665691.0668068 0 -1016665691.0668068 466128356.92443848 0 0 0 0 -1396133020.8279495 -1358058315.3631935 0 -1358058315.3631935 -979815885.99334717 0 0 0 0 432086941.65472412 977077123.172966 0 977077123.172966 -1385614521.4739685 0 0 0 0 410576199.42004395 1255225900.5489197 0 1255225900.5489197 375431203.23058701 0 0 0 0 -2155912420.1263428 -5429630542.0559883 0 -5429630542.0559883 -1925685953.1911621 0 0 0 0 1413527425.5737915 2370410803.1938858 0 2370410803.1938858 1559016410.2400665 0 0 0 0 3607103139.5271568 -736789855.56598949 0 -736789855.56598949 -28372736.143463135 0 0 0 0 11556704.692400917 -1003809.0951128229 0 -1003809.0951128229 -2557003.9438935574 0 0 0 0 855864295.34454346 1433870176.1928482 0 1433870176.1928482 3669884031.63445 0 0 0 0 133690687.99661255 -1416001522.246376 0 -1416001522.246376 1762005921.1606655 0 0 0 0 593194172.78363419 -174251421.04108429 0 -174251421.04108429 144664873.06980896 0 0 0 0 2047872116.8105698 721277102.01016998 0 721277102.01016998 18537624.057312012 0 0 0 0 73405413.587308884 106885507.24291992 0 106885507.24291992 1786098865.2988586 0 0 0 0 845489285.2840271 1032571180.5231628 0 1032571180.5231628 1400814942.5812073 0 0 0 0 4399699563.3752594 2082078642.9409409 0 2082078642.9409409 726843818.79573059 0 0 0 0 1841506577.3526764 224189350.52778625 0 224189350.52778625 -240270162.0160675 0 0 0 0 1680506610.4861832 -148740807.12363052 0 -148740807.12363052 -823136746.37686157 0 0 0 0 2706614119.7761536 5942702.3306655884 0 5942702.3306655884 -829594348.49575806 0 0 0 0 1473864973.6990471 -372414939.27882385 0 -372414939.27882385 -820037229.31976318 0 0 0 0 1155355704.8644257 467566544.27572632 0 467566544.27572632 -307866072.63478088 0 0 0 0 1074606851.6728821 129305077.68330383 0 129305077.68330383 -338382983.26750183 0 0 0 0 808320126.48594666 90965368.639862061 0 90965368.639862061 -318601573.98126221 0 0 0 0 851775534.03593445 417729455.18409729 0 417729455.18409729 -298536948.20913315 0 0 0 0 893651750.65724182 -341777270.54325104 0 -341777270.54325104 -843874867.17921448 0 0 0 0 1264891494.102623 -78734836.83000946 0 -78734836.83000946 -780609933.71014404 0 0 0 0 1264823623.4224548 -120832697.11405182 0 -120832697.11405182 -223422147.19391799 0 0 0 0 1144824512.4599352 -119003431.11010456 0 -119003431.11010456 -411581350.49409485 0 0 0 0 1108154649.8341599 -375439211.91220093 0 -375439211.91220093 -575519772.13340759 0 0 0 0 222285515.92248535 -204633873.74136353 0 -204633873.74136353 -360206542.45027924 0 0 0 0 -167008595.14204884 210195668.1291399 0 210195668.1291399 -182733435.7338562 0 0 0 0 664415255.53264618 174692022.49782562 0 174692022.49782562 -280562852.25820923 0 0 0 0 -323177486.93505859 167349962.4780426 0 167349962.4780426 -364052198.88404846 0 0 0 0 338049535.74497223 -57717653.474136353 0 -57717653.474136353 -331612014.49191284 0 0 0 0 -525550889.1707077 -751985112.05238724 0 -751985112.05238724 -201462753.19482422 0 0 0 0 1052907469.839222 -698991538.29867554 0 -698991538.29867554 -349985231.28569031 0 0 0 0 1349348941.1933746 -353986401.01535797 0 -353986401.01535797 -580988088.61831284 0 0 0 0 
</DataArray>
<DataArray type="Float64" Name="cross_section_updated" format="ascii">
1 1 1 1 1 0.044260252568966818 1 1 1 1 1 1 1 0.047559047558040433 1 1 1 1 0.044089120890724025 1 1 0.056231730192759927 1 1 1 1 0.026108628254269649 1 1 1 1 0.034617479950606059 1 1 1 1 1 1 1 1 1 1 1 1 1 0.049477672105069398 1 1 0.050082218936306995 1 1 1 1 1 0.053059391944369899 1 1 1 1 1 1 1 0.023415653598241423 1 1 1 1 0.047436972017731546 1 1 1 1 1 1 1 1 1 0.047264893780842282 1 1 0.051262444274208521 1 1 0.062562415716503963 1 1 1 1 0.051608256673308317 1 1 1 1 1 1 1 0.048368807502089439 0.05000330434721971 0.049236373665052402 1 1 0.049465725596116089 1 1 1 1 1 0.049557868925904011 1 1 1 1 1 1 1 1 1 1 1 1 1 0.05041673489847659 1 1 1 0.049372585177389142 1 1 1 1 1 1 0.050029115943535193 1 1 1 1 1 1 1 1 1 1 1 1 1 1 1 1 1 1 1 1 1 1 1 1 1 0.049845485339987394 1 1 1 0.046971256464171503 1 1 0.049280417442158692 1 1 1 1 1 1 1 1 1 1 1 0.050215188366434724 1 1 1 1 1 1 1 1 0.051003964872691862 1 1 1 1 1 1 1 1 0.052943630113981247 1 1 1 1 1 1 1 1 1 0.048983725291105874 1 1 1 1 1 1 1 1 1 1 1 1 1 1 1 1 1 1 1 1 1 1 1 0.049992181015079573 1 1 1 0.021322126981565562 1 0.050229558379486686 1 0.035931031582603745 1 1 0.068259110250845453 1 1 1 0.056922869897753067 1 0.042163721517549463 1 0.050521990309611145 1 0.036676377988637918 0.040139300500408509 1 0.046287062390221623 1 1 0.044871414860493751 1 0.05563222477320412 1 1 1 0.046472483516204907 1 0.043802781064574692 0.049419019295367121 1 1 0.05356401019764695 1 1 1 0.046385627435947638 1 0.063378607278014948 0.059313468678764539 0.046802062353671729 1 0.05001652395734818 1 1 1 0.050080641738478662 1 0.057285220755867977 0.042534504739386733 0.049546159316171463 1 1 0.05848409365746484 0.05828187316098541 1 1 1 1 0.06360839513736842 1 0.049954147529634646 1 1 0.054739741560746666 1 1 1 0.046254340135396005 1 0.048695189677082015 0.044433853292993777 0.048583973472298495 1 1 1 0.051969204507140765 1 0.04539644985564445 0.060825140742778672 0.051038475477649295 0.057919426871042859 1 1 1 0.048417587180732594 0.049997307852855472 1 1 0.040424938032686514 0.056640074273993507 0.055569055406397061 1 0.05293062732215835 1 1 1 1 0.049984946717727338 1 1 1 1 1 1 1 0.05312724546510629 1 1 1 1 1 1 0.049141246787893236 0.049989591433032006 1 1 1 0.053780803272240801 1 1 1 0.049993452929236987 1 0.056836477420298528 1 0.037768576622189763 0.066211715339645608 1 1 1 1 0.05057002830393615 1 1 0.06598753159052699 1 1 1 1 0.049920477512349765 1 0.049973314629892435 1 1 1 1 1 0.039978292237618826 0.063111781544755968 1 1 1 1 1 1 1 1 0.049620448525865349 1 1 1 0.048886250268757453 1 1 0.04793602061124172 1 0.049997857953295574 1 1 1 1 1 1 1 1 1 1 1 0.066968966803857527 1 0.047795198063074813 1 0.06251738697690376 1 1 1 0.048082725381158847 1 0.050028509241830013 1 0.044382061228287757 1 1 1 1 1 1 0.056204870797750182 1 0.044229120001156433 1 1 1 0.054779388012548863 1 1 1 0.061475676140206881 1 0.044278072413707792 0.069995122592463876 1 1 1 1 0.04853303793049854 1 1 1 1 0.034947244901830737 0.068346993810580361 1 1 0.055823861222719665 1 0.053108897835699491 1 0.051463861286880269 0.054341796822506234 1 1 1 0.049977964589095217 1 1 1 1 0.037871086801530521 1 1 1 1 1 1 1 1 1 1 1 0.04997623072685746 1 1 1 1 0.059420343217206018 1 1 1 0.042111007340979445 1 0.053906402826292332 0.049544842412858892 0.049999327369917176 1 1 1 0.065767642512600435 0.038057722253537214 1 0.032957743938123729 1 1 0.047446716559882501 1 1 1 1 0.036839311332037994 1 1 1 1 1 1 1 1 1 1 1 0.033249799283474685 0.077024983748664427 1 1 0.039039015193834348 1 1 1 0.050031662018576575 1 1 1 1 1 1 0.064822262410176995 1 1 1 0.051325140861354597 1 1 1 0.048613073486087094 1 1 1 1 1 1 1 1 1 1 1 0.063983766335809961 1 1 1 0.063038362058245118 1 1 1 1 1 1 1 0.048556129996702647 1 1 1 1 1 0.045765283954309614 1 1 1 1 1 1 1 1 1 1 1 1 1 1 1 1 1 1 1 0.051123361181749857 1 1 1 1 0.051036867759912549 1 1 0.050487150743466686 1 1 1 1 1 1 1 0.050560381831546458 1 1 1 1 1 1 1 1 0.049972745564024784 1 0.051705903216519661 1 1 0.04638846748245147 1 1 1 0.048254199559411709 1 1 0.051156997104535001 1 1 1 0.044879611871455879 1 0.048546954013709287 1 1 0.050007950427707892 1 0.045154728479943756 1 1 1 1 1 1 1 1 1 1 1 1 1 1 1 1 1 1 1 1 1 1 0.049676450575716208 1 0.0485044297757634 1 0.049512071806022406 1 1 1 1 1 1 1 1 1 1 1 1 1 1 1 0.049818955387514526 1 1 1 1 1 1 1 1 1 0.049857495188201692 1 1 1 1 1 1 1 1 1 1 1 1 1 1 1 1 1 1 1 1 1 1 1 1 1 1 1 1 1 0.049887543745772922 1 1 0.05002559364216351 1 1 1 0.046802281339118297 0.058097912697525803 1 0.057308770367169873 1 1 1 1 1 0.047355803578480286 1 1 1 1 1 0.047960904683586103 1 1 1 1 1 1 1 1 1 1 1 1 1 1 1 1 1 1 1 1 1 1 1 1 1 1 1 1 1 1 1 1 1 1 1 1 1 1 1 1 1 1 1 1 1 1 1 1 1 0.051115239638341137 1 1 1 1 1 1 1 1 1 1 1 1 1 1 1 0.055870364726035543 1 1 1 1 0.05244357282421104 1 1 1 1 1 1 1 1 1 1 1 1 1 1 1 1 1 1 1 1 1 1 1 1 1 1 1 0.054641093474262173 1 1 0.047701460912469337 1 0.038130443016517419 0.052581154804299812 0.052858633959153196 0.071637130464205848 1 1 0.049917613956626812 1 1 1 1 1 1 1 1 1 1 1 1 1 1 1 1 1 0.035874102082092352 1 1 0.045375092723198243 1 0.056616463569132677 1 1 1 1 0.027588072367729158 1 0.050370934092245023 1 1 1 1 0.049800036220802667 1 1 1 0.051389537705033329 1 1 1 1 1 0.042526170139732283 1 0.052572608097797111 1 1 0.050933482887066686 0.056555342576206868 1 0.047860584406519413 1 1 1 1 1 1 1 1 1 1 1 0.030176059870353364 1 1 1 0.031594812636384688 1 1 1 0.056108277220476427 1 1 0.027747260737253764 0.049771285966808368 0.049900869999154468 1 1 1 1 1 1 1 1 1 1 1 0.049914073595837577 1 1 1 1 1 1 1 1 0.028607828107308018 0.014501699707724372 0.02948490376018284 1 1 1 1 1 1 1 1 0.020334221752523203 0.049817659757060623 1 1 1 0.054222904063354227 1 1 0.048170386290343911 1 1 1 1 1 1 1 1 1 1 1 0.049435096620143198 1 1 1 1 1 1 1 1 0.049288384188476704 1 1 1 1 1 1 1 1 1 1 0.050039570994246621 1 0.049667425092600824 0.042437231321811597 0.044663795779968041 1 1 1 1 1 1 1 0.026166779315397619 0.020941353236364646 1 0.053241010218309411 1 1 1 1 1 0.052268301083785475 1 0.049775361271526194 0.043526140120258849 1 1 1 0.043246196484832675 1 0.042622991122195725 1 1 1 1 0.049950917418193658 1 1 1 1 1 1 1 1 1 1 1 1 1 1 1 1 1 0.05219145101780806 1 1 1 0.049049361466488903 1 1 1 1 1 0.051046677856217901 1 1 1 1 1 1 0.049621309557545859 1 0.04989822005514713 1 1 1 1 1 1 1 1 0.04797173429081468 1 1 1 0.054006920378596932 1 1 1 1 1 1 1 1 1 1 1 1 1 1 1 1 1 1 1 1 1 1 1 1 1 0.046840802158094455 0.053032375711332159 0.074936543824652826 1 1 1 1 0.043080852297775474 1 1 1 1 0.038472757495064777 1 1 1 1 1 1 1 0.052321535164711372 1 1 1 1 1 1 1 1 0.053910426238526779 1 1 1 1 1 1 1 1 1 1 1 1 0.055976659631893314 1 1 1 1 1 1 0.05049731660093168 1 1 1 1 1 1 1 1 0.049422410096041543 1 1 1 0.066722922834188139 1 1 1 1 1 1 1 1 1 1 1 1 0.051588891073815424 1 1 1 1 1 1 1 1 1 1 1 1 1 1 1 1 1 1 1 1 1 1 1 1 1 1 1 1 1 1 1 1 1 1 1 1 1 1 1 1 1 1 1 1 1 1 1 0.049458983066193743 1 1 1 1 1 1 1 1 1 1 1 1 1 1 1 1 1 1 1 1 1 1 1 1 0.05152659810088045 1 1 1 1 1 1 1 1 1 1 0.049870250661675025 1 1 0.054267664982725672 1 1 1 1 1 1 1 1 1 0.049348079464212047 1 0.048609057116158691 1 1 1 1 0.056553785047382413 1 1 0.049118842672300919 1 0.046847207538653318 1 1 1 1 1 0.048343465243792155 1 1 1 1 1 1 1 1 0.051902307925709726 1 1 1 1 1 1 1 1 1 1 1 1 1 1 0.048303935184224253 1 0.051895113252274458 0.050193718778937899 1 1 1 1 1 0.050074246323678462 1 1 1 1 1 1 1 1 1 1 1 1 1 1 1 0.049714752299520652 1 1 1 1 1 1 1 1 1 1 1 1 1 1 1 1 0.049257871241114401 1 1 1 1 1 0.045393754366155462 0.049196565908425971 1 1 0.047983380516647259 1 1 1 1 1 1 1 1 1 1 0.048996067054047347 1 1 1 1 1 1 1 1 1 0.045561484456301697 1 0.10012833799198213 1 1 1 1 1 0.04803539097467651 1 1 1 1 0.096999912836805188 1 1 1 0.042716882251374766 1 1 1 0.086845496400593233 1 1 0.048534033761609433 1 1 1 1 1 1 1 1 1 1 1 1 1 1 1 1 0.047405505244971294 1 1 1 1 1 1 1 0.049298187549651255 1 1 1 1 1 1 1 1 1 1 1 1 1 1 1 1 1 1 1 1 1 1 1 1 1 1 1 0.086829701661203212 1 1 1 1 0.049505439499000881 1 1 1 0.0096323481799371058 1 1 1 1 1 1 1 1 1 0.012977467914250519 1 0.050008424580615191 1 1 1 1 1 1 1 1 1 1 1 1 1 1 1 1 1 1 0.05003891713813869 0.075575102453736276 1 1 1 0.046840292084742698 1 1 0.063969472100869451 1 1 0.054775499657455304 1 1 1 0.049418594098548672 1 1 0.051710048222261731 1 1 1 1 1 1 1 1 1 1 1 1 1 1 1 1 1 1 1 1 0.048676465339663084 1 0.05180705301420669 1 1 1 1 1 1 1 1 1 1 1 0.053183795430829045 1 0.051595238909207738 1 1 1 0.026671613544930067 1 1 1 1 1 0.050083123202767366 1 1 1 1 1 1 0.033274960543436066 1 1 1 1 1 1 1 1 1 1 1 0.039819063774118001 1 1 1 1 1 1 1 1 0.019521839775621372 1 1 1 0.033777089999514655 1 1 0.046091131120936338 1 1 1 1 1 0.05519314025303676 1 1 1 1 1 1 1 1 1 0.05000969530827868 1 1 0.071116224217486673 1 0.061736414523749582 1 0.041126853433958353 0.05753262507750527 0.051817846368855947 1 0.049801252608599682 1 1 1 1 1 1 0.031993259323966572 1 1 1 1 1 1 0.050525945375086409 1 1 1 1 1 1 1 0.030345468484626367 1 1 1 1 0.029024229268652432 1 1 1 1 1 0.053832230264143952 1 0.049927315649983019 1 1 1 1 1 1 1 1 1 1 0.051358776597763826 1 1 1 1 1 1 1 0.043359478539322316 1 1 1 1 1 1 1 0.050015194389810988 1 0.051969732433021415 1 1 1 1 1 1 1 1 0.07380720954360509 1 1 1 0.077647327274114247 0.050114338702526032 1 1 1 1 1 0.070702933036747725 0.04998261789015826 1 0.067677913539864257 1 1 0.039834415707793315 1 1 0.041119172088078394 1 1 1 1 1 1 1 1 0.018997973106816203 1 1 1 1 1 0.10534328955643521 1 1 1 1 0.086469146817566983 1 1 0.082592698341468623 1 1 1 1 1 1 1 1 1 1 1 1 1 1 1 1 1 1 1 1 1 1 1 1 1 1 1 1 1 1 1 1 1 1 1 1 1 1 1 1 1 0.047682523160641324 1 1 0.050180254513351424 1 1 1 1 1 0.053092710575832536 1 1 1 1 0.047893497492188214 1 1 1 1 1 1 1 1 1 1 1 1 1 1 1 1 1 1 1 1 1 1 1 1 0.052737259517766151 1 1 1 0.051213668104501231 1 1 1 1 1 1 0.0502506233677113 1 1 1 1 1 1 1 1 1 1 1 0.05734423843203712 1 0.047202133846950663 0.055048535661548548 1 1 0.053212226373885278 1 1 1 1 1 1 1 1 1 1 1 0.065164231299047914 1 1 0.056398116585269366 1 1 1 1 1 1 1 1 1 1 1 1 1 1 1 0.060791929844262869 1 1 1 1 1 1 1 0.049840577818337325 1 0.052958987960262688 1 1 1 1 0.048125843416277334 1 0.048155979211330406 1 1 1 1 1 1 1 1 1 0.046000868462658086 1 1 1 1 1 1 1 1 1 1 1 1 1 1 1 1 1 0.047981291512495569 1 1 1 1 1 1 1 1 1 1 1 1 1 1 1 1 1 1 1 1 1 1 1 1 1 0.04630931887579047 0.049928012746759565 1 1 1 1 1 1 1 1 1 1 1 0.045168916564991349 1 1 1 1 0.037656897115140878 1 1 1 1 0.040680307042358615 1 1 1 1 1 1 1 1 0.057023430984118682 1 1 1 1 1 1 1 1 1 0.051309757966718876 1 1 1 1 1 1 1 1 1 1 1 1 1 1 1 1 1 1 1 1 0.0017546371424827295 1 1 1 1 1 1 1 1 1 1 1 1 1 1 0.061571185736980533 1 0.050238540288231943 1 1 1 1 1 1 1 1 0.059428554004802327 1 1 0.050489163655943248 1 1 1 1 1 1 1 1 1 1 1 1 1 1 1 1 1 1 1 1 1 1 1 1 1 1 1 1 1 1 1 1 1 1 1 1 0.050263433958737738 1 1 0.0502978878441315 1 1 1 1 0.040843005321971985 1 0.055918688762455038 1 1 0.053973806275463714 1 0.053074543159331675 1 1 1 1 1 0.051328224139838119 1 1 1 1 1 1 1 1 1 1 1 1 0.032229347125667093 1 1 1 0.038805977448136325 1 1 1 1 1 1 1 1 1 0.058546112991293267 1 1 1 1 0.05676242714170112 0.04398055511618159 1 1 1 1 1 1 1 1 0.049897622008918535 1 1 1 1 1 0.078269637405088383 1 1 1 0.071412238287045848 1 1 1 0.0040448633128636327 1 1 1 1 0.06330913727969889 1 1 1 1 1 1 1 1 1 1 1 1 1 1 0.030822593994057082 1 1 1 1 1 1 0.043500854939509254 1 0.030816500639428986 0.050001739792088606 1 0.044933709358870005 1 0.05454400398143075 1 1 1 1 0.049427020337290836 1 1 1 1 0.048433800457688088 1 1 1 1 1 1 1 1 1 0.051546024138067484 1 1 1 1 1 1 1 1 1 1 1 1 1 1 0.053292343157561026 1 1 1 0.050180684010798109 1 1 1 0.05044742337058826 1 0.050050859375199881 1 1 1 1 1 1 1 1 1 1 1 1 1 1 1 1 0.053043863416205837 1 1 1 1 1 1 0.059834014515789222 1 1 1 1 1 1 1 1 1 1 1 1 1 1 1 1 1 1 0.077130030674778624 1 1 1 1 1 1 1 1 1 1 1 1 1 1 1 1 1 1 1 1 1 1 1 1 1 1 1 1 1 1 1 1 1 1 0.046225462158864937 1 1 1 1 0.050393807829393018 1 1 1 1 1 1 1 0.070486544221909919 1 1 1 1 1 1 1 1 1 0.027350290074211272 1 1 0.084847516499660824 1 1 1 1 1 0.049952045412914092 1 1 1 0.044427416079468859 1 1 0.051259407783866076 1 1 1 1 1 1 1 1 1 1 1 1 1 1 1 1 1 1 1 1 0.025868326369440735 1 1 1 1 1 1 1 1 1 1 0.059172853324243185 0.02457342792540336 1 0.08621331577663395 1 1 1 1 1 0.08906965030799345 1 1 1 1 0.054353086519270608 1 1 1 1 1 0.049632940163269954 1 0.049636080981304918 1 1 0.043721926950542514 1 1 1 1 1 1 1 1 0.047899875330699261 1 1 1 1 1 1 0.050190253771468338 1 1 1 1 1 1 0.050697199990695094 1 1 1 1 0.052080304797146738 1 1 0.050021658007377401 1 0.053403384843410479 1 1 0.050031154836654268 1 1 1 1 1 1 0.051042159623119018 1 1 1 1 0.049979865054349371 1 1 1 1 1 1 1 1 0.051426414973114648 0.054891490106973383 1 1 1 1 1 1 1 1 0.049773821971495352 1 1 1 1 1 1 0.050022587119808212 1 1 1 1 1 1 1 0.052251417257815791 1 1 1 0.05930443751962728 1 1 1 1 1 1 1 1 1 1 1 1 0.041175457926824428 1 1 1 1 0.035268691256252496 1 1 0.056604378679573263 1 1 1 1 0.051005212006379516 1 1 1 0.050088277349184238 0.052756612337443456 1 1 1 0.049781587077122103 1 1 1 0.037167242658264703 1 1 1 1 1 1 1 1 1 0.053932756654625789 1 1 1 0.050036603387620157 1 1 1 1 1 1 1 1 1 1 1 1 0.04850798631187319 1 0.049927986163464527 1 1 0.029297683760076083 1 1 0.039053998014149063 1 1 1 1 1 1 1 0.050034801817094271 1 1 1 1 1 0.049937752985192485 1 0.02698691991293492 1 1 1 0.050861197546670532 0.05206645222513874 1 0.058870742053782808 0.041831519884427452 1 0.039966655165296155 1 1 1 1 1 1 0.050672424252181977 1 0.07469972095582475 1 1 1 1 1 1 1 1 1 1 1 1 1 0.049983902822654108 1 1 0.058427282804845743 1 0.05212453360648097 1 1 0.067276439724972562 1 1 1 0.052820320798223727 0.044061634115925771 1 1 0.071119487487892666 1 1 1 1 1 1 1 1 1 1 1 1 1 1 1 1 1 1 1 1 1 1 1 0.04797060041549675 0.049940265991309393 1 0.049617784963549044 1 0.050204024599261057 1 1 0.050001800049676151 0.050974834070144109 1 1 0.049996970482482209 1 1 0.051940983600117882 1 1 0.049070284950714277 1 0.050076760026151766 1 1 1 1 0.050047055398105195 1 1 1 1 0.049582479119674838 1 0.047389054703122394 0.051946167631685039 1 0.052699723910453924 1 1 0.049199342223179302 0.047377113849376096 1 1 1 0.051007776565578887 1 1 1 1 0.05794582744356773 0.048512520175755067 1 1 1 1 1 0.050289553245002637 1 1 1 1 1 1 1 1 1 1 1 0.058530498925873378 1 0.043588350485093512 1 0.034828815726792348 1 1 0.049998430295256274 1 0.035709123770571248 1 1 1 1 1 1 1 1 0.048381002073684953 1 1 0.052305810906636961 1 1 1 1 0.050001245500913762 1 1 1 1 1 1 1 1 1 1 1 1 0.047344086278242208 1 1 1 1 1 1 1 1 1 1 1 0.050214733979835426 1 1 1 1 1 1 0.05019615577705426 1 0.052898802797030978 1 1 0.050618495494186053 1 1 1 1 1 1 1 1 1 1 1 1 1 1 1 1 1 0.049003284822846771 0.045147798895304903 1 1 1 0.049777609712843063 1 1 0.04351684481959224 1 1 1 1 1 1 1 1 1 1 1 1 1 1 1 1 1 1 1 1 1 1 1 1 1 0.050009501976528516 0.031008349123071738 1 1 1 1 1 1 1 1 1 1 1 0.029045470117627259 1 1 1 1 1 1 1 1 1 1 1 1 1 1 1 1 1 1 1 1 1 1 1 1 1 1 1 1 1 1 1 1 1 0.049696859184313484 1 1 1 1 1 0.049773552362441784 1 1 0.05135246354756956 1 1 0.039088470031094599 0.081771274118046591 1 1 1 1 1 1 1 1 1 1 1 1 1 0.077659700148543592 1 1 0.050470192565687022 1 1 1 1 1 1 0.049988954901717189 1 1 0.073156948120401813 1 1 1 1 1 1 1 1 1 1 1 1 1 0.073572589140491251 1 1 1 1 1 1 1 0.049985136243944406 1 1 1 1 1 1 1 1 1 1 1 1 0.050307821455011573 1 1 0.050111665677957308 1 1 1 1 1 1 1 1 1 1 1 1 1 1 1 1 1 1 1 1 0.068835875816345732 1 1 0.050156634380375445 1 0.055429835378131634 1 1 1 0.049943812022201217 1 1 0.044411508794297144 1 0.063829467989383631 1 1 1 0.043571370832008058 1 1 1 1 0.049833140099004997 1 1 1 1 1 1 1 0.049558265760360029 1 1 1 0.047665344261128083 1 1 1 1 1 1 1 1 1 1 1 1 0.051845084296671229 1 1 1 1 1 1 1 1 0.051368915758838472 1 1 1 1 1 1 1 1 1 1 1 0.047504914056053379 1 1 1 1 1 1 1 1 1 1 1 1 1 1 1 1 1 1 1 0.053920901626777103 0.046492690447144519 1 1 1 0.048821462810299185 1 1 1 1 1 1 1 1 1 1 1 1 0.050280673866167046 1 1 1 1 1 1 1 1 1 0.050736251820969872 1 1 1 1 1 1 1 1 1 1 1 1 1 1 1 1 0.040480187483083123 1 0.048719822714638879 1 1 1 1 1 0.042774741557188724 1 1 1 1 0.050231118855548672 1 1 1 0.05005284512567211 1 1 1 0.046926688402085706 1 1 1 1 1 1 1 1 1 0.048275054649938809 1 1 1 0.045239764809853991 1 1 0.049432033449511914 1 1 1 1 1 1 0.049623069429394283 1 1 1 1 1 1 1 1 0.049493903104745829 1 1 1 0.04962736642429779 1 1 1 1 1 1 1 1 1 1 1 1 1 1 1 1 1 1 1 1 1 1 1 1 1 1 1 0.048238299582080264 1 1 1 1 1 1 1 0.049264213199223431 1 1 1 1 1 1 1 1 1 1 1 1 1 1 1 1 1 1 1 1 1 1 1 1 1 0.049576798860508302 1 0.049906516315281348 1 1 1 1 1 1 0.048773081116722156 1 1 1 0.049951622229453235 1 1 0.049877517922363612 1 1 1 1 1 1 1 1 1 1 1 1 3.6914915568786455e-15 1 1 1 1 1 4.0453751459779141e-15 1 1 1 1 1 1 1 1 1 1 1 1 1 0.049102798571495174 1 1 1 0.048574648296161566 1 1 1 1 1 1 1 1 1 1 1 1 0.046081014373928586 0.066978342906828192 1 1 1 1 0.066543572099048265 1 1 1 1 1 1 1 1 1 0.049930617872581948 0.042131232859999646 1 1 1 1 1 0.039839306378764913 1 1 1 1 1 0.049794652195166489 1 1 1 1 1 0.050059707526373086 1 0.032980313932996899 1 1 1 1 0.048643218673828266 1 0.047303649091603603 1 0.062289109847553079 0.050030643452026291 1 1 1 1 1 1 1 0.050182598764215915 0.049062984445295763 1 1 1 1 1 1 0.050008693942350163 0.057798472543911725 0.05264029113656539 1 0.045383897738975304 0.046266219282978957 1 1 1 0.053796305307876199 1 1 1 1 1 0.065388092931732283 0.048834821954263967 0.050000814469685649 1 0.058881211159740751 1 1 1 0.049919027344846975 1 0.050438773185146238 0.050490754132226319 1 1 1 1 1 1 1 0.048299406648205409 0.051239651570595658 1 1 0.050184390821702257 0.038934103712988742 0.058642835099001131 1 1 1 1 1 1 1 1 1 1 1 1 1 1 1 1 1 1 1 1 1 1 1 1 1 1 1 1 1 1 1 1 1 1 1 1 1 1 1 1 0.049914320430110626 1 1 1 1 1 1 1 1 1 1 0.048946277590230028 1 1 1 1 1 1 0.046692058791951832 1 1 0.043330000224788251 1 1 1 1 1 1 1 1 1 1 1 1 1 0.05253199147579711 1 0.057717422502998286 1 1 1 1 0.052538130689588625 1 1 1 0.065789017912536565 1 1 0.068163712998880868 1 1 1 0.049973877979369891 1 1 0.049889592768901841 1 1 1 1 1 0.049884546029785343 1 1 1 1 1 1 1 0.049949234144217536 1 1 1 1 1 1 1 0.069318753707904024 1 1 0.069946673440324583 1 1 1 1 0.048803482986134308 1 0.050566963258700415 1 1 1 1 1 0.046044861046123223 1 1 1 1 0.051819618929771723 1 1 1 1 1 1 0.055710098917902059 0.025406253675577722 1 1 1 1 1 0.07086707054537339 1 1 0.051793935530684315 1 1 1 1 1 1 1 1 1 1 0.051878165944824875 1 1 1 1 1 1 1 1 1 1 1 1 1 1 1 1 1 1 0.050609720870980729 1 1 1 1 1 1 0.050039718205850944 1 1 1 1 1 1 1 0.043464625242491658 0.05013247142762528 1 1 1 1 0.049955551364221182 1 1 1 1 1 1 1 0.049263076270137082 1 1 0.030855335119148564 1 0.052531496506407691 0.065262634425841737 0.033791353152264669 1 1 1 1 1 1 0.035301041231251301 1 1 1 1 1 0.050006756567344782 1 1 1 1 0.036455586822725525 1 1 1 0.058371437281037858 1 1 1 0.056781380814002566 1 1 1 1 1 1 1 1 1 1 1 1 1 1 1 1 1 1 1 1 1 1 1 1 1 0.054408971177260207 1 1 1 1 1 1 1 0.052164290041719033 1 0.056220440318094492 1 1 1 1 1 1 0.07224995269421447 1 1 0.052191792944630687 1 1 1 0.049916016887522806 1 1 0.047773457265852942 1 1 1 1 1 0.049779813569324066 1 1 1 0.049932455392567257 0.049466931533665104 1 1 1 1 1 1 1 1 1 1 1 1 0.051667063949579789 1 1 1 1 1 1 1 1 1 0.055071689602510132 1 1 1 1 1 0.050142682090903418 0.036543098845339503 1 1 1 1 1 1 1 1 1 0.048315777063803092 1 1 1 1 1 1 1 1 0.041687576275089844 1 1 1 1 1 1 1 1 1 1 1 1 1 1 1 1 1 1 0.047879419717075967 1 1 1 1 0.045544763978204027 1 0.047236098936421431 1 0.049484893107160921 1 1 1 1 1 1 1 1 1 1 1 1 1 1 1 1 1 0.050080433518226469 1 1 1 1 1 0.043000926718507568 1 1 1 0.053554453559909232 0.039303996249762163 1 1 1 1 1 0.044451803783799676 1 1 1 1 0.047623704979573106 1 1 1 1 1 1 1 1 0.042009907056948806 1 1 1 1 1 1 1 0.044998097059288478 1 1 1 1 1 1 1 1 1 0.050606267904727359 1 1 1 1 1 1 1 1 1 1 1 1 1 1 1 1 1 1 0.049664039356901835 1 1 1 1 1 1 1 1 1 1 1 1 1 0.050998685743316077 1 1 1 1 1 1 0.050034814703144803 1 1 0.049866536680448048 1 1 0.050092813252140309 1 1 1 1 1 1 1 1 1 1 1 1 1 1 1 1 1 1 1 1 1 1 1 1 1 1 0.050088917372365344 1 0.046980191697702539 1 0.050005204134111358 0.051386550453656241 1 1 1 0.055442142784929038 1 1 1 1 1 1 1 1 1 0.049047841873428921 0.052933742905812521 1 0.078152886334361321 1 1 1 1 1 1 1 1 1 1 1 1 1 1 0.04999740358705522 1 0.044835363976178697 0.043137382546698494 1 0.061090183439184514 1 1 1 1 1 1 1 1 1 0.044443818235713584 0.049309915395113244 1 1 1 1 1 1 1 1 1 1 1 1 1 1 1 1 1 1 1 1 1 1 0.052009713790720405 1 1 1 1 1 0.048924677524869023 1 1 1 1 1 0.046419309722722193 1 1 1 0.05803861586991424 1 1 1 1 1 1 1 1 1 0.053048769462479384 1 1 1 1 0.077813354538415758 1 1 1 1 1 1 0.045886533897001022 1 1 1 1 1 1 1 0.048257536154369313 1 1 1 1 0.043894820910185109 1 1 1 1 1 1 1 1 1 1 0.051078094132888135 1 1 1 1 0.047807575941183261 1 1 1 0.067531511820187795 1 1 1 1 1 0.031132070198603964 1 1 1 1 1 1 1 1 1 1 1 1 1 1 0.04380543407144729 0.07956191897462736 1 1 0.067992539443283914 1 1 1 1 1 1 1 0.04790569770532381 1 1 1 1 1 1 0.046150379671022396 1 1 1 1 1 1 1 1 1 1 1 1 1 1 1 1 1 1 1 1 1 1 1 0.040038480387697792 1 1 1 1 1 1 1 1 0.050185861894638126 1 1 1 1 0.051368070270713162 1 1 1 1 1 0.036116864219535319 1 0.050070548263446771 1 0.05563565887158782 1 1 1 1 1 1 1 0.05002003909446949 1 1 1 0.048254520859413536 1 1 1 1 1 0.0551746029256905 1 1 1 1 1 0.050040357407876906 1 0.049996523487124994 1 1 0.050457825125298582 1 0.055085778270684393 1 1 1 1 1 0.046117919702817881 1 1 1 0.038235432204422826 1 1 1 1 1 1 1 1 1 1 0.050608374945428553 1 1 1 1 1 1 1 1 1 1 1 1 1 1 1 1 1 1 1 1 1 1 0.044578954863967388 1 1 1 1 1 1 1 1 1 1 1 1 1 1 1 1 1 1 0.035404739264572049 1 1 1 0.028311261258751656 1 1 1 1 1 1 0.067144268094142534 1 1 1 0.055380971871958562 0.055333821258008432 1 0.038056257843648786 1 0.052405869534260269 0.060460119819332518 1 0.060731376770082286 1 1 0.049989953583724087 1 1 0.051882963542169508 0.050075645368774346 1 1 1 1 1 1 1 1 0.049972114508340576 1 0.049993411545578681 1 1 1 1 1 1 1 1 1 1 1 1 1 1 1 1 1 1 1 1 1 1 0.059658968999282184 1 1 1 1 1 1 1 1 0.063614813060711983 1 1 0.05021996769485694 1 1 0.06731313367896638 0.050266976939564903 1 1 0.050085659937153595 1 1 1 1 1 1 1 1 1 1 1 1 1 1 1 1 1 1 1 1 1 1 1 1 1 1 1 1 1 1 1 1 1 1 1 1 1 1 1 0.065806721335040619 1 0.066018425435390701 1 1 1 1 1 1 1 1 1 1 1 1 1 1 1 1 1 1 1 1 1 1 1 1 1 1 1 1 1 1 1 1 1 1 1 1 1 1 1 1 0.044153437593650494 1 1 0.041813291658796187 1 1 1 1 1 0.051139616601632742 1 0.050360721884313203 1 1 0.047097950294849526 1 1 1 1 1 1 0.047089900915972899 1 1 1 1 1 1 1 1 1 1 1 0.049712608832145185 1 1 0.082093550689032346 0.065209515129827922 1 0.067896020419516506 1 1 0.033559573658069448 1 1 1 1 0.066625779878129121 1 1 1 1 1 1 1 1 1 0.049963549884819311 1 0.076648359169651389 1 1 1 1 1 1 1 0.050029595347937078 1 0.043492647064410819 1 1 1 1 1 1 1 1 1 0.050578188450343842 1 0.044490592707334839 1 1 1 1 1 1 1 1 1 1 0.051886890169340977 1 1 1 0.075182331404415492 1 1 0.04999304800063667 1 1 0.0542661575730349 1 1 1 1 0.052467540596418227 1 1 1 0.050057998548995522 1 1 1 1 1 1 1 1 1 1 1 1 1 1 0.050799354758540201 1 1 1 1 1 1 0.050858630924290077 1 0.050357710559192678 1 0.077464932822911753 1 1 1 0.050994186188703702 1 1 1 1 1 1 1 1 0.081478811447622243 1 1 1 1 1 0.049984075801403398 1 1 0.083657369536935325 1 1 1 1 1 1 1 1 1 0.061751331536783971 1 1 1 0.053997987099986718 1 1 1 1 1 1 0.069234675829760062 1 1 1 1 1 1 1 1 1 1 1 1 1 1 1 1 1 1 1 1 1 1 1 1 1 1 1 1 1 1 1 0.044649334640446285 1 1 1 1 1 0.048536336923806475 1 1 0.048935939276161147 0.044705038916222448 1 1 1 1 0.038906356514280566 1 1 1 1 1 0.049560339143111726 1 1 1 1 1 1 1 1 1 1 1 1 1 1 1 1 0.047644443082447377 1 1 1 1 1 1 1 1 0.045890895666713824 0.042036399232753686 1 1 1 1 1 1 0.045580509880316325 1 1 1 1 0.052187954246743537 1 1 1 1 1 1 1 1 1 1 1 1 1 1 1 1 1 1 1 1 1 1 1 1 0.045556726520437414 1 1 0.048551834962438541 1 1 1 1 1 1 1 1 1 1 1 1 1 1 1 1 1 1 1 1 1 1 1 1 1 1 1 0.047800083709524877 1 0.045361347081392986 1 1 1 1 1 0.040789580864991862 1 1 1 1 1 1 1 1 1 1 1 1 1 1 1 1 1 1 1 1 0.057290545470053175 0.042983331637902578 1 0.054239985705780716 1 1 1 1 1 1 1 1 1 1 1 1 1 1 1 1 0.052089562729488184 1 1 1 0.050605447257169922 1 1 1 1 1 1 1 1 1 1 1 1 1 0.045428233783598899 1 1 1 1 1 1 1 1 1 1 1 1 1 1 1 1 1 1 1 1 1 1 0.090733082593761546 1 1 1 1 1 1 1 1 1 1 1 1 1 0.08633625393719771 1 0.013288907916833598 1 1 0.060392359802162843 0.032915817132791125 1 1 1 1 1 1 1 1 1 1 1 1 1 1 1 1 1 1 1 1 0.050650561791585225 1 1 0.10302395427304212 1 1 1 0.051098585229352858 1 1 1 1 1 1 0.1051437201931 1 1 1 0.052127026752447056 1 1 1 1 1 1 1 1 0.050061953070951841 1 1 0.035106738739636829 1 1 0.080022024932959943 1 0.07675393695445544 1 1 1 1 0.06138490609275081 0.081246509463425459 1 1 0.054190245547342621 0.079223449267191715 1 1 0.03249467134120923 1 1 1 1 0.050502127086514671 1 1 0.035534990283831031 0.026437078621389568 1 0.049977620382566645 1 1 1 1 1 1 1 1 1 1 1 1 1 1 1 1 1 1 1 1 0.034867669626865556 1 1 1 1 0.035368491769944846 1 1 1 1 0.049342354420585814 0.050170230995064728 1 1 1 1 1 1 1 1 1 1 1 1 0.05016639016528722 1 1 1 0.0024041898845390333 1 1 1 1 1 1 1 0.0064993577407477174 1 1 1 0.049653688321954784 1 1 0.050273857502480458 0.050234879573749287 1 1 1 0.0094990408665165359 1 1 1 0.050075365774500669 1 1 1 1 1 1 1 1 1 1 1 1 1 1 1 1 1 1 0.049947368187182373 1 1 1 1 1 1 1 1 1 1 1 1 1 1 1 1 1 1 0.050274132554687337 0.049961831550984992 1 1 1 1 1 0.050147837903874101 0.050696351685704952 1 0.050461719821266862 1 1 1 1 1 1 1 1 1 0.074074786420473798 1 1 1 0.070647872918439492 1 1 1 1 1 1 1 1 1 1 1 1 1 1 0.076563710477527233 1 1 1 1 1 1 1 0.063792771811908275 1 1 0.06721161068377389 1 1 1 1 1 1 0.027981882468872794 1 1 1 1 0.030219154478391651 1 1 1 1 1 1 0.047296757300144966 1 1 1 1 1 1 1 1 0.05012321498891114 0.026000507840706386 1 1 1 0.050165313117350084 0.033206494893948051 1 1 1 1 1 0.050152633963664567 1 1 1 1 1 1 0.052315238743293059 1 1 1 1 0.049520119580232703 1 1 1 1 1 0.050777860055364277 1 1 1 1 0.045585589161845366 1 1 1 1 1 1 1 1 1 1 1 1 1 1 1 1 1 1 1 1 1 1 1 1 1 0.05026078208911753 1 1 1 1 0.061292090448597632 1 0.062911674843059651 1 0.063186896410168406 1 1 0.067080668516754038 1 1 0.035709329213626961 1 1 0.047720401950835774 1 1 1 1 1 1 0.04963790197779621 1 1 0.051281446983587914 1 0.052597614305429759 0.034687640293047189 0.053550658751623223 1 1 0.025353640424725113 1 0.049857440556114727 0.033874079968536933 1 1 1 0.043989738699961742 1 0.050071099002672467 1 1 1 1 1 1 0.050093053058065232 1 1 1 0.04994879859779823 1 1 1 1 1 1 1 0.05501066215950267 1 1 1 0.052359333608182464 1 0.046824975405114093 0.047536911716468365 1 1 1 1 1 1 1 0.047347197587459096 1 1 1 1 1 1 1 1 0.049384085445052975 0.053959626438378365 1 1 1 1 0.054969794588182672 1 1 0.054878506935254451 1 1 1 0.049999231892353425 1 1 1 0.053744029810556808 0.050681942284345249 1 1 1 1 0.049867346122932601 1 1 1 1 1 0.050975231107888083 0.052923125723975381 1 1 1 1 1 1 1 1 1 1 1 1 1 1 1 1 1 1 1 1 1 1 1 1 1 1 1 1 1 1 1 0.04859118735642428 1 1 1 0.050130353898429292 1 1 1 1 1 1 1 1 1 1 1 1 1 1 1 0.051647174238465682 1 0.049987987762609695 0.045937871700899496 1 1 0.052821878332478957 1 1 1 1 1 1 1 1 1 1 1 1 1 1 1 1 1 1 1 1 1 1 1 0.049757673717956426 1 1 0.052717845867053165 0.049959304788143442 1 1 1 1 1 1 1 0.052119001454010633 1 1 1 0.048287714535035553 1 1 1 1 0.049822612223802007 0.049936168305631967 1 1 1 1 1 1 1 0.053496961646076271 1 1 1 1 0.052260777532561309 1 1 1 1 0.050614033857325741 1 1 1 1 1 1 1 1 1 1 1 1 1 1 1 1 1 1 1 0.049052922392472748 1 1 1 1 1 1 1 1 1 1 1 1 1 1 1 1 0.050224831672703217 1 1 1 0.049990894405482565 1 1 1 1 1 1 1 1 1 0.050828201187785554 1 1 1 1 1 1 1 1 1 1 1 1 1 1 1 1 1 1 1 1 1 0.049554580024306766 1 1 1 1 1 1 1 1 1 1 1 1 1 1 1 1 1 0.048423620255134851 1 1 1 1 1 0.049868633140487575 1 1 1 1 1 1 1 1 1 1 1 1 1 1 1 1 1 1 1 1 1 1 1 1 1 1 1 0.050147884120273593 1 1 0.02052587420813725 1 1 1 0.016534054282796681 1 1 1 1 1 1 1 1 1 1 1 1 1 1 1 0.029197698438923524 1 0.046714675501742381 1 1 1 1 1 1 1 1 1 0.032928700062387378 1 1 1 1 1 1 1 1 1 0.046393075646291401 0.038974421783544683 1 1 1 1 1 1 1 1 1 1 1 1 1 1 1 1 1 1 1 1 1 1 1 1 1 1 1 1 1 1 1 1 1 1 1 1 1 1 1 1 1 1 1 1 1 1 1 1 1 1 1 1 1 1 1 1 1 1 1 1 1 1 1 1 1 1 1 1 1 1 1 0.046494960293221615 1 1 1 1 1 1 0.040502575222558401 1 1 1 1 1 1 1 1 1 0.046366355826164489 1 0.040400690575628201 1 1 1 1 1 1 1 1 1 1 1 1 1 1 1 1 1 1 1 1 1 1 1 1 1 1 1 1 1 1 1 1 1 1 0.054478090234723935 1 1 1 0.048304247588629563 0.049141692453070013 1 1 1 1 1 1 1 1 1 1 1 1 1 1 1 1 1 1 1 1 1 1 0.051502006278718024 0.048959029955222791 1 1 1 1 1 1 1 1 0.04427362920743131 1 1 1 1 1 1 0.042861447423433466 1 1 1 1 1 0.048464606367932331 1 1 1 1 0.049359598752808875 1 1 1 0.048324794824760105 1 1 1 0.047368083586012986 1 1 0.04549906463489993 1 1 1 1 1 1 1 1 1 1 1 1 1 0.049273082758311104 1 1 1 1 1 1 1 1 0.045199175652760513 1 1 1 1 1 1 1 1 1 1 1 0.051379146068142229 1 1 1 0.050381559455752414 1 1 1 1 0.047510573823514562 1 1 1 1 1 1 1 1 0.046757919012244048 1 0.056200906132500367 1 1 0.04006904484964767 1 1 1 1 1 0.05323815050659958 1 1 1 1 1 1 1 1 1 1 1 1 0.048784947686787296 1 1 1 1 1 1 1 1 1 0.046174021886324614 1 1 1 1 1 1 0.047326205650285308 1 1 1 1 1 1 1 0.047862089259340213 1 1 1 1 1 0.046647036946127471 1 1 1 1 1 1 1 1 1 1 1 1 1 1 1 1 1 1 1 1 1 1 1 1 1 1 1 1 1 1 1 1 1 1 1 1 1 1 1 1 1 1 1 1 1 1 1 0.050747137258541429 1 0.05185617163472097 1 1 1 1 1 1 1 1 1 1 1 1 1 1 0.049801902808925172 1 1 1 1 1 1 1 1 1 1 1 1 1 1 1 0.040501174919894301 1 1 0.051886007323882009 1 0.055739155818003913 1 1 1 1 1 0.055239977508534981 1 1 1 1 1 1 1 1 1 1 1 1 1 1 1 1 1 1 1 1 0.037480738982547793 1 1 1 1 1 1 1 1 1 1 1 0.034969101803916811 1 0.050296738387440171 1 1 0.033417059961294134 1 0.070489416376365938 1 1 1 1 1 1 1 0.049783305721359229 1 0.015656762257491789 1 1 1 1 0.005850278348318208 1 1 1 1 0.050943604194132769 0.037327802051565509 1 1 0.039790316036608542 1 1 1 1 1 1 1 1 1 1 1 1 1 1 1 1 0.046866771258740413 1 1 1 1 1 1 1 1 1 1 1 1 1 1 0.040861122834873954 1 0.049876224469002639 1 1 1 1 1 1 1 0.11521230181445204 1 0.10462968498594399 1 1 1 1 1 1 1 1 1 0.04980483666317017 0.0034842474881511525 1 1 1 0.029951721797435847 1 1 1 1 0.072780659197170389 1 0.039023022026882737 1 1 0.055858162087606314 1 0.071328722901963931 0.071093833934156761 0.051430975212304227 1 1 0.050021360847976051 1 1 1 0.067036972118368787 0.036481302602919076 0.025418198306699391 1 1 1 1 1 1 1 1 1 1 1 0.033480117726301682 1 1 1 1 1 1 0.0016661697755010569 1 1 1 0.050424765543569547 1 1 1 1 1 1 1 1 0.040546614430950048 1 1 1 0.046852217632060281 1 1 1 1 1 1 1 1 1 1 1 1 1 1 1 1 1 1 1 1 1 1 1 1 1 1 1 1 1 1 1 1 1 1 1 1 1 1 1 1 1 1 1 1 1 1 1 1 1 1 1 1 1 1 1 1 1 1 1 1 0.053172936466815063 1 1 1 1 1 0.0584797007727949 1 1 1 1 0.052123432550383438 1 1 1 0.061488982879577936 1 1 1 1 1 1 1 1 1 1 1 1 1 1 1 1 1 1 1 1 1 1 1 1 1 1 1 1 1 1 1 1 1 1 1 1 1 1 1 1 0.046965802254549417 1 1 0.041185743269277611 1 1 1 1 1 1 1 0.051207468315818253 1 1 1 1 1 1 1 1 1 1 1 0.053664242320199576 1 1 0.050055084109365898 1 0.055396616963567874 1 1 1 0.035751047528017645 1 1 1 1 1 1 1 1 0.04968822477412653 1 1 1 1 0.05149436026794732 1 1 1 1 0.031594748672560506 1 0.053977339107485339 1 1 1 1 1 1 1 1 1 1 1 1 0.033524959575313519 1 0.032189391922510038 1 1 1 1 1 1 1 1 1 1 1 1 1 0.051267461465633005 1 1 1 1 1 1 1 1 1 0.052206611641470835 1 1 1 0.050939150175837875 1 1 1 1 1 1 1 1 1 1 1 1 1 1 1 1 1 1 1 1 1 1 1 1 1 1 1 1 1 1 1 1 1 1 1 0.056494452439573198 1 1 0.049785183213589199 1 1 1 1 0.046339133473404709 1 1 1 1 1 1 1 1 1 1 1 1 1 1 1 0.053446925182334626 1 1 1 1 1 1 1 1 1 0.047851978065301441 1 0.051189886631777773 1 1 1 1 1 1 1 0.048963037429317083 1 1 1 1 1 1 1 1 1 1 1 1 1 1 0.047498644151218739 1 1 1 1 1 1 1 1 1 1 1 0.044476501306456799 1 1 1 1 1 1 1 1 1 1 1 1 1 1 1 1 1 1 1 1 1 1 1 0.048820489034205689 1 0.051193900560008276 1 1 1 1 1 1 0.035403892177122254 1 0.053545895178482919 1 1 1 0.034796150599401846 1 1 1 0.065409830491714852 1 1 1 0.033932051544762296 1 1 0.061141261652035657 1 1 1 1 1 1 1 0.054400066440742093 1 1 1 1 1 1 1 0.037149779410794989 1 1 1 1 1 1 1 1 1 1 1 1 1 0.04487071074560238 1 1 1 1 1 1 1 1 0.032249109877603169 1 1 1 1 1 1 1 1 1 1 1 1 1 1 1 1 1 1 1 1 0.042885566131588955 1 1 1 1 1 1 1 1 1 1 1 1 1 1 1 1 1 1 1 1 1 1 1 1 1 1 1 1 1 1 1 1 1 1 1 1 1 1 1 1 1 1 1 1 1 1 1 1 1 1 0.052226412521946951 1 0.037488591020059664 1 1 1 0.055806202314380937 1 1 0.049434206313456505 0.032996365432412897 1 0.055554435740736541 1 1 1 1 1 1 1 1 1 1 1 1 1 1 1 1 1 1 1 1 1 1 1 1 1 1 1 1 1 1 1 1 1 1 1 0.050283047837754898 1 1 1 1 0.050864557497142485 1 1 0.027480372333483299 1 1 1 0.049925546089320288 1 1 1 1 0.054080423588397347 1 0.049989073739407336 0.05323823129636332 1 1 1 1 0.05524483822346489 1 1 1 0.050907649326111332 1 1 1 0.050073090753056729 1 1 1 1 1 1 0.049488690364367684 1 1 1 1 1 1 1 1 1 1 1 1 1 1 1 1 1 1 1 1 0.051448762863064698 1 1 1 1 1 1 1 1 1 1 1 1 1 1 1 1 1 1 0.048274498964487669 1 1 0.045159128358316925 1 1 0.060949848694158995 1 1 1 1 1 1 1 1 1 1 1 0.042481796364031404 1 1 1 1 0.052122591141691807 1 1 1 1 0.049854506532763007 1 1 1 0.05188870494512754 1 1 1 1 1 1 1 1 1 1 1 1 1 1 1 1 1 1 1 1 1 1 1 1 1 0.04644878388253243 1 1 1 1 1 1 1 1 0.051886566593054059 1 1 1 0.057801655374549524 1 1 1 1 1 1 1 1 1 1 1 1 1 1 1 1 1 1 1 1 1 1 1 1 0.071939017659858717 1 1 1 0.039511192925990854 1 1 1 1 1 1 1 1 0.06739624410662258 1 1 0.041636989253142027 1 1 1 1 0.047075992584334543 1 1 1 1 1 1 1 0.077497151958271698 1 0.043705581860274803 1 1 0.042132279431255928 1 1 0.072162614107570411 0.0500181951923582 1 1 1 1 1 1 1 1 1 1 1 1 1 1 1 1 1 1 1 1 1 0.08772466095536971 1 1 1 1 0.082673322130272092 1 1 1 1 1 1 1 1 1 1 1 1 1 0.09024932841953473 1 1 0.051094700171613189 1 1 1 1 1 1 1 1 1 1 1 1 1 1 1 1 1 1 1 1 1 1 1 1 1 1 1 1 1 1 1 1 1 1 1 1 1 1 1 1 1 1 1 1 1 1 1 1 1 1 1 1 1 1 1 1 1 1 1 1 1 1 1 1 1 1 1 1 1 1 1 1 1 1 1 1 1 1 1 1 1 1 1 1 1 1 1 1 1 1 1 1 1 1 1 1 1 1 1 1 1 1 1 1 1 1 1 1 1 1 1 1 1 1 1 1 1 1 1 1 1 1 1 1 1 1 1 1 0.047797845963220786 1 1 1 1 1 1 1 0.05435568941096075 1 1 1 1 1 1 1 1 1 0.062678149706928518 1 0.032376614935881211 1 1 1 0.042586104990055974 1 1 0.041007039443159046 1 1 1 1 1 1 1 1 1 1 1 1 1 1 1 1 1 1 1 1 1 1 1 1 1 1 1 1 1 1 1 1 1 1 1 1 1 0.042973917700350694 1 1 0.041695211388465138 0.061707871278888916 1 1 0.051049990317214383 1 1 0.028852175124269373 1 1 1 0.034008320548595955 1 1 1 1 1 1 1 1 1 0.040258452440684808 1 1 1 1 1 1 0.046703503279318673 1 1 1 1 1 1 1 1 1 1 1 1 1 1 1 1 1 1 1 1 1 1 1 1 1 1 1 1 1 1 1 0.098460089087563124 1 1 1 1 1 1 1 1 1 1 1 1 1 1 1 1 1 1 1 1 1 1 1 1 1 1 1 1 1 1 1 1 1 1 1 1 1 1 1 1 1 1 1 1 1 1 0.024588771248560314 1 0.054172491723923355 1 1 1 1 0.051099596546130166 1 1 1 1 0.024187600188143119 1 1 1 1 0.050685555234710529 1 1 1 1 1 1 1 1 0.055631562840292095 1 1 0.052351528279194523 1 0.050264029155943662 1 1 1 1 0.05846522342673692 1 1 0.032188941436557338 0.066434270230472131 1 1 1 1 1 1 0.049781702776364192 1 1 1 1 1 1 1 1 1 1 0.033203629386895368 0.041196984534490416 1 1 1 1 1 0.036531525195078685 1 1 0.05175767895537367 1 1 1 1 0.067625438440963886 1 1 0.050058465638563573 1 1 1 1 1 1 1 1 1 1 1 1 1 1 1 1 1 1 1 1 1 1 1 1 1 1 1 1 1 0.049668445777080898 1 0.049892570910523876 1 1 1 1 1 1 1 1 1 1 1 1 1 0.050517560718066484 1 1 1 1 0.013870409202444325 0.0086976966380914456 1 1 1 1 1 1 1 1 1 1 1 1 1 1 1 1 1 1 1 1 1 1 1 1 1 1 1 1 1 1 1 1 1 1 1 1 1 1 1 1 1 1 0.051038755509323117 1 1 1 0.050521194791256635 1 1 1 1 1 1 1 1 1 1 1 1 1 1 1 1 1 1 1 1 0.01904476130803779 1 1 0.024351642075178162 1 1 1 1 1 1 1 1 1 0.050033163985227905 1 1 1 1 1 0.025432669460749097 1 1 1 1 1 0.050188863854863056 1 0.049922005421381713 1 1 1 1 1 1 1 1 1 1 1 1 1 0.045137978879764826 1 1 1 0.0548107856194847 0.029645775659486204 1 1 1 1 1 1 1 1 0.050078469767863398 1 1 0.033787030688207306 1 1 0.050000352330614464 0.042318847604273249 1 1 1 1 1 0.050036164117595539 1 1 1 1 1 1 1 0.047196062384507534 1 1 0.04191505052981441 0.050620623163361175 1 1 1 1 1 1 0.04956567708105844 0.049934333336139974 1 1 1 0.049846387009836707 1 1 1 1 1 1 1 0.051691433179993765 1 1 1 1 1 1 1 1 1 1 1 1 1 1 1 1 1 1 1 1 1 1 1 1 1 1 -5.2041704279304213e-17 1 1 1 1 1 1 1 0.048208156918194411 1 1 1 1 1 1 1 1 1 1 1 0.008082530845521952 1 1 1 1 1 1 1 1 0.045480702517972184 1 1 1 1 1 1 1 1 1 1 1 1 1 1 1 1 0.050488786492966883 1 1 1 0.047348527668381803 1 1 1 1 1 0.054025559800261511 1 1 1 1 1 1 1 1 1 1 1 1 1 1 0.043541953712336601 1 1 1 1 0.030265912477793783 1 1 0.016198241548125256 1 1 1 1 1 0.05004529779215651 1 1 1 1 1 1 1 1 1 1 1 1 1 1 0.051000884846445861 1 0.069453623326498626 1 1 1 0.047246671274030261 1 0.024076215594802663 1 0.075483601923413746 1 1 1 1 1 1 0.049563737261056173 -4.8572257327350599e-17 1 1 1 1 1 1 -4.163336342344337e-17 1 0.052855538297834168 1 1 1 1 1 1 1 1 1 1 1 1 1 1 1 1 1 0.067887887074430303 1 1 1 0.050422207923508773 0.065075948467362893 1 1 1 1 1 0.043153454585013316 1 1 0.050735925443690946 0.047242453343342219 1 1 1 1 1 1 1 1 1 1 1 1 1 1 1 1 1 1 1 1 1 1 1 1 1 1 1 1 1 1 1 1 1 1 1 1 1 1 1 1 1 1 1 1 0.071135923050449218 1 1 0.029974031214186972 0.037614892446763845 0.052364686354239312 1 1 1 1 1 1 0.05107259350487553 1 1 1 1 1 1 1 1 1 0.050580486990909709 1 1 1 0.061137601674337273 1 1 1 1 1 1 1 1 1 1 1 1 1 1 1 1 1 1 1 1 0.054741799476554678 1 1 1 1 0.051366836853429382 1 1 1 1 1 1 1 1 1 1 1 1 1 1 1 1 1 1 1 1 1 1 1 1 1 1 1 1 1 1 1 1 1 1 0.049010945233183403 1 0.049562274908003703 1 1 1 1 1 1 1 1 0.049269799201441776 1 1 1 0.046300783956461401 1 0.049707524293438041 1 1 1 1 1 1 1 1 0.02033069269943872 1 1 1 1 0.038953796140316299 1 1 1 1 0.040500126386515359 1 1 1 1 1 1 1 0.037233806363519778 1 1 1 1 0.044023518700282385 1 1 1 1 1 1 1 1 1 1 1 1 1 1 1 1 1 1 1 1 1 1 1 1 1 1 1 1 1 1 1 1 1 1 1 1 1 1 1 1 1 1 1 1 1 1 0.051980265220450295 1 1 1 1 0.050096272526423152 0.055433447985168846 1 1 0.061513739276585461 0.050967234998957847 1 1 1 1 1 1 1 1 1 1 1 1 1 1 1 1 1 1 1 0.050238901511571912 1 1 1 0.05145109547922655 0.050037839880311047 1 1 1 1 1 1 1 1 1 1 1 1 1 1 1 1 1 1 1 1 1 1 1 1 1 1 1 0.050589793588161527 1 1 1 1 1 1 1 0.047857664986656091 1 1 1 1 1 1 1 1 1 1 1 1 1 1 1 0.04450678511017641 1 1 1 1 1 1 1 1 0.05121053706941292 1 0.048397886201845194 0.053397124912260382 1 1 1 1 1 1 1 1 1 1 1 1 0.048132174849590398 1 1 1 1 1 1 1 1 1 1 1 1 1 1 1 1 1 1 0.055081855215723376 1 1 1 0.04492195922750479 1 1 1 1 1 1 1 1 0.047949726096221022 1 1 1 1 1 1 1 1 1 1 1 1 1 1 1 0.05261743897461045 1 1 1 0.050939927283674961 1 1 1 1 1 1 1 1 1 1 1 1 1 1 1 1 1 1 1 1 1 1 1 1 1 1 1 1 1 1 1 1 1 0.051035011161924035 1 0.050445965716144923 1 1 1 1 1 1 1 1 0.04984989147483878 1 1 1 1 1 1 1 1 1 0.049220254514118808 1 1 0.050990500068610035 1 1 1 1 1 0.050464755631320718 1 1 1 1 0.049896443731099874 1 1 1 1 0.047478619408954176 1 1 1 0.048395421577337068 1 0.045072101584893415 1 1 0.04699787935922016 1 1 1 1 1 1 1 1 1 1 1 1 1 1 0.049991894974191195 1 1 0.050001772788936583 1 0.050116377787864694 1 1 1 0.049915267494663879 1 1 0.041760530215811456 1 1 1 1 0.051472784990150108 1 0.051316225294931447 1 1 1 1 1 1 0.050481687561501953 1 0.050394613694487042 1 1 1 1 1 0.058371669545137367 1 1 1 1 0.051053313504991732 1 1 1 1 1 1 0.056489837895124823 1 1 1 1 1 1 1 1 1 1 1 1 1 1 1 1 1 1 1 1 1 1 1 1 1 1 1 1 1 1 1 1 1 0.050072736630244793 0.050068827374818645 1 1 1 1 1 1 1 1 1 1 0.059622912170495243 1 1 0.050584990976396293 0.053954454394647945 1 0.050028358980358262 1 1 1 1 1 1 1 0.057326222819856623 1 1 1 1 1 1 1 1 1 1 1 1 0.047939427537830336 1 1 1 1 0.04929735078288934 1 1 1 1 1 1 1 1 1 1 1 1 0.061549615267688401 1 1 1 1 1 1 1 1 1 1 1 1 1 1 1 1 1 0.060360674717528637 1 1 1 1 1 0.05327330402434402 1 1 1 0.051315420974234013 1 1 1 1 1 1 0.052736631346235005 1 0.064649620998926571 1 1 1 0.057893104469884604 1 1 1 1 1 1 1 1 1 0.07287902610543523 1 1 0.050114965025548686 1 1 1 1 1 1 1 0.051606144450676364 1 1 1 1 1 1 1 1 1 1 1 1 1 0.046952795580283237 1 1 0.052900848800178715 1 1 1 1 1 1 0.049910640134748316 1 1 1 1 1 1 0.08095897298890449 1 1 1 1 1 1 1 0.096606259073761525 1 1 1 1 1 1 1 1 1 1 1 1 1 1 1 1 1 1 1 1 1 1 0.053987364961946484 1 1 1 1 1 1 1 1 1 1 0.051455411261686262 1 1 1 1 0.049037210939500558 0.072564404323170434 1 1 1 1 0.067675687375744892 1 1 1 1 1 1 1 1 1 0.062842206636190112 1 1 1 1 1 1 1 1 1 1 1 0.064436530622533017 1 1 1 0.053030139639491769 1 1 1 0.055159803536291269 1 1 1 1 1 1 1 1 1 1 1 1 0.054399390943985236 1 1 1 1 1 0.050151306866791617 1 1 0.050372168387709318 1 1 1 1 1 1 1 1 1 1 1 1 1 1 0.047539420683667295 1 1 1 1 1 1 1 0.043010603093296781 1 1 1 0.039626882890139714 1 1 1 1 1 0.050415344539936319 1 1 1 1 1 1 1 1 1 0.050194483019018646 1 1 1 1 1 1 1 1 0.03666648276457582 1 1 1 1 1 0.05129482560300927 1 1 1 1 1 1 1 0.05046860107956317 1 1 1 1 1 1 1 1 1 1 1 1 1 1 1 1 1 1 1 1 1 1 1 1 1 1 1 1 1 1 1 1 1 1 1 1 1 1 1 1 1 1 1 1 1 1 1 1 0.050184934078675358 1 1 1 1 1 1 1 0.047849725544831634 1 1 1 1 1 1 1 1 1 1 1 1 1 1 1 1 1 1 1 1 1 1 0.054048010871725741 0.050481315325091113 1 1 0.044290697968960471 0.058984843828305378 1 1 1 1 1 1 1 0.059027072384380541 1 1 1 1 1 1 1 1 1 1 1 1 1 1 0.051792672090567482 1 1 1 1 1 1 1 1 0.050406650263754321 1 1 0.050199513516118142 1 1 1 0.050593959102700849 1 1 1 1 1 1 1 1 1 1 1 1 1 1 1 1 1 1 1 1 1 1 1 1 1 1 1 1 0.048915750952724935 1 1 1 1 1 1 1 1 0.050054093639056635 1 1 1 1 1 1 0.046331335099886323 0.050152152754180099 1 1 1 1 0.050761416556541962 1 1 0.048566098195858109 1 1 0.045804954433479705 1 1 1 1 1 1 0.049423558086754124 1 1 1 1 1 1 1 1 0.049923504159791701 1 1 1 1 1 1 1 1 1 1 1 0.04985522275076909 1 1 0.049931499773730639 1 1 1 1 1 1 1 0.047187753854136094 1 1 1 0.050620312536487688 1 0.053276621985719932 1 0.048299711768861511 1 1 1 1 1 1 1 1 1 1 1 1 1 1 1 1 1 0.06168177381713745 1 0.049992267061920392 1 1 1 1 1 1 1 1 1 1 0.058105751539009237 1 1 1 1 1 1 1 0.050790659216433567 1 1 1 0.049984661949208281 1 0.065645581145745507 0.048673796329190597 1 1 0.056678485186405406 1 1 1 1 0.067853940054671394 1 1 1 0.046375821249974025 1 1 1 0.065939116405697495 1 0.057174218474277332 0.072669469350104918 1 1 1 1 1 1 0.056580997722380094 1 1 1 1 1 1 1 1 0.05031943833903918 0.050008847940553727 0.04976678121237807 1 0.055854423125883526 1 1 0.060006733427838882 0.050002333233261503 1 1 0.033156685409965969 1 1 1 1 1 1 1 1 1 1 1 0.049999237070427097 1 1 1 1 1 1 1 1 1 1 1 1 1 0.038712998330552473 0.048091570526739888 1 1 1 1 0.043550109567414494 1 1 1 0.051826222163672324 1 1 1 1 1 0.047147592290758877 0.049997276541514826 1 1 1 0.051657477579334525 1 1 1 1 1 1 1 1 1 1 1 1 1 1 1 0.047511461503727051 1 1 1 0.055597576757960579 1 1 1 0.048587882638825783 1 1 1 1 1 1 0.074318449566052019 1 1 1 1 1 0.065884861181672236 1 1 1 1 1 1 1 1 0.049981910491964349 1 1 1 1 1 1 1 1 1 0.05107779304343199 1 1 1 1 0.049168712625585489 1 0.05015703548322431 1 1 0.045586687536436049 1 0.052426660075735494 1 1 1 1 1 1 0.052119552101226943 1 0.050023298990758018 0.065150410349515575 1 1 1 1 1 1 1 1 0.058587636200576956 1 0.049453726940938622 1 0.049912088692448411 1 0.068479363167079171 1 1 1 1 1 1 1 1 1 1 1 0.050085567604659459 1 1 1 0.049877847670382849 1 1 1 1 1 1 1 1 0.049792280065723393 1 1 1 1 1 1 1 1 1 0.048919144197952721 1 1 1 1 0.051606523125833047 1 1 0.054732655927686828 1 1 1 1 1 1 1 1 1 0.062087124334713722 1 1 1 0.057923712045673099 1 1 1 1 1 1 1 1 1 1 1 1 1 1 1 1 1 1 1 0.067022759044876562 1 1 1 1 1 1 1 1 1 1 0.051774649851455509 1 1 1 1 1 1 1 1 1 1 1 1 1 1 1 1 1 1 1 1 1 1 1 1 1 1 1 1 1 1 1 1 1 1 1 1 1 1 1 1 1 1 1 1 1 0.048617992322675926 0.050135443960850574 1 1 1 1 1 1 1 1 1 1 1 1 1 0.030005552662493759 0.045426460343129048 1 1 1 0.04873623830950722 1 1 0.06800152674011313 1 1 1 0.07493180627669345 1 1 1 0.051859134460544049 1 1 1 1 1 1 1 1 0.050409233775250042 1 1 0.050937231666131511 1 0.035712428211363306 0.046155167916409931 1 1 1 1 1 1 0.073280209380446229 1 0.043499786577888583 0.049672206580261127 0.049986957655379166 1 1 0.045492635008632751 1 1 0.070915741107809016 0.069712395652446676 1 1 1 1 1 1 1 1 1 1 1 1 1 1 1 1 1 1 1 1 1 0.070853993092549999 1 1 1 1 1 1 1 1 1 0.048546065694369214 1 1 1 1 1 1 1 0.050685459976486658 0.072866095455193514 1 1 1 1 1 1 1 1 1 1 1 1 1 1 1 1 1 1 1 1 1 1 1 0.05025253817190567 1 0.050014675144723762 1 1 1 1 1 1 1 0.055159833626241335 1 1 1 0.03232203679312981 0.070531060728097922 1 1 0.052241031354619771 1 1 1 1 0.030525928465070198 1 1 1 0.079496939489780621 1 1 1 0.039632795650802341 1 1 1 1 1 1 1 1 1 0.039998864164279752 0.052612547438244492 1 1 1 1 1 0.074731233100383598 1 1 0.023015739962274712 0.04524448373478511 0.027231497974364305 1 1 1 1 1 0.074497839453530418 1 1 1 1 1 1 1 1 1 0.049476284691293976 1 0.049777047901875079 1 1 1 1 1 1 1 1 1 1 1 1 1 1 1 1 1 1 1 1 1 1 1 1 0.053088595953783776 1 1 1 1 0.041161827061850634 0.05931388252528149 1 1 1 0.035213196567375343 1 1 1 1 1 1 1 1 1 1 1 1 1 1 1 1 0.094276899889765495 1 1 1 0.050141495380661233 1 1 0.053319284129060535 1 1 1 1 1 1 1 1 1 1 1 1 1 0.065380667096397532 1 1 0.082106829771205869 1 1 1 0.038126987928840103 1 0.039461680108827918 1 0.050651756186445192 1 0.049915862362922746 0.091287401350233721 0.050156147514144309 1 1 1 1 1 1 1 1 0.050747039466456499 1 1 1 1 1 1 1 1 0.087784699572235503 1 1 0.022382991679997022 1 1 1 1 1 1 1 1 1 1 1 1 1 1 1 1 1 1 1 1 1 0.038262297739292919 1 1 1 1 1 1 1 1 1 1 0.042665975939270961 1 0.029128302229393624 1 1 0.047076785537520018 1 0.059256354125272054 1 0.049927465638222521 1 1 0.050097407439146702 1 0.077739772485319866 1 1 0.043512536851966155 1 1 1 0.048852928400670542 1 1 1 1 1 1 1 1 1 1 1 1 1 1 1 1 1 1 1 1 1 1 1 1 1 1 1 1 1 1 1 1 1 1 1 1 1 1 1 1 1 1 1 1 1 1 1 1 1 1 1 1 1 1 1 1 1 1 1 1 1 0.062251346955530057 1 1 0.086464702408092065 1 1 1 1 1 1 0.045235552313553598 0.071561288658159528 1 1 1 1 1 1 1 1 1 1 1 1 1 1 1 1 1 1 0.07627947341814463 1 1 1 0.050523870126252743 1 1 1 1 1 1 1 1 1 1 1 1 1 1 1 1 0.049706539038479727 1 1 1 1 1 1 1 0.08285476993081195 1 1 1 1 1 1 1 1 0.074007972960271756 1 0.050910094857320835 1 1 1 1 1 1 1 1 1 1 1 1 1 1 1 1 0.050034514677200839 1 1 1 1 1 1 1 0.050063274546960829 1 1 1 1 0.050196191965186328 1 1 1 1 1 1 1 0.050611270835423668 1 1 0.026098099239958365 0.049793695183242309 1 1 0.054466429705800568 1 1 1 1 1 1 0.050067384966802617 1 1 1 1 1 1 1 1 1 0.050378138075332167 1 1 0.049868466867631037 1 1 0.049975794612551347 1 1 0.026546318729743897 1 1 1 1 1 0.028008353964344444 1 1 1 1 1 1 1 1 0.048751175861404497 1 1 1 1 1 1 1 0.045488206553267498 1 1 1 1 1 1 1 1 1 1 1 1 0.047480396262374477 1 1 1 1 1 1 1 0.05083309559472278 0.049884839278835164 1 0.045401565480580941 1 0.021995697960058187 1 1 1 1 1 1 1 1 1 1 1 1 1 1 1 0.050021880447223652 1 0.021707889677466632 1 1 1 1 1 1 1 1 0.0473403491004208 1 0.045078050532435521 1 0.030934629775560111 1 0.045238596701807202 1 0.050459634524283439 1 1 0.04924213919690041 1 1 1 1 1 0.047410778772060458 1 1 1 1 1 1 1 1 0.050248255877232237 1 1 1 1 1 0.050736739568436613 1 1 0.046564275843314074 1 0.052334193162248868 0.042349429395192151 1 1 1 1 1 1 1 1 0.049999879461498517 1 1 1 1 1 1 1 1 1 1 1 1 1 0.046705245609201126 1 1 1 1 1 1 1 0.049967025075810551 1 1 1 0.049967085504624822 1 1 1 1 1 1 1 1 1 1 1 1 1 1 1 1 1 0.051416784638946236 1 1 1 1 1 1 1 0.050495631629313732 1 1 0.048795818233310029 1 1 1 1 1 1 1 1 1 1 1 1 1 1 1 0.049177449908098886 1 1 1 1 0.052658831613449412 1 1 1 1 1 1 1 1 1 1 1 1 1 1 1 1 1 1 1 1 1 1 1 1 1 0.044429340693208808 1 1 1 1 1 1 0.049576383003806339 1 1 1 1 1 1 1 1 1 0.043518286580299825 0.048851117158731236 1 1 1 0.054622966676986157 1 0.050006766920984588 1 1 1 1 1 1 1 1 1 1 1 1 1 1 1 0.049560362139903794 1 1 1 1 1 1 1 1 1 1 1 1 0.050585307118428124 0.051114110872475568 1 1 1 1 1 1 1 1 0.049008270424539271 1 1 0.050132973457396091 1 1 0.0441873363328808 0.054707924266472488 1 1 1 1 1 1 1 0.047993051336989848 1 1 1 1 1 1 1 1 1 0.05052880375404746 1 1 1 0.047795016288694092 1 1 1 1 1 0.048597822035416481 1 1 1 1 1 1 1 1 1 1 1 1 0.048065258539292416 1 1 1 0.049991755292002997 1 1 1 0.050031473807515339 1 1 1 1 1 1 1 1 1 1 1 1 1 1 1 1 1 1 1 1 1 1 1 1 1 1 1 1 1 1 1 1 0.048408841672962277 1 1 1 1 1 1 1 1 1 1 1 1 1 1 1 1 1 1 1 1 1 1 1 1 0.050963195599133794 1 0.050079789767781449 1 1 0.032045102053526439 1 1 1 1 1 1 1 1 1 0.055735936148547452 1 1 1 1 1 1 1 1 1 1 1 1 1 1 0.037040493026470299 1 1 1 1 0.042439997759977491 1 1 1 0.047586734340773394 1 1 1 1 1 1 1 1 1 1 1 1 1 1 1 1 1 1 1 1 1 1 1 1 1 1 1 1 1 1 1 1 1 1 1 1 1 1 1 1 1 1 1 1 1 1 1 1 1 1 1 1 1 1 1 1 1 1 1 1 1 1 1 1 1 1 1 1 1 1 1 1 1 1 1 1 1 1 1 1 1 1 1 1 1 1 1 1 1 1 1 1 1 1 1 1 1 1 1 1 1 1 1 1 1 1 1 1 1 1 1 1 1 1 1 1 1 1 1 1 1 1 1 1 1 1 1 1 1 1 1 1 1 1 1 1 1 1 1 1 1 1 1 1 1 1 1 1 1 1 1 1 1 1 1 1 1 1 1 1 1 1 1 1 1 1 1 1 1 1 1 1 1 1 1 1 1 1 1 1 1 1 1 1 1 1 1 1 1 0.091443865421426268 1 1 1 1 1 1 1 1 1 1 1 1 1 1 1 1 0.053839383941348844 1 1 1 1 1 1 1 1 0.10151088032229846 1 1 1 1 0.047691999451591999 1 1 1 1 1 1 1 1 1 1 1 1 1 1 1 1 1 1 1 1 1 1 0.05299445598571112 1 1 1 1 1 1 1 1 1 1 1 1 1 0.042946228944675445 0.087935292509217569 1 1 1 1 1 0.074851739266288658 1 0.059045783832346453 1 1 1 1 1 1 1 1 1 1 1 0.059427525030107384 1 1 1 1 1 1 1 0.045798824000705139 1 1 1 1 1 1 1 1 1 1 1 1 1 1 1 0.050616103933879469 0.047132672640986216 1 1 1 1 1 1 1 1 1 1 1 1 0.055680441381607819 1 1 1 1 1 1 1 1 1 1 1 1 1 1 1 1 0.051948777572418309 1 1 1 1 1 1 1 0.044771068851649588 1 1 1 1 1 1 1 1 1 1 0.049919568526321269 0.033640496310428356 1 1 1 1 1 1 1 1 1 1 1 1 1 1 1 1 1 1 1 1 1 1 1 1 1 1 1 1 1 1 0.055181726848194168 1 1 1 1 1 0.055925995108776501 1 1 1 1 1 1 1 1 1 1 0.052573439188605728 1 1 1 1 0.049086028484916777 1 1 1 1 1 1 1 1 1 1 0.055366246367282317 1 0.052013690447111516 1 1 1 1 1 1 1 1 1 1 1 1 1 1 1 1 1 1 1 1 1 1 1 1 1 1 1 1 1 1 1 0.050273514402284447 1 1 1 1 1 0.050889618336163907 1 1 1 1 1 1 1 1 1 1 1 1 1 1 1 1 1 1 0.047981263401916135 1 1 0.014052409753503182 1 1 1 0.049336896966358082 1 1 1 1 1 0.034794978688356112 1 1 1 1 1 1 1 1 1 1 0.076550054810807039 1 1 1 1 1 1 0.049915757194033523 1 1 1 1 1 0.011797371369885 0.049888345699094325 1 1 0.0019091793343984434 1 1 0.052110378221047401 1 1 1 1 1 1 1 1 1 1 0.053890207590176806 1 1 0.0542024416738267 1 1 0.054885412101800549 1 1 0.059573177596051234 1 1 0.050248145426237935 1 1 0.051540108061503005 1 1 1 1 1 1 0.048162443509004879 1 1 1 1 1 1 1 1 1 1 1 -5.9674487573602164e-16 1 1 1 1 1 1 1 0.052830152529721792 1 1 1 1 0.044042714488725598 1 1 1 -5.620504062164855e-16 1 1 1 1 1 1 1 1 1 1 1 0.032034877950399956 1 1 1 1 1 1 1 1 1 1 1 1 1 1 1 1 1 1 1 1 1 1 1 1 0.049893532388972955 1 1 1 1 1 0.050264862370907833 1 1 1 1 1 1 1 1 1 1 1 1 1 1 0.047196948155436513 1 1 0.031427181123713253 1 0.097841649530627725 1 1 1 1 0.11110823106021414 1 0.048196809842361812 0.0027279524118798831 1 0.0040338752198898903 1 1 1 1 1 1 1 0.050126435731935357 1 0.056885141913874795 1 1 1 1 1 1 0.048417360156842497 1 1 1 1 1 1 0.050199981499676159 1 1 1 1 0.050297694500715036 1 1 1 1 1 0.049804172523721255 1 1 0.051167560982866969 1 1 1 1 0.049677963051002319 1 1 1 1 0.057394309358874407 1 1 1 1 1 1 0.049556329522818951 1 1 1 1 1 1 1 1 1 0.050823248130748858 1 1 1 1 1 1 0.052949783603843933 1 1 1 1 0.0581800693638507 1 1 1 1 1 1 1 1 1 1 1 1 1 1 1 1 0.04959448055636765 1 1 1 0.047705265134380906 1 1 0.078654094215630924 1 1 1 1 1 1 1 1 1 1 1 1 1 1 1 1 0.049673213707833952 1 0.074298389527634734 1 1 1 1 1 1 1 1 1 1 1 1 1 1 1 1 1 1 1 1 1 1 1 1 1 1 0.095364360186738301 1 1 0.06911522517620694 1 1 1 1 1 1 1 1 1 1 0.061046583700835343 1 1 1 1 0.049928282655263993 1 1 1 1 0.05025506894743003 1 1 1 1 1 1 1 1 1 0.058990451342975599 1 1 1 1 1 1 1 1 1 1 1 1 1 1 1 1 1 1 1 1 1 1 1 1 1 1 1 1 
</DataArray>
</CellData>
</Piece>
</UnstructuredGrid>
</VTKFile>
