<?xml version="1.0"?>
<VTKFile type="UnstructuredGrid" version="0.1" byte_order="LittleEndian">
<UnstructuredGrid>
<Piece NumberOfPoints="31898" NumberOfCells="11152">
<Points>
<DataArray type="Float64" NumberOfComponents="3" format="ascii">
-0.5 -0.5 0 -0.47620991077874902 -0.44978878706170539 0 -0.49999999999999473 -0.42132396840504388 0 -0.5 -0.5 0 -0.47160970827802529 -0.4793630013852106 0 -0.47620991077874902 -0.44978878706170539 0 -0.5 -0.5 0 -0.47160970827802529 -0.4793630013852106 0 -0.44860394795025399 -0.5 0 -0.47160970827802529 -0.4793630013852106 0 -0.44860394795025399 -0.5 0 -0.4490820238307246 -0.45820516232899983 0 -0.44860394795025399 -0.5 0 -0.4490820238307246 -0.45820516232899983 0 -0.42881687682924802 -0.47781464288736519 0 -0.4490820238307246 -0.45820516232899983 0 -0.45555437223955858 -0.42914059360647611 0 -0.4490820238307246 -0.45820516232899983 0 -0.45555437223955858 -0.42914059360647611 0 -0.43867285131603428 -0.4271457417558665 0 -0.4490820238307246 -0.45820516232899983 0 -0.43867285131603428 -0.4271457417558665 0 -0.4263356171060747 -0.44269880333887462 0 -0.47160970827802529 -0.4793630013852106 0 -0.4490820238307246 -0.45820516232899983 0 -0.47620991077874902 -0.44978878706170539 0 -0.4490820238307246 -0.45820516232899983 0 -0.47620991077874902 -0.44978878706170539 0 -0.45555437223955858 -0.42914059360647611 0 -0.47620991077874902 -0.44978878706170539 0 -0.48101336032419229 -0.41069999664450008 0 -0.45555437223955858 -0.42914059360647611 0 -0.47620991077874902 -0.44978878706170539 0 -0.49999999999999473 -0.42132396840504388 0 -0.48101336032419229 -0.41069999664450008 0 -0.49999999999999473 -0.42132396840504388 0 -0.48101336032419229 -0.41069999664450008 0 -0.5 -0.393886241813306 0 -0.49999999999999473 -0.42132396840504388 0 -0.48101336032419229 -0.41069999664450008 0 -0.5 -0.393886241813306 0 -0.47854472220918332 -0.38978458738689759 0 -0.48422759779560409 -0.37130120630367158 0 -0.5 -0.393886241813306 0 -0.5 -0.36644851522156802 0 -0.48422759779560409 -0.37130120630367158 0 -0.48101336032419229 -0.41069999664450008 0 -0.5 -0.393886241813306 0 -0.47854472220918332 -0.38978458738689759 0 -0.48101336032419229 -0.41069999664450008 0 -0.47854472220918332 -0.38978458738689759 0 -0.46202672064839212 -0.40007602488395211 0 -0.48101336032419229 -0.41069999664450008 0 -0.46202672064839212 -0.40007602488395211 0 -0.47854472220918332 -0.38978458738689759 0 -0.46725442735267431 -0.37660061361585562 0 -0.46202672064839212 -0.40007602488395211 0 -0.47854472220918332 -0.38978458738689759 0 -0.46725442735267431 -0.37660061361585562 0 -0.48422759779560409 -0.37130120630367158 0 -0.46725442735267431 -0.37660061361585562 0 -0.46202672064839212 -0.40007602488395211 0 -0.46725442735267431 -0.37660061361585562 0 -0.45645674801697989 -0.38644133236760531 0 -0.46202672064839212 -0.40007602488395211 0 -0.46725442735267431 -0.37660061361585562 0 -0.45645674801697989 -0.38644133236760531 0 -0.4540003998136638 -0.37455519391687309 0 -0.45645674801697989 -0.38644133236760531 0 -0.46202672064839212 -0.40007602488395211 0 -0.44257020456291563 -0.38918913383950271 0 -0.46202672064839212 -0.40007602488395211 0 -0.44257020456291563 -0.38918913383950271 0 -0.44727608925983742 -0.41095911152778891 0 -0.46202672064839212 -0.40007602488395211 0 -0.44257020456291563 -0.38918913383950271 0 -0.44257020456291563 -0.38918913383950271 0 -0.44727608925983742 -0.41095911152778891 0 -0.43479358559901082 -0.4041454901736512 0 -0.44257020456291563 -0.38918913383950271 0 -0.4540003998136638 -0.37455519391687309 0 -0.44172858264042247 -0.37082207246888088 0 -0.45645674801697989 -0.38644133236760531 0 -0.44257020456291563 -0.38918913383950271 0 -0.4540003998136638 -0.37455519391687309 0 -0.46202672064839212 -0.40007602488395211 0 -0.45555437223955858 -0.42914059360647611 0 -0.44727608925983742 -0.41095911152778891 0 -0.46202672064839212 -0.40007602488395211 0 -0.45555437223955858 -0.42914059360647611 0 -0.48101336032419229 -0.41069999664450008 0 -0.46202672064839212 -0.40007602488395211 0 -0.45555437223955858 -0.42914059360647611 0 -0.44727608925983742 -0.41095911152778891 0 -0.43867285131603428 -0.4271457417558665 0 -0.43676601469929588 -0.41441201227470881 0 -0.44727608925983742 -0.41095911152778891 0 -0.43676601469929588 -0.41441201227470881 0 -0.43479358559901082 -0.4041454901736512 0 -0.45555437223955858 -0.42914059360647611 0 -0.44727608925983742 -0.41095911152778891 0 -0.43867285131603428 -0.4271457417558665 0 -0.43867285131603428 -0.4271457417558665 0 -0.42681803064840879 -0.42717069814352421 0 -0.4263356171060747 -0.44269880333887462 0 -0.42681803064840879 -0.42717069814352421 0 -0.41531815884496182 -0.42985383783075998 0 -0.4263356171060747 -0.44269880333887462 0 -0.42681803064840879 -0.42717069814352421 0 -0.42624289495594048 -0.42089725947505818 0 -0.42083332353326591 -0.42146747131641099 0 -0.42681803064840879 -0.42717069814352421 0 -0.43096994786351572 -0.41951492446283251 0 -0.42624289495594048 -0.42089725947505818 0 -0.43867285131603428 -0.4271457417558665 0 -0.42681803064840879 -0.42717069814352421 0 -0.43096994786351572 -0.41951492446283251 0 -0.43867285131603428 -0.4271457417558665 0 -0.43676601469929588 -0.41441201227470881 0 -0.43096994786351572 -0.41951492446283251 0 -0.43676601469929588 -0.41441201227470881 0 -0.43096994786351572 -0.41951492446283251 0 -0.42907264086257813 -0.41311715872526122 0 -0.43676601469929588 -0.41441201227470881 0 -0.42907264086257813 -0.41311715872526122 0 -0.43479358559901082 -0.4041454901736512 0 -0.42907264086257813 -0.41311715872526122 0 -0.43479358559901082 -0.4041454901736512 0 -0.42460885511582858 -0.40417321677700252 0 -0.42907264086257813 -0.41311715872526122 0 -0.41997834854398469 -0.41180534796019508 0 -0.42907264086257813 -0.41311715872526122 0 -0.42635027777857132 -0.41543594397746519 0 -0.41997834854398469 -0.41180534796019508 0 -0.42907264086257813 -0.41311715872526122 0 -0.41997834854398469 -0.41180534796019508 0 -0.42460885511582858 -0.40417321677700252 0 -0.42635027777857132 -0.41543594397746519 0 -0.41997834854398469 -0.41180534796019508 0 -0.42635027777857132 -0.41543594397746519 0 -0.42083332353326591 -0.42146747131641099 0 -0.41997834854398469 -0.41180534796019508 0 -0.43096994786351572 -0.41951492446283251 0 -0.42624289495594048 -0.42089725947505818 0 -0.42635027777857132 -0.41543594397746519 0 -0.43096994786351572 -0.41951492446283251 0 -0.42907264086257813 -0.41311715872526122 0 -0.42635027777857132 -0.41543594397746519 0 -0.42624289495594048 -0.42089725947505818 0 -0.42635027777857132 -0.41543594397746519 0 -0.42083332353326591 -0.42146747131641099 0 -0.42083332353326591 -0.42146747131641099 0 -0.41997834854398469 -0.41180534796019508 0 -0.40992282953163789 -0.42011435591993562 0 -0.41997834854398469 -0.41180534796019508 0 -0.39756877647335259 -0.40857286797681719 0 -0.41997834854398469 -0.41180534796019508 0 -0.40992282953163789 -0.42011435591993562 0 -0.39756877647335259 -0.40857286797681719 0 -0.40992282953163789 -0.42011435591993562 0 -0.41531815884496182 -0.42985383783075998 0 -0.39591554026262499 -0.42887225451549271 0 -0.41531815884496182 -0.42985383783075998 0 -0.39591554026262499 -0.42887225451549271 0 -0.41160927495564159 -0.44339431233754628 0 -0.42083332353326591 -0.42146747131641099 0 -0.40992282953163789 -0.42011435591993562 0 -0.41531815884496182 -0.42985383783075998 0 -0.42681803064840879 -0.42717069814352421 0 -0.42083332353326591 -0.42146747131641099 0 -0.41531815884496182 -0.42985383783075998 0 -0.44257020456291563 -0.38918913383950271 0 -0.42311368847744002 -0.37830224279505142 0 -0.42594061475171041 -0.39368797999533162 0 -0.44257020456291563 -0.38918913383950271 0 -0.42311368847744002 -0.37830224279505142 0 -0.44172858264042247 -0.37082207246888088 0 -0.44257020456291563 -0.38918913383950271 0 -0.42311368847744002 -0.37830224279505142 0 -0.42311368847744002 -0.37830224279505142 0 -0.42594061475171041 -0.39368797999533162 0 -0.416587075656149 -0.38785930376960043 0 -0.44257020456291563 -0.38918913383950271 0 -0.42594061475171041 -0.39368797999533162 0 -0.43479358559901082 -0.4041454901736512 0 -0.42594061475171041 -0.39368797999533162 0 -0.43479358559901082 -0.4041454901736512 0 -0.42460885511582858 -0.40417321677700252 0 -0.41997834854398469 -0.41180534796019508 0 -0.41325908582185972 -0.39811010703057192 0 -0.39770572831670092 -0.39911486077581648 0 -0.41997834854398469 -0.41180534796019508 0 -0.39770572831670092 -0.39911486077581648 0 -0.42594061475171041 -0.39368797999533162 0 -0.42460885511582858 -0.40417321677700252 0 -0.41325908582185972 -0.39811010703057192 0 -0.41997834854398469 -0.41180534796019508 0 -0.42460885511582858 -0.40417321677700252 0 -0.41325908582185972 -0.39811010703057192 0 -0.42594061475171041 -0.39368797999533162 0 -0.41325908582185972 -0.39811010703057192 0 -0.416587075656149 -0.38785930376960043 0 -0.41325908582185972 -0.39811010703057192 0 -0.416587075656149 -0.38785930376960043 0 -0.40403491357358612 -0.38133688525744702 0 -0.42311368847744002 -0.37830224279505142 0 -0.40403491357358612 -0.38133688525744702 0 -0.40365717239196519 -0.36741535175059892 0 -0.42311368847744002 -0.37830224279505142 0 -0.416587075656149 -0.38785930376960043 0 -0.40403491357358612 -0.38133688525744702 0 -0.40403491357358612 -0.38133688525744702 0 -0.39190790742475001 -0.38540387676521748 0 -0.39770572831670092 -0.39911486077581648 0 -0.40403491357358612 -0.38133688525744702 0 -0.39190790742475001 -0.38540387676521748 0 -0.3904578797192948 -0.37473938743617019 0 -0.41325908582185972 -0.39811010703057192 0 -0.40403491357358612 -0.38133688525744702 0 -0.39770572831670092 -0.39911486077581648 0 -0.39770572831670092 -0.39911486077581648 0 -0.37543310808941849 -0.38642437359143528 0 -0.39770572831670092 -0.39911486077581648 0 -0.37515920440272033 -0.40534038799344108 0 -0.37543310808941849 -0.38642437359143528 0 -0.39770572831670092 -0.39911486077581648 0 -0.37515920440272033 -0.40534038799344108 0 -0.39756877647335259 -0.40857286797681719 0 -0.37515920440272033 -0.40534038799344108 0 -0.37543310808941849 -0.38642437359143528 0 -0.37543310808941849 -0.38642437359143528 0 -0.3904578797192948 -0.37473938743617019 0 -0.37568304780698558 -0.36916333065311507 0 -0.39190790742475001 -0.38540387676521748 0 -0.37543310808941849 -0.38642437359143528 0 -0.3904578797192948 -0.37473938743617019 0 -0.37543310808941849 -0.38642437359143528 0 -0.37568304780698558 -0.36916333065311507 0 -0.39190790742475001 -0.38540387676521748 0 -0.39770572831670092 -0.39911486077581648 0 -0.37543310808941849 -0.38642437359143528 0 -0.41997834854398469 -0.41180534796019508 0 -0.39770572831670092 -0.39911486077581648 0 -0.39756877647335259 -0.40857286797681719 0 -0.40992282953163789 -0.42011435591993562 0 -0.39591554026262499 -0.42887225451549271 0 -0.39756877647335259 -0.40857286797681719 0 -0.37515920440272033 -0.40534038799344108 0 -0.39591554026262499 -0.42887225451549271 0 -0.39756877647335259 -0.40857286797681719 0 -0.37515920440272033 -0.40534038799344108 0 -0.39756877647335259 -0.40857286797681719 0 -0.37515920440272033 -0.40534038799344108 0 -0.39591554026262499 -0.42887225451549271 0 -0.37472313619600889 -0.43545561783144832 0 -0.39591554026262499 -0.42887225451549271 0 -0.39301703415267508 -0.44654444244683272 0 -0.37472313619600889 -0.43545561783144832 0 -0.39301703415267508 -0.44654444244683272 0 -0.37428706798929601 -0.46557084766945539 0 -0.37472313619600889 -0.43545561783144832 0 -0.39591554026262499 -0.42887225451549271 0 -0.39301703415267508 -0.44654444244683272 0 -0.41160927495564159 -0.44339431233754628 0 -0.39301703415267508 -0.44654444244683272 0 -0.40396056051613372 -0.45751466911048011 0 -0.41160927495564159 -0.44339431233754628 0 -0.40396056051613372 -0.45751466911048011 0 -0.39245383412573559 -0.47875733455523922 0 -0.41207507163844148 -0.46917161410542801 0 -0.40396056051613372 -0.45751466911048011 0 -0.38912381425271458 -0.46154275838996711 0 -0.39245383412573559 -0.47875733455523922 0 -0.40396056051613372 -0.45751466911048011 0 -0.39245383412573559 -0.47875733455523922 0 -0.40396056051613372 -0.45751466911048011 0 -0.40649676728151513 -0.45682610390212369 0 -0.40396056051613372 -0.45751466911048011 0 -0.38912381425271458 -0.46154275838996711 0 -0.39301703415267508 -0.44654444244683272 0 -0.40396056051613372 -0.45751466911048011 0 -0.38912381425271458 -0.46154275838996711 0 -0.39301703415267508 -0.44654444244683272 0 -0.38912381425271458 -0.46154275838996711 0 -0.37428706798929601 -0.46557084766945539 0 -0.38912381425271458 -0.46154275838996711 0 -0.37428706798929601 -0.46557084766945539 0 -0.38912381425271458 -0.46154275838996711 0 -0.38378714202547332 -0.47159002408209011 0 -0.37428706798929601 -0.46557084766945539 0 -0.38378714202547332 -0.47159002408209011 0 -0.39245383412573559 -0.47875733455523922 0 -0.37411677223754131 -0.47733161267270968 0 -0.39245383412573559 -0.47875733455523922 0 -0.37240076261097882 -0.48974555046165519 0 -0.37411677223754131 -0.47733161267270968 0 -0.38378714202547332 -0.47159002408209011 0 -0.37411677223754131 -0.47733161267270968 0 -0.37428706798929601 -0.46557084766945539 0 -0.38912381425271458 -0.46154275838996711 0 -0.38378714202547332 -0.47159002408209011 0 -0.39245383412573559 -0.47875733455523922 0 -0.38094710773533791 -0.49999999999999839 0 -0.39245383412573559 -0.47875733455523922 0 -0.38094710773533791 -0.49999999999999839 0 -0.39245383412573559 -0.47875733455523922 0 -0.37240076261097882 -0.48974555046165519 0 -0.38094710773533791 -0.49999999999999839 0 -0.39245383412573559 -0.47875733455523922 0 -0.40997732063196057 -0.5 0 -0.39245383412573559 -0.47875733455523922 0 -0.41207507163844148 -0.46917161410542801 0 -0.40997732063196057 -0.5 0 -0.41207507163844148 -0.46917161410542801 0 -0.40997732063196057 -0.5 0 -0.42881687682924802 -0.47781464288736519 0 -0.44860394795025399 -0.5 0 -0.40997732063196057 -0.5 0 -0.42881687682924802 -0.47781464288736519 0 -0.41207507163844148 -0.46917161410542801 0 -0.42881687682924802 -0.47781464288736519 0 -0.42627766738448791 -0.46032764904509182 0 -0.4490820238307246 -0.45820516232899983 0 -0.42881687682924802 -0.47781464288736519 0 -0.42627766738448791 -0.46032764904509182 0 -0.4490820238307246 -0.45820516232899983 0 -0.42627766738448791 -0.46032764904509182 0 -0.4263356171060747 -0.44269880333887462 0 -0.42627766738448791 -0.46032764904509182 0 -0.4263356171060747 -0.44269880333887462 0 -0.41655419253802572 -0.45404861160063659 0 -0.4263356171060747 -0.44269880333887462 0 -0.41160927495564159 -0.44339431233754628 0 -0.41655419253802572 -0.45404861160063659 0 -0.41531815884496182 -0.42985383783075998 0 -0.4263356171060747 -0.44269880333887462 0 -0.41160927495564159 -0.44339431233754628 0 -0.40396056051613372 -0.45751466911048011 0 -0.41160927495564159 -0.44339431233754628 0 -0.40649676728151513 -0.45682610390212369 0 -0.41160927495564159 -0.44339431233754628 0 -0.40649676728151513 -0.45682610390212369 0 -0.41655419253802572 -0.45404861160063659 0 -0.40396056051613372 -0.45751466911048011 0 -0.41160927495564159 -0.44339431233754628 0 -0.41207507163844148 -0.46917161410542801 0 -0.40649676728151513 -0.45682610390212369 0 -0.41655419253802572 -0.45404861160063659 0 -0.40396056051613372 -0.45751466911048011 0 -0.41207507163844148 -0.46917161410542801 0 -0.40649676728151513 -0.45682610390212369 0 -0.41207507163844148 -0.46917161410542801 0 -0.42627766738448791 -0.46032764904509182 0 -0.41655419253802572 -0.45404861160063659 0 -0.45662330498375908 -0.25656877445722759 0 -0.43445882011373449 -0.25478651907497341 0 -0.45662330498375908 -0.25656877445722759 0 -0.43445882011373449 -0.25478651907497341 0 -0.45034617445999431 -0.24335722649563979 0 -0.44999384684511368 -0.2755750489792308 0 -0.45662330498375908 -0.25656877445722759 0 -0.43445882011373449 -0.25478651907497341 0 -0.44999384684511368 -0.2755750489792308 0 -0.43077531442077321 -0.27459050524281542 0 -0.43445882011373449 -0.25478651907497341 0 -0.44999384684511368 -0.2755750489792308 0 -0.441361257405879 -0.29303276451920029 0 -0.43077531442077321 -0.27459050524281542 0 -0.44999384684511368 -0.2755750489792308 0 -0.4670541169931961 -0.26846056693166809 0 -0.46910519348062618 -0.28320526693770848 0 -0.44999384684511368 -0.2755750489792308 0 -0.4670541169931961 -0.26846056693166809 0 -0.45662330498375908 -0.25656877445722759 0 -0.45662330498375908 -0.25656877445722759 0 -0.47878778985378329 -0.25835102983948688 0 -0.4670541169931961 -0.26846056693166809 0 -0.45662330498375908 -0.25656877445722759 0 -0.47878778985378329 -0.25835102983948688 0 -0.45662330498375908 -0.25656877445722759 0 -0.47878778985378329 -0.25835102983948688 0 -0.47142395938804471 -0.23802335247430181 0 -0.47878778985378329 -0.25835102983948688 0 -0.5 -0.25669760885461612 0 -0.48361763707807442 -0.27426406281091331 0 -0.47878778985378329 -0.25835102983948688 0 -0.5 -0.25669760885461612 0 -0.4875835208682564 -0.24248539692068891 0 -0.5 -0.25669760885461612 0 -0.48361763707807442 -0.27426406281091331 0 -0.5 -0.28413533544635422 0 -0.4670541169931961 -0.26846056693166809 0 -0.47878778985378329 -0.25835102983948688 0 -0.48361763707807442 -0.27426406281091331 0 -0.4670541169931961 -0.26846056693166809 0 -0.48361763707807442 -0.27426406281091331 0 -0.46910519348062618 -0.28320526693770848 0 -0.46910519348062618 -0.28320526693770848 0 -0.48580896399913942 -0.29193665231809679 0 -0.47164434439118558 -0.29859902487093259 0 -0.48361763707807442 -0.27426406281091331 0 -0.46910519348062618 -0.28320526693770848 0 -0.48580896399913942 -0.29193665231809679 0 -0.5 -0.28413533544635422 0 -0.48580896399913942 -0.29193665231809679 0 -0.5 -0.3115730620380921 0 -0.48361763707807442 -0.27426406281091331 0 -0.5 -0.28413533544635422 0 -0.48580896399913942 -0.29193665231809679 0 -0.48580896399913942 -0.29193665231809679 0 -0.5 -0.3115730620380921 0 -0.48293754746551898 -0.30617437981156609 0 -0.48293754746551898 -0.30617437981156609 0 -0.47164434439118558 -0.29859902487093259 0 -0.47203566342767839 -0.31514771464943409 0 -0.48580896399913942 -0.29193665231809679 0 -0.48293754746551898 -0.30617437981156609 0 -0.47164434439118558 -0.29859902487093259 0 -0.47164434439118558 -0.29859902487093259 0 -0.46096111539772322 -0.3069557537098867 0 -0.47203566342767839 -0.31514771464943409 0 -0.46096111539772322 -0.3069557537098867 0 -0.44739706002137658 -0.30395698434733032 0 -0.45229582611609759 -0.31444164243390338 0 -0.46096111539772322 -0.3069557537098867 0 -0.45682111422556548 -0.29317658806621089 0 -0.44739706002137658 -0.30395698434733032 0 -0.47164434439118558 -0.29859902487093259 0 -0.46096111539772322 -0.3069557537098867 0 -0.45682111422556548 -0.29317658806621089 0 -0.44999384684511368 -0.2755750489792308 0 -0.46910519348062618 -0.28320526693770848 0 -0.45682111422556548 -0.29317658806621089 0 -0.46910519348062618 -0.28320526693770848 0 -0.47164434439118558 -0.29859902487093259 0 -0.45682111422556548 -0.29317658806621089 0 -0.44999384684511368 -0.2755750489792308 0 -0.45682111422556548 -0.29317658806621089 0 -0.441361257405879 -0.29303276451920029 0 -0.45682111422556548 -0.29317658806621089 0 -0.441361257405879 -0.29303276451920029 0 -0.44739706002137658 -0.30395698434733032 0 -0.441361257405879 -0.29303276451920029 0 -0.44739706002137658 -0.30395698434733032 0 -0.43527018611072049 -0.30465000121327751 0 -0.44739706002137658 -0.30395698434733032 0 -0.44024276041750632 -0.31887045497680111 0 -0.43527018611072049 -0.30465000121327751 0 -0.44739706002137658 -0.30395698434733032 0 -0.45229582611609759 -0.31444164243390338 0 -0.44024276041750632 -0.31887045497680111 0 -0.44024276041750632 -0.31887045497680111 0 -0.45653421084860168 -0.32646185290925811 0 -0.44024276041750632 -0.31887045497680111 0 -0.43930980958642257 -0.33554338078202212 0 -0.45653421084860168 -0.32646185290925811 0 -0.45229582611609759 -0.31444164243390338 0 -0.44024276041750632 -0.31887045497680111 0 -0.45653421084860168 -0.32646185290925811 0 -0.43930980958642257 -0.33554338078202212 0 -0.44966367396753332 -0.33841986907325933 0 -0.46855294336124231 -0.32873531729210143 0 -0.43930980958642257 -0.33554338078202212 0 -0.4507851133594416 -0.34910720111649318 0 -0.43930980958642257 -0.33554338078202212 0 -0.44966367396753332 -0.33841986907325933 0 -0.4507851133594416 -0.34910720111649318 0 -0.44966367396753332 -0.33841986907325933 0 -0.46855294336124231 -0.32873531729210143 0 -0.46386644800117471 -0.33586508895417932 0 -0.43930980958642257 -0.33554338078202212 0 -0.46855294336124231 -0.32873531729210143 0 -0.43930980958642257 -0.33554338078202212 0 -0.46855294336124231 -0.32873531729210143 0 -0.45653421084860168 -0.32646185290925811 0 -0.44966367396753332 -0.33841986907325933 0 -0.4586808436472537 -0.3401528003513713 0 -0.45711636988675219 -0.34547487934353349 0 -0.44966367396753332 -0.33841986907325933 0 -0.4586808436472537 -0.3401528003513713 0 -0.46386644800117471 -0.33586508895417932 0 -0.4586808436472537 -0.3401528003513713 0 -0.46472493826860672 -0.34236766697450172 0 -0.45711636988675219 -0.34547487934353349 0 -0.4586808436472537 -0.3401528003513713 0 -0.46472493826860672 -0.34236766697450172 0 -0.46386644800117471 -0.33586508895417932 0 -0.46855294336124231 -0.32873531729210143 0 -0.46207595183026873 -0.31834845619891672 0 -0.47203566342767839 -0.31514771464943409 0 -0.46855294336124231 -0.32873531729210143 0 -0.45653421084860168 -0.32646185290925811 0 -0.46207595183026873 -0.31834845619891672 0 -0.46096111539772322 -0.3069557537098867 0 -0.45229582611609759 -0.31444164243390338 0 -0.46207595183026873 -0.31834845619891672 0 -0.45229582611609759 -0.31444164243390338 0 -0.45653421084860168 -0.32646185290925811 0 -0.46207595183026873 -0.31834845619891672 0 -0.46096111539772322 -0.3069557537098867 0 -0.46207595183026873 -0.31834845619891672 0 -0.47203566342767839 -0.31514771464943409 0 -0.48293754746551898 -0.30617437981156609 0 -0.47203566342767839 -0.31514771464943409 0 -0.47770984076123751 -0.32964979107966252 0 -0.48293754746551898 -0.30617437981156609 0 -0.47770984076123751 -0.32964979107966252 0 -0.48293754746551898 -0.30617437981156609 0 -0.48763303240419292 -0.31981883507337211 0 -0.47770984076123751 -0.32964979107966252 0 -0.46855294336124231 -0.32873531729210143 0 -0.47203566342767839 -0.31514771464943409 0 -0.47770984076123751 -0.32964979107966252 0 -0.5 -0.3115730620380921 0 -0.5 -0.33901078862982997 0 -0.49048543526404831 -0.32960291085151988 0 -0.5 -0.3115730620380921 0 -0.48763303240419292 -0.31981883507337211 0 -0.49048543526404831 -0.32960291085151988 0 -0.5 -0.3115730620380921 0 -0.48293754746551898 -0.30617437981156609 0 -0.48763303240419292 -0.31981883507337211 0 -0.48763303240419292 -0.31981883507337211 0 -0.49048543526404831 -0.32960291085151988 0 -0.47770984076123751 -0.32964979107966252 0 -0.49048543526404831 -0.32960291085151988 0 -0.47770984076123751 -0.32964979107966252 0 -0.48708430315481122 -0.3479620774366432 0 -0.5 -0.33901078862982997 0 -0.49048543526404831 -0.32960291085151988 0 -0.48708430315481122 -0.3479620774366432 0 -0.47770984076123751 -0.32964979107966252 0 -0.47248213405695583 -0.35312520234775913 0 -0.47770984076123751 -0.32964979107966252 0 -0.47248213405695583 -0.35312520234775913 0 -0.48708430315481122 -0.3479620774366432 0 -0.46472493826860672 -0.34236766697450172 0 -0.47770984076123751 -0.32964979107966252 0 -0.47248213405695583 -0.35312520234775913 0 -0.46855294336124231 -0.32873531729210143 0 -0.46386644800117471 -0.33586508895417932 0 -0.47770984076123751 -0.32964979107966252 0 -0.46472493826860672 -0.34236766697450172 0 -0.46386644800117471 -0.33586508895417932 0 -0.47770984076123751 -0.32964979107966252 0 -0.47248213405695583 -0.35312520234775913 0 -0.48708430315481122 -0.3479620774366432 0 -0.48422759779560409 -0.37130120630367158 0 -0.5 -0.33901078862982997 0 -0.48708430315481122 -0.3479620774366432 0 -0.5 -0.36644851522156802 0 -0.48708430315481122 -0.3479620774366432 0 -0.5 -0.36644851522156802 0 -0.48422759779560409 -0.37130120630367158 0 -0.46725442735267431 -0.37660061361585562 0 -0.47248213405695583 -0.35312520234775913 0 -0.48422759779560409 -0.37130120630367158 0 -0.46725442735267431 -0.37660061361585562 0 -0.47248213405695583 -0.35312520234775913 0 -0.46725442735267431 -0.37660061361585562 0 -0.4540003998136638 -0.37455519391687309 0 -0.46226041713245919 -0.36267102145096558 0 -0.46725442735267431 -0.37660061361585562 0 -0.47248213405695583 -0.35312520234775913 0 -0.46226041713245919 -0.36267102145096558 0 -0.4540003998136638 -0.37455519391687309 0 -0.46226041713245919 -0.36267102145096558 0 -0.45167034254705118 -0.36337553476545958 0 -0.47248213405695583 -0.35312520234775913 0 -0.46226041713245919 -0.36267102145096558 0 -0.46130034509645268 -0.35111989715704561 0 -0.46472493826860672 -0.34236766697450172 0 -0.47248213405695583 -0.35312520234775913 0 -0.46130034509645268 -0.35111989715704561 0 -0.46472493826860672 -0.34236766697450172 0 -0.46130034509645268 -0.35111989715704561 0 -0.45711636988675219 -0.34547487934353349 0 -0.46130034509645268 -0.35111989715704561 0 -0.45711636988675219 -0.34547487934353349 0 -0.4507851133594416 -0.34910720111649318 0 -0.46226041713245919 -0.36267102145096558 0 -0.4507851133594416 -0.34910720111649318 0 -0.45167034254705118 -0.36337553476545958 0 -0.46226041713245919 -0.36267102145096558 0 -0.46130034509645268 -0.35111989715704561 0 -0.4507851133594416 -0.34910720111649318 0 -0.46226041713245919 -0.36267102145096558 0 -0.4507851133594416 -0.34910720111649318 0 -0.4507851133594416 -0.34910720111649318 0 -0.44504098357239391 -0.35771747353496869 0 -0.45167034254705118 -0.36337553476545958 0 -0.44966367396753332 -0.33841986907325933 0 -0.45711636988675219 -0.34547487934353349 0 -0.4507851133594416 -0.34910720111649318 0 -0.4507851133594416 -0.34910720111649318 0 -0.44408457896710762 -0.34741130507322732 0 -0.44504098357239391 -0.35771747353496869 0 -0.43930980958642257 -0.33554338078202212 0 -0.4507851133594416 -0.34910720111649318 0 -0.44408457896710762 -0.34741130507322732 0 -0.44408457896710762 -0.34741130507322732 0 -0.43834809566141358 -0.35386966642967582 0 -0.4310745521241639 -0.35060051531725012 0 -0.44408457896710762 -0.34741130507322732 0 -0.43834809566141358 -0.35386966642967582 0 -0.44504098357239391 -0.35771747353496869 0 -0.43834809566141358 -0.35386966642967582 0 -0.44504098357239391 -0.35771747353496869 0 -0.43256408976529492 -0.36260533289695268 0 -0.44504098357239391 -0.35771747353496869 0 -0.44172858264042247 -0.37082207246888088 0 -0.43256408976529492 -0.36260533289695268 0 -0.4540003998136638 -0.37455519391687309 0 -0.44172858264042247 -0.37082207246888088 0 -0.45167034254705118 -0.36337553476545958 0 -0.44504098357239391 -0.35771747353496869 0 -0.44172858264042247 -0.37082207246888088 0 -0.45167034254705118 -0.36337553476545958 0 -0.42311368847744002 -0.37830224279505142 0 -0.44172858264042247 -0.37082207246888088 0 -0.43256408976529492 -0.36260533289695268 0 -0.42311368847744002 -0.37830224279505142 0 -0.43256408976529492 -0.36260533289695268 0 -0.41867380740831611 -0.36398836527224071 0 -0.43256408976529492 -0.36260533289695268 0 -0.42210656065146929 -0.35476551363046099 0 -0.41867380740831611 -0.36398836527224071 0 -0.44408457896710762 -0.34741130507322732 0 -0.4310745521241639 -0.35060051531725012 0 -0.42443636388738298 -0.3390060521705498 0 -0.43834809566141358 -0.35386966642967582 0 -0.43256408976529492 -0.36260533289695268 0 -0.4310745521241639 -0.35060051531725012 0 -0.4310745521241639 -0.35060051531725012 0 -0.42266042161335821 -0.34652378860874011 0 -0.42210656065146929 -0.35476551363046099 0 -0.4310745521241639 -0.35060051531725012 0 -0.42266042161335821 -0.34652378860874011 0 -0.42443636388738298 -0.3390060521705498 0 -0.43256408976529492 -0.36260533289695268 0 -0.4310745521241639 -0.35060051531725012 0 -0.42210656065146929 -0.35476551363046099 0 -0.42210656065146929 -0.35476551363046099 0 -0.41243440171204931 -0.35621682403100541 0 -0.41867380740831611 -0.36398836527224071 0 -0.41243440171204931 -0.35621682403100541 0 -0.40365717239196519 -0.36741535175059892 0 -0.40302160193259851 -0.3439916005776541 0 -0.42210656065146929 -0.35476551363046099 0 -0.41714587076776338 -0.34786779488983011 0 -0.41243440171204931 -0.35621682403100541 0 -0.42266042161335821 -0.34652378860874011 0 -0.42210656065146929 -0.35476551363046099 0 -0.41714587076776338 -0.34786779488983011 0 -0.42266042161335821 -0.34652378860874011 0 -0.41714587076776338 -0.34786779488983011 0 -0.41853876063601031 -0.34037906703560689 0 -0.41714587076776338 -0.34786779488983011 0 -0.41853876063601031 -0.34037906703560689 0 -0.41714587076776338 -0.34786779488983011 0 -0.41243440171204931 -0.35621682403100541 0 -0.40302160193259851 -0.3439916005776541 0 -0.41714587076776338 -0.34786779488983011 0 -0.40302160193259851 -0.3439916005776541 0 -0.41853876063601031 -0.34037906703560689 0 -0.42311368847744002 -0.37830224279505142 0 -0.41867380740831611 -0.36398836527224071 0 -0.40365717239196519 -0.36741535175059892 0 -0.42311368847744002 -0.37830224279505142 0 -0.40365717239196519 -0.36741535175059892 0 -0.41243440171204931 -0.35621682403100541 0 -0.41867380740831611 -0.36398836527224071 0 -0.40365717239196519 -0.36741535175059892 0 -0.40403491357358612 -0.38133688525744702 0 -0.40365717239196519 -0.36741535175059892 0 -0.40403491357358612 -0.38133688525744702 0 -0.40365717239196519 -0.36741535175059892 0 -0.3904578797192948 -0.37473938743617019 0 -0.40365717239196519 -0.36741535175059892 0 -0.38979507995825918 -0.35965881973269581 0 -0.40365717239196519 -0.36741535175059892 0 -0.3904578797192948 -0.37473938743617019 0 -0.38979507995825918 -0.35965881973269581 0 -0.3904578797192948 -0.37473938743617019 0 -0.38979507995825918 -0.35965881973269581 0 -0.37568304780698558 -0.36916333065311507 0 -0.37568304780698558 -0.36916333065311507 0 -0.37593298752455201 -0.35190228771479481 0 -0.38979507995825918 -0.35965881973269581 0 -0.37568304780698558 -0.36916333065311507 0 -0.37593298752455201 -0.35190228771479481 0 -0.38979507995825918 -0.35965881973269581 0 -0.37595629511297179 -0.35029264644438168 0 -0.40302160193259851 -0.3439916005776541 0 -0.37595629511297179 -0.35029264644438168 0 -0.40302160193259851 -0.3439916005776541 0 -0.38842354837557669 -0.33756560667471242 0 -0.37595629511297179 -0.35029264644438168 0 -0.40302160193259851 -0.3439916005776541 0 -0.37595629511297179 -0.35029264644438168 0 -0.37607676276689278 -0.3419730509543204 0 -0.37390838074359528 -0.35076941925389299 0 -0.37595629511297179 -0.35029264644438168 0 -0.37607676276689278 -0.3419730509543204 0 -0.37595629511297179 -0.35029264644438168 0 -0.37593298752455201 -0.35190228771479481 0 -0.37390838074359528 -0.35076941925389299 0 -0.37595629511297179 -0.35029264644438168 0 -0.37593298752455201 -0.35190228771479481 0 -0.38979507995825918 -0.35965881973269581 0 -0.37595629511297179 -0.35029264644438168 0 -0.37593298752455201 -0.35190228771479481 0 -0.38979507995825918 -0.35965881973269581 0 -0.37593298752455201 -0.35190228771479481 0 -0.40365717239196519 -0.36741535175059892 0 -0.40302160193259851 -0.3439916005776541 0 -0.40365717239196519 -0.36741535175059892 0 -0.38979507995825918 -0.35965881973269581 0 -0.40302160193259851 -0.3439916005776541 0 -0.40302160193259851 -0.3439916005776541 0 -0.40263324863316441 -0.32967896077653092 0 -0.40263324863316441 -0.32967896077653092 0 -0.38842354837557669 -0.33756560667471242 0 -0.38442983343225828 -0.32189177462067481 0 -0.40302160193259851 -0.3439916005776541 0 -0.40263324863316441 -0.32967896077653092 0 -0.38842354837557669 -0.33756560667471242 0 -0.37607676276689278 -0.3419730509543204 0 -0.37641717267996733 -0.3184640617331177 0 -0.38842354837557669 -0.33756560667471242 0 -0.37607676276689278 -0.3419730509543204 0 -0.38442983343225828 -0.32189177462067481 0 -0.37607676276689278 -0.3419730509543204 0 -0.38442983343225828 -0.32189177462067481 0 -0.37595629511297179 -0.35029264644438168 0 -0.38842354837557669 -0.33756560667471242 0 -0.37607676276689278 -0.3419730509543204 0 -0.37607676276689278 -0.3419730509543204 0 -0.37641717267996733 -0.3184640617331177 0 -0.38442983343225828 -0.32189177462067481 0 -0.37641717267996733 -0.3184640617331177 0 -0.38442983343225828 -0.32189177462067481 0 -0.3841914044669909 -0.30132118344037401 0 -0.37641717267996733 -0.3184640617331177 0 -0.38442983343225828 -0.32189177462067481 0 -0.40263324863316441 -0.32967896077653092 0 -0.38442983343225828 -0.32189177462067481 0 -0.40185461233875269 -0.30098256284660307 0 -0.40263324863316441 -0.32967896077653092 0 -0.38442983343225828 -0.32189177462067481 0 -0.40263324863316441 -0.32967896077653092 0 -0.40185461233875269 -0.30098256284660307 0 -0.40263324863316441 -0.32967896077653092 0 -0.41242695344044827 -0.31820451366256841 0 -0.40185461233875269 -0.30098256284660307 0 -0.41242695344044827 -0.31820451366256841 0 -0.41920998916455232 -0.33677027649670849 0 -0.42301959421646518 -0.31628833020920039 0 -0.41920998916455232 -0.33677027649670849 0 -0.42301959421646518 -0.31628833020920039 0 -0.41242695344044827 -0.31820451366256841 0 -0.42301959421646518 -0.31628833020920039 0 -0.41541732284930832 -0.30730243798379953 0 -0.40302160193259851 -0.3439916005776541 0 -0.41920998916455232 -0.33677027649670849 0 -0.41853876063601031 -0.34037906703560689 0 -0.40302160193259851 -0.3439916005776541 0 -0.40263324863316441 -0.32967896077653092 0 -0.41920998916455232 -0.33677027649670849 0 -0.40263324863316441 -0.32967896077653092 0 -0.41920998916455232 -0.33677027649670849 0 -0.40263324863316441 -0.32967896077653092 0 -0.41242695344044827 -0.31820451366256841 0 -0.41920998916455232 -0.33677027649670849 0 -0.40302160193259851 -0.3439916005776541 0 -0.41853876063601031 -0.34037906703560689 0 -0.41853876063601031 -0.34037906703560689 0 -0.42443636388738298 -0.3390060521705498 0 -0.41920998916455232 -0.33677027649670849 0 -0.42443636388738298 -0.3390060521705498 0 -0.41920998916455232 -0.33677027649670849 0 -0.41853876063601031 -0.34037906703560689 0 -0.42443636388738298 -0.3390060521705498 0 -0.41920998916455232 -0.33677027649670849 0 -0.41853876063601031 -0.34037906703560689 0 -0.43930980958642257 -0.33554338078202212 0 -0.44408457896710762 -0.34741130507322732 0 -0.42443636388738298 -0.3390060521705498 0 -0.43930980958642257 -0.33554338078202212 0 -0.42443636388738298 -0.3390060521705498 0 -0.42301959421646518 -0.31628833020920039 0 -0.41920998916455232 -0.33677027649670849 0 -0.42443636388738298 -0.3390060521705498 0 -0.42301959421646518 -0.31628833020920039 0 -0.44408457896710762 -0.34741130507322732 0 -0.42443636388738298 -0.3390060521705498 0 -0.42266042161335821 -0.34652378860874011 0 -0.41853876063601031 -0.34037906703560689 0 -0.42443636388738298 -0.3390060521705498 0 -0.43930980958642257 -0.33554338078202212 0 -0.42443636388738298 -0.3390060521705498 0 -0.43930980958642257 -0.33554338078202212 0 -0.42301959421646518 -0.31628833020920039 0 -0.44024276041750632 -0.31887045497680111 0 -0.42395130998641067 -0.31127905704434472 0 -0.44024276041750632 -0.31887045497680111 0 -0.43930980958642257 -0.33554338078202212 0 -0.42301959421646518 -0.31628833020920039 0 -0.44024276041750632 -0.31887045497680111 0 -0.42301959421646518 -0.31628833020920039 0 -0.42395130998641067 -0.31127905704434472 0 -0.42301959421646518 -0.31628833020920039 0 -0.42395130998641067 -0.31127905704434472 0 -0.42395130998641067 -0.31127905704434472 0 -0.42709180872781188 -0.29439449141065738 0 -0.44024276041750632 -0.31887045497680111 0 -0.42395130998641067 -0.31127905704434472 0 -0.43527018611072049 -0.30465000121327751 0 -0.42395130998641067 -0.31127905704434472 0 -0.42709180872781188 -0.29439449141065738 0 -0.41541732284930832 -0.30730243798379953 0 -0.42395130998641067 -0.31127905704434472 0 -0.43527018611072049 -0.30465000121327751 0 -0.42709180872781188 -0.29439449141065738 0 -0.441361257405879 -0.29303276451920029 0 -0.43527018611072049 -0.30465000121327751 0 -0.42709180872781188 -0.29439449141065738 0 -0.42709180872781188 -0.29439449141065738 0 -0.43077531442077321 -0.27459050524281542 0 -0.42709180872781188 -0.29439449141065738 0 -0.41684225135067149 -0.28376244362903152 0 -0.43077531442077321 -0.27459050524281542 0 -0.441361257405879 -0.29303276451920029 0 -0.42709180872781188 -0.29439449141065738 0 -0.441361257405879 -0.29303276451920029 0 -0.42709180872781188 -0.29439449141065738 0 -0.43077531442077321 -0.27459050524281542 0 -0.42709180872781188 -0.29439449141065738 0 -0.41684225135067149 -0.28376244362903152 0 -0.40618483967714292 -0.29638963380315841 0 -0.42709180872781188 -0.29439449141065738 0 -0.40618483967714292 -0.29638963380315841 0 -0.41684225135067149 -0.28376244362903152 0 -0.40690107601488551 -0.28490397733270861 0 -0.40618483967714292 -0.29638963380315841 0 -0.41541732284930832 -0.30730243798379953 0 -0.40185461233875269 -0.30098256284660307 0 -0.40618483967714292 -0.29638963380315841 0 -0.42709180872781188 -0.29439449141065738 0 -0.41541732284930832 -0.30730243798379953 0 -0.40618483967714292 -0.29638963380315841 0 -0.41541732284930832 -0.30730243798379953 0 -0.40618483967714292 -0.29638963380315841 0 -0.41242695344044827 -0.31820451366256841 0 -0.41541732284930832 -0.30730243798379953 0 -0.40185461233875269 -0.30098256284660307 0 -0.41541732284930832 -0.30730243798379953 0 -0.40185461233875269 -0.30098256284660307 0 -0.42301959421646518 -0.31628833020920039 0 -0.41541732284930832 -0.30730243798379953 0 -0.42395130998641067 -0.31127905704434472 0 -0.41541732284930832 -0.30730243798379953 0 -0.42301959421646518 -0.31628833020920039 0 -0.42395130998641067 -0.31127905704434472 0 -0.41541732284930832 -0.30730243798379953 0 -0.38442983343225828 -0.32189177462067481 0 -0.40185461233875269 -0.30098256284660307 0 -0.39448508010510541 -0.297525044214214 0 -0.40185461233875269 -0.30098256284660307 0 -0.40174149504185092 -0.29681366012781812 0 -0.40618483967714292 -0.29638963380315841 0 -0.40185461233875269 -0.30098256284660307 0 -0.40174149504185092 -0.29681366012781812 0 -0.40185461233875269 -0.30098256284660307 0 -0.39448508010510541 -0.297525044214214 0 -0.40174149504185092 -0.29681366012781812 0 -0.40185461233875269 -0.30098256284660307 0 -0.39448508010510541 -0.297525044214214 0 -0.39448508010510541 -0.297525044214214 0 -0.40174149504185092 -0.29681366012781812 0 -0.37641717267996733 -0.3184640617331177 0 -0.37669606201677502 -0.29920373422444158 0 -0.38442983343225828 -0.32189177462067481 0 -0.39448508010510541 -0.297525044214214 0 -0.38442983343225828 -0.32189177462067481 0 -0.39448508010510541 -0.297525044214214 0 -0.3841914044669909 -0.30132118344037401 0 -0.37641717267996733 -0.3184640617331177 0 -0.3841914044669909 -0.30132118344037401 0 -0.37669606201677502 -0.29920373422444158 0 -0.39448508010510541 -0.297525044214214 0 -0.3841914044669909 -0.30132118344037401 0 -0.37928718982873688 -0.29895646409505849 0 -0.39448508010510541 -0.297525044214214 0 -0.37928718982873688 -0.29895646409505849 0 -0.3841914044669909 -0.30132118344037401 0 -0.37928718982873688 -0.29895646409505849 0 -0.3841914044669909 -0.30132118344037401 0 -0.37928718982873688 -0.29895646409505849 0 -0.37669606201677502 -0.29920373422444158 0 -0.37928718982873688 -0.29895646409505849 0 -0.37669606201677502 -0.29920373422444158 0 -0.37671758341694961 -0.29771744858697219 0 -0.37928718982873688 -0.29895646409505849 0 -0.37671758341694961 -0.29771744858697219 0 -0.37928718982873688 -0.29895646409505849 0 -0.37669606201677502 -0.29920373422444158 0 -0.37669606201677502 -0.29920373422444158 0 -0.37671758341694961 -0.29771744858697219 0 -0.37671758341694961 -0.29771744858697219 0 -0.38607699004493318 -0.28757386461908069 0 -0.38483052758877101 -0.28123782127595193 0 -0.37671758341694961 -0.29771744858697219 0 -0.3770412393053626 -0.27536550612006683 0 -0.37671758341694961 -0.29771744858697219 0 -0.38483052758877101 -0.28123782127595193 0 -0.3770412393053626 -0.27536550612006683 0 -0.37928718982873688 -0.29895646409505849 0 -0.37671758341694961 -0.29771744858697219 0 -0.38467000758835601 -0.29297497791584359 0 -0.37671758341694961 -0.29771744858697219 0 -0.38467000758835601 -0.29297497791584359 0 -0.38607699004493318 -0.28757386461908069 0 -0.39448508010510541 -0.297525044214214 0 -0.37928718982873688 -0.29895646409505849 0 -0.38467000758835601 -0.29297497791584359 0 -0.39448508010510541 -0.297525044214214 0 -0.38467000758835601 -0.29297497791584359 0 -0.39448508010510541 -0.297525044214214 0 -0.38467000758835601 -0.29297497791584359 0 -0.39217701296355612 -0.28987936211692023 0 -0.38467000758835601 -0.29297497791584359 0 -0.38607699004493318 -0.28757386461908069 0 -0.39217701296355612 -0.28987936211692023 0 -0.38607699004493318 -0.28757386461908069 0 -0.39049541959166939 -0.28414526237041138 0 -0.39217701296355612 -0.28987936211692023 0 -0.39049541959166939 -0.28414526237041138 0 -0.39420405367365152 -0.27853706101481662 0 -0.38483052758877101 -0.28123782127595193 0 -0.38607699004493318 -0.28757386461908069 0 -0.39049541959166939 -0.28414526237041138 0 -0.38483052758877101 -0.28123782127595193 0 -0.39597078832761667 -0.28551153658085893 0 -0.40174149504185092 -0.29681366012781812 0 -0.40123596036735593 -0.27818233727432817 0 -0.39049541959166939 -0.28414526237041138 0 -0.39597078832761667 -0.28551153658085893 0 -0.39420405367365152 -0.27853706101481662 0 -0.40174149504185092 -0.29681366012781812 0 -0.40123596036735593 -0.27818233727432817 0 -0.40174149504185092 -0.29681366012781812 0 -0.40322207619149192 -0.29288764445213411 0 -0.40123596036735593 -0.27818233727432817 0 -0.39049541959166939 -0.28414526237041138 0 -0.39597078832761667 -0.28551153658085893 0 -0.39217701296355612 -0.28987936211692023 0 -0.39597078832761667 -0.28551153658085893 0 -0.39217701296355612 -0.28987936211692023 0 -0.40174149504185092 -0.29681366012781812 0 -0.39448508010510541 -0.297525044214214 0 -0.39217701296355612 -0.28987936211692023 0 -0.40174149504185092 -0.29681366012781812 0 -0.40690107601488551 -0.28490397733270861 0 -0.40322207619149192 -0.29288764445213411 0 -0.40618483967714292 -0.29638963380315841 0 -0.40174149504185092 -0.29681366012781812 0 -0.40322207619149192 -0.29288764445213411 0 -0.40618483967714292 -0.29638963380315841 0 -0.40174149504185092 -0.29681366012781812 0 -0.40618483967714292 -0.29638963380315841 0 -0.40322207619149192 -0.29288764445213411 0 -0.40618483967714292 -0.29638963380315841 0 -0.40690107601488551 -0.28490397733270861 0 -0.40322207619149192 -0.29288764445213411 0 -0.40123596036735593 -0.27818233727432817 0 -0.39420405367365152 -0.27853706101481662 0 -0.37710287173325818 -0.2711091198417086 0 -0.40073042569286338 -0.25955101442083811 0 -0.40123596036735593 -0.27818233727432817 0 -0.39420405367365152 -0.27853706101481662 0 -0.40073042569286338 -0.25955101442083811 0 -0.40123596036735593 -0.27818233727432817 0 -0.40073042569286338 -0.25955101442083811 0 -0.40123596036735593 -0.27818233727432817 0 -0.40073042569286338 -0.25955101442083811 0 -0.41341650638623911 -0.27076301679274262 0 -0.39597078832761667 -0.28551153658085893 0 -0.40123596036735593 -0.27818233727432817 0 -0.39420405367365152 -0.27853706101481662 0 -0.39420405367365152 -0.27853706101481662 0 -0.37710287173325818 -0.2711091198417086 0 -0.3770412393053626 -0.27536550612006683 0 -0.39420405367365152 -0.27853706101481662 0 -0.3770412393053626 -0.27536550612006683 0 -0.39420405367365152 -0.27853706101481662 0 -0.38483052758877101 -0.28123782127595193 0 -0.3770412393053626 -0.27536550612006683 0 -0.37710287173325818 -0.2711091198417086 0 -0.3770412393053626 -0.27536550612006683 0 -0.37710287173325818 -0.2711091198417086 0 -0.38543722149146659 -0.25821727905458303 0 -0.40073042569286338 -0.25955101442083811 0 -0.37710287173325818 -0.2711091198417086 0 -0.37747963509906429 -0.24508953120583671 0 -0.37710287173325818 -0.2711091198417086 0 -0.40073042569286338 -0.25955101442083811 0 -0.37710287173325818 -0.2711091198417086 0 -0.38543722149146659 -0.25821727905458303 0 -0.37747963509906429 -0.24508953120583671 0 -0.38543722149146659 -0.25821727905458303 0 -0.3938256931015453 -0.25037754026629511 0 -0.37747963509906429 -0.24508953120583671 0 -0.38543722149146659 -0.25821727905458303 0 -0.3938256931015453 -0.25037754026629511 0 -0.40073042569286338 -0.25955101442083811 0 -0.40073042569286338 -0.25955101442083811 0 -0.40282532782868952 -0.25224285689579767 0 -0.40022281387448849 -0.24084313907701979 0 -0.40073042569286338 -0.25955101442083811 0 -0.40022281387448849 -0.24084313907701979 0 -0.3938256931015453 -0.25037754026629511 0 -0.40073042569286338 -0.25955101442083811 0 -0.40022281387448849 -0.24084313907701979 0 -0.40073042569286338 -0.25955101442083811 0 -0.40282532782868952 -0.25224285689579767 0 -0.41385673751816382 -0.25312989710486528 0 -0.40073042569286338 -0.25955101442083811 0 -0.41385673751816382 -0.25312989710486528 0 -0.40073042569286338 -0.25955101442083811 0 -0.41385673751816382 -0.25312989710486528 0 -0.41341650638623911 -0.27076301679274262 0 -0.41385673751816382 -0.25312989710486528 0 -0.41341650638623911 -0.27076301679274262 0 -0.42312684460972783 -0.26331748455384929 0 -0.41385673751816382 -0.25312989710486528 0 -0.41679144862722167 -0.25169429778568547 0 -0.43445882011373449 -0.25478651907497341 0 -0.40282532782868952 -0.25224285689579767 0 -0.41385673751816382 -0.25312989710486528 0 -0.4086566941719203 -0.24778871483445111 0 -0.40282532782868952 -0.25224285689579767 0 -0.41385673751816382 -0.25312989710486528 0 -0.41385673751816382 -0.25312989710486528 0 -0.41679144862722167 -0.25169429778568547 0 -0.41627810448972868 -0.24641300060905449 0 -0.41385673751816382 -0.25312989710486528 0 -0.41679144862722167 -0.25169429778568547 0 -0.41684225135067149 -0.28376244362903152 0 -0.41341650638623911 -0.27076301679274262 0 -0.43077531442077321 -0.27459050524281542 0 -0.40690107601488551 -0.28490397733270861 0 -0.40123596036735593 -0.27818233727432817 0 -0.41341650638623911 -0.27076301679274262 0 -0.41684225135067149 -0.28376244362903152 0 -0.40690107601488551 -0.28490397733270861 0 -0.41341650638623911 -0.27076301679274262 0 -0.41341650638623911 -0.27076301679274262 0 -0.43077531442077321 -0.27459050524281542 0 -0.42312684460972783 -0.26331748455384929 0 -0.43077531442077321 -0.27459050524281542 0 -0.42312684460972783 -0.26331748455384929 0 -0.43445882011373449 -0.25478651907497341 0 -0.41385673751816382 -0.25312989710486528 0 -0.43445882011373449 -0.25478651907497341 0 -0.43077531442077321 -0.27459050524281542 0 -0.43445882011373449 -0.25478651907497341 0 -0.41385673751816382 -0.25312989710486528 0 -0.42312684460972783 -0.26331748455384929 0 -0.43445882011373449 -0.25478651907497341 0 -0.41679144862722167 -0.25169429778568547 0 -0.43445882011373449 -0.25478651907497341 0 -0.42335340856967768 -0.24893549408922019 0 -0.32580796388430833 -0.26195871891040218 0 -0.34139866608006603 -0.2687790352098644 0 -0.31202674084989918 -0.26335133138269068 0 -0.32580796388430833 -0.26195871891040218 0 -0.33345250408021371 -0.25331871279766999 0 -0.32023222063025569 -0.2489608815952247 0 -0.32580796388430833 -0.26195871891040218 0 -0.31664960680882542 -0.25714232151458272 0 -0.32023222063025569 -0.2489608815952247 0 -0.31664960680882542 -0.25714232151458272 0 -0.30853150187083839 -0.25429835417001312 0 -0.32023222063025569 -0.2489608815952247 0 -0.32580796388430833 -0.26195871891040218 0 -0.31664960680882542 -0.25714232151458272 0 -0.31202674084989918 -0.26335133138269068 0 -0.33223611708196649 -0.27626932861073827 0 -0.31972670239926188 -0.28454160199560091 0 -0.31187737399160442 -0.27618124236115132 0 -0.34139866608006603 -0.2687790352098644 0 -0.31202674084989918 -0.26335133138269068 0 -0.33223611708196649 -0.27626932861073827 0 -0.31202674084989918 -0.26335133138269068 0 -0.3062135479255173 -0.26372173898871692 0 -0.33223611708196649 -0.27626932861073827 0 -0.31187737399160442 -0.27618124236115132 0 -0.3062135479255173 -0.26372173898871692 0 -0.33260241140844943 -0.2743168067351805 0 -0.33223611708196649 -0.27626932861073827 0 -0.31202674084989918 -0.26335133138269068 0 -0.33223611708196649 -0.27626932861073827 0 -0.3062135479255173 -0.26372173898871692 0 -0.33260241140844943 -0.2743168067351805 0 -0.34139866608006603 -0.2687790352098644 0 -0.31202674084989918 -0.26335133138269068 0 -0.33223611708196649 -0.27626932861073827 0 -0.34139866608006603 -0.2687790352098644 0 -0.34951875912658742 -0.28460269103381453 0 -0.33223611708196649 -0.27626932861073827 0 -0.34951875912658742 -0.28460269103381453 0 -0.33260241140844943 -0.2743168067351805 0 -0.33223611708196649 -0.27626932861073827 0 -0.34139866608006603 -0.2687790352098644 0 -0.33260241140844943 -0.2743168067351805 0 -0.33223611708196649 -0.27626932861073827 0 -0.34139866608006603 -0.2687790352098644 0 -0.3363084638556994 -0.26041051377605268 0 -0.34457472137820933 -0.25758558818627408 0 -0.32580796388430833 -0.26195871891040218 0 -0.34139866608006603 -0.2687790352098644 0 -0.3363084638556994 -0.26041051377605268 0 -0.32580796388430833 -0.26195871891040218 0 -0.3363084638556994 -0.26041051377605268 0 -0.33345250408021371 -0.25331871279766999 0 -0.3363084638556994 -0.26041051377605268 0 -0.33345250408021371 -0.25331871279766999 0 -0.34457472137820933 -0.25758558818627408 0 -0.33345250408021371 -0.25331871279766999 0 -0.34457472137820933 -0.25758558818627408 0 -0.34395992200845399 -0.24382677409400949 0 -0.34139866608006603 -0.2687790352098644 0 -0.34457472137820933 -0.25758558818627408 0 -0.35733732661955131 -0.26288598862094092 0 -0.34457472137820933 -0.25758558818627408 0 -0.35872453044413888 -0.25078889886649508 0 -0.34395992200845399 -0.24382677409400949 0 -0.34457472137820933 -0.25758558818627408 0 -0.35733732661955131 -0.26288598862094092 0 -0.35872453044413888 -0.25078889886649508 0 -0.37710287173325818 -0.2711091198417086 0 -0.36828299104124951 -0.26081605551440462 0 -0.37747963509906429 -0.24508953120583671 0 -0.35872453044413888 -0.25078889886649508 0 -0.36828299104124951 -0.26081605551440462 0 -0.37747963509906429 -0.24508953120583671 0 -0.35733732661955131 -0.26288598862094092 0 -0.35872453044413888 -0.25078889886649508 0 -0.36828299104124951 -0.26081605551440462 0 -0.37077059131023282 -0.27420673903703829 0 -0.34951875912658742 -0.28460269103381453 0 -0.37710287173325818 -0.2711091198417086 0 -0.3770412393053626 -0.27536550612006683 0 -0.37077059131023282 -0.27420673903703829 0 -0.3770412393053626 -0.27536550612006683 0 -0.37077059131023282 -0.27420673903703829 0 -0.37710287173325818 -0.2711091198417086 0 -0.36828299104124951 -0.26081605551440462 0 -0.37077059131023282 -0.27420673903703829 0 -0.37710287173325818 -0.2711091198417086 0 -0.37077059131023282 -0.27420673903703829 0 -0.35733732661955131 -0.26288598862094092 0 -0.36828299104124951 -0.26081605551440462 0 -0.37077059131023282 -0.27420673903703829 0 -0.34139866608006603 -0.2687790352098644 0 -0.35733732661955131 -0.26288598862094092 0 -0.37077059131023282 -0.27420673903703829 0 -0.34139866608006603 -0.2687790352098644 0 -0.37077059131023282 -0.27420673903703829 0 -0.34951875912658742 -0.28460269103381453 0 -0.34139866608006603 -0.2687790352098644 0 -0.37077059131023282 -0.27420673903703829 0 -0.34951875912658742 -0.28460269103381453 0 -0.3581763596052473 -0.30097106086504849 0 -0.34010739644885768 -0.2892065328944351 0 -0.34951875912658742 -0.28460269103381453 0 -0.34010739644885768 -0.2892065328944351 0 -0.37671758341694961 -0.29771744858697219 0 -0.37077059131023282 -0.27420673903703829 0 -0.34951875912658742 -0.28460269103381453 0 -0.37671758341694961 -0.29771744858697219 0 -0.34951875912658742 -0.28460269103381453 0 -0.37671758341694961 -0.29771744858697219 0 -0.3770412393053626 -0.27536550612006683 0 -0.37077059131023282 -0.27420673903703829 0 -0.37671758341694961 -0.29771744858697219 0 -0.34951875912658742 -0.28460269103381453 0 -0.3581763596052473 -0.30097106086504849 0 -0.37669606201677502 -0.29920373422444158 0 -0.37671758341694961 -0.29771744858697219 0 -0.3581763596052473 -0.30097106086504849 0 -0.37641717267996733 -0.3184640617331177 0 -0.37669606201677502 -0.29920373422444158 0 -0.36799370156123501 -0.30592930732763762 0 -0.37641717267996733 -0.3184640617331177 0 -0.36799370156123501 -0.30592930732763762 0 -0.35803691493684492 -0.31060122461938489 0 -0.37669606201677502 -0.29920373422444158 0 -0.36799370156123501 -0.30592930732763762 0 -0.3581763596052473 -0.30097106086504849 0 -0.37669606201677502 -0.29920373422444158 0 -0.3581763596052473 -0.30097106086504849 0 -0.36799370156123501 -0.30592930732763762 0 -0.35803691493684492 -0.31060122461938489 0 -0.3581763596052473 -0.30097106086504849 0 -0.35803691493684492 -0.31060122461938489 0 -0.33965665719371979 -0.30273838750565862 0 -0.35803691493684492 -0.31060122461938489 0 -0.33965665719371979 -0.30273838750565862 0 -0.34514704515453298 -0.31300544250539297 0 -0.3581763596052473 -0.30097106086504849 0 -0.33965665719371979 -0.30273838750565862 0 -0.34010739644885768 -0.2892065328944351 0 -0.35803691493684492 -0.31060122461938489 0 -0.3581763596052473 -0.30097106086504849 0 -0.33965665719371979 -0.30273838750565862 0 -0.3581763596052473 -0.30097106086504849 0 -0.33965665719371979 -0.30273838750565862 0 -0.33676996251121621 -0.31158184422573892 0 -0.33965665719371979 -0.30273838750565862 0 -0.34514704515453298 -0.31300544250539297 0 -0.33676996251121621 -0.31158184422573892 0 -0.33965665719371979 -0.30273838750565862 0 -0.32704471803945162 -0.30394193902942662 0 -0.33676996251121621 -0.31158184422573892 0 -0.32594772137393307 -0.30978944971135602 0 -0.32704471803945162 -0.30394193902942662 0 -0.33965665719371979 -0.30273838750565862 0 -0.32704471803945162 -0.30394193902942662 0 -0.32819068517220462 -0.29783339261299951 0 -0.33965665719371979 -0.30273838750565862 0 -0.32704471803945162 -0.30394193902942662 0 -0.32819068517220462 -0.29783339261299951 0 -0.33965665719371979 -0.30273838750565862 0 -0.33223611708196649 -0.27626932861073827 0 -0.32819068517220462 -0.29783339261299951 0 -0.33223611708196649 -0.27626932861073827 0 -0.32819068517220462 -0.29783339261299951 0 -0.34010739644885768 -0.2892065328944351 0 -0.33223611708196649 -0.27626932861073827 0 -0.34951875912658742 -0.28460269103381453 0 -0.34010739644885768 -0.2892065328944351 0 -0.32819068517220462 -0.29783339261299951 0 -0.33965665719371979 -0.30273838750565862 0 -0.34010739644885768 -0.2892065328944351 0 -0.32819068517220462 -0.29783339261299951 0 -0.31972670239926188 -0.28454160199560091 0 -0.31332574866090718 -0.291474364566292 0 -0.32819068517220462 -0.29783339261299951 0 -0.31332574866090718 -0.291474364566292 0 -0.33223611708196649 -0.27626932861073827 0 -0.32819068517220462 -0.29783339261299951 0 -0.31972670239926188 -0.28454160199560091 0 -0.31972670239926188 -0.28454160199560091 0 -0.31332574866090718 -0.291474364566292 0 -0.30937392239009109 -0.28339120160471948 0 -0.31972670239926188 -0.28454160199560091 0 -0.30937392239009109 -0.28339120160471948 0 -0.31187737399160442 -0.27618124236115132 0 -0.31992409361072222 -0.30462145692723192 0 -0.32594772137393307 -0.30978944971135602 0 -0.31307430431717392 -0.31869978567557272 0 -0.31992409361072222 -0.30462145692723192 0 -0.32594772137393307 -0.30978944971135602 0 -0.32594772137393307 -0.30978944971135602 0 -0.32704471803945162 -0.30394193902942662 0 -0.31992409361072222 -0.30462145692723192 0 -0.32594772137393307 -0.30978944971135602 0 -0.32704471803945162 -0.30394193902942662 0 -0.32819068517220462 -0.29783339261299951 0 -0.31332574866090718 -0.291474364566292 0 -0.31992409361072222 -0.30462145692723192 0 -0.32819068517220462 -0.29783339261299951 0 -0.32704471803945162 -0.30394193902942662 0 -0.32819068517220462 -0.29783339261299951 0 -0.31992409361072222 -0.30462145692723192 0 -0.32704471803945162 -0.30394193902942662 0 -0.31992409361072222 -0.30462145692723192 0 -0.32704471803945162 -0.30394193902942662 0 -0.32594772137393307 -0.30978944971135602 0 -0.31307430431717392 -0.31869978567557272 0 -0.32184288384298337 -0.33167017375041419 0 -0.32594772137393307 -0.30978944971135602 0 -0.32184288384298337 -0.33167017375041419 0 -0.32184288384298337 -0.33167017375041419 0 -0.31773804631203251 -0.35355089778947202 0 -0.32184288384298337 -0.33167017375041419 0 -0.34475024534571441 -0.34586667392980902 0 -0.31773804631203251 -0.35355089778947202 0 -0.32184288384298337 -0.33167017375041419 0 -0.34612464597635118 -0.32710031367078812 0 -0.34475024534571441 -0.34586667392980902 0 -0.33676996251121621 -0.31158184422573892 0 -0.32594772137393307 -0.30978944971135602 0 -0.34612464597635118 -0.32710031367078812 0 -0.32594772137393307 -0.30978944971135602 0 -0.34612464597635118 -0.32710031367078812 0 -0.32594772137393307 -0.30978944971135602 0 -0.32184288384298337 -0.33167017375041419 0 -0.34612464597635118 -0.32710031367078812 0 -0.33676996251121621 -0.31158184422573892 0 -0.34514704515453298 -0.31300544250539297 0 -0.34612464597635118 -0.32710031367078812 0 -0.35803691493684492 -0.31060122461938489 0 -0.34514704515453298 -0.31300544250539297 0 -0.34612464597635118 -0.32710031367078812 0 -0.35803691493684492 -0.31060122461938489 0 -0.34612464597635118 -0.32710031367078812 0 -0.35600230731325749 -0.33324145173106873 0 -0.37641717267996733 -0.3184640617331177 0 -0.35803691493684492 -0.31060122461938489 0 -0.37641717267996733 -0.3184640617331177 0 -0.35803691493684492 -0.31060122461938489 0 -0.36719759625642318 -0.33008752154143739 0 -0.35803691493684492 -0.31060122461938489 0 -0.36719759625642318 -0.33008752154143739 0 -0.35600230731325749 -0.33324145173106873 0 -0.37607676276689278 -0.3419730509543204 0 -0.37641717267996733 -0.3184640617331177 0 -0.36719759625642318 -0.33008752154143739 0 -0.37607676276689278 -0.3419730509543204 0 -0.3688763256213185 -0.34309961767568647 0 -0.36719759625642318 -0.33008752154143739 0 -0.36719759625642318 -0.33008752154143739 0 -0.36118874601324108 -0.3436521492952741 0 -0.35600230731325749 -0.33324145173106873 0 -0.3688763256213185 -0.34309961767568647 0 -0.36719759625642318 -0.33008752154143739 0 -0.36118874601324108 -0.3436521492952741 0 -0.34612464597635118 -0.32710031367078812 0 -0.35600230731325749 -0.33324145173106873 0 -0.34475024534571441 -0.34586667392980902 0 -0.36118874601324108 -0.3436521492952741 0 -0.35600230731325749 -0.33324145173106873 0 -0.34475024534571441 -0.34586667392980902 0 -0.36118874601324108 -0.3436521492952741 0 -0.34475024534571441 -0.34586667392980902 0 -0.35925477447714671 -0.35134479444962452 0 -0.34475024534571441 -0.34586667392980902 0 -0.35480891830463612 -0.3592101017575729 0 -0.33937201587241012 -0.36587749477948078 0 -0.34475024534571441 -0.34586667392980902 0 -0.35480891830463612 -0.3592101017575729 0 -0.35925477447714671 -0.35134479444962452 0 -0.36118874601324108 -0.3436521492952741 0 -0.37225797237559449 -0.35115364910559932 0 -0.36118874601324108 -0.3436521492952741 0 -0.35925477447714671 -0.35134479444962452 0 -0.36985982957495511 -0.35171195823109852 0 -0.37568304780698558 -0.36916333065311507 0 -0.37593298752455201 -0.35190228771479481 0 -0.37225797237559449 -0.35115364910559932 0 -0.35480891830463612 -0.3592101017575729 0 -0.35925477447714671 -0.35134479444962452 0 -0.36985982957495511 -0.35171195823109852 0 -0.37607676276689278 -0.3419730509543204 0 -0.3688763256213185 -0.34309961767568647 0 -0.37225797237559449 -0.35115364910559932 0 -0.37607676276689278 -0.3419730509543204 0 -0.37225797237559449 -0.35115364910559932 0 -0.37607676276689278 -0.3419730509543204 0 -0.37390838074359528 -0.35076941925389299 0 -0.37225797237559449 -0.35115364910559932 0 -0.37593298752455201 -0.35190228771479481 0 -0.37390838074359528 -0.35076941925389299 0 -0.37225797237559449 -0.35115364910559932 0 -0.3688763256213185 -0.34309961767568647 0 -0.36118874601324108 -0.3436521492952741 0 -0.37225797237559449 -0.35115364910559932 0 -0.37593298752455201 -0.35190228771479481 0 -0.37390838074359528 -0.35076941925389299 0 -0.36118874601324108 -0.3436521492952741 0 -0.36985982957495511 -0.35171195823109852 0 -0.37225797237559449 -0.35115364910559932 0 -0.37595629511297179 -0.35029264644438168 0 -0.37390838074359528 -0.35076941925389299 0 -0.37390838074359528 -0.35076941925389299 0 -0.37225797237559449 -0.35115364910559932 0 -0.36985982957495511 -0.35171195823109852 0 -0.37225797237559449 -0.35115364910559932 0 -0.37568304780698558 -0.36916333065311507 0 -0.37225797237559449 -0.35115364910559932 0 -0.36100598543278789 -0.37820409176948921 0 -0.35480891830463612 -0.3592101017575729 0 -0.36985982957495511 -0.35171195823109852 0 -0.36100598543278789 -0.37820409176948921 0 -0.36985982957495511 -0.35171195823109852 0 -0.37225797237559449 -0.35115364910559932 0 -0.36100598543278789 -0.37820409176948921 0 -0.37225797237559449 -0.35115364910559932 0 -0.36100598543278789 -0.37820409176948921 0 -0.33937201587241012 -0.36587749477948078 0 -0.36100598543278789 -0.37820409176948921 0 -0.35480891830463612 -0.3592101017575729 0 -0.33937201587241012 -0.36587749477948078 0 -0.36100598543278789 -0.37820409176948921 0 -0.33937201587241012 -0.36587749477948078 0 -0.31773804631203251 -0.35355089778947202 0 -0.33937201587241012 -0.36587749477948078 0 -0.31773804631203251 -0.35355089778947202 0 -0.32803705280137402 -0.37447550275240871 0 -0.34475024534571441 -0.34586667392980902 0 -0.33937201587241012 -0.36587749477948078 0 -0.31773804631203251 -0.35355089778947202 0 -0.31773804631203251 -0.35355089778947202 0 -0.31381007312398762 -0.37448885129246268 0 -0.31773804631203251 -0.35355089778947202 0 -0.31381007312398762 -0.37448885129246268 0 -0.32803705280137402 -0.37447550275240871 0 -0.31381007312398762 -0.37448885129246268 0 -0.29871455833571747 -0.36148408621311728 0 -0.29196992941862432 -0.3825632544476108 0 -0.31773804631203251 -0.35355089778947202 0 -0.31381007312398762 -0.37448885129246268 0 -0.29871455833571747 -0.36148408621311728 0 -0.31773804631203251 -0.35355089778947202 0 -0.29871455833571747 -0.36148408621311728 0 -0.29282778547957722 -0.33935753649529382 0 -0.31773804631203251 -0.35355089778947202 0 -0.29282778547957722 -0.33935753649529382 0 -0.29871455833571747 -0.36148408621311728 0 -0.27675503022224163 -0.36681377825091099 0 -0.29282778547957722 -0.33935753649529382 0 -0.29871455833571747 -0.36148408621311728 0 -0.27675503022224163 -0.36681377825091099 0 -0.29196992941862432 -0.3825632544476108 0 -0.27675503022224163 -0.36681377825091099 0 -0.25757508569408222 -0.36424633604315798 0 -0.26546808025963542 -0.34847395767735678 0 -0.27675503022224163 -0.36681377825091099 0 -0.25757508569408222 -0.36424633604315798 0 -0.25812358553267323 -0.37605355791306738 0 -0.25757508569408222 -0.36424633604315798 0 -0.24839247009954951 -0.37292447016044328 0 -0.24532753696728959 -0.36501789644951049 0 -0.25757508569408222 -0.36424633604315798 0 -0.25812358553267323 -0.37605355791306738 0 -0.24839247009954951 -0.37292447016044328 0 -0.25757508569408222 -0.36424633604315798 0 -0.26546808025963542 -0.34847395767735678 0 -0.24650166737573331 -0.3569693529562265 0 -0.26546808025963542 -0.34847395767735678 0 -0.24650166737573331 -0.3569693529562265 0 -0.24881121389389799 -0.33838995723746451 0 -0.27675503022224163 -0.36681377825091099 0 -0.26546808025963542 -0.34847395767735678 0 -0.29282778547957722 -0.33935753649529382 0 -0.26791752464712137 -0.32516417520111718 0 -0.27544300416693679 -0.31995488319631832 0 -0.29282778547957722 -0.33935753649529382 0 -0.26546808025963542 -0.34847395767735678 0 -0.26791752464712137 -0.32516417520111718 0 -0.29282778547957722 -0.33935753649529382 0 -0.26791752464712137 -0.32516417520111718 0 -0.29282778547957722 -0.33935753649529382 0 -0.26791752464712137 -0.32516417520111718 0 -0.24881121389389799 -0.33838995723746451 0 -0.26546808025963542 -0.34847395767735678 0 -0.26791752464712137 -0.32516417520111718 0 -0.24881121389389799 -0.33838995723746451 0 -0.26791752464712137 -0.32516417520111718 0 -0.24881121389389799 -0.33838995723746451 0 -0.2441082332202735 -0.32380704628422963 0 -0.26791752464712137 -0.32516417520111718 0 -0.2444966906846206 -0.31181945912301329 0 -0.26791752464712137 -0.32516417520111718 0 -0.26963915832665503 -0.30942012505775762 0 -0.2444966906846206 -0.31181945912301329 0 -0.26791752464712137 -0.32516417520111718 0 -0.2441082332202735 -0.32380704628422963 0 -0.2444966906846206 -0.31181945912301329 0 -0.26791752464712137 -0.32516417520111718 0 -0.27544300416693679 -0.31995488319631832 0 -0.26963915832665503 -0.30942012505775762 0 -0.26791752464712137 -0.32516417520111718 0 -0.27544300416693679 -0.31995488319631832 0 -0.27544300416693679 -0.31995488319631832 0 -0.29403167998309421 -0.32125824908992018 0 -0.29478162596868879 -0.30702079099249591 0 -0.27544300416693679 -0.31995488319631832 0 -0.29403167998309421 -0.32125824908992018 0 -0.29282778547957722 -0.33935753649529382 0 -0.31307430431717392 -0.31869978567557272 0 -0.32184288384298337 -0.33167017375041419 0 -0.29282778547957722 -0.33935753649529382 0 -0.32184288384298337 -0.33167017375041419 0 -0.31773804631203251 -0.35355089778947202 0 -0.29282778547957722 -0.33935753649529382 0 -0.31307430431717392 -0.31869978567557272 0 -0.29403167998309421 -0.32125824908992018 0 -0.29282778547957722 -0.33935753649529382 0 -0.31307430431717392 -0.31869978567557272 0 -0.29403167998309421 -0.32125824908992018 0 -0.29478162596868879 -0.30702079099249591 0 -0.31992409361072222 -0.30462145692723192 0 -0.29478162596868879 -0.30702079099249591 0 -0.31992409361072222 -0.30462145692723192 0 -0.31307430431717392 -0.31869978567557272 0 -0.29478162596868879 -0.30702079099249591 0 -0.31992409361072222 -0.30462145692723192 0 -0.30687808727867438 -0.29770175581860719 0 -0.29478162596868879 -0.30702079099249591 0 -0.30687808727867438 -0.29770175581860719 0 -0.29813438661480679 -0.29530641477552327 0 -0.29478162596868879 -0.30702079099249591 0 -0.31992409361072222 -0.30462145692723192 0 -0.2984608121496099 -0.28511533651958437 0 -0.31992409361072222 -0.30462145692723192 0 -0.30687808727867438 -0.29770175581860719 0 -0.2984608121496099 -0.28511533651958437 0 -0.31332574866090718 -0.291474364566292 0 -0.31992409361072222 -0.30462145692723192 0 -0.2984608121496099 -0.28511533651958437 0 -0.31332574866090718 -0.291474364566292 0 -0.30937392239009109 -0.28339120160471948 0 -0.2984608121496099 -0.28511533651958437 0 -0.31332574866090718 -0.291474364566292 0 -0.2984608121496099 -0.28511533651958437 0 -0.30937392239009109 -0.28339120160471948 0 -0.2984608121496099 -0.28511533651958437 0 -0.30347897474907187 -0.279643462580969 0 -0.30687808727867438 -0.29770175581860719 0 -0.29951482580247829 -0.29240083595456018 0 -0.29813438661480679 -0.29530641477552327 0 -0.30687808727867438 -0.29770175581860719 0 -0.2984608121496099 -0.28511533651958437 0 -0.29951482580247829 -0.29240083595456018 0 -0.29951482580247829 -0.29240083595456018 0 -0.29813438661480679 -0.29530641477552327 0 -0.29499124589990039 -0.29073588210889412 0 -0.2984608121496099 -0.28511533651958437 0 -0.29951482580247829 -0.29240083595456018 0 -0.29499124589990039 -0.29073588210889412 0 -0.29499124589990039 -0.29073588210889412 0 -0.29148170063899659 -0.29460773718781319 0 -0.28586576089235322 -0.28577101837165192 0 -0.29813438661480679 -0.29530641477552327 0 -0.29499124589990039 -0.29073588210889412 0 -0.29148170063899659 -0.29460773718781319 0 -0.2984608121496099 -0.28511533651958437 0 -0.29499124589990039 -0.29073588210889412 0 -0.28586576089235322 -0.28577101837165192 0 -0.29148170063899659 -0.29460773718781319 0 -0.28586576089235322 -0.28577101837165192 0 -0.2798353156189245 -0.29508903771003908 0 -0.29148170063899659 -0.29460773718781319 0 -0.29478162596868879 -0.30702079099249591 0 -0.2798353156189245 -0.29508903771003908 0 -0.29478162596868879 -0.30702079099249591 0 -0.26963915832665503 -0.30942012505775762 0 -0.2798353156189245 -0.29508903771003908 0 -0.29478162596868879 -0.30702079099249591 0 -0.26963915832665503 -0.30942012505775762 0 -0.29813438661480679 -0.29530641477552327 0 -0.29148170063899659 -0.29460773718781319 0 -0.29478162596868879 -0.30702079099249591 0 -0.27544300416693679 -0.31995488319631832 0 -0.29478162596868879 -0.30702079099249591 0 -0.26963915832665503 -0.30942012505775762 0 -0.26963915832665503 -0.30942012505775762 0 -0.26057201890547982 -0.29344093798311832 0 -0.2798353156189245 -0.29508903771003908 0 -0.26963915832665503 -0.30942012505775762 0 -0.2444966906846206 -0.31181945912301329 0 -0.26963915832665503 -0.30942012505775762 0 -0.26057201890547982 -0.29344093798311832 0 -0.2444966906846206 -0.31181945912301329 0 -0.26057201890547982 -0.29344093798311832 0 -0.27108878797196961 -0.28331686931735522 0 -0.25298377122075039 -0.27518622721876451 0 -0.26057201890547982 -0.29344093798311832 0 -0.25298377122075039 -0.27518622721876451 0 -0.2435111179254994 -0.29490773243705071 0 -0.26057201890547982 -0.29344093798311832 0 -0.27108878797196961 -0.28331686931735522 0 -0.2798353156189245 -0.29508903771003908 0 -0.28586576089235322 -0.28577101837165192 0 -0.27108878797196961 -0.28331686931735522 0 -0.2798353156189245 -0.29508903771003908 0 -0.27108878797196961 -0.28331686931735522 0 -0.27618707322233982 -0.26709712530320262 0 -0.25298377122075039 -0.27518622721876451 0 -0.28586576089235322 -0.28577101837165192 0 -0.27108878797196961 -0.28331686931735522 0 -0.27618707322233982 -0.26709712530320262 0 -0.27618707322233982 -0.26709712530320262 0 -0.25431856302814809 -0.24833495949118861 0 -0.27618707322233982 -0.26709712530320262 0 -0.25298377122075039 -0.27518622721876451 0 -0.25431856302814809 -0.24833495949118861 0 -0.27618707322233982 -0.26709712530320262 0 -0.27309361240676189 -0.24179026653703889 0 -0.25431856302814809 -0.24833495949118861 0 -0.27618707322233982 -0.26709712530320262 0 -0.2907170577323625 -0.25177677077710309 0 -0.27309361240676189 -0.24179026653703889 0 -0.27618707322233982 -0.26709712530320262 0 -0.2907170577323625 -0.25177677077710309 0 -0.29477899871119112 -0.26293378760569941 0 -0.2984608121496099 -0.28511533651958437 0 -0.28586576089235322 -0.28577101837165192 0 -0.27618707322233982 -0.26709712530320262 0 -0.2984608121496099 -0.28511533651958437 0 -0.27618707322233982 -0.26709712530320262 0 -0.27618707322233982 -0.26709712530320262 0 -0.29477899871119112 -0.26293378760569941 0 -0.29948479845841441 -0.27338487519771032 0 -0.2984608121496099 -0.28511533651958437 0 -0.27618707322233982 -0.26709712530320262 0 -0.29948479845841441 -0.27338487519771032 0 -0.29477899871119112 -0.26293378760569941 0 -0.29948479845841441 -0.27338487519771032 0 -0.30156079933714469 -0.26765617134954151 0 -0.30156079933714469 -0.26765617134954151 0 -0.30403476516136241 -0.27459464834518948 0 -0.30588444940973558 -0.27063474712059482 0 -0.29948479845841441 -0.27338487519771032 0 -0.30156079933714469 -0.26765617134954151 0 -0.30403476516136241 -0.27459464834518948 0 -0.30156079933714469 -0.26765617134954151 0 -0.30588444940973558 -0.27063474712059482 0 -0.3062135479255173 -0.26372173898871692 0 -0.2984608121496099 -0.28511533651958437 0 -0.29948479845841441 -0.27338487519771032 0 -0.30347897474907187 -0.279643462580969 0 -0.29948479845841441 -0.27338487519771032 0 -0.30403476516136241 -0.27459464834518948 0 -0.30347897474907187 -0.279643462580969 0 -0.30937392239009109 -0.28339120160471948 0 -0.30347897474907187 -0.279643462580969 0 -0.31187737399160442 -0.27618124236115132 0 -0.30403476516136241 -0.27459464834518948 0 -0.30347897474907187 -0.279643462580969 0 -0.31187737399160442 -0.27618124236115132 0 -0.30403476516136241 -0.27459464834518948 0 -0.31187737399160442 -0.27618124236115132 0 -0.30588444940973558 -0.27063474712059482 0 -0.31187737399160442 -0.27618124236115132 0 -0.30588444940973558 -0.27063474712059482 0 -0.3062135479255173 -0.26372173898871692 0 -0.31664960680882542 -0.25714232151458272 0 -0.31202674084989918 -0.26335133138269068 0 -0.30853150187083839 -0.25429835417001312 0 -0.2907170577323625 -0.25177677077710309 0 -0.29477899871119112 -0.26293378760569941 0 -0.30853150187083839 -0.25429835417001312 0 -0.31202674084989918 -0.26335133138269068 0 -0.3062135479255173 -0.26372173898871692 0 -0.30853150187083839 -0.25429835417001312 0 -0.29477899871119112 -0.26293378760569941 0 -0.30156079933714469 -0.26765617134954151 0 -0.3062135479255173 -0.26372173898871692 0 -0.29477899871119112 -0.26293378760569941 0 -0.3062135479255173 -0.26372173898871692 0 -0.30853150187083839 -0.25429835417001312 0 -0.33709504481289931 -0.46474263175187808 0 -0.33075086723682939 -0.45093918684289991 0 -0.35302422329502631 -0.44785824460859458 0 -0.33709504481289931 -0.46474263175187808 0 -0.33075086723682939 -0.45093918684289991 0 -0.32054712240525829 -0.47546959342145068 0 -0.33075086723682939 -0.45093918684289991 0 -0.34095461206840061 -0.42640878026434909 0 -0.33075086723682939 -0.45093918684289991 0 -0.35302422329502631 -0.44785824460859458 0 -0.34095461206840061 -0.42640878026434909 0 -0.33075086723682939 -0.45093918684289991 0 -0.32054706720266329 -0.44859283512714471 0 -0.3206124180200437 -0.43193612962395289 0 -0.33075086723682939 -0.45093918684289991 0 -0.32054706720266329 -0.44859283512714471 0 -0.31571728338184601 -0.45752087103574601 0 -0.32054706720266329 -0.44859283512714471 0 -0.31571728338184601 -0.45752087103574601 0 -0.30706080135445341 -0.45057148265483188 0 -0.33075086723682939 -0.45093918684289991 0 -0.32054712240525829 -0.47546959342145068 0 -0.33075086723682939 -0.45093918684289991 0 -0.31571728338184601 -0.45752087103574601 0 -0.32054712240525829 -0.47546959342145068 0 -0.32054712240525829 -0.47546959342145068 0 -0.32750579650535672 -0.48798687004089669 0 -0.32933965142182292 -0.47777380670114528 0 -0.32054712240525829 -0.47546959342145068 0 -0.31034337757368669 -0.50000000000000133 0 -0.32750579650535672 -0.48798687004089669 0 -0.33387795429423722 -0.5 0 -0.31034337757368669 -0.50000000000000133 0 -0.32054712240525829 -0.47546959342145068 0 -0.32750579650535672 -0.48798687004089669 0 -0.31034337757368669 -0.50000000000000133 0 -0.32750579650535672 -0.48798687004089669 0 -0.34342087683177741 -0.48669095008188618 0 -0.33387795429423722 -0.5 0 -0.33709504481289931 -0.46474263175187808 0 -0.32933965142182292 -0.47777380670114528 0 -0.35181335970555933 -0.47167232718529989 0 -0.34342087683177741 -0.48669095008188618 0 -0.32933965142182292 -0.47777380670114528 0 -0.35181335970555933 -0.47167232718529989 0 -0.32750579650535672 -0.48798687004089669 0 -0.34342087683177741 -0.48669095008188618 0 -0.32933965142182292 -0.47777380670114528 0 -0.33709504481289931 -0.46474263175187808 0 -0.32054712240525829 -0.47546959342145068 0 -0.32933965142182292 -0.47777380670114528 0 -0.32933965142182292 -0.47777380670114528 0 -0.35181335970555933 -0.47167232718529989 0 -0.34342087683177741 -0.48669095008188618 0 -0.35181335970555933 -0.47167232718529989 0 -0.35979455825166368 -0.48519290092039941 0 -0.34342087683177741 -0.48669095008188618 0 -0.35741253101478748 -0.5 0 -0.35979455825166368 -0.48519290092039941 0 -0.34342087683177741 -0.48669095008188618 0 -0.33387795429423722 -0.5 0 -0.35741253101478748 -0.5 0 -0.38094710773533791 -0.49999999999999839 0 -0.35741253101478748 -0.5 0 -0.37240076261097882 -0.48974555046165519 0 -0.35741253101478748 -0.5 0 -0.35979455825166368 -0.48519290092039941 0 -0.37240076261097882 -0.48974555046165519 0 -0.35181335970555933 -0.47167232718529989 0 -0.35979455825166368 -0.48519290092039941 0 -0.37411677223754131 -0.47733161267270968 0 -0.35181335970555933 -0.47167232718529989 0 -0.37411677223754131 -0.47733161267270968 0 -0.37428706798929601 -0.46557084766945539 0 -0.35979455825166368 -0.48519290092039941 0 -0.37240076261097882 -0.48974555046165519 0 -0.37411677223754131 -0.47733161267270968 0 -0.37411677223754131 -0.47733161267270968 0 -0.37428706798929601 -0.46557084766945539 0 -0.35181335970555933 -0.47167232718529989 0 -0.37428706798929601 -0.46557084766945539 0 -0.35302422329502631 -0.44785824460859458 0 -0.35181335970555933 -0.47167232718529989 0 -0.37428706798929601 -0.46557084766945539 0 -0.33709504481289931 -0.46474263175187808 0 -0.35181335970555933 -0.47167232718529989 0 -0.35302422329502631 -0.44785824460859458 0 -0.37428706798929601 -0.46557084766945539 0 -0.35302422329502631 -0.44785824460859458 0 -0.37472313619600889 -0.43545561783144832 0 -0.37428706798929601 -0.46557084766945539 0 -0.37472313619600889 -0.43545561783144832 0 -0.35302422329502631 -0.44785824460859458 0 -0.37472313619600889 -0.43545561783144832 0 -0.36076670325611282 -0.42019275678090617 0 -0.37515920440272033 -0.40534038799344108 0 -0.37472313619600889 -0.43545561783144832 0 -0.36076670325611282 -0.42019275678090617 0 -0.37515920440272033 -0.40534038799344108 0 -0.36076670325611282 -0.42019275678090617 0 -0.35115835689997099 -0.40187837368579798 0 -0.37515920440272033 -0.40534038799344108 0 -0.37472313619600889 -0.43545561783144832 0 -0.36076670325611282 -0.42019275678090617 0 -0.35115835689997099 -0.40187837368579798 0 -0.34095461206840061 -0.42640878026434909 0 -0.34815033243380111 -0.40144447968524521 0 -0.35115835689997099 -0.40187837368579798 0 -0.34095461206840061 -0.42640878026434909 0 -0.35115835689997099 -0.40187837368579798 0 -0.34095461206840061 -0.42640878026434909 0 -0.35302422329502631 -0.44785824460859458 0 -0.36076670325611282 -0.42019275678090617 0 -0.34095461206840061 -0.42640878026434909 0 -0.37543310808941849 -0.38642437359143528 0 -0.36100598543278789 -0.37820409176948921 0 -0.35115835689997099 -0.40187837368579798 0 -0.37543310808941849 -0.38642437359143528 0 -0.37568304780698558 -0.36916333065311507 0 -0.36100598543278789 -0.37820409176948921 0 -0.37543310808941849 -0.38642437359143528 0 -0.36100598543278789 -0.37820409176948921 0 -0.37515920440272033 -0.40534038799344108 0 -0.37543310808941849 -0.38642437359143528 0 -0.35115835689997099 -0.40187837368579798 0 -0.37515920440272033 -0.40534038799344108 0 -0.35115835689997099 -0.40187837368579798 0 -0.35115835689997099 -0.40187837368579798 0 -0.34646966066369161 -0.38533898881774881 0 -0.34316085436749 -0.39382471367395527 0 -0.34815033243380111 -0.40144447968524521 0 -0.35115835689997099 -0.40187837368579798 0 -0.34316085436749 -0.39382471367395527 0 -0.34815033243380111 -0.40144447968524521 0 -0.35115835689997099 -0.40187837368579798 0 -0.33937201587241012 -0.36587749477948078 0 -0.36100598543278789 -0.37820409176948921 0 -0.34646966066369161 -0.38533898881774881 0 -0.36100598543278789 -0.37820409176948921 0 -0.35115835689997099 -0.40187837368579798 0 -0.36100598543278789 -0.37820409176948921 0 -0.35115835689997099 -0.40187837368579798 0 -0.34646966066369161 -0.38533898881774881 0 -0.33937201587241012 -0.36587749477948078 0 -0.32803705280137402 -0.37447550275240871 0 -0.34646966066369161 -0.38533898881774881 0 -0.32803705280137402 -0.37447550275240871 0 -0.34646966066369161 -0.38533898881774881 0 -0.32931529664348408 -0.38869437358142001 0 -0.34646966066369161 -0.38533898881774881 0 -0.32931529664348408 -0.38869437358142001 0 -0.34316085436749 -0.39382471367395527 0 -0.34815033243380111 -0.40144447968524521 0 -0.33486919938690762 -0.39884665705885908 0 -0.32944617452305069 -0.41182817437998842 0 -0.32931529664348408 -0.38869437358142001 0 -0.34316085436749 -0.39382471367395527 0 -0.33486919938690762 -0.39884665705885908 0 -0.32931529664348408 -0.38869437358142001 0 -0.33486919938690762 -0.39884665705885908 0 -0.32365381597648563 -0.39942827076698811 0 -0.34815033243380111 -0.40144447968524521 0 -0.34316085436749 -0.39382471367395527 0 -0.33486919938690762 -0.39884665705885908 0 -0.33486919938690762 -0.39884665705885908 0 -0.32365381597648563 -0.39942827076698811 0 -0.32944617452305069 -0.41182817437998842 0 -0.32931529664348408 -0.38869437358142001 0 -0.32365381597648563 -0.39942827076698811 0 -0.30988209993594379 -0.39542680479545339 0 -0.32365381597648563 -0.39942827076698811 0 -0.30595412674790001 -0.41636475829844438 0 -0.30988209993594379 -0.39542680479545339 0 -0.31381007312398762 -0.37448885129246268 0 -0.32931529664348408 -0.38869437358142001 0 -0.30988209993594379 -0.39542680479545339 0 -0.31381007312398762 -0.37448885129246268 0 -0.32803705280137402 -0.37447550275240871 0 -0.32931529664348408 -0.38869437358142001 0 -0.34095461206840061 -0.42640878026434909 0 -0.32944617452305069 -0.41182817437998842 0 -0.3206124180200437 -0.43193612962395289 0 -0.33075086723682939 -0.45093918684289991 0 -0.34095461206840061 -0.42640878026434909 0 -0.3206124180200437 -0.43193612962395289 0 -0.34815033243380111 -0.40144447968524521 0 -0.34095461206840061 -0.42640878026434909 0 -0.32944617452305069 -0.41182817437998842 0 -0.32944617452305069 -0.41182817437998842 0 -0.3206124180200437 -0.43193612962395289 0 -0.30595412674790001 -0.41636475829844438 0 -0.32365381597648563 -0.39942827076698811 0 -0.32944617452305069 -0.41182817437998842 0 -0.30595412674790001 -0.41636475829844438 0 -0.3206124180200437 -0.43193612962395289 0 -0.30595412674790001 -0.41636475829844438 0 -0.29602166034141808 -0.43748304283089118 0 -0.30595412674790001 -0.41636475829844438 0 -0.28680587137917263 -0.41476105187328532 0 -0.29502227998321778 -0.40112933436643161 0 -0.30595412674790001 -0.41636475829844438 0 -0.28680587137917263 -0.41476105187328532 0 -0.29602166034141808 -0.43748304283089118 0 -0.28680587137917263 -0.41476105187328532 0 -0.29602166034141808 -0.43748304283089118 0 -0.27149625348017281 -0.42637325053463759 0 -0.29602166034141808 -0.43748304283089118 0 -0.27149625348017281 -0.42637325053463759 0 -0.29602166034141808 -0.43748304283089118 0 -0.27149625348017281 -0.42637325053463759 0 -0.27906578537949278 -0.44687665772048962 0 -0.31381007312398762 -0.37448885129246268 0 -0.30988209993594379 -0.39542680479545339 0 -0.31381007312398762 -0.37448885129246268 0 -0.30988209993594379 -0.39542680479545339 0 -0.29196992941862432 -0.3825632544476108 0 -0.30595412674790001 -0.41636475829844438 0 -0.30988209993594379 -0.39542680479545339 0 -0.30595412674790001 -0.41636475829844438 0 -0.30988209993594379 -0.39542680479545339 0 -0.29502227998321778 -0.40112933436643161 0 -0.30988209993594379 -0.39542680479545339 0 -0.29502227998321778 -0.40112933436643161 0 -0.29196992941862432 -0.3825632544476108 0 -0.28680587137917263 -0.41476105187328532 0 -0.29502227998321778 -0.40112933436643161 0 -0.2806661672136338 -0.39648987600255969 0 -0.29502227998321778 -0.40112933436643161 0 -0.29196992941862432 -0.3825632544476108 0 -0.2806661672136338 -0.39648987600255969 0 -0.27675503022224163 -0.36681377825091099 0 -0.29196992941862432 -0.3825632544476108 0 -0.26924588117792803 -0.38334910629271668 0 -0.29196992941862432 -0.3825632544476108 0 -0.26924588117792803 -0.38334910629271668 0 -0.2806661672136338 -0.39648987600255969 0 -0.27675503022224163 -0.36681377825091099 0 -0.26924588117792803 -0.38334910629271668 0 -0.25812358553267323 -0.37605355791306738 0 -0.28680587137917263 -0.41476105187328532 0 -0.2806661672136338 -0.39648987600255969 0 -0.26326431180229581 -0.40282557300305732 0 -0.26924588117792803 -0.38334910629271668 0 -0.2806661672136338 -0.39648987600255969 0 -0.26326431180229581 -0.40282557300305732 0 -0.26326431180229581 -0.40282557300305732 0 -0.2504897110532438 -0.38524934403489181 0 -0.24394706363899241 -0.39877073912243299 0 -0.26326431180229581 -0.40282557300305732 0 -0.24697084661892749 -0.41526345823838401 0 -0.24394706363899241 -0.39877073912243299 0 -0.26924588117792803 -0.38334910629271668 0 -0.26326431180229581 -0.40282557300305732 0 -0.2504897110532438 -0.38524934403489181 0 -0.26924588117792803 -0.38334910629271668 0 -0.2504897110532438 -0.38524934403489181 0 -0.25812358553267323 -0.37605355791306738 0 -0.2504897110532438 -0.38524934403489181 0 -0.25812358553267323 -0.37605355791306738 0 -0.24839247009954951 -0.37292447016044328 0 -0.28680587137917263 -0.41476105187328532 0 -0.26326431180229581 -0.40282557300305732 0 -0.27149625348017281 -0.42637325053463759 0 -0.27149625348017281 -0.42637325053463759 0 -0.24697084661892749 -0.41526345823838401 0 -0.26326431180229581 -0.40282557300305732 0 -0.27149625348017281 -0.42637325053463759 0 -0.24697084661892749 -0.41526345823838401 0 -0.27149625348017281 -0.42637325053463759 0 -0.25687425522332558 -0.44642006451091643 0 -0.24697084661892749 -0.41526345823838401 0 -0.25687425522332558 -0.44642006451091643 0 -0.27607931301277078 -0.46657199895299017 0 -0.25409384940020791 -0.47271975939701871 0 -0.25687425522332558 -0.44642006451091643 0 -0.27607931301277078 -0.46657199895299017 0 -0.27906578537949278 -0.44687665772048962 0 -0.27149625348017281 -0.42637325053463759 0 -0.25687425522332558 -0.44642006451091643 0 -0.27906578537949278 -0.44687665772048962 0 -0.29602166034141808 -0.43748304283089118 0 -0.27906578537949278 -0.44687665772048962 0 -0.29968055871002541 -0.46203125713240301 0 -0.27607931301277078 -0.46657199895299017 0 -0.27906578537949278 -0.44687665772048962 0 -0.29968055871002541 -0.46203125713240301 0 -0.31571728338184601 -0.45752087103574601 0 -0.29968055871002541 -0.46203125713240301 0 -0.30706080135445341 -0.45057148265483188 0 -0.31571728338184601 -0.45752087103574601 0 -0.32054712240525829 -0.47546959342145068 0 -0.29968055871002541 -0.46203125713240301 0 -0.32054706720266329 -0.44859283512714471 0 -0.29602166034141808 -0.43748304283089118 0 -0.32054706720266329 -0.44859283512714471 0 -0.3206124180200437 -0.43193612962395289 0 -0.29602166034141808 -0.43748304283089118 0 -0.32054706720266329 -0.44859283512714471 0 -0.29602166034141808 -0.43748304283089118 0 -0.30706080135445341 -0.45057148265483188 0 -0.29602166034141808 -0.43748304283089118 0 -0.29968055871002541 -0.46203125713240301 0 -0.30706080135445341 -0.45057148265483188 0 -0.32054712240525829 -0.47546959342145068 0 -0.31034337757368669 -0.50000000000000133 0 -0.2941570887960146 -0.48201569375099518 0 -0.32054712240525829 -0.47546959342145068 0 -0.29968055871002541 -0.46203125713240301 0 -0.2941570887960146 -0.48201569375099518 0 -0.27607931301277078 -0.46657199895299017 0 -0.29968055871002541 -0.46203125713240301 0 -0.2941570887960146 -0.48201569375099518 0 -0.2941570887960146 -0.48201569375099518 0 -0.28248249767631262 -0.5 0 -0.27039562620846602 -0.48462576079096858 0 -0.31034337757368669 -0.50000000000000133 0 -0.2941570887960146 -0.48201569375099518 0 -0.28248249767631262 -0.5 0 -0.28248249767631262 -0.5 0 -0.27039562620846602 -0.48462576079096858 0 -0.25462161777893849 -0.5 0 -0.27607931301277078 -0.46657199895299017 0 -0.2941570887960146 -0.48201569375099518 0 -0.27039562620846602 -0.48462576079096858 0 -0.27607931301277078 -0.46657199895299017 0 -0.27039562620846602 -0.48462576079096858 0 -0.25409384940020791 -0.47271975939701871 0 -0.27039562620846602 -0.48462576079096858 0 -0.25409384940020791 -0.47271975939701871 0 -0.25462161777893849 -0.5 0 -0.25462161777893849 -0.5 0 -0.23155232774708009 -0.47932355884050398 0 -0.22676073788156451 -0.5 0 -0.25409384940020791 -0.47271975939701871 0 -0.25462161777893849 -0.5 0 -0.23155232774708009 -0.47932355884050398 0 -0.25409384940020791 -0.47271975939701871 0 -0.23155232774708009 -0.47932355884050398 0 -0.2350399564306665 -0.45937717328673289 0 -0.23155232774708009 -0.47932355884050398 0 -0.2350399564306665 -0.45937717328673289 0 -0.2080224731694312 -0.47403962225972662 0 -0.23155232774708009 -0.47932355884050398 0 -0.22676073788156451 -0.5 0 -0.2080224731694312 -0.47403962225972662 0 -0.25687425522332558 -0.44642006451091643 0 -0.2350399564306665 -0.45937717328673289 0 -0.23180750449586429 -0.4343742486430574 0 -0.25687425522332558 -0.44642006451091643 0 -0.25409384940020791 -0.47271975939701871 0 -0.2350399564306665 -0.45937717328673289 0 -0.2350399564306665 -0.45937717328673289 0 -0.21590660946663959 -0.44883644739355771 0 -0.2080224731694312 -0.47403962225972662 0 -0.2350399564306665 -0.45937717328673289 0 -0.21590660946663959 -0.44883644739355771 0 -0.23180750449586429 -0.4343742486430574 0 -0.21590660946663959 -0.44883644739355771 0 -0.1943898331460783 -0.4473597119794826 0 -0.20910912931781811 -0.42543372189632289 0 -0.21590660946663959 -0.44883644739355771 0 -0.1943898331460783 -0.4473597119794826 0 -0.2080224731694312 -0.47403962225972662 0 -0.1943898331460783 -0.4473597119794826 0 -0.2080224731694312 -0.47403962225972662 0 -0.17967053697433849 -0.46928570206264231 0 -0.22676073788156451 -0.5 0 -0.2080224731694312 -0.47403962225972662 0 -0.19889985798419041 -0.5 0 -0.2080224731694312 -0.47403962225972662 0 -0.1821948971586228 -0.48648437486529872 0 -0.17967053697433849 -0.46928570206264231 0 -0.2080224731694312 -0.47403962225972662 0 -0.19889985798419041 -0.5 0 -0.1821948971586228 -0.48648437486529872 0 -0.19889985798419041 -0.5 0 -0.1821948971586228 -0.48648437486529872 0 -0.17103897808681609 -0.49999999999999778 0 -0.1821948971586228 -0.48648437486529872 0 -0.17103897808681609 -0.49999999999999778 0 -0.16495124080259491 -0.49121169214579941 0 -0.17103897808681609 -0.49999999999999778 0 -0.16495124080259491 -0.49121169214579941 0 -0.17103897808681609 -0.49999999999999778 0 -0.16495124080259491 -0.49121169214579941 0 -0.15905149781887321 -0.49999999999999961 0 -0.16495124080259491 -0.49121169214579941 0 -0.15905149781887321 -0.49999999999999961 0 -0.1545750311736096 -0.49062041690426861 0 -0.16495124080259491 -0.49121169214579941 0 -0.15905149781887321 -0.49999999999999961 0 -0.16495124080259491 -0.49121169214579941 0 -0.16530166315622061 -0.47155300009798301 0 -0.17967053697433849 -0.46928570206264231 0 -0.16495124080259491 -0.49121169214579941 0 -0.16530166315622061 -0.47155300009798301 0 -0.15083103946930049 -0.47082765280793248 0 -0.16495124080259491 -0.49121169214579941 0 -0.1545750311736096 -0.49062041690426861 0 -0.15083103946930049 -0.47082765280793248 0 -0.16495124080259491 -0.49121169214579941 0 -0.15083103946930049 -0.47082765280793248 0 -0.16495124080259491 -0.49121169214579941 0 -0.17967053697433849 -0.46928570206264231 0 -0.1821948971586228 -0.48648437486529872 0 -0.16495124080259491 -0.49121169214579941 0 -0.17967053697433849 -0.46928570206264231 0 -0.1943898331460783 -0.4473597119794826 0 -0.17967053697433849 -0.46928570206264231 0 -0.1943898331460783 -0.4473597119794826 0 -0.17967053697433849 -0.46928570206264231 0 -0.1657538353786501 -0.45488695337555668 0 -0.1943898331460783 -0.4473597119794826 0 -0.1657538353786501 -0.45488695337555668 0 -0.1755027511393909 -0.43471579892562301 0 -0.1657538353786501 -0.45488695337555668 0 -0.15761868306950341 -0.43586407366366631 0 -0.1755027511393909 -0.43471579892562301 0 -0.16530166315622061 -0.47155300009798301 0 -0.1657538353786501 -0.45488695337555668 0 -0.15083103946930049 -0.47082765280793248 0 -0.16530166315622061 -0.47155300009798301 0 -0.17967053697433849 -0.46928570206264231 0 -0.1657538353786501 -0.45488695337555668 0 -0.13671083813600751 -0.45044361347006462 0 -0.15083103946930049 -0.47082765280793248 0 -0.13671083813600751 -0.45044361347006462 0 -0.13441782301728619 -0.47175980973682791 0 -0.15083103946930049 -0.47082765280793248 0 -0.1657538353786501 -0.45488695337555668 0 -0.13671083813600751 -0.45044361347006462 0 -0.15083103946930049 -0.47082765280793248 0 -0.13671083813600751 -0.45044361347006462 0 -0.13816776916695811 -0.432543871779144 0 -0.15761868306950341 -0.43586407366366631 0 -0.1657538353786501 -0.45488695337555668 0 -0.13671083813600751 -0.45044361347006462 0 -0.15761868306950341 -0.43586407366366631 0 -0.13671083813600751 -0.45044361347006462 0 -0.13816776916695811 -0.432543871779144 0 -0.1225906368027144 -0.43005957413219659 0 -0.13671083813600751 -0.45044361347006462 0 -0.1225906368027144 -0.43005957413219659 0 -0.13671083813600751 -0.45044361347006462 0 -0.13441782301728619 -0.47175980973682791 0 -0.1201929706126502 -0.46127799294672761 0 -0.13441782301728619 -0.47175980973682791 0 -0.12605423818426559 -0.48707922202292669 0 -0.14429533434837091 -0.48908967660720287 0 -0.13441782301728619 -0.47175980973682791 0 -0.12605423818426559 -0.48707922202292669 0 -0.1201929706126502 -0.46127799294672761 0 -0.1295391708778694 -0.5 0 -0.12605423818426559 -0.48707922202292669 0 -0.14429533434837091 -0.48908967660720287 0 -0.15905149781887321 -0.49999999999999961 0 -0.1295391708778694 -0.5 0 -0.14429533434837091 -0.48908967660720287 0 -0.15905149781887321 -0.49999999999999961 0 -0.14429533434837091 -0.48908967660720287 0 -0.1545750311736096 -0.49062041690426861 0 -0.14429533434837091 -0.48908967660720287 0 -0.1545750311736096 -0.49062041690426861 0 -0.15083103946930049 -0.47082765280793248 0 -0.13441782301728619 -0.47175980973682791 0 -0.14429533434837091 -0.48908967660720287 0 -0.15083103946930049 -0.47082765280793248 0 -0.15345949684661231 -0.4053237642064671 0 -0.15136585988972451 -0.39002590355483568 0 -0.13982663417143551 -0.39933000433158738 0 -0.15136585988972451 -0.39002590355483568 0 -0.1368738238800834 -0.3880397179408614 0 -0.13982663417143551 -0.39933000433158738 0 -0.15345949684661231 -0.4053237642064671 0 -0.13982663417143551 -0.39933000433158738 0 -0.1398029654186671 -0.41064466143528439 0 -0.15136585988972451 -0.39002590355483568 0 -0.1368738238800834 -0.3880397179408614 0 -0.13959568407155781 -0.37291875636350952 0 -0.15136585988972451 -0.39002590355483568 0 -0.15951650330528561 -0.37856285477961621 0 -0.13959568407155781 -0.37291875636350952 0 -0.1368738238800834 -0.3880397179408614 0 -0.12625141541498519 -0.38197991289387551 0 -0.13959568407155781 -0.37291875636350952 0 -0.1368738238800834 -0.3880397179408614 0 -0.12625141541498519 -0.38197991289387551 0 -0.1273295258527142 -0.39594401256049883 0 -0.1368738238800834 -0.3880397179408614 0 -0.1273295258527142 -0.39594401256049883 0 -0.13982663417143551 -0.39933000433158738 0 -0.13982663417143551 -0.39933000433158738 0 -0.1295768038857959 -0.40463739140698729 0 -0.1398029654186671 -0.41064466143528439 0 -0.1273295258527142 -0.39594401256049883 0 -0.13982663417143551 -0.39933000433158738 0 -0.1295768038857959 -0.40463739140698729 0 -0.1273295258527142 -0.39594401256049883 0 -0.1295768038857959 -0.40463739140698729 0 -0.1219584454402414 -0.40406961642135292 0 -0.1295768038857959 -0.40463739140698729 0 -0.1296119374269841 -0.41417592727859581 0 -0.1225700411049412 -0.40994677461386392 0 -0.1296119374269841 -0.41417592727859581 0 -0.12315425937001 -0.41747458531602638 0 -0.1225700411049412 -0.40994677461386392 0 -0.1296119374269841 -0.41417592727859581 0 -0.13713184062407599 -0.42036644340313623 0 -0.12908399078123631 -0.42243277819987513 0 -0.1296119374269841 -0.41417592727859581 0 -0.12908399078123631 -0.42243277819987513 0 -0.12315425937001 -0.41747458531602638 0 -0.1296119374269841 -0.41417592727859581 0 -0.13713184062407599 -0.42036644340313623 0 -0.1398029654186671 -0.41064466143528439 0 -0.1295768038857959 -0.40463739140698729 0 -0.1296119374269841 -0.41417592727859581 0 -0.1398029654186671 -0.41064466143528439 0 -0.12908399078123631 -0.42243277819987513 0 -0.13816776916695811 -0.432543871779144 0 -0.1225906368027144 -0.43005957413219659 0 -0.13713184062407599 -0.42036644340313623 0 -0.12908399078123631 -0.42243277819987513 0 -0.13816776916695811 -0.432543871779144 0 -0.13816776916695811 -0.432543871779144 0 -0.14921107955709881 -0.42003443798493328 0 -0.15761868306950341 -0.43586407366366631 0 -0.13713184062407599 -0.42036644340313623 0 -0.13816776916695811 -0.432543871779144 0 -0.14921107955709881 -0.42003443798493328 0 -0.15345949684661231 -0.4053237642064671 0 -0.1398029654186671 -0.41064466143528439 0 -0.14921107955709881 -0.42003443798493328 0 -0.13713184062407599 -0.42036644340313623 0 -0.1398029654186671 -0.41064466143528439 0 -0.14921107955709881 -0.42003443798493328 0 -0.15345949684661231 -0.4053237642064671 0 -0.14921107955709881 -0.42003443798493328 0 -0.17009787391258249 -0.41611158199907422 0 -0.14921107955709881 -0.42003443798493328 0 -0.17009787391258249 -0.41611158199907422 0 -0.15761868306950341 -0.43586407366366631 0 -0.17009787391258249 -0.41611158199907422 0 -0.15761868306950341 -0.43586407366366631 0 -0.1755027511393909 -0.43471579892562301 0 -0.1943898331460783 -0.4473597119794826 0 -0.1755027511393909 -0.43471579892562301 0 -0.18951413900105801 -0.42212105940109063 0 -0.17009787391258249 -0.41611158199907422 0 -0.1755027511393909 -0.43471579892562301 0 -0.18951413900105801 -0.42212105940109063 0 -0.17009787391258249 -0.41611158199907422 0 -0.18562609472684241 -0.40161550393767448 0 -0.18951413900105801 -0.42212105940109063 0 -0.18562609472684241 -0.40161550393767448 0 -0.16863204450281991 -0.39380366607865908 0 -0.18254917963999329 -0.38971973427100182 0 -0.17009787391258249 -0.41611158199907422 0 -0.18562609472684241 -0.40161550393767448 0 -0.16863204450281991 -0.39380366607865908 0 -0.18562609472684241 -0.40161550393767448 0 -0.18254917963999329 -0.38971973427100182 0 -0.19364364155811911 -0.391297223908462 0 -0.15345949684661231 -0.4053237642064671 0 -0.17009787391258249 -0.41611158199907422 0 -0.16863204450281991 -0.39380366607865908 0 -0.15345949684661231 -0.4053237642064671 0 -0.15136585988972451 -0.39002590355483568 0 -0.16863204450281991 -0.39380366607865908 0 -0.15951650330528561 -0.37856285477961621 0 -0.17625218554490921 -0.38180729220612769 0 -0.1663610822414904 -0.3702523776444529 0 -0.16863204450281991 -0.39380366607865908 0 -0.15951650330528561 -0.37856285477961621 0 -0.17625218554490921 -0.38180729220612769 0 -0.15136585988972451 -0.39002590355483568 0 -0.16863204450281991 -0.39380366607865908 0 -0.15951650330528561 -0.37856285477961621 0 -0.17625218554490921 -0.38180729220612769 0 -0.1663610822414904 -0.3702523776444529 0 -0.18579747934449059 -0.37379744869579251 0 -0.16863204450281991 -0.39380366607865908 0 -0.17625218554490921 -0.38180729220612769 0 -0.18254917963999329 -0.38971973427100182 0 -0.17625218554490921 -0.38180729220612769 0 -0.18254917963999329 -0.38971973427100182 0 -0.18859193186727599 -0.38007498522408562 0 -0.17625218554490921 -0.38180729220612769 0 -0.18859193186727599 -0.38007498522408562 0 -0.18579747934449059 -0.37379744869579251 0 -0.18859193186727599 -0.38007498522408562 0 -0.2014200033848125 -0.37119512976538899 0 -0.18859193186727599 -0.38007498522408562 0 -0.2014200033848125 -0.37119512976538899 0 -0.18579747934449059 -0.37379744869579251 0 -0.18859193186727599 -0.38007498522408562 0 -0.1989719328316337 -0.38216032023399737 0 -0.2014200033848125 -0.37119512976538899 0 -0.1989719328316337 -0.38216032023399737 0 -0.20694960464083431 -0.38128159833907621 0 -0.2014200033848125 -0.37119512976538899 0 -0.1989719328316337 -0.38216032023399737 0 -0.19364364155811911 -0.391297223908462 0 -0.20620014074293039 -0.39180645285032889 0 -0.18859193186727599 -0.38007498522408562 0 -0.1989719328316337 -0.38216032023399737 0 -0.19364364155811911 -0.391297223908462 0 -0.18254917963999329 -0.38971973427100182 0 -0.18859193186727599 -0.38007498522408562 0 -0.19364364155811911 -0.391297223908462 0 -0.18562609472684241 -0.40161550393767448 0 -0.19364364155811911 -0.391297223908462 0 -0.20208872018367391 -0.4070926974887904 0 -0.19364364155811911 -0.391297223908462 0 -0.20620014074293039 -0.39180645285032889 0 -0.20208872018367391 -0.4070926974887904 0 -0.20620014074293039 -0.39180645285032889 0 -0.21479853281951461 -0.38638530273916921 0 -0.22382842548955789 -0.4035077318131633 0 -0.20620014074293039 -0.39180645285032889 0 -0.20208872018367391 -0.4070926974887904 0 -0.22382842548955789 -0.4035077318131633 0 -0.21479853281951461 -0.38638530273916921 0 -0.20694960464083431 -0.38128159833907621 0 -0.21335741342528061 -0.3748607861064962 0 -0.21479853281951461 -0.38638530273916921 0 -0.22412886374227589 -0.38235217247817599 0 -0.21335741342528061 -0.3748607861064962 0 -0.20694960464083431 -0.38128159833907621 0 -0.2014200033848125 -0.37119512976538899 0 -0.21335741342528061 -0.3748607861064962 0 -0.20620014074293039 -0.39180645285032889 0 -0.21479853281951461 -0.38638530273916921 0 -0.20694960464083431 -0.38128159833907621 0 -0.1989719328316337 -0.38216032023399737 0 -0.20620014074293039 -0.39180645285032889 0 -0.20694960464083431 -0.38128159833907621 0 -0.1943898331460783 -0.4473597119794826 0 -0.20910912931781811 -0.42543372189632289 0 -0.1943898331460783 -0.4473597119794826 0 -0.18951413900105801 -0.42212105940109063 0 -0.20910912931781811 -0.42543372189632289 0 -0.18951413900105801 -0.42212105940109063 0 -0.20208872018367391 -0.4070926974887904 0 -0.20910912931781811 -0.42543372189632289 0 -0.18562609472684241 -0.40161550393767448 0 -0.18951413900105801 -0.42212105940109063 0 -0.20208872018367391 -0.4070926974887904 0 -0.20208872018367391 -0.4070926974887904 0 -0.20910912931781811 -0.42543372189632289 0 -0.22382842548955789 -0.4035077318131633 0 -0.20910912931781811 -0.42543372189632289 0 -0.22382842548955789 -0.4035077318131633 0 -0.21590660946663959 -0.44883644739355771 0 -0.20910912931781811 -0.42543372189632289 0 -0.23180750449586429 -0.4343742486430574 0 -0.20910912931781811 -0.42543372189632289 0 -0.23180750449586429 -0.4343742486430574 0 -0.22382842548955789 -0.4035077318131633 0 -0.23180750449586429 -0.4343742486430574 0 -0.24697084661892749 -0.41526345823838401 0 -0.22382842548955789 -0.4035077318131633 0 -0.25687425522332558 -0.44642006451091643 0 -0.23180750449586429 -0.4343742486430574 0 -0.24697084661892749 -0.41526345823838401 0 -0.22412886374227589 -0.38235217247817599 0 -0.2351820232309369 -0.38700758852266848 0 -0.22952037500089251 -0.37311519752493849 0 -0.22412886374227589 -0.38235217247817599 0 -0.22186900287429051 -0.37074082218821958 0 -0.21335741342528061 -0.3748607861064962 0 -0.22412886374227589 -0.38235217247817599 0 -0.22952037500089251 -0.37311519752493849 0 -0.22186900287429051 -0.37074082218821958 0 -0.22382842548955789 -0.4035077318131633 0 -0.24394706363899241 -0.39877073912243299 0 -0.2351820232309369 -0.38700758852266848 0 -0.21479853281951461 -0.38638530273916921 0 -0.22412886374227589 -0.38235217247817599 0 -0.22382842548955789 -0.4035077318131633 0 -0.22412886374227589 -0.38235217247817599 0 -0.22382842548955789 -0.4035077318131633 0 -0.2351820232309369 -0.38700758852266848 0 -0.24697084661892749 -0.41526345823838401 0 -0.22382842548955789 -0.4035077318131633 0 -0.24394706363899241 -0.39877073912243299 0 -0.2504897110532438 -0.38524934403489181 0 -0.24394706363899241 -0.39877073912243299 0 -0.2351820232309369 -0.38700758852266848 0 -0.2504897110532438 -0.38524934403489181 0 -0.2351820232309369 -0.38700758852266848 0 -0.24036284435674521 -0.37772398595485779 0 -0.2351820232309369 -0.38700758852266848 0 -0.24036284435674521 -0.37772398595485779 0 -0.22952037500089251 -0.37311519752493849 0 -0.2504897110532438 -0.38524934403489181 0 -0.24036284435674521 -0.37772398595485779 0 -0.24839247009954951 -0.37292447016044328 0 -0.24839247009954951 -0.37292447016044328 0 -0.24532753696728959 -0.36501789644951049 0 -0.23861636880082099 -0.36955921174380651 0 -0.24036284435674521 -0.37772398595485779 0 -0.24839247009954951 -0.37292447016044328 0 -0.23861636880082099 -0.36955921174380651 0 -0.25757508569408222 -0.36424633604315798 0 -0.24532753696728959 -0.36501789644951049 0 -0.24650166737573331 -0.3569693529562265 0 -0.24532753696728959 -0.36501789644951049 0 -0.24234943749700691 -0.36154613291017651 0 -0.24650166737573331 -0.3569693529562265 0 -0.24532753696728959 -0.36501789644951049 0 -0.24234943749700691 -0.36154613291017651 0 -0.23928568589256061 -0.36455139619594779 0 -0.24234943749700691 -0.36154613291017651 0 -0.23928568589256061 -0.36455139619594779 0 -0.23696933381926599 -0.3585493042599866 0 -0.24532753696728959 -0.36501789644951049 0 -0.23928568589256061 -0.36455139619594779 0 -0.23861636880082099 -0.36955921174380651 0 -0.23928568589256061 -0.36455139619594779 0 -0.23861636880082099 -0.36955921174380651 0 -0.23345080570298909 -0.36409891217005902 0 -0.23928568589256061 -0.36455139619594779 0 -0.23345080570298909 -0.36409891217005902 0 -0.23696933381926599 -0.3585493042599866 0 -0.24036284435674521 -0.37772398595485779 0 -0.23861636880082099 -0.36955921174380651 0 -0.22952037500089251 -0.37311519752493849 0 -0.23345080570298909 -0.36409891217005902 0 -0.22186900287429051 -0.37074082218821958 0 -0.21424807490234879 -0.36231527430669241 0 -0.22952037500089251 -0.37311519752493849 0 -0.23345080570298909 -0.36409891217005902 0 -0.22186900287429051 -0.37074082218821958 0 -0.23696933381926599 -0.3585493042599866 0 -0.21424807490234879 -0.36231527430669241 0 -0.23861636880082099 -0.36955921174380651 0 -0.22952037500089251 -0.37311519752493849 0 -0.23345080570298909 -0.36409891217005902 0 -0.23345080570298909 -0.36409891217005902 0 -0.23696933381926599 -0.3585493042599866 0 -0.21424807490234879 -0.36231527430669241 0 -0.22913587473404851 -0.35200963246311751 0 -0.2097464541822805 -0.33582260124732738 0 -0.22913587473404851 -0.35200963246311751 0 -0.23696933381926599 -0.3585493042599866 0 -0.21424807490234879 -0.36231527430669241 0 -0.22913587473404851 -0.35200963246311751 0 -0.21998707993494029 -0.33959044394559312 0 -0.22913587473404851 -0.35200963246311751 0 -0.21424807490234879 -0.36231527430669241 0 -0.22913587473404851 -0.35200963246311751 0 -0.23696933381926599 -0.3585493042599866 0 -0.22913587473404851 -0.35200963246311751 0 -0.24881121389389799 -0.33838995723746451 0 -0.22913587473404851 -0.35200963246311751 0 -0.23696933381926599 -0.3585493042599866 0 -0.24650166737573331 -0.3569693529562265 0 -0.22913587473404851 -0.35200963246311751 0 -0.24650166737573331 -0.3569693529562265 0 -0.24881121389389799 -0.33838995723746451 0 -0.23696933381926599 -0.3585493042599866 0 -0.24650166737573331 -0.3569693529562265 0 -0.24234943749700691 -0.36154613291017651 0 -0.23696933381926599 -0.3585493042599866 0 -0.24650166737573331 -0.3569693529562265 0 -0.22913587473404851 -0.35200963246311751 0 -0.24881121389389799 -0.33838995723746451 0 -0.2325545649384867 -0.33453283978227571 0 -0.24881121389389799 -0.33838995723746451 0 -0.2441082332202735 -0.32380704628422963 0 -0.2325545649384867 -0.33453283978227571 0 -0.23613058105125781 -0.31890710479075163 0 -0.2279063026952847 -0.3135077128279592 0 -0.2444966906846206 -0.31181945912301329 0 -0.2441082332202735 -0.32380704628422963 0 -0.23498207165859719 -0.32537142019391418 0 -0.23613058105125781 -0.31890710479075163 0 -0.2441082332202735 -0.32380704628422963 0 -0.23498207165859719 -0.32537142019391418 0 -0.2325545649384867 -0.33453283978227571 0 -0.2441082332202735 -0.32380704628422963 0 -0.23613058105125781 -0.31890710479075163 0 -0.2444966906846206 -0.31181945912301329 0 -0.2279063026952847 -0.3135077128279592 0 -0.2193464910840433 -0.31976030368968739 0 -0.21134622408423179 -0.310554889255794 0 -0.23613058105125781 -0.31890710479075163 0 -0.2279063026952847 -0.3135077128279592 0 -0.22829430606921119 -0.32293804105388452 0 -0.23498207165859719 -0.32537142019391418 0 -0.22829430606921119 -0.32293804105388452 0 -0.2325545649384867 -0.33453283978227571 0 -0.23498207165859719 -0.32537142019391418 0 -0.23613058105125781 -0.31890710479075163 0 -0.22829430606921119 -0.32293804105388452 0 -0.22829430606921119 -0.32293804105388452 0 -0.2193464910840433 -0.31976030368968739 0 -0.22209033975117781 -0.32887735541776358 0 -0.2279063026952847 -0.3135077128279592 0 -0.22829430606921119 -0.32293804105388452 0 -0.2193464910840433 -0.31976030368968739 0 -0.22913587473404851 -0.35200963246311751 0 -0.2325545649384867 -0.33453283978227571 0 -0.21998707993494029 -0.33959044394559312 0 -0.22913587473404851 -0.35200963246311751 0 -0.21998707993494029 -0.33959044394559312 0 -0.2097464541822805 -0.33582260124732738 0 -0.22829430606921119 -0.32293804105388452 0 -0.2325545649384867 -0.33453283978227571 0 -0.22209033975117781 -0.32887735541776358 0 -0.2325545649384867 -0.33453283978227571 0 -0.22209033975117781 -0.32887735541776358 0 -0.21998707993494029 -0.33959044394559312 0 -0.21998707993494029 -0.33959044394559312 0 -0.21026925672920721 -0.32756514861737779 0 -0.22209033975117781 -0.32887735541776358 0 -0.21998707993494029 -0.33959044394559312 0 -0.21026925672920721 -0.32756514861737779 0 -0.21998707993494029 -0.33959044394559312 0 -0.2097464541822805 -0.33582260124732738 0 -0.21026925672920721 -0.32756514861737779 0 -0.2097464541822805 -0.33582260124732738 0 -0.21026925672920721 -0.32756514861737779 0 -0.21026925672920721 -0.32756514861737779 0 -0.21134622408423179 -0.310554889255794 0 -0.19267178705524021 -0.30578920503631912 0 -0.21026925672920721 -0.32756514861737779 0 -0.21134622408423179 -0.310554889255794 0 -0.2097464541822805 -0.33582260124732738 0 -0.21026925672920721 -0.32756514861737779 0 -0.19254159852174429 -0.31996122112867409 0 -0.2193464910840433 -0.31976030368968739 0 -0.21026925672920721 -0.32756514861737779 0 -0.21134622408423179 -0.310554889255794 0 -0.2193464910840433 -0.31976030368968739 0 -0.22209033975117781 -0.32887735541776358 0 -0.21026925672920721 -0.32756514861737779 0 -0.2097464541822805 -0.33582260124732738 0 -0.1943588054861482 -0.32297640251143073 0 -0.19254159852174429 -0.31996122112867409 0 -0.21026925672920721 -0.32756514861737779 0 -0.19267178705524021 -0.30578920503631912 0 -0.21026925672920721 -0.32756514861737779 0 -0.19254159852174429 -0.31996122112867409 0 -0.19267178705524021 -0.30578920503631912 0 -0.2097464541822805 -0.33582260124732738 0 -0.19254159852174429 -0.31996122112867409 0 -0.1943588054861482 -0.32297640251143073 0 -0.18737083868624629 -0.33075534874643497 0 -0.18479650728396149 -0.32227615663527998 0 -0.1943588054861482 -0.32297640251143073 0 -0.19254159852174429 -0.31996122112867409 0 -0.1789711567900161 -0.3101302037755338 0 -0.2097464541822805 -0.33582260124732738 0 -0.19466829689393059 -0.33824472710720138 0 -0.19565175395430129 -0.3512554891803924 0 -0.2097464541822805 -0.33582260124732738 0 -0.1943588054861482 -0.32297640251143073 0 -0.19466829689393059 -0.33824472710720138 0 -0.2097464541822805 -0.33582260124732738 0 -0.1943588054861482 -0.32297640251143073 0 -0.1943588054861482 -0.32297640251143073 0 -0.19466829689393059 -0.33824472710720138 0 -0.18737083868624629 -0.33075534874643497 0 -0.19466829689393059 -0.33824472710720138 0 -0.18164424501215659 -0.34621916084723381 0 -0.18737083868624629 -0.33075534874643497 0 -0.19466829689393059 -0.33824472710720138 0 -0.19565175395430129 -0.3512554891803924 0 -0.18164424501215659 -0.34621916084723381 0 -0.20800359978069241 -0.36335027445133922 0 -0.18480326185087809 -0.36719565018674682 0 -0.19565175395430129 -0.3512554891803924 0 -0.20800359978069241 -0.36335027445133922 0 -0.18480326185087809 -0.36719565018674682 0 -0.2014200033848125 -0.37119512976538899 0 -0.18480326185087809 -0.36719565018674682 0 -0.18579747934449059 -0.37379744869579251 0 -0.2014200033848125 -0.37119512976538899 0 -0.20800359978069241 -0.36335027445133922 0 -0.18480326185087809 -0.36719565018674682 0 -0.2014200033848125 -0.37119512976538899 0 -0.20800359978069241 -0.36335027445133922 0 -0.20803809997708481 -0.36661394692190907 0 -0.20800359978069241 -0.36335027445133922 0 -0.20803809997708481 -0.36661394692190907 0 -0.21424807490234879 -0.36231527430669241 0 -0.20800359978069241 -0.36335027445133922 0 -0.20803809997708481 -0.36661394692190907 0 -0.2014200033848125 -0.37119512976538899 0 -0.20803809997708481 -0.36661394692190907 0 -0.21335741342528061 -0.3748607861064962 0 -0.2014200033848125 -0.37119512976538899 0 -0.20803809997708481 -0.36661394692190907 0 -0.20803809997708481 -0.36661394692190907 0 -0.21335741342528061 -0.3748607861064962 0 -0.21424807490234879 -0.36231527430669241 0 -0.22186900287429051 -0.37074082218821958 0 -0.21335741342528061 -0.3748607861064962 0 -0.21424807490234879 -0.36231527430669241 0 -0.20800359978069241 -0.36335027445133922 0 -0.21424807490234879 -0.36231527430669241 0 -0.20803809997708481 -0.36661394692190907 0 -0.21424807490234879 -0.36231527430669241 0 -0.2097464541822805 -0.33582260124732738 0 -0.19565175395430129 -0.3512554891803924 0 -0.20800359978069241 -0.36335027445133922 0 -0.2097464541822805 -0.33582260124732738 0 -0.20800359978069241 -0.36335027445133922 0 -0.2097464541822805 -0.33582260124732738 0 -0.20800359978069241 -0.36335027445133922 0 -0.21424807490234879 -0.36231527430669241 0 -0.22913587473404851 -0.35200963246311751 0 -0.2097464541822805 -0.33582260124732738 0 -0.21424807490234879 -0.36231527430669241 0 -0.2335542019388327 -0.26090262277066528 0 -0.21472073189145299 -0.25725591714607071 0 -0.22837296648480071 -0.23789375384220129 0 -0.2335542019388327 -0.26090262277066528 0 -0.21357196166535461 -0.27540027352014051 0 -0.21472073189145299 -0.25725591714607071 0 -0.25298377122075039 -0.27518622721876451 0 -0.2335542019388327 -0.26090262277066528 0 -0.25431856302814809 -0.24833495949118861 0 -0.25298377122075039 -0.27518622721876451 0 -0.2335542019388327 -0.26090262277066528 0 -0.23093648268818689 -0.28342115129973 0 -0.2335542019388327 -0.26090262277066528 0 -0.23093648268818689 -0.28342115129973 0 -0.21357196166535461 -0.27540027352014051 0 -0.23093648268818689 -0.28342115129973 0 -0.21242319143925911 -0.29354462989421048 0 -0.21357196166535461 -0.27540027352014051 0 -0.23093648268818689 -0.28342115129973 0 -0.2435111179254994 -0.29490773243705071 0 -0.2284599410619414 -0.30268204450860919 0 -0.23093648268818689 -0.28342115129973 0 -0.2284599410619414 -0.30268204450860919 0 -0.21242319143925911 -0.29354462989421048 0 -0.25298377122075039 -0.27518622721876451 0 -0.23093648268818689 -0.28342115129973 0 -0.2435111179254994 -0.29490773243705071 0 -0.2444966906846206 -0.31181945912301329 0 -0.2284599410619414 -0.30268204450860919 0 -0.2435111179254994 -0.29490773243705071 0 -0.2444966906846206 -0.31181945912301329 0 -0.2284599410619414 -0.30268204450860919 0 -0.26057201890547982 -0.29344093798311832 0 -0.2435111179254994 -0.29490773243705071 0 -0.2444966906846206 -0.31181945912301329 0 -0.2279063026952847 -0.3135077128279592 0 -0.2444966906846206 -0.31181945912301329 0 -0.2284599410619414 -0.30268204450860919 0 -0.2284599410619414 -0.30268204450860919 0 -0.21242319143925911 -0.29354462989421048 0 -0.2279063026952847 -0.3135077128279592 0 -0.2284599410619414 -0.30268204450860919 0 -0.21134622408423179 -0.310554889255794 0 -0.2284599410619414 -0.30268204450860919 0 -0.21134622408423179 -0.310554889255794 0 -0.21242319143925911 -0.29354462989421048 0 -0.21134622408423179 -0.310554889255794 0 -0.19267178705524021 -0.30578920503631912 0 -0.21242319143925911 -0.29354462989421048 0 -0.21134622408423179 -0.310554889255794 0 -0.21242319143925911 -0.29354462989421048 0 -0.19267178705524021 -0.30578920503631912 0 -0.19410774352861071 -0.2831088592208712 0 -0.21242319143925911 -0.29354462989421048 0 -0.19410774352861071 -0.2831088592208712 0 -0.21242319143925911 -0.29354462989421048 0 -0.21357196166535461 -0.27540027352014051 0 -0.19410774352861071 -0.2831088592208712 0 -0.21242319143925911 -0.29354462989421048 0 -0.21242319143925911 -0.29354462989421048 0 -0.21357196166535461 -0.27540027352014051 0 -0.21357196166535461 -0.27540027352014051 0 -0.21472073189145299 -0.25725591714607071 0 -0.19410774352861071 -0.2831088592208712 0 -0.21357196166535461 -0.27540027352014051 0 -0.1965391795889786 -0.26204425282134669 0 -0.19410774352861071 -0.2831088592208712 0 -0.1965391795889786 -0.26204425282134669 0 -0.17579229561796161 -0.27267308854753308 0 -0.1965391795889786 -0.26204425282134669 0 -0.20565562739327201 -0.24334207984173631 0 -0.18863044441395099 -0.24733650333174401 0 -0.1965391795889786 -0.26204425282134669 0 -0.18340152769721799 -0.25642831405215172 0 -0.18863044441395099 -0.24733650333174401 0 -0.1965391795889786 -0.26204425282134669 0 -0.21472073189145299 -0.25725591714607071 0 -0.20565562739327201 -0.24334207984173631 0 -0.21357196166535461 -0.27540027352014051 0 -0.1965391795889786 -0.26204425282134669 0 -0.21472073189145299 -0.25725591714607071 0 -0.15747684770731041 -0.26223731787419863 0 -0.16344648285301799 -0.25937253054906129 0 -0.17579229561796161 -0.27267308854753308 0 -0.1593809120407062 -0.25278805690175971 0 -0.16344648285301799 -0.25937253054906129 0 -0.1534429259631987 -0.25724555178864622 0 -0.1593809120407062 -0.25278805690175971 0 -0.16344648285301799 -0.25937253054906129 0 -0.16709258238786229 -0.25188408856254202 0 -0.1593809120407062 -0.25278805690175971 0 -0.16709258238786229 -0.25188408856254202 0 -0.1601832428566283 -0.24550858739866141 0 -0.15747684770731041 -0.26223731787419863 0 -0.16344648285301799 -0.25937253054906129 0 -0.1534429259631987 -0.25724555178864622 0 -0.16344648285301799 -0.25937253054906129 0 -0.1534429259631987 -0.25724555178864622 0 -0.16344648285301799 -0.25937253054906129 0 -0.17379217291466831 -0.25992581321180469 0 -0.17579229561796161 -0.27267308854753308 0 -0.16344648285301799 -0.25937253054906129 0 -0.16709258238786229 -0.25188408856254202 0 -0.17379217291466831 -0.25992581321180469 0 -0.16709258238786229 -0.25188408856254202 0 -0.17679077873490559 -0.25046109420941731 0 -0.17379217291466831 -0.25992581321180469 0 -0.1965391795889786 -0.26204425282134669 0 -0.18340152769721799 -0.25642831405215172 0 -0.17579229561796161 -0.27267308854753308 0 -0.17679077873490559 -0.25046109420941731 0 -0.18340152769721799 -0.25642831405215172 0 -0.17379217291466831 -0.25992581321180469 0 -0.18340152769721799 -0.25642831405215172 0 -0.17379217291466831 -0.25992581321180469 0 -0.17579229561796161 -0.27267308854753308 0 -0.17679077873490559 -0.25046109420941731 0 -0.18340152769721799 -0.25642831405215172 0 -0.18863044441395099 -0.24733650333174401 0 -0.19410774352861071 -0.2831088592208712 0 -0.17579229561796161 -0.27267308854753308 0 -0.17507431738127369 -0.28401326145526029 0 -0.19410774352861071 -0.2831088592208712 0 -0.17579229561796161 -0.27267308854753308 0 -0.15747684770731041 -0.26223731787419863 0 -0.17507431738127369 -0.28401326145526029 0 -0.15747684770731041 -0.26223731787419863 0 -0.17579229561796161 -0.27267308854753308 0 -0.15747684770731041 -0.26223731787419863 0 -0.17579229561796161 -0.27267308854753308 0 -0.17507431738127369 -0.28401326145526029 0 -0.15747684770731041 -0.26223731787419863 0 -0.1596399504195592 -0.27820623095404468 0 -0.17507431738127369 -0.28401326145526029 0 -0.1596399504195592 -0.27820623095404468 0 -0.1624028041075358 -0.29248408411088062 0 -0.1494793968803598 -0.28070198605355251 0 -0.1624028041075358 -0.29248408411088062 0 -0.15973767967650701 -0.30493196891575292 0 -0.15108397830665751 -0.29236825921418419 0 -0.1624028041075358 -0.29248408411088062 0 -0.17507431738127369 -0.28401326145526029 0 -0.17391538329452061 -0.29489800819007239 0 -0.1596399504195592 -0.27820623095404468 0 -0.1624028041075358 -0.29248408411088062 0 -0.17507431738127369 -0.28401326145526029 0 -0.19267178705524021 -0.30578920503631912 0 -0.19410774352861071 -0.2831088592208712 0 -0.17507431738127369 -0.28401326145526029 0 -0.19267178705524021 -0.30578920503631912 0 -0.17507431738127369 -0.28401326145526029 0 -0.17391538329452061 -0.29489800819007239 0 -0.19267178705524021 -0.30578920503631912 0 -0.17507431738127369 -0.28401326145526029 0 -0.17391538329452061 -0.29489800819007239 0 -0.17532621133471249 -0.30426618216820789 0 -0.19254159852174429 -0.31996122112867409 0 -0.19267178705524021 -0.30578920503631912 0 -0.17532621133471249 -0.30426618216820789 0 -0.19267178705524021 -0.30578920503631912 0 -0.17391538329452061 -0.29489800819007239 0 -0.17532621133471249 -0.30426618216820789 0 -0.19254159852174429 -0.31996122112867409 0 -0.17532621133471249 -0.30426618216820789 0 -0.1789711567900161 -0.3101302037755338 0 -0.19254159852174429 -0.31996122112867409 0 -0.17532621133471249 -0.30426618216820789 0 -0.17532621133471249 -0.30426618216820789 0 -0.15973767967650701 -0.30493196891575292 0 -0.16582550601247259 -0.31644195918285489 0 -0.1624028041075358 -0.29248408411088062 0 -0.17532621133471249 -0.30426618216820789 0 -0.15973767967650701 -0.30493196891575292 0 -0.1624028041075358 -0.29248408411088062 0 -0.17532621133471249 -0.30426618216820789 0 -0.1624028041075358 -0.29248408411088062 0 -0.17391538329452061 -0.29489800819007239 0 -0.17532621133471249 -0.30426618216820789 0 -0.144593184228827 -0.30237793828586917 0 -0.15261731536399281 -0.31699983390472031 0 -0.1327552185807534 -0.31482398186879779 0 -0.15973767967650701 -0.30493196891575292 0 -0.144593184228827 -0.30237793828586917 0 -0.15261731536399281 -0.31699983390472031 0 -0.15973767967650701 -0.30493196891575292 0 -0.144593184228827 -0.30237793828586917 0 -0.15108397830665751 -0.29236825921418419 0 -0.144593184228827 -0.30237793828586917 0 -0.1304175251842298 -0.30012492429455973 0 -0.1327552185807534 -0.31482398186879779 0 -0.1304175251842298 -0.30012492429455973 0 -0.1327552185807534 -0.31482398186879779 0 -0.11567190875339491 -0.3081878681979589 0 -0.1304175251842298 -0.30012492429455973 0 -0.13697378053928061 -0.28594316463020741 0 -0.11725087491461519 -0.29108504565108578 0 -0.144593184228827 -0.30237793828586917 0 -0.1304175251842298 -0.30012492429455973 0 -0.13697378053928061 -0.28594316463020741 0 -0.13697378053928061 -0.28594316463020741 0 -0.15108397830665751 -0.29236825921418419 0 -0.1494793968803598 -0.28070198605355251 0 -0.144593184228827 -0.30237793828586917 0 -0.13697378053928061 -0.28594316463020741 0 -0.15108397830665751 -0.29236825921418419 0 -0.1624028041075358 -0.29248408411088062 0 -0.15108397830665751 -0.29236825921418419 0 -0.1494793968803598 -0.28070198605355251 0 -0.1624028041075358 -0.29248408411088062 0 -0.1494793968803598 -0.28070198605355251 0 -0.15747684770731041 -0.26223731787419863 0 -0.1596399504195592 -0.27820623095404468 0 -0.1503927610565664 -0.27179087804580171 0 -0.1596399504195592 -0.27820623095404468 0 -0.1494793968803598 -0.28070198605355251 0 -0.1503927610565664 -0.27179087804580171 0 -0.15747684770731041 -0.26223731787419863 0 -0.1503927610565664 -0.27179087804580171 0 -0.1469785187108 -0.2635474229235048 0 -0.1503927610565664 -0.27179087804580171 0 -0.13966748117377659 -0.26847157538705668 0 -0.1469785187108 -0.2635474229235048 0 -0.1503927610565664 -0.27179087804580171 0 -0.14153524490660671 -0.2763029116229278 0 -0.13966748117377659 -0.26847157538705668 0 -0.1494793968803598 -0.28070198605355251 0 -0.1503927610565664 -0.27179087804580171 0 -0.14153524490660671 -0.2763029116229278 0 -0.13697378053928061 -0.28594316463020741 0 -0.1494793968803598 -0.28070198605355251 0 -0.14153524490660671 -0.2763029116229278 0 -0.13697378053928061 -0.28594316463020741 0 -0.14153524490660671 -0.2763029116229278 0 -0.13219795163187159 -0.27110871778552531 0 -0.13697378053928061 -0.28594316463020741 0 -0.1173011125765811 -0.2721428964285707 0 -0.13697378053928061 -0.28594316463020741 0 -0.13219795163187159 -0.27110871778552531 0 -0.1173011125765811 -0.2721428964285707 0 -0.13219795163187159 -0.27110871778552531 0 -0.1333337708168415 -0.26377523499205202 0 -0.12600056203783161 -0.26301541000095829 0 -0.13219795163187159 -0.27110871778552531 0 -0.12600056203783161 -0.26301541000095829 0 -0.1173011125765811 -0.2721428964285707 0 -0.13219795163187159 -0.27110871778552531 0 -0.13966748117377659 -0.26847157538705668 0 -0.1333337708168415 -0.26377523499205202 0 -0.14153524490660671 -0.2763029116229278 0 -0.13219795163187159 -0.27110871778552531 0 -0.13966748117377659 -0.26847157538705668 0 -0.13966748117377659 -0.26847157538705668 0 -0.13807993829988649 -0.25979154560904222 0 -0.1333337708168415 -0.26377523499205202 0 -0.13807993829988649 -0.25979154560904222 0 -0.1333337708168415 -0.26377523499205202 0 -0.13072292094084129 -0.25648892617767749 0 -0.12600056203783161 -0.26301541000095829 0 -0.13072292094084129 -0.25648892617767749 0 -0.1187556211832122 -0.25814451816493872 0 -0.1333337708168415 -0.26377523499205202 0 -0.12600056203783161 -0.26301541000095829 0 -0.13072292094084129 -0.25648892617767749 0 -0.13072292094084129 -0.25648892617767749 0 -0.13218950310710981 -0.25272660122947088 0 -0.1187556211832122 -0.25814451816493872 0 -0.13072292094084129 -0.25648892617767749 0 -0.13218950310710981 -0.25272660122947088 0 -0.13218950310710981 -0.25272660122947088 0 -0.1459019403517107 -0.25564217047089421 0 -0.13375162957080131 -0.24871916986845621 0 -0.13218950310710981 -0.25272660122947088 0 -0.1459019403517107 -0.25564217047089421 0 -0.13218950310710981 -0.25272660122947088 0 -0.13375162957080131 -0.24871916986845621 0 -0.1459019403517107 -0.25564217047089421 0 -0.13375162957080131 -0.24871916986845621 0 -0.13807993829988649 -0.25979154560904222 0 -0.13218950310710981 -0.25272660122947088 0 -0.1459019403517107 -0.25564217047089421 0 -0.13807993829988649 -0.25979154560904222 0 -0.13072292094084129 -0.25648892617767749 0 -0.13218950310710981 -0.25272660122947088 0 -0.1459019403517107 -0.25564217047089421 0 -0.1534429259631987 -0.25724555178864622 0 -0.1378886282313006 -0.2381062402767252 0 -0.13966748117377659 -0.26847157538705668 0 -0.13807993829988649 -0.25979154560904222 0 -0.1469785187108 -0.2635474229235048 0 -0.13807993829988649 -0.25979154560904222 0 -0.1459019403517107 -0.25564217047089421 0 -0.1469785187108 -0.2635474229235048 0 -0.15747684770731041 -0.26223731787419863 0 -0.1459019403517107 -0.25564217047089421 0 -0.1534429259631987 -0.25724555178864622 0 -0.15747684770731041 -0.26223731787419863 0 -0.1459019403517107 -0.25564217047089421 0 -0.1469785187108 -0.2635474229235048 0 -0.15747684770731041 -0.26223731787419863 0 -0.1459019403517107 -0.25564217047089421 0 -0.15747684770731041 -0.26223731787419863 0 -0.1534429259631987 -0.25724555178864622 0 -0.1593809120407062 -0.25278805690175971 0 -0.1534429259631987 -0.25724555178864622 0 -0.15289321433053751 -0.246830478479277 0 -0.1459019403517107 -0.25564217047089421 0 -0.1534429259631987 -0.25724555178864622 0 -0.17143624801538501 -0.35840063883308271 0 -0.1580141783998408 -0.34710035810185619 0 -0.15489216358121211 -0.36256913283011211 0 -0.17143624801538501 -0.35840063883308271 0 -0.1580141783998408 -0.34710035810185619 0 -0.18164424501215659 -0.34621916084723381 0 -0.17143624801538501 -0.35840063883308271 0 -0.1663610822414904 -0.3702523776444529 0 -0.15489216358121211 -0.36256913283011211 0 -0.15951650330528561 -0.37856285477961621 0 -0.1663610822414904 -0.3702523776444529 0 -0.15489216358121211 -0.36256913283011211 0 -0.17143624801538501 -0.35840063883308271 0 -0.1663610822414904 -0.3702523776444529 0 -0.18480326185087809 -0.36719565018674682 0 -0.1663610822414904 -0.3702523776444529 0 -0.18480326185087809 -0.36719565018674682 0 -0.1663610822414904 -0.3702523776444529 0 -0.18480326185087809 -0.36719565018674682 0 -0.18579747934449059 -0.37379744869579251 0 -0.18480326185087809 -0.36719565018674682 0 -0.18579747934449059 -0.37379744869579251 0 -0.18480326185087809 -0.36719565018674682 0 -0.18164424501215659 -0.34621916084723381 0 -0.19565175395430129 -0.3512554891803924 0 -0.18480326185087809 -0.36719565018674682 0 -0.18164424501215659 -0.34621916084723381 0 -0.17143624801538501 -0.35840063883308271 0 -0.18480326185087809 -0.36719565018674682 0 -0.18164424501215659 -0.34621916084723381 0 -0.18164424501215659 -0.34621916084723381 0 -0.17848522817343529 -0.32524267150772068 0 -0.1629610955137164 -0.33076913941787212 0 -0.18164424501215659 -0.34621916084723381 0 -0.17848522817343529 -0.32524267150772068 0 -0.18164424501215659 -0.34621916084723381 0 -0.18737083868624629 -0.33075534874643497 0 -0.17848522817343529 -0.32524267150772068 0 -0.17532621133471249 -0.30426618216820789 0 -0.17848522817343529 -0.32524267150772068 0 -0.17532621133471249 -0.30426618216820789 0 -0.1789711567900161 -0.3101302037755338 0 -0.17848522817343529 -0.32524267150772068 0 -0.17532621133471249 -0.30426618216820789 0 -0.17848522817343529 -0.32524267150772068 0 -0.16582550601247259 -0.31644195918285489 0 -0.1943588054861482 -0.32297640251143073 0 -0.1789711567900161 -0.3101302037755338 0 -0.18479650728396149 -0.32227615663527998 0 -0.1789711567900161 -0.3101302037755338 0 -0.18479650728396149 -0.32227615663527998 0 -0.17848522817343529 -0.32524267150772068 0 -0.1943588054861482 -0.32297640251143073 0 -0.1789711567900161 -0.3101302037755338 0 -0.18737083868624629 -0.33075534874643497 0 -0.18479650728396149 -0.32227615663527998 0 -0.17848522817343529 -0.32524267150772068 0 -0.17848522817343529 -0.32524267150772068 0 -0.16582550601247259 -0.31644195918285489 0 -0.1629610955137164 -0.33076913941787212 0 -0.16582550601247259 -0.31644195918285489 0 -0.1629610955137164 -0.33076913941787212 0 -0.15261731536399281 -0.31699983390472031 0 -0.15973767967650701 -0.30493196891575292 0 -0.16582550601247259 -0.31644195918285489 0 -0.15261731536399281 -0.31699983390472031 0 -0.1580141783998408 -0.34710035810185619 0 -0.18164424501215659 -0.34621916084723381 0 -0.1629610955137164 -0.33076913941787212 0 -0.1580141783998408 -0.34710035810185619 0 -0.1629610955137164 -0.33076913941787212 0 -0.14559484309128301 -0.3331209990743299 0 -0.14559484309128301 -0.3331209990743299 0 -0.15261731536399281 -0.31699983390472031 0 -0.1327552185807534 -0.31482398186879779 0 -0.1629610955137164 -0.33076913941787212 0 -0.14559484309128301 -0.3331209990743299 0 -0.15261731536399281 -0.31699983390472031 0 -0.14559484309128301 -0.3331209990743299 0 -0.1327552185807534 -0.31482398186879779 0 -0.12678352480283511 -0.3369129194106073 0 -0.14559484309128301 -0.3331209990743299 0 -0.12678352480283511 -0.3369129194106073 0 -0.14043772588655989 -0.35211976174212622 0 -0.12678352480283511 -0.3369129194106073 0 -0.14043772588655989 -0.35211976174212622 0 -0.1203130985899742 -0.35955571918490481 0 -0.1580141783998408 -0.34710035810185619 0 -0.14043772588655989 -0.35211976174212622 0 -0.15489216358121211 -0.36256913283011211 0 -0.1580141783998408 -0.34710035810185619 0 -0.14559484309128301 -0.3331209990743299 0 -0.14043772588655989 -0.35211976174212622 0 -0.14043772588655989 -0.35211976174212622 0 -0.15489216358121211 -0.36256913283011211 0 -0.13959568407155781 -0.37291875636350952 0 -0.15951650330528561 -0.37856285477961621 0 -0.15489216358121211 -0.36256913283011211 0 -0.13959568407155781 -0.37291875636350952 0 -0.12625141541498519 -0.38197991289387551 0 -0.13959568407155781 -0.37291875636350952 0 -0.1203130985899742 -0.35955571918490481 0 -0.14043772588655989 -0.35211976174212622 0 -0.13959568407155781 -0.37291875636350952 0 -0.1203130985899742 -0.35955571918490481 0 -0.1203130985899742 -0.35955571918490481 0 -0.11384267237711319 -0.38219851895920232 0 -0.1203130985899742 -0.35955571918490481 0 -0.10849363524981311 -0.36442991456039969 0 -0.11384267237711319 -0.38219851895920232 0 -0.12625141541498519 -0.38197991289387551 0 -0.1203130985899742 -0.35955571918490481 0 -0.11384267237711319 -0.38219851895920232 0 -0.10849363524981311 -0.36442991456039969 0 -0.096157591159299352 -0.35547454281719221 0 -0.10176491866177829 -0.38015793077534599 0 -0.096157591159299352 -0.35547454281719221 0 -0.10176491866177829 -0.38015793077534599 0 -0.096157591159299352 -0.35547454281719221 0 -0.10176491866177829 -0.38015793077534599 0 -0.085276019388031976 -0.37619188405436782 0 -0.096157591159299352 -0.35547454281719221 0 -0.10964553082547281 -0.34513317088572909 0 -0.090550263656820479 -0.33079115485903843 0 -0.10849363524981311 -0.36442991456039969 0 -0.096157591159299352 -0.35547454281719221 0 -0.10964553082547281 -0.34513317088572909 0 -0.1203130985899742 -0.35955571918490481 0 -0.10849363524981311 -0.36442991456039969 0 -0.10964553082547281 -0.34513317088572909 0 -0.12678352480283511 -0.3369129194106073 0 -0.1203130985899742 -0.35955571918490481 0 -0.10964553082547281 -0.34513317088572909 0 -0.12678352480283511 -0.3369129194106073 0 -0.1203130985899742 -0.35955571918490481 0 -0.12678352480283511 -0.3369129194106073 0 -0.10964553082547281 -0.34513317088572909 0 -0.1112875311940303 -0.32576775904759792 0 -0.1327552185807534 -0.31482398186879779 0 -0.12678352480283511 -0.3369129194106073 0 -0.1112875311940303 -0.32576775904759792 0 -0.1327552185807534 -0.31482398186879779 0 -0.1112875311940303 -0.32576775904759792 0 -0.11567190875339491 -0.3081878681979589 0 -0.1112875311940303 -0.32576775904759792 0 -0.1011365257202933 -0.31403431577096802 0 -0.11567190875339491 -0.3081878681979589 0 -0.1112875311940303 -0.32576775904759792 0 -0.1011365257202933 -0.31403431577096802 0 -0.090550263656820479 -0.33079115485903843 0 -0.10964553082547281 -0.34513317088572909 0 -0.1112875311940303 -0.32576775904759792 0 -0.090550263656820479 -0.33079115485903843 0 -0.096157591159299352 -0.35547454281719221 0 -0.090550263656820479 -0.33079115485903843 0 -0.096157591159299352 -0.35547454281719221 0 -0.090550263656820479 -0.33079115485903843 0 -0.073144777225565616 -0.33606175945158517 0 -0.090550263656820479 -0.33079115485903843 0 -0.084942936154341619 -0.30610776690088481 0 -0.090550263656820479 -0.33079115485903843 0 -0.073144777225565616 -0.33606175945158517 0 -0.084942936154341619 -0.30610776690088481 0 -0.1011365257202933 -0.31403431577096802 0 -0.090550263656820479 -0.33079115485903843 0 -0.084942936154341619 -0.30610776690088481 0 -0.073144777225565616 -0.33606175945158517 0 -0.084942936154341619 -0.30610776690088481 0 -0.060613113796085999 -0.32288269869712272 0 -0.073144777225565616 -0.33606175945158517 0 -0.076755031766953086 -0.35884624094615858 0 -0.063306301319701316 -0.35299520754669739 0 -0.076755031766953086 -0.35884624094615858 0 -0.063306301319701316 -0.35299520754669739 0 -0.065890469742167113 -0.37350781086095058 0 -0.076755031766953086 -0.35884624094615858 0 -0.065890469742167113 -0.37350781086095058 0 -0.085276019388031976 -0.37619188405436782 0 -0.096157591159299352 -0.35547454281719221 0 -0.076755031766953086 -0.35884624094615858 0 -0.085276019388031976 -0.37619188405436782 0 -0.096157591159299352 -0.35547454281719221 0 -0.073144777225565616 -0.33606175945158517 0 -0.076755031766953086 -0.35884624094615858 0 -0.097628444613881649 -0.25834262822693399 0 -0.1173011125765811 -0.2721428964285707 0 -0.097628444613881649 -0.25834262822693399 0 -0.1187556211832122 -0.25814451816493872 0 -0.1098930818979398 -0.24798588601512411 0 -0.13218950310710981 -0.25272660122947088 0 -0.1187556211832122 -0.25814451816493872 0 -0.1098930818979398 -0.24798588601512411 0 -0.097628444613881649 -0.25834262822693399 0 -0.1187556211832122 -0.25814451816493872 0 -0.1173011125765811 -0.2721428964285707 0 -0.13218950310710981 -0.25272660122947088 0 -0.1098930818979398 -0.24798588601512411 0 -0.12600056203783161 -0.26301541000095829 0 -0.1187556211832122 -0.25814451816493872 0 -0.1173011125765811 -0.2721428964285707 0 -0.097628444613881649 -0.25834262822693399 0 -0.1173011125765811 -0.2721428964285707 0 -0.090762408808148426 -0.27102181932101072 0 -0.1173011125765811 -0.2721428964285707 0 -0.096655829275762523 -0.28444542957314378 0 -0.090762408808148426 -0.27102181932101072 0 -0.096655829275762523 -0.28444542957314378 0 -0.10322998884287909 -0.29931702984935987 0 -0.084942936154341619 -0.30610776690088481 0 -0.096655829275762523 -0.28444542957314378 0 -0.11725087491461519 -0.29108504565108578 0 -0.10322998884287909 -0.29931702984935987 0 -0.13697378053928061 -0.28594316463020741 0 -0.1173011125765811 -0.2721428964285707 0 -0.11725087491461519 -0.29108504565108578 0 -0.1173011125765811 -0.2721428964285707 0 -0.096655829275762523 -0.28444542957314378 0 -0.11725087491461519 -0.29108504565108578 0 -0.11725087491461519 -0.29108504565108578 0 -0.11567190875339491 -0.3081878681979589 0 -0.10322998884287909 -0.29931702984935987 0 -0.1304175251842298 -0.30012492429455973 0 -0.11725087491461519 -0.29108504565108578 0 -0.11567190875339491 -0.3081878681979589 0 -0.1011365257202933 -0.31403431577096802 0 -0.10322998884287909 -0.29931702984935987 0 -0.084942936154341619 -0.30610776690088481 0 -0.1011365257202933 -0.31403431577096802 0 -0.11567190875339491 -0.3081878681979589 0 -0.10322998884287909 -0.29931702984935987 0 -0.084942936154341619 -0.30610776690088481 0 -0.066237696895848033 -0.30175990202967712 0 -0.078368201618682937 -0.28822753231137022 0 -0.084942936154341619 -0.30610776690088481 0 -0.066237696895848033 -0.30175990202967712 0 -0.060613113796085999 -0.32288269869712272 0 -0.066237696895848033 -0.30175990202967712 0 -0.078368201618682937 -0.28822753231137022 0 -0.057136779716869042 -0.28712205926022771 0 -0.078368201618682937 -0.28822753231137022 0 -0.072744725061100565 -0.27289296274949931 0 -0.057136779716869042 -0.28712205926022771 0 -0.096655829275762523 -0.28444542957314378 0 -0.084942936154341619 -0.30610776690088481 0 -0.078368201618682937 -0.28822753231137022 0 -0.096655829275762523 -0.28444542957314378 0 -0.078368201618682937 -0.28822753231137022 0 -0.090762408808148426 -0.27102181932101072 0 -0.078368201618682937 -0.28822753231137022 0 -0.090762408808148426 -0.27102181932101072 0 -0.072744725061100565 -0.27289296274949931 0 -0.090762408808148426 -0.27102181932101072 0 -0.072744725061100565 -0.27289296274949931 0 -0.081281336266817772 -0.26097832242812891 0 -0.072744725061100565 -0.27289296274949931 0 -0.067161912638977472 -0.25903173736147111 0 -0.055745381016590281 -0.2682223094504298 0 -0.072744725061100565 -0.27289296274949931 0 -0.067161912638977472 -0.25903173736147111 0 -0.081281336266817772 -0.26097832242812891 0 -0.067161912638977472 -0.25903173736147111 0 -0.081281336266817772 -0.26097832242812891 0 -0.077955776651182085 -0.24454236002529731 0 -0.067161912638977472 -0.25903173736147111 0 -0.056939497423126581 -0.24878681181634871 0 -0.077955776651182085 -0.24454236002529731 0 -0.097628444613881649 -0.25834262822693399 0 -0.081281336266817772 -0.26097832242812891 0 -0.077955776651182085 -0.24454236002529731 0 -0.097628444613881649 -0.25834262822693399 0 -0.090762408808148426 -0.27102181932101072 0 -0.081281336266817772 -0.26097832242812891 0 -0.097628444613881649 -0.25834262822693399 0 -0.077955776651182085 -0.24454236002529731 0 -0.025857267464119819 -0.25506418495113531 0 -0.050191684441297867 -0.2485850187836515 0 -0.034199021844566052 -0.25740496373097072 0 -0.056939497423126581 -0.24878681181634871 0 -0.034199021844566052 -0.25740496373097072 0 -0.041398382443623198 -0.25192549838374201 0 -0.056939497423126581 -0.24878681181634871 0 -0.041398382443623198 -0.25192549838374201 0 -0.025857267464119819 -0.25506418495113531 0 -0.050191684441297867 -0.2485850187836515 0 -0.034199021844566052 -0.25740496373097072 0 -0.048255079716108998 -0.25800015923011232 0 -0.056939497423126581 -0.24878681181634871 0 -0.034199021844566052 -0.25740496373097072 0 -0.041398382443623198 -0.25192549838374201 0 -0.025857267464119819 -0.25506418495113531 0 -0.041398382443623198 -0.25192549838374201 0 -0.025857267464119819 -0.25506418495113531 0 -0.034199021844566052 -0.25740496373097072 0 -0.037307574571523318 -0.26201401924185519 0 -0.024854767991187229 -0.26705994663832661 0 -0.037307574571523318 -0.26201401924185519 0 -0.048255079716108998 -0.25800015923011232 0 -0.046606779304586107 -0.26584835010199509 0 -0.034199021844566052 -0.25740496373097072 0 -0.037307574571523318 -0.26201401924185519 0 -0.048255079716108998 -0.25800015923011232 0 -0.05702546769870083 -0.25851025446459042 0 -0.048255079716108998 -0.25800015923011232 0 -0.056939497423126581 -0.24878681181634871 0 -0.041398382443623198 -0.25192549838374201 0 -0.056939497423126581 -0.24878681181634871 0 -0.067161912638977472 -0.25903173736147111 0 -0.05702546769870083 -0.25851025446459042 0 -0.056939497423126581 -0.24878681181634871 0 -0.067161912638977472 -0.25903173736147111 0 -0.05702546769870083 -0.25851025446459042 0 -0.055745381016590281 -0.2682223094504298 0 -0.05702546769870083 -0.25851025446459042 0 -0.048255079716108998 -0.25800015923011232 0 -0.055745381016590281 -0.2682223094504298 0 -0.048255079716108998 -0.25800015923011232 0 -0.055745381016590281 -0.2682223094504298 0 -0.046606779304586107 -0.26584835010199509 0 -0.055745381016590281 -0.2682223094504298 0 -0.045119081914121867 -0.27515691248558288 0 -0.046606779304586107 -0.26584835010199509 0 -0.055745381016590281 -0.2682223094504298 0 -0.045119081914121867 -0.27515691248558288 0 -0.057136779716869042 -0.28712205926022771 0 -0.072744725061100565 -0.27289296274949931 0 -0.055745381016590281 -0.2682223094504298 0 -0.057136779716869042 -0.28712205926022771 0 -0.037307574571523318 -0.26201401924185519 0 -0.034478529498429812 -0.28951379058442123 0 -0.037307574571523318 -0.26201401924185519 0 -0.034478529498429812 -0.28951379058442123 0 -0.024854767991187229 -0.26705994663832661 0 -0.037307574571523318 -0.26201401924185519 0 -0.045119081914121867 -0.27515691248558288 0 -0.034478529498429812 -0.28951379058442123 0 -0.037307574571523318 -0.26201401924185519 0 -0.045119081914121867 -0.27515691248558288 0 -0.046606779304586107 -0.26584835010199509 0 -0.045119081914121867 -0.27515691248558288 0 -0.034478529498429812 -0.28951379058442123 0 -0.057136779716869042 -0.28712205926022771 0 -0.034478529498429812 -0.28951379058442123 0 -0.057136779716869042 -0.28712205926022771 0 -0.05012745319326059 -0.30445945297878008 0 -0.066237696895848033 -0.30175990202967712 0 -0.05012745319326059 -0.30445945297878008 0 -0.060613113796085999 -0.32288269869712272 0 -0.066237696895848033 -0.30175990202967712 0 -0.057136779716869042 -0.28712205926022771 0 -0.05012745319326059 -0.30445945297878008 0 -0.034478529498429812 -0.28951379058442123 0 -0.05012745319326059 -0.30445945297878008 0 -0.031649484425336299 -0.31701356192698721 0 -0.034478529498429812 -0.28951379058442123 0 -0.031649484425336299 -0.31701356192698721 0 -0.034478529498429812 -0.28951379058442123 0 -0.020284114256294641 -0.29759304008048471 0 -0.031649484425336299 -0.31701356192698721 0 -0.020284114256294641 -0.29759304008048471 0 -0.01007927323019326 -0.3103345258507364 0 -0.031649484425336299 -0.31701356192698721 0 -0.020284114256294641 -0.29759304008048471 0 -0.01007927323019326 -0.3103345258507364 0 -0.0080748459131490501 -0.2914060437848453 0 -0.01007927323019326 -0.3103345258507364 0 -0.0080748459131490501 -0.2914060437848453 0 0.0017563221397047381 -0.2997067901486577 0 -0.020284114256294641 -0.29759304008048471 0 -0.0080748459131490501 -0.2914060437848453 0 -0.017138438214364771 -0.27969727825543328 0 -0.0080748459131490501 -0.2914060437848453 0 -0.002848760243290064 -0.27761611820401882 0 0.0066437179820165657 -0.2861171845936395 0 -0.0080748459131490501 -0.2914060437848453 0 -0.017138438214364771 -0.27969727825543328 0 -0.002848760243290064 -0.27761611820401882 0 -0.034478529498429812 -0.28951379058442123 0 -0.020284114256294641 -0.29759304008048471 0 -0.017138438214364771 -0.27969727825543328 0 -0.034478529498429812 -0.28951379058442123 0 -0.024854767991187229 -0.26705994663832661 0 -0.017138438214364771 -0.27969727825543328 0 -0.024854767991187229 -0.26705994663832661 0 -0.01588915841142927 -0.27169793716392882 0 -0.01145854626600548 -0.26602311564559261 0 -0.024854767991187229 -0.26705994663832661 0 -0.01588915841142927 -0.27169793716392882 0 -0.017138438214364771 -0.27969727825543328 0 -0.017138438214364771 -0.27969727825543328 0 -0.011833725783772399 -0.27375861231724341 0 -0.002848760243290064 -0.27761611820401882 0 -0.01145854626600548 -0.26602311564559261 0 0.01128192931255503 -0.27464126756021451 0 -0.002848760243290064 -0.27761611820401882 0 -0.01145854626600548 -0.26602311564559261 0 0.01128192931255503 -0.27464126756021451 0 -0.01588915841142927 -0.27169793716392882 0 -0.017138438214364771 -0.27969727825543328 0 -0.011833725783772399 -0.27375861231724341 0 -0.011833725783772399 -0.27375861231724341 0 -0.002848760243290064 -0.27761611820401882 0 -0.01145854626600548 -0.26602311564559261 0 -0.01588915841142927 -0.27169793716392882 0 -0.011833725783772399 -0.27375861231724341 0 -0.01145854626600548 -0.26602311564559261 0 -0.01269776775011346 -0.25850600500130039 0 -0.0051360078472848583 -0.25701396995817721 0 0.0057158633005241696 -0.26337829885565528 0 -0.01145854626600548 -0.26602311564559261 0 -0.01269776775011346 -0.25850600500130039 0 0.0057158633005241696 -0.26337829885565528 0 -0.01269776775011346 -0.25850600500130039 0 0.0057158633005241696 -0.26337829885565528 0 -0.0009620894167222515 -0.25496392916579452 0 -0.0051360078472848583 -0.25701396995817721 0 0.0057158633005241696 -0.26337829885565528 0 -0.0071971320314794382 -0.2528457057960789 0 -0.01082738352359053 -0.24876902592697839 0 -0.0029313858115674811 -0.24854412401401971 0 -0.0009620894167222515 -0.25496392916579452 0 -0.0071971320314794382 -0.2528457057960789 0 -0.0029313858115674811 -0.24854412401401971 0 -0.0009620894167222515 -0.25496392916579452 0 -0.0051360078472848583 -0.25701396995817721 0 -0.0071971320314794382 -0.2528457057960789 0 -0.0051360078472848583 -0.25701396995817721 0 -0.0071971320314794382 -0.2528457057960789 0 -0.0094143843739788544 -0.25459574361389747 0 -0.0071971320314794382 -0.2528457057960789 0 -0.0094143843739788544 -0.25459574361389747 0 -0.01082738352359053 -0.24876902592697839 0 -0.01269776775011346 -0.25850600500130039 0 -0.0094143843739788544 -0.25459574361389747 0 -0.01082738352359053 -0.24876902592697839 0 -0.01269776775011346 -0.25850600500130039 0 -0.0051360078472848583 -0.25701396995817721 0 -0.0094143843739788544 -0.25459574361389747 0 -0.01269776775011346 -0.25850600500130039 0 -0.025857267464119819 -0.25506418495113531 0 -0.034199021844566052 -0.25740496373097072 0 -0.01145854626600548 -0.26602311564559261 0 -0.025857267464119819 -0.25506418495113531 0 -0.01269776775011346 -0.25850600500130039 0 -0.025857267464119819 -0.25506418495113531 0 -0.02368513365757598 -0.23851275990414511 0 -0.034199021844566052 -0.25740496373097072 0 -0.024854767991187229 -0.26705994663832661 0 -0.01145854626600548 -0.26602311564559261 0 -0.034199021844566052 -0.25740496373097072 0 -0.01145854626600548 -0.26602311564559261 0 -0.01145854626600548 -0.26602311564559261 0 -0.01269776775011346 -0.25850600500130039 0 -0.025857267464119819 -0.25506418495113531 0 -0.046940286889098168 -0.35955036210978841 0 -0.050269733973634309 -0.3392354021108881 0 -0.02882043935224279 -0.34451333326955308 0 -0.046940286889098168 -0.35955036210978841 0 -0.02882043935224279 -0.34451333326955308 0 -0.026419717968229769 -0.36867473508972981 0 -0.046940286889098168 -0.35955036210978841 0 -0.026419717968229769 -0.36867473508972981 0 -0.046935058978613817 -0.3783756837809118 0 -0.065890469742167113 -0.37350781086095058 0 -0.046940286889098168 -0.35955036210978841 0 -0.046935058978613817 -0.3783756837809118 0 -0.063306301319701316 -0.35299520754669739 0 -0.065890469742167113 -0.37350781086095058 0 -0.046940286889098168 -0.35955036210978841 0 -0.063306301319701316 -0.35299520754669739 0 -0.046940286889098168 -0.35955036210978841 0 -0.050269733973634309 -0.3392354021108881 0 -0.073144777225565616 -0.33606175945158517 0 -0.063306301319701316 -0.35299520754669739 0 -0.050269733973634309 -0.3392354021108881 0 -0.073144777225565616 -0.33606175945158517 0 -0.050269733973634309 -0.3392354021108881 0 -0.060613113796085999 -0.32288269869712272 0 -0.050269733973634309 -0.3392354021108881 0 -0.060613113796085999 -0.32288269869712272 0 -0.031649484425336299 -0.31701356192698721 0 -0.05012745319326059 -0.30445945297878008 0 -0.060613113796085999 -0.32288269869712272 0 -0.031649484425336299 -0.31701356192698721 0 -0.050269733973634309 -0.3392354021108881 0 -0.031649484425336299 -0.31701356192698721 0 -0.02882043935224279 -0.34451333326955308 0 -0.031649484425336299 -0.31701356192698721 0 -0.02882043935224279 -0.34451333326955308 0 -0.031649484425336299 -0.31701356192698721 0 -0.0038616663111063101 -0.33241552487502413 0 -0.02882043935224279 -0.34451333326955308 0 -0.01007927323019326 -0.3103345258507364 0 -0.031649484425336299 -0.31701356192698721 0 -0.0038616663111063101 -0.33241552487502413 0 -0.01007927323019326 -0.3103345258507364 0 -0.0038616663111063101 -0.33241552487502413 0 0.0094652366165251054 -0.31053241408104548 0 -0.0038616663111063101 -0.33241552487502413 0 -0.0043130761299947744 -0.35643483176966217 0 -0.02882043935224279 -0.34451333326955308 0 -0.0043130761299947744 -0.35643483176966217 0 -0.02882043935224279 -0.34451333326955308 0 -0.026419717968229769 -0.36867473508972981 0 -0.0043130761299947744 -0.35643483176966217 0 -0.026419717968229769 -0.36867473508972981 0 -0.0064694903547723136 -0.38059021958606692 0 -0.0064694903547723136 -0.38059021958606692 0 -0.0080625817845775948 -0.40608726553411861 0 -0.026496984295852101 -0.39226102623928111 0 -0.0064694903547723136 -0.38059021958606692 0 -0.0080625817845775948 -0.40608726553411861 0 0.009690974369139977 -0.39295199195252922 0 -0.0080625817845775948 -0.40608726553411861 0 -0.026496984295852101 -0.39226102623928111 0 -0.029852467816379728 -0.41236872525256307 0 -0.026419717968229769 -0.36867473508972981 0 -0.0064694903547723136 -0.38059021958606692 0 -0.026496984295852101 -0.39226102623928111 0 -0.026496984295852101 -0.39226102623928111 0 -0.048213792324517578 -0.39768762776665978 0 -0.046935058978613817 -0.3783756837809118 0 -0.026419717968229769 -0.36867473508972981 0 -0.026496984295852101 -0.39226102623928111 0 -0.046935058978613817 -0.3783756837809118 0 -0.026496984295852101 -0.39226102623928111 0 -0.048213792324517578 -0.39768762776665978 0 -0.029852467816379728 -0.41236872525256307 0 -0.048213792324517578 -0.39768762776665978 0 -0.065379196062645584 -0.39052657147488062 0 -0.06528413140028641 -0.40548789039177052 0 -0.048213792324517578 -0.39768762776665978 0 -0.046935058978613817 -0.3783756837809118 0 -0.065379196062645584 -0.39052657147488062 0 -0.065890469742167113 -0.37350781086095058 0 -0.046935058978613817 -0.3783756837809118 0 -0.065379196062645584 -0.39052657147488062 0 -0.052630130657334448 -0.42871109396582502 0 -0.036803499053157718 -0.43392585985635063 0 -0.055908543568221357 -0.44353945242809251 0 -0.052630130657334448 -0.42871109396582502 0 -0.048282499091199083 -0.41684649723306111 0 -0.065713266975248902 -0.42040157794015642 0 -0.052630130657334448 -0.42871109396582502 0 -0.055908543568221357 -0.44353945242809251 0 -0.077753046024815156 -0.43509142098737241 0 -0.048282499091199083 -0.41684649723306111 0 -0.06528413140028641 -0.40548789039177052 0 -0.065713266975248902 -0.42040157794015642 0 -0.048213792324517578 -0.39768762776665978 0 -0.048282499091199083 -0.41684649723306111 0 -0.06528413140028641 -0.40548789039177052 0 -0.048213792324517578 -0.39768762776665978 0 -0.048282499091199083 -0.41684649723306111 0 -0.029852467816379728 -0.41236872525256307 0 -0.048282499091199083 -0.41684649723306111 0 -0.036803499053157718 -0.43392585985635063 0 -0.029852467816379728 -0.41236872525256307 0 -0.052630130657334448 -0.42871109396582502 0 -0.048282499091199083 -0.41684649723306111 0 -0.036803499053157718 -0.43392585985635063 0 -0.036803499053157718 -0.43392585985635063 0 -0.01686747062211669 -0.42668809062348251 0 -0.022482277956740859 -0.44034230556013138 0 -0.036803499053157718 -0.43392585985635063 0 -0.01686747062211669 -0.42668809062348251 0 -0.029852467816379728 -0.41236872525256307 0 -0.0080625817845775948 -0.40608726553411861 0 -0.01686747062211669 -0.42668809062348251 0 -0.029852467816379728 -0.41236872525256307 0 -0.0080625817845775948 -0.40608726553411861 0 -0.01686747062211669 -0.42668809062348251 0 0.01224976062295041 -0.42183763890738629 0 -0.01686747062211669 -0.42668809062348251 0 -0.008216644178786571 -0.4466179140804285 0 0.01224976062295041 -0.42183763890738629 0 -0.008216644178786571 -0.4466179140804285 0 -0.0021957942935651631 -0.46571035637089769 0 -0.016151777162071251 -0.46269316979172348 0 -0.0021957942935651631 -0.46571035637089769 0 -0.016151777162071251 -0.46269316979172348 0 -0.01292321871024151 -0.47600360382280887 0 -0.008216644178786571 -0.4466179140804285 0 -0.016151777162071251 -0.46269316979172348 0 -0.028753682251359231 -0.45370767630375852 0 -0.016151777162071251 -0.46269316979172348 0 -0.030722049445265721 -0.46513815794063051 0 -0.025757536927686689 -0.47561542944709773 0 -0.016151777162071251 -0.46269316979172348 0 -0.030722049445265721 -0.46513815794063051 0 -0.028753682251359231 -0.45370767630375852 0 -0.036803499053157718 -0.43392585985635063 0 -0.028753682251359231 -0.45370767630375852 0 -0.022482277956740859 -0.44034230556013138 0 -0.01686747062211669 -0.42668809062348251 0 -0.008216644178786571 -0.4466179140804285 0 -0.022482277956740859 -0.44034230556013138 0 -0.008216644178786571 -0.4466179140804285 0 -0.028753682251359231 -0.45370767630375852 0 -0.022482277956740859 -0.44034230556013138 0 -0.011489863113854141 -0.5 0 -0.010144146689038991 -0.48941639725935437 0 0.012735562036971701 -0.48508522326900949 0 -0.010144146689038991 -0.48941639725935437 0 -0.00065605929082254884 -0.47874224407546379 0 -0.01292321871024151 -0.47600360382280887 0 -0.010144146689038991 -0.48941639725935437 0 -0.01292321871024151 -0.47600360382280887 0 -0.022633997898264431 -0.48384402599231691 0 -0.0021957942935651631 -0.46571035637089769 0 -0.00065605929082254884 -0.47874224407546379 0 -0.01292321871024151 -0.47600360382280887 0 -0.016151777162071251 -0.46269316979172348 0 -0.01292321871024151 -0.47600360382280887 0 -0.025757536927686689 -0.47561542944709773 0 -0.025757536927686689 -0.47561542944709773 0 -0.022633997898264431 -0.48384402599231691 0 -0.032724513000240443 -0.48384135401243772 0 -0.01292321871024151 -0.47600360382280887 0 -0.025757536927686689 -0.47561542944709773 0 -0.022633997898264431 -0.48384402599231691 0 -0.011489863113854141 -0.5 0 -0.010144146689038991 -0.48941639725935437 0 -0.033023855415049652 -0.49374757124969931 0 -0.010144146689038991 -0.48941639725935437 0 -0.022633997898264431 -0.48384402599231691 0 -0.033023855415049652 -0.49374757124969931 0 -0.011489863113854141 -0.5 0 -0.041002190054857779 -0.5 0 -0.033023855415049652 -0.49374757124969931 0 -0.010144146689038991 -0.48941639725935437 0 -0.033023855415049652 -0.49374757124969931 0 -0.022633997898264431 -0.48384402599231691 0 -0.033023855415049652 -0.49374757124969931 0 -0.032724513000240443 -0.48384135401243772 0 -0.041002190054857779 -0.5 0 -0.040644419244316249 -0.48874723383863622 0 -0.055758353525359711 -0.48944453406372251 0 -0.041002190054857779 -0.5 0 -0.033023855415049652 -0.49374757124969931 0 -0.040644419244316249 -0.48874723383863622 0 -0.033023855415049652 -0.49374757124969931 0 -0.040644419244316249 -0.48874723383863622 0 -0.032724513000240443 -0.48384135401243772 0 -0.040644419244316249 -0.48874723383863622 0 -0.040713184226073652 -0.47670270986732172 0 -0.055758353525359711 -0.48944453406372251 0 -0.040644419244316249 -0.48874723383863622 0 -0.040713184226073652 -0.47670270986732172 0 -0.032724513000240443 -0.48384135401243772 0 -0.025757536927686689 -0.47561542944709773 0 -0.040713184226073652 -0.47670270986732172 0 -0.032724513000240443 -0.48384135401243772 0 -0.030722049445265721 -0.46513815794063051 0 -0.025757536927686689 -0.47561542944709773 0 -0.040713184226073652 -0.47670270986732172 0 -0.040713184226073652 -0.47670270986732172 0 -0.05604151524233808 -0.47085547185542692 0 -0.042137987481662489 -0.46199998676314519 0 -0.040713184226073652 -0.47670270986732172 0 -0.05604151524233808 -0.47085547185542692 0 -0.055758353525359711 -0.48944453406372251 0 -0.05604151524233808 -0.47085547185542692 0 -0.055758353525359711 -0.48944453406372251 0 -0.068357021366280857 -0.47830767763467641 0 -0.041002190054857779 -0.5 0 -0.055758353525359711 -0.48944453406372251 0 -0.070514516995861642 -0.5 0 -0.036803499053157718 -0.43392585985635063 0 -0.028753682251359231 -0.45370767630375852 0 -0.042591220718736618 -0.44931976272637059 0 -0.036803499053157718 -0.43392585985635063 0 -0.042591220718736618 -0.44931976272637059 0 -0.055908543568221357 -0.44353945242809251 0 -0.028753682251359231 -0.45370767630375852 0 -0.042591220718736618 -0.44931976272637059 0 -0.042137987481662489 -0.46199998676314519 0 -0.030722049445265721 -0.46513815794063051 0 -0.028753682251359231 -0.45370767630375852 0 -0.042137987481662489 -0.46199998676314519 0 -0.030722049445265721 -0.46513815794063051 0 -0.040713184226073652 -0.47670270986732172 0 -0.042137987481662489 -0.46199998676314519 0 -0.042591220718736618 -0.44931976272637059 0 -0.042137987481662489 -0.46199998676314519 0 -0.054601469153056192 -0.45704509188174619 0 -0.05604151524233808 -0.47085547185542692 0 -0.054601469153056192 -0.45704509188174619 0 -0.071896784036839162 -0.45711427830285839 0 -0.05604151524233808 -0.47085547185542692 0 -0.042137987481662489 -0.46199998676314519 0 -0.054601469153056192 -0.45704509188174619 0 -0.054601469153056192 -0.45704509188174619 0 -0.055908543568221357 -0.44353945242809251 0 -0.071896784036839162 -0.45711427830285839 0 -0.042591220718736618 -0.44931976272637059 0 -0.054601469153056192 -0.45704509188174619 0 -0.055908543568221357 -0.44353945242809251 0 -0.055908543568221357 -0.44353945242809251 0 -0.071896784036839162 -0.45711427830285839 0 -0.077753046024815156 -0.43509142098737241 0 -0.071896784036839162 -0.45711427830285839 0 -0.087573937031005744 -0.47412410395137422 0 -0.093954286744555499 -0.45179652052777369 0 -0.087573937031005744 -0.47412410395137422 0 -0.093954286744555499 -0.45179652052777369 0 -0.071896784036839162 -0.45711427830285839 0 -0.093954286744555499 -0.45179652052777369 0 -0.077753046024815156 -0.43509142098737241 0 -0.093954286744555499 -0.45179652052777369 0 -0.10033463645810529 -0.42946893710417328 0 -0.077753046024815156 -0.43509142098737241 0 -0.055758353525359711 -0.48944453406372251 0 -0.070514516995861642 -0.5 0 -0.068357021366280857 -0.47830767763467641 0 -0.05604151524233808 -0.47085547185542692 0 -0.071896784036839162 -0.45711427830285839 0 -0.068357021366280857 -0.47830767763467641 0 -0.071896784036839162 -0.45711427830285839 0 -0.068357021366280857 -0.47830767763467641 0 -0.087573937031005744 -0.47412410395137422 0 -0.070514516995861642 -0.5 0 -0.068357021366280857 -0.47830767763467641 0 -0.087573937031005744 -0.47412410395137422 0 -0.070514516995861642 -0.5 0 -0.087573937031005744 -0.47412410395137422 0 -0.10002684393686551 -0.5 0 -0.087573937031005744 -0.47412410395137422 0 -0.10002684393686551 -0.5 0 -0.10780494223314389 -0.47765854937150709 0 -0.087573937031005744 -0.47412410395137422 0 -0.10780494223314389 -0.47765854937150709 0 -0.1029954147344513 -0.46359439800738522 0 -0.12605423818426559 -0.48707922202292669 0 -0.10780494223314389 -0.47765854937150709 0 -0.1201929706126502 -0.46127799294672761 0 -0.12605423818426559 -0.48707922202292669 0 -0.1201929706126502 -0.46127799294672761 0 -0.12605423818426559 -0.48707922202292669 0 -0.10002684393686551 -0.5 0 -0.10780494223314389 -0.47765854937150709 0 -0.1295391708778694 -0.5 0 -0.12605423818426559 -0.48707922202292669 0 -0.10002684393686551 -0.5 0 -0.093954286744555499 -0.45179652052777369 0 -0.10033463645810529 -0.42946893710417328 0 -0.10636180231815941 -0.44832292249131772 0 -0.11433170304103479 -0.43547676387052858 0 -0.10033463645810529 -0.42946893710417328 0 -0.10636180231815941 -0.44832292249131772 0 -0.093954286744555499 -0.45179652052777369 0 -0.10033463645810529 -0.42946893710417328 0 -0.087573937031005744 -0.47412410395137422 0 -0.093954286744555499 -0.45179652052777369 0 -0.1029954147344513 -0.46359439800738522 0 -0.10636180231815941 -0.44832292249131772 0 -0.093954286744555499 -0.45179652052777369 0 -0.1029954147344513 -0.46359439800738522 0 -0.10780494223314389 -0.47765854937150709 0 -0.1029954147344513 -0.46359439800738522 0 -0.1201929706126502 -0.46127799294672761 0 -0.10636180231815941 -0.44832292249131772 0 -0.1029954147344513 -0.46359439800738522 0 -0.1201929706126502 -0.46127799294672761 0 -0.13671083813600751 -0.45044361347006462 0 -0.1201929706126502 -0.46127799294672761 0 -0.11433170304103479 -0.43547676387052858 0 -0.10636180231815941 -0.44832292249131772 0 -0.1201929706126502 -0.46127799294672761 0 -0.11433170304103479 -0.43547676387052858 0 -0.13671083813600751 -0.45044361347006462 0 -0.1225906368027144 -0.43005957413219659 0 -0.11433170304103479 -0.43547676387052858 0 -0.1201929706126502 -0.46127799294672761 0 -0.11433170304103479 -0.43547676387052858 0 -0.1225906368027144 -0.43005957413219659 0 -0.11433170304103479 -0.43547676387052858 0 -0.10847043546942051 -0.40967553479432928 0 -0.11433170304103479 -0.43547676387052858 0 -0.10847043546942051 -0.40967553479432928 0 -0.12908399078123631 -0.42243277819987513 0 -0.1225906368027144 -0.43005957413219659 0 -0.12315425937001 -0.41747458531602638 0 -0.11433170304103479 -0.43547676387052858 0 -0.10033463645810529 -0.42946893710417328 0 -0.10847043546942051 -0.40967553479432928 0 -0.10033463645810529 -0.42946893710417328 0 -0.094107383989168333 -0.41562629379671062 0 -0.1067149861716557 -0.40714135368057303 0 -0.10033463645810529 -0.42946893710417328 0 -0.1067149861716557 -0.40714135368057303 0 -0.10847043546942051 -0.40967553479432928 0 -0.10033463645810529 -0.42946893710417328 0 -0.1067149861716557 -0.40714135368057303 0 -0.094107383989168333 -0.41562629379671062 0 -0.1067149861716557 -0.40714135368057303 0 -0.093615658715422545 -0.40476526464288082 0 -0.10847043546942051 -0.40967553479432928 0 -0.1105756132387118 -0.40676785322215941 0 -0.1073722461642546 -0.40484131873350049 0 -0.10847043546942051 -0.40967553479432928 0 -0.1073722461642546 -0.40484131873350049 0 -0.1067149861716557 -0.40714135368057303 0 -0.10847043546942051 -0.40967553479432928 0 -0.1073722461642546 -0.40484131873350049 0 -0.1067149861716557 -0.40714135368057303 0 -0.10847043546942051 -0.40967553479432928 0 -0.1225906368027144 -0.43005957413219659 0 -0.1163272184937543 -0.41351727508190028 0 -0.12315425937001 -0.41747458531602638 0 -0.10847043546942051 -0.40967553479432928 0 -0.1125412123036873 -0.40894162881917728 0 -0.1163272184937543 -0.41351727508190028 0 -0.1125412123036873 -0.40894162881917728 0 -0.1105756132387118 -0.40676785322215941 0 -0.1147915820128618 -0.40580585217832088 0 -0.1225906368027144 -0.43005957413219659 0 -0.10847043546942051 -0.40967553479432928 0 -0.1163272184937543 -0.41351727508190028 0 -0.10847043546942051 -0.40967553479432928 0 -0.1125412123036873 -0.40894162881917728 0 -0.1105756132387118 -0.40676785322215941 0 -0.1225906368027144 -0.43005957413219659 0 -0.10847043546942051 -0.40967553479432928 0 -0.1125412123036873 -0.40894162881917728 0 -0.1163272184937543 -0.41351727508190028 0 -0.1147915820128618 -0.40580585217832088 0 -0.1225700411049412 -0.40994677461386392 0 -0.1219584454402414 -0.40406961642135292 0 -0.1147915820128618 -0.40580585217832088 0 -0.1163272184937543 -0.41351727508190028 0 -0.1225700411049412 -0.40994677461386392 0 -0.1147915820128618 -0.40580585217832088 0 -0.1163272184937543 -0.41351727508190028 0 -0.12315425937001 -0.41747458531602638 0 -0.1225700411049412 -0.40994677461386392 0 -0.1273295258527142 -0.39594401256049883 0 -0.1219584454402414 -0.40406961642135292 0 -0.1190781430676657 -0.39944145851713192 0 -0.11305295545189779 -0.39895005080087959 0 -0.11384267237711319 -0.38219851895920232 0 -0.1073722461642546 -0.40484131873350049 0 -0.1295768038857959 -0.40463739140698729 0 -0.1225700411049412 -0.40994677461386392 0 -0.1219584454402414 -0.40406961642135292 0 -0.1182582065806136 -0.392437760624607 0 -0.11305295545189779 -0.39895005080087959 0 -0.11384267237711319 -0.38219851895920232 0 -0.11384267237711319 -0.38219851895920232 0 -0.1073722461642546 -0.40484131873350049 0 -0.1219584454402414 -0.40406961642135292 0 -0.1190781430676657 -0.39944145851713192 0 -0.1147915820128618 -0.40580585217832088 0 -0.1273295258527142 -0.39594401256049883 0 -0.1190781430676657 -0.39944145851713192 0 -0.1182582065806136 -0.392437760624607 0 -0.1190781430676657 -0.39944145851713192 0 -0.1182582065806136 -0.392437760624607 0 -0.11305295545189779 -0.39895005080087959 0 -0.1105756132387118 -0.40676785322215941 0 -0.1114480992169309 -0.40409126873371493 0 -0.1073722461642546 -0.40484131873350049 0 -0.1105756132387118 -0.40676785322215941 0 -0.1114480992169309 -0.40409126873371493 0 -0.1147915820128618 -0.40580585217832088 0 -0.11305295545189779 -0.39895005080087959 0 -0.1114480992169309 -0.40409126873371493 0 -0.1147915820128618 -0.40580585217832088 0 -0.11305295545189779 -0.39895005080087959 0 -0.1114480992169309 -0.40409126873371493 0 -0.1073722461642546 -0.40484131873350049 0 -0.1190781430676657 -0.39944145851713192 0 -0.11305295545189779 -0.39895005080087959 0 -0.1147915820128618 -0.40580585217832088 0 -0.12625141541498519 -0.38197991289387551 0 -0.1182582065806136 -0.392437760624607 0 -0.11384267237711319 -0.38219851895920232 0 -0.12625141541498519 -0.38197991289387551 0 -0.1273295258527142 -0.39594401256049883 0 -0.1182582065806136 -0.392437760624607 0 -0.11384267237711319 -0.38219851895920232 0 -0.10176491866177829 -0.38015793077534599 0 -0.1073722461642546 -0.40484131873350049 0 -0.10176491866177829 -0.38015793077534599 0 -0.095995502779844255 -0.39166661886747001 0 -0.085276019388031976 -0.37619188405436782 0 -0.10849363524981311 -0.36442991456039969 0 -0.11384267237711319 -0.38219851895920232 0 -0.10176491866177829 -0.38015793077534599 0 -0.10176491866177829 -0.38015793077534599 0 -0.1073722461642546 -0.40484131873350049 0 -0.095995502779844255 -0.39166661886747001 0 -0.10176491866177829 -0.38015793077534599 0 -0.1073722461642546 -0.40484131873350049 0 -0.1067149861716557 -0.40714135368057303 0 -0.1073722461642546 -0.40484131873350049 0 -0.095995502779844255 -0.39166661886747001 0 -0.1067149861716557 -0.40714135368057303 0 -0.1073722461642546 -0.40484131873350049 0 -0.1067149861716557 -0.40714135368057303 0 -0.095995502779844255 -0.39166661886747001 0 -0.1067149861716557 -0.40714135368057303 0 -0.095995502779844255 -0.39166661886747001 0 -0.093615658715422545 -0.40476526464288082 0 -0.093615658715422545 -0.40476526464288082 0 -0.081664681120336771 -0.39582842074610342 0 -0.082451352827770552 -0.41163664718976212 0 -0.095995502779844255 -0.39166661886747001 0 -0.093615658715422545 -0.40476526464288082 0 -0.081664681120336771 -0.39582842074610342 0 -0.095995502779844255 -0.39166661886747001 0 -0.081664681120336771 -0.39582842074610342 0 -0.085276019388031976 -0.37619188405436782 0 -0.081664681120336771 -0.39582842074610342 0 -0.085276019388031976 -0.37619188405436782 0 -0.074552591578295357 -0.38401367178407558 0 -0.095995502779844255 -0.39166661886747001 0 -0.085276019388031976 -0.37619188405436782 0 -0.081664681120336771 -0.39582842074610342 0 -0.065379196062645584 -0.39052657147488062 0 -0.074552591578295357 -0.38401367178407558 0 -0.065890469742167113 -0.37350781086095058 0 -0.085276019388031976 -0.37619188405436782 0 -0.074552591578295357 -0.38401367178407558 0 -0.065890469742167113 -0.37350781086095058 0 -0.065379196062645584 -0.39052657147488062 0 -0.074552591578295357 -0.38401367178407558 0 -0.081664681120336771 -0.39582842074610342 0 -0.06528413140028641 -0.40548789039177052 0 -0.082451352827770552 -0.41163664718976212 0 -0.081664681120336771 -0.39582842074610342 0 -0.065379196062645584 -0.39052657147488062 0 -0.06528413140028641 -0.40548789039177052 0 -0.065713266975248902 -0.42040157794015642 0 -0.085028608260126398 -0.42320905853578622 0 -0.082451352827770552 -0.41163664718976212 0 -0.06528413140028641 -0.40548789039177052 0 -0.065713266975248902 -0.42040157794015642 0 -0.082451352827770552 -0.41163664718976212 0 -0.065713266975248902 -0.42040157794015642 0 -0.077753046024815156 -0.43509142098737241 0 -0.085028608260126398 -0.42320905853578622 0 -0.052630130657334448 -0.42871109396582502 0 -0.065713266975248902 -0.42040157794015642 0 -0.077753046024815156 -0.43509142098737241 0 -0.10033463645810529 -0.42946893710417328 0 -0.077753046024815156 -0.43509142098737241 0 -0.085028608260126398 -0.42320905853578622 0 -0.10033463645810529 -0.42946893710417328 0 -0.094107383989168333 -0.41562629379671062 0 -0.085028608260126398 -0.42320905853578622 0 -0.094107383989168333 -0.41562629379671062 0 -0.085028608260126398 -0.42320905853578622 0 -0.082451352827770552 -0.41163664718976212 0 -0.094107383989168333 -0.41562629379671062 0 -0.093615658715422545 -0.40476526464288082 0 -0.082451352827770552 -0.41163664718976212 0 -0.080832567710134945 -0.085265223789800185 0 -0.09573268077664969 -0.090624673380050064 0 -0.094924188455715333 -0.074372309221374736 0 -0.080832567710134945 -0.085265223789800185 0 -0.0944050220014645 -0.1050702242089397 0 -0.09573268077664969 -0.090624673380050064 0 -0.094924188455715333 -0.074372309221374736 0 -0.077079431972146645 -0.050953682142663811 0 -0.080832567710134945 -0.085265223789800185 0 -0.077460787511610923 -0.070469280456870842 0 -0.094924188455715333 -0.074372309221374736 0 -0.077460787511610923 -0.070469280456870842 0 -0.094924188455715333 -0.074372309221374736 0 -0.078535685693175539 -0.061573663464548622 0 -0.080832567710134945 -0.085265223789800185 0 -0.072736864716213656 -0.076885636419884412 0 -0.077460787511610923 -0.070469280456870842 0 -0.072736864716213656 -0.076885636419884412 0 -0.077460787511610923 -0.070469280456870842 0 -0.067174029152377468 -0.071022972744677337 0 -0.077460787511610923 -0.070469280456870842 0 -0.067174029152377468 -0.071022972744677337 0 -0.070308423821052124 -0.061023041189074957 0 -0.077460787511610923 -0.070469280456870842 0 -0.078535685693175539 -0.061573663464548622 0 -0.070308423821052124 -0.061023041189074957 0 -0.067174029152377468 -0.071022972744677337 0 -0.070308423821052124 -0.061023041189074957 0 -0.060830035872249492 -0.064558057335980773 0 -0.072736864716213656 -0.076885636419884412 0 -0.067174029152377468 -0.071022972744677337 0 -0.063732237529271596 -0.080733089011810297 0 -0.067174029152377468 -0.071022972744677337 0 -0.063732237529271596 -0.080733089011810297 0 -0.058000192015007383 -0.073011667883306972 0 -0.080832567710134945 -0.085265223789800185 0 -0.063732237529271596 -0.080733089011810297 0 -0.066023591375222151 -0.09957098179305135 0 -0.080832567710134945 -0.085265223789800185 0 -0.072736864716213656 -0.076885636419884412 0 -0.063732237529271596 -0.080733089011810297 0 -0.066023591375222151 -0.09957098179305135 0 -0.069466171350113709 -0.1135628440840601 0 -0.0944050220014645 -0.1050702242089397 0 -0.066023591375222151 -0.09957098179305135 0 -0.069466171350113709 -0.1135628440840601 0 -0.054384952187449757 -0.110609208962567 0 -0.077516787342341589 -0.1242022911324857 0 -0.069466171350113709 -0.1135628440840601 0 -0.059238207921678762 -0.13024384051707169 0 -0.077516787342341589 -0.1242022911324857 0 -0.093262550211769629 -0.1231040070079162 0 -0.0944050220014645 -0.1050702242089397 0 -0.077516787342341589 -0.1242022911324857 0 -0.069466171350113709 -0.1135628440840601 0 -0.0944050220014645 -0.1050702242089397 0 -0.066023591375222151 -0.09957098179305135 0 -0.0944050220014645 -0.1050702242089397 0 -0.080832567710134945 -0.085265223789800185 0 -0.066023591375222151 -0.09957098179305135 0 -0.0944050220014645 -0.1050702242089397 0 -0.0944050220014645 -0.1050702242089397 0 -0.1071147179002416 -0.1244919901550422 0 -0.11276894493928399 -0.097790936300085646 0 -0.0944050220014645 -0.1050702242089397 0 -0.11276894493928399 -0.097790936300085646 0 -0.09573268077664969 -0.090624673380050064 0 -0.093262550211769629 -0.1231040070079162 0 -0.0944050220014645 -0.1050702242089397 0 -0.1071147179002416 -0.1244919901550422 0 -0.1071147179002416 -0.1244919901550422 0 -0.11276894493928399 -0.097790936300085646 0 -0.1306137014228527 -0.1212095633787966 0 -0.11276894493928399 -0.097790936300085646 0 -0.1306137014228527 -0.1212095633787966 0 -0.112702195828283 -0.076339248342475546 0 -0.13438499311011279 -0.096174695905308166 0 -0.11276894493928399 -0.097790936300085646 0 -0.112702195828283 -0.076339248342475546 0 -0.13438499311011279 -0.096174695905308166 0 -0.11276894493928399 -0.097790936300085646 0 -0.094924188455715333 -0.074372309221374736 0 -0.112702195828283 -0.076339248342475546 0 -0.11276894493928399 -0.097790936300085646 0 -0.094924188455715333 -0.074372309221374736 0 -0.11276894493928399 -0.097790936300085646 0 -0.09573268077664969 -0.090624673380050064 0 -0.094924188455715333 -0.074372309221374736 0 -0.094924188455715333 -0.074372309221374736 0 -0.1026030192468113 -0.064894788769428779 0 -0.112702195828283 -0.076339248342475546 0 -0.094924188455715333 -0.074372309221374736 0 -0.1026030192468113 -0.064894788769428779 0 -0.090333769324138391 -0.059362086744932152 0 -0.1026030192468113 -0.064894788769428779 0 -0.112702195828283 -0.076339248342475546 0 -0.1158705629695205 -0.060236298698018297 0 -0.112702195828283 -0.076339248342475546 0 -0.1158705629695205 -0.060236298698018297 0 -0.13497135686491851 -0.078315161523928284 0 -0.1158705629695205 -0.060236298698018297 0 -0.1150956899200111 -0.045830426672337207 0 -0.1070798181065768 -0.041876824406217303 0 -0.1158705629695205 -0.060236298698018297 0 -0.1150956899200111 -0.045830426672337207 0 -0.12809376798702951 -0.047905065599393698 0 -0.1163329610324388 -0.034474533447810513 0 -0.12530131535501859 -0.034952786400489197 0 -0.12809376798702951 -0.047905065599393698 0 -0.11023593420079281 -0.033339602888773932 0 -0.1150956899200111 -0.045830426672337207 0 -0.12809376798702951 -0.047905065599393698 0 -0.11023593420079281 -0.033339602888773932 0 -0.1163329610324388 -0.034474533447810513 0 -0.12809376798702951 -0.047905065599393698 0 -0.11023593420079281 -0.033339602888773932 0 -0.12809376798702951 -0.047905065599393698 0 -0.1163329610324388 -0.034474533447810513 0 -0.1221370268088495 -0.025998648103035 0 -0.12530131535501859 -0.034952786400489197 0 -0.11023593420079281 -0.033339602888773932 0 -0.1150956899200111 -0.045830426672337207 0 -0.1070798181065768 -0.041876824406217303 0 -0.11023593420079281 -0.033339602888773932 0 -0.1163329610324388 -0.034474533447810513 0 -0.097427134368436918 -0.027820357899848831 0 -0.11023593420079281 -0.033339602888773932 0 -0.1070798181065768 -0.041876824406217303 0 -0.097427134368436918 -0.027820357899848831 0 -0.1070798181065768 -0.041876824406217303 0 -0.096769769074122519 -0.04215743587210824 0 -0.097427134368436918 -0.027820357899848831 0 -0.1158705629695205 -0.060236298698018297 0 -0.1070798181065768 -0.041876824406217303 0 -0.096769769074122519 -0.04215743587210824 0 -0.1026030192468113 -0.064894788769428779 0 -0.1158705629695205 -0.060236298698018297 0 -0.099264754381345577 -0.055060356505970513 0 -0.1158705629695205 -0.060236298698018297 0 -0.096769769074122519 -0.04215743587210824 0 -0.099264754381345577 -0.055060356505970513 0 -0.096769769074122519 -0.04215743587210824 0 -0.099264754381345577 -0.055060356505970513 0 -0.090746651292135133 -0.048651172445365112 0 -0.1158705629695205 -0.060236298698018297 0 -0.096769769074122519 -0.04215743587210824 0 -0.1026030192468113 -0.064894788769428779 0 -0.099264754381345577 -0.055060356505970513 0 -0.090333769324138391 -0.059362086744932152 0 -0.1029392013539359 -0.0085751277431150782 0 -0.12735709500343681 0.004015926865657337 0 -0.1236693299605585 -0.0137973575501921 0 -0.1110604598185659 -0.0207882196779367 0 -0.1029392013539359 -0.0085751277431150782 0 -0.1236693299605585 -0.0137973575501921 0 -0.1029392013539359 -0.0085751277431150782 0 -0.12735709500343681 0.004015926865657337 0 -0.1236693299605585 -0.0137973575501921 0 -0.1110604598185659 -0.0207882196779367 0 -0.1221370268088495 -0.025998648103035 0 -0.1163329610324388 -0.034474533447810513 0 -0.1221370268088495 -0.025998648103035 0 -0.11173939550707281 -0.027270439782157759 0 -0.1110604598185659 -0.0207882196779367 0 -0.1221370268088495 -0.025998648103035 0 -0.11173939550707281 -0.027270439782157759 0 -0.1163329610324388 -0.034474533447810513 0 -0.097427134368436918 -0.027820357899848831 0 -0.1110604598185659 -0.0207882196779367 0 -0.097427134368436918 -0.027820357899848831 0 -0.1029392013539359 -0.0085751277431150782 0 -0.1163329610324388 -0.034474533447810513 0 -0.11173939550707281 -0.027270439782157759 0 -0.097427134368436918 -0.027820357899848831 0 -0.1110604598185659 -0.0207882196779367 0 -0.11173939550707281 -0.027270439782157759 0 -0.097427134368436918 -0.027820357899848831 0 -0.1029392013539359 -0.0085751277431150782 0 -0.086097875964997059 -0.0058870606910941042 0 -0.078521307704434995 -0.021166182351887271 0 -0.1029392013539359 -0.0085751277431150782 0 -0.078521307704434995 -0.021166182351887271 0 -0.1029392013539359 -0.0085751277431150782 0 -0.086097875964997059 -0.0058870606910941042 0 -0.091682611010439896 0.0063963380850077774 0 -0.086097875964997059 -0.0058870606910941042 0 -0.073830544796709738 -0.0078542708917730738 0 -0.078933949510919491 0.00072378658541613432 0 -0.086097875964997059 -0.0058870606910941042 0 -0.078521307704434995 -0.021166182351887271 0 -0.073830544796709738 -0.0078542708917730738 0 -0.097427134368436918 -0.027820357899848831 0 -0.078521307704434995 -0.021166182351887271 0 -0.097427134368436918 -0.027820357899848831 0 -0.078521307704434995 -0.021166182351887271 0 -0.077668975178724509 -0.024078573046198169 0 -0.097427134368436918 -0.027820357899848831 0 -0.1029392013539359 -0.0085751277431150782 0 -0.078521307704434995 -0.021166182351887271 0 -0.078521307704434995 -0.021166182351887271 0 -0.055132092173872667 -0.033226800447327051 0 -0.05822397002114936 -0.01402224463886402 0 -0.078521307704434995 -0.021166182351887271 0 -0.055132092173872667 -0.033226800447327051 0 -0.077668975178724509 -0.024078573046198169 0 -0.075465350998538308 -0.032772608828030472 0 -0.055132092173872667 -0.033226800447327051 0 -0.078521307704434995 -0.021166182351887271 0 -0.077668975178724509 -0.024078573046198169 0 -0.055132092173872667 -0.033226800447327051 0 -0.078521307704434995 -0.021166182351887271 0 -0.05822397002114936 -0.01402224463886402 0 -0.078521307704434995 -0.021166182351887271 0 -0.073830544796709738 -0.0078542708917730738 0 -0.05822397002114936 -0.01402224463886402 0 -0.073830544796709738 -0.0078542708917730738 0 -0.05822397002114936 -0.01402224463886402 0 -0.068462160169621672 0.0025537029525893409 0 -0.073830544796709738 -0.0078542708917730738 0 -0.078933949510919491 0.00072378658541613432 0 -0.068462160169621672 0.0025537029525893409 0 -0.094924188455715333 -0.074372309221374736 0 -0.090333769324138391 -0.059362086744932152 0 -0.077079431972146645 -0.050953682142663811 0 -0.094924188455715333 -0.074372309221374736 0 -0.078535685693175539 -0.061573663464548622 0 -0.077079431972146645 -0.050953682142663811 0 -0.084868245962835154 -0.053326759561897898 0 -0.090333769324138391 -0.059362086744932152 0 -0.077079431972146645 -0.050953682142663811 0 -0.084868245962835154 -0.053326759561897898 0 -0.080876314157704687 -0.04955372347343575 0 -0.082849096915408454 -0.045583035938281863 0 -0.080876314157704687 -0.04955372347343575 0 -0.078708481780428496 -0.048351416250899462 0 -0.082849096915408454 -0.045583035938281863 0 -0.080876314157704687 -0.04955372347343575 0 -0.078708481780428496 -0.048351416250899462 0 -0.077079431972146645 -0.050953682142663811 0 -0.084868245962835154 -0.053326759561897898 0 -0.080876314157704687 -0.04955372347343575 0 -0.077079431972146645 -0.050953682142663811 0 -0.084868245962835154 -0.053326759561897898 0 -0.090746651292135133 -0.048651172445365112 0 -0.082849096915408454 -0.045583035938281863 0 -0.084868245962835154 -0.053326759561897898 0 -0.090333769324138391 -0.059362086744932152 0 -0.090746651292135133 -0.048651172445365112 0 -0.099264754381345577 -0.055060356505970513 0 -0.090333769324138391 -0.059362086744932152 0 -0.090746651292135133 -0.048651172445365112 0 -0.096769769074122519 -0.04215743587210824 0 -0.088481073739883592 -0.043344290748051233 0 -0.083558777677868248 -0.036985518736449702 0 -0.096769769074122519 -0.04215743587210824 0 -0.097427134368436918 -0.027820357899848831 0 -0.077668975178724509 -0.024078573046198169 0 -0.096769769074122519 -0.04215743587210824 0 -0.077668975178724509 -0.024078573046198169 0 -0.083558777677868248 -0.036985518736449702 0 -0.096769769074122519 -0.04215743587210824 0 -0.077668975178724509 -0.024078573046198169 0 -0.090746651292135133 -0.048651172445365112 0 -0.088481073739883592 -0.043344290748051233 0 -0.082849096915408454 -0.045583035938281863 0 -0.096769769074122519 -0.04215743587210824 0 -0.090746651292135133 -0.048651172445365112 0 -0.088481073739883592 -0.043344290748051233 0 -0.077668975178724509 -0.024078573046198169 0 -0.083558777677868248 -0.036985518736449702 0 -0.075465350998538308 -0.032772608828030472 0 -0.083558777677868248 -0.036985518736449702 0 -0.082849096915408454 -0.045583035938281863 0 -0.075062618692292638 -0.040325846155841297 0 -0.088481073739883592 -0.043344290748051233 0 -0.083558777677868248 -0.036985518736449702 0 -0.082849096915408454 -0.045583035938281863 0 -0.082849096915408454 -0.045583035938281863 0 -0.078067002861142085 -0.04575568247049161 0 -0.075062618692292638 -0.040325846155841297 0 -0.078708481780428496 -0.048351416250899462 0 -0.082849096915408454 -0.045583035938281863 0 -0.078067002861142085 -0.04575568247049161 0 -0.075647814056438792 -0.048762431536943832 0 -0.055132092173872667 -0.033226800447327051 0 -0.078067002861142085 -0.04575568247049161 0 -0.075062618692292638 -0.040325846155841297 0 -0.075647814056438792 -0.048762431536943832 0 -0.075062618692292638 -0.040325846155841297 0 -0.075465350998538308 -0.032772608828030472 0 -0.055132092173872667 -0.033226800447327051 0 -0.075647814056438792 -0.048762431536943832 0 -0.061428605263776047 -0.046553119166432878 0 -0.055132092173872667 -0.033226800447327051 0 -0.075062618692292638 -0.040325846155841297 0 -0.075647814056438792 -0.048762431536943832 0 -0.055132092173872667 -0.033226800447327051 0 -0.083558777677868248 -0.036985518736449702 0 -0.075062618692292638 -0.040325846155841297 0 -0.075465350998538308 -0.032772608828030472 0 -0.065722760200719738 -0.052253177456942877 0 -0.075647814056438792 -0.048762431536943832 0 -0.061428605263776047 -0.046553119166432878 0 -0.065722760200719738 -0.052253177456942877 0 -0.07269306068786438 -0.052406879740114577 0 -0.069833853901725543 -0.055329661047837618 0 -0.065722760200719738 -0.052253177456942877 0 -0.07269306068786438 -0.052406879740114577 0 -0.075647814056438792 -0.048762431536943832 0 -0.07269306068786438 -0.052406879740114577 0 -0.073703714626092445 -0.056102563442451223 0 -0.069833853901725543 -0.055329661047837618 0 -0.07269306068786438 -0.052406879740114577 0 -0.077079431972146645 -0.050953682142663811 0 -0.073703714626092445 -0.056102563442451223 0 -0.078708481780428496 -0.048351416250899462 0 -0.077079431972146645 -0.050953682142663811 0 -0.075647814056438792 -0.048762431536943832 0 -0.07269306068786438 -0.052406879740114577 0 -0.077079431972146645 -0.050953682142663811 0 -0.075647814056438792 -0.048762431536943832 0 -0.078708481780428496 -0.048351416250899462 0 -0.078067002861142085 -0.04575568247049161 0 -0.075647814056438792 -0.048762431536943832 0 -0.078535685693175539 -0.061573663464548622 0 -0.073703714626092445 -0.056102563442451223 0 -0.070308423821052124 -0.061023041189074957 0 -0.078535685693175539 -0.061573663464548622 0 -0.077079431972146645 -0.050953682142663811 0 -0.073703714626092445 -0.056102563442451223 0 -0.073703714626092445 -0.056102563442451223 0 -0.070308423821052124 -0.061023041189074957 0 -0.069833853901725543 -0.055329661047837618 0 -0.070308423821052124 -0.061023041189074957 0 -0.064391701294429504 -0.057679717025484439 0 -0.060830035872249492 -0.064558057335980773 0 -0.070308423821052124 -0.061023041189074957 0 -0.069833853901725543 -0.055329661047837618 0 -0.064391701294429504 -0.057679717025484439 0 -0.065722760200719738 -0.052253177456942877 0 -0.069833853901725543 -0.055329661047837618 0 -0.064391701294429504 -0.057679717025484439 0 -0.064391701294429504 -0.057679717025484439 0 -0.055978059279945473 -0.056388284161067823 0 -0.060830035872249492 -0.064558057335980773 0 -0.065722760200719738 -0.052253177456942877 0 -0.064391701294429504 -0.057679717025484439 0 -0.055978059279945473 -0.056388284161067823 0 -0.055978059279945473 -0.056388284161067823 0 -0.041230103293456458 -0.058058117591144771 0 -0.049479852383656611 -0.067543566470139038 0 -0.055978059279945473 -0.056388284161067823 0 -0.049741921456861897 -0.048697412542500033 0 -0.041230103293456458 -0.058058117591144771 0 -0.055978059279945473 -0.056388284161067823 0 -0.049741921456861897 -0.048697412542500033 0 -0.061428605263776047 -0.046553119166432878 0 -0.065722760200719738 -0.052253177456942877 0 -0.055978059279945473 -0.056388284161067823 0 -0.061428605263776047 -0.046553119166432878 0 -0.049741921456861897 -0.048697412542500033 0 -0.061428605263776047 -0.046553119166432878 0 -0.055132092173872667 -0.033226800447327051 0 -0.049741921456861897 -0.048697412542500033 0 -0.055132092173872667 -0.033226800447327051 0 -0.032367863380537598 -0.044965144957206583 0 -0.055132092173872667 -0.033226800447327051 0 -0.032367863380537598 -0.044965144957206583 0 -0.055132092173872667 -0.033226800447327051 0 -0.032367863380537598 -0.044965144957206583 0 -0.031233838643279398 -0.031193199633022049 0 -0.049741921456861897 -0.048697412542500033 0 -0.032367863380537598 -0.044965144957206583 0 -0.041230103293456458 -0.058058117591144771 0 -0.032367863380537598 -0.044965144957206583 0 -0.041230103293456458 -0.058058117591144771 0 -0.026902341230915561 -0.060374551747501753 0 -0.05822397002114936 -0.01402224463886402 0 -0.057836245250817257 0.0062936453779614283 0 -0.044352522143416888 0.0050416822031405977 0 -0.05822397002114936 -0.01402224463886402 0 -0.037926632337863607 -0.0068783069258408786 0 -0.05822397002114936 -0.01402224463886402 0 -0.068462160169621672 0.0025537029525893409 0 -0.057836245250817257 0.0062936453779614283 0 -0.055132092173872667 -0.033226800447327051 0 -0.05822397002114936 -0.01402224463886402 0 -0.036243114184870161 -0.018923029155399909 0 -0.055132092173872667 -0.033226800447327051 0 -0.036243114184870161 -0.018923029155399909 0 -0.031233838643279398 -0.031193199633022049 0 -0.055132092173872667 -0.033226800447327051 0 -0.036243114184870161 -0.018923029155399909 0 -0.05822397002114936 -0.01402224463886402 0 -0.036243114184870161 -0.018923029155399909 0 -0.037926632337863607 -0.0068783069258408786 0 -0.05822397002114936 -0.01402224463886402 0 -0.037926632337863607 -0.0068783069258408786 0 -0.044352522143416888 0.0050416822031405977 0 -0.036243114184870161 -0.018923029155399909 0 -0.037926632337863607 -0.0068783069258408786 0 -0.029121832422534862 -0.0067169982391169078 0 -0.037926632337863607 -0.0068783069258408786 0 -0.029539197120254941 -0.00051038393964639519 0 -0.029121832422534862 -0.0067169982391169078 0 -0.037926632337863607 -0.0068783069258408786 0 -0.029539197120254941 -0.00051038393964639519 0 -0.03614709390981162 0.0015378833132510439 0 -0.037926632337863607 -0.0068783069258408786 0 -0.03614709390981162 0.0015378833132510439 0 -0.044352522143416888 0.0050416822031405977 0 -0.036243114184870161 -0.018923029155399909 0 -0.017354136195868258 -0.0046192578634720229 0 -0.01819617019275287 -0.0061732580868559192 0 -0.036243114184870161 -0.018923029155399909 0 -0.017354136195868258 -0.0046192578634720229 0 -0.029121832422534862 -0.0067169982391169078 0 -0.036243114184870161 -0.018923029155399909 0 -0.01819617019275287 -0.0061732580868559192 0 -0.019637671972121611 -0.02148729346067638 0 -0.036243114184870161 -0.018923029155399909 0 -0.017354136195868258 -0.0046192578634720229 0 -0.017354136195868258 -0.0046192578634720229 0 -0.01819617019275287 -0.0061732580868559192 0 -0.013500839782477779 -0.0058155532537883976 0 -0.017354136195868258 -0.0046192578634720229 0 -0.01819617019275287 -0.0061732580868559192 0 -0.017354136195868258 -0.0046192578634720229 0 -0.024546082273817361 -0.00265401331122534 0 -0.02112675760807068 0.0030512678310729521 0 -0.024546082273817361 -0.00265401331122534 0 -0.029539197120254941 -0.00051038393964639519 0 -0.02112675760807068 0.0030512678310729521 0 -0.017354136195868258 -0.0046192578634720229 0 -0.024546082273817361 -0.00265401331122534 0 -0.029121832422534862 -0.0067169982391169078 0 -0.024546082273817361 -0.00265401331122534 0 -0.029539197120254941 -0.00051038393964639519 0 -0.029121832422534862 -0.0067169982391169078 0 -0.01819617019275287 -0.0061732580868559192 0 -0.019637671972121611 -0.02148729346067638 0 -0.011008321991883009 -0.01057962122923565 0 -0.036243114184870161 -0.018923029155399909 0 -0.019637671972121611 -0.02148729346067638 0 -0.031233838643279398 -0.031193199633022049 0 -0.019637671972121611 -0.02148729346067638 0 -0.031233838643279398 -0.031193199633022049 0 -0.016064986363794779 -0.036441041599790329 0 -0.0077215053668332834 -0.022860670268973711 0 -0.00118246574067416 -0.01324232368796026 0 0.0015263381015913891 -0.033415212413580753 0 -0.0077215053668332834 -0.022860670268973711 0 -0.016064986363794779 -0.036441041599790329 0 0.0015263381015913891 -0.033415212413580753 0 -0.019637671972121611 -0.02148729346067638 0 -0.0077215053668332834 -0.022860670268973711 0 -0.016064986363794779 -0.036441041599790329 0 -0.019637671972121611 -0.02148729346067638 0 -0.0077215053668332834 -0.022860670268973711 0 -0.011008321991883009 -0.01057962122923565 0 -0.011008321991883009 -0.01057962122923565 0 -0.00118246574067416 -0.01324232368796026 0 -0.0072764121498596901 -0.0036325873431357339 0 -0.0077215053668332834 -0.022860670268973711 0 -0.011008321991883009 -0.01057962122923565 0 -0.00118246574067416 -0.01324232368796026 0 -0.00118246574067416 -0.01324232368796026 0 -0.0072764121498596901 -0.0036325873431357339 0 0.0012074066645448821 -0.00065723147797176382 0 -0.0072764121498596901 -0.0036325873431357339 0 -0.013500839782477779 -0.0058155532537883976 0 -0.013607688627124061 -0.00178224205395049 0 -0.011008321991883009 -0.01057962122923565 0 -0.0072764121498596901 -0.0036325873431357339 0 -0.013500839782477779 -0.0058155532537883976 0 -0.01819617019275287 -0.0061732580868559192 0 -0.011008321991883009 -0.01057962122923565 0 -0.013500839782477779 -0.0058155532537883976 0 -0.017354136195868258 -0.0046192578634720229 0 -0.013500839782477779 -0.0058155532537883976 0 -0.013607688627124061 -0.00178224205395049 0 -0.017354136195868258 -0.0046192578634720229 0 -0.013607688627124061 -0.00178224205395049 0 -0.032367863380537598 -0.044965144957206583 0 -0.0096036345872028556 -0.056703489467087059 0 -0.032367863380537598 -0.044965144957206583 0 -0.026902341230915561 -0.060374551747501753 0 -0.0096036345872028556 -0.056703489467087059 0 -0.032367863380537598 -0.044965144957206583 0 -0.031233838643279398 -0.031193199633022049 0 -0.016064986363794779 -0.036441041599790329 0 -0.032367863380537598 -0.044965144957206583 0 -0.016064986363794779 -0.036441041599790329 0 -0.0096036345872028556 -0.056703489467087059 0 -0.0096036345872028556 -0.056703489467087059 0 0.0015263381015913891 -0.033415212413580753 0 -0.016064986363794779 -0.036441041599790329 0 -0.0096036345872028556 -0.056703489467087059 0 0.0015263381015913891 -0.033415212413580753 0 -0.0096036345872028556 -0.056703489467087059 0 0.0015263381015913891 -0.033415212413580753 0 0.007298405735321048 -0.051477207310420908 0 -0.0096036345872028556 -0.056703489467087059 0 0.0052181775422467033 -0.064346337314722044 0 -0.0096036345872028556 -0.056703489467087059 0 -0.0043762627118289626 -0.071729097412358583 0 0.0052181775422467033 -0.064346337314722044 0 -0.0043762627118289626 -0.071729097412358583 0 -0.0092607301227374331 -0.088572496961274561 0 -0.01646375475339092 -0.071057556949349329 0 -0.0096036345872028556 -0.056703489467087059 0 -0.01646375475339092 -0.071057556949349329 0 -0.0096036345872028556 -0.056703489467087059 0 -0.0043762627118289626 -0.071729097412358583 0 -0.01646375475339092 -0.071057556949349329 0 -0.0092607301227374331 -0.088572496961274561 0 -0.00044729776891663488 -0.1011528385718463 0 0.0042106568376920582 -0.081118225430045127 0 -0.0043762627118289626 -0.071729097412358583 0 -0.0092607301227374331 -0.088572496961274561 0 0.0042106568376920582 -0.081118225430045127 0 -0.0092607301227374331 -0.088572496961274561 0 -0.037642160748979789 -0.094071739377162955 0 -0.0092607301227374331 -0.088572496961274561 0 -0.023323874919582349 -0.085411624431610003 0 -0.01646375475339092 -0.071057556949349329 0 -0.0092607301227374331 -0.088572496961274561 0 -0.023323874919582349 -0.085411624431610003 0 -0.037642160748979789 -0.094071739377162955 0 -0.023323874919582349 -0.085411624431610003 0 -0.01646375475339092 -0.071057556949349329 0 -0.023323874919582349 -0.085411624431610003 0 -0.01646375475339092 -0.071057556949349329 0 -0.034846350139989962 -0.07108844977272101 0 -0.026902341230915561 -0.060374551747501753 0 -0.01646375475339092 -0.071057556949349329 0 -0.034846350139989962 -0.07108844977272101 0 -0.026902341230915561 -0.060374551747501753 0 -0.0096036345872028556 -0.056703489467087059 0 -0.01646375475339092 -0.071057556949349329 0 -0.041230103293456458 -0.058058117591144771 0 -0.026902341230915561 -0.060374551747501753 0 -0.034846350139989962 -0.07108844977272101 0 -0.041230103293456458 -0.058058117591144771 0 -0.034846350139989962 -0.07108844977272101 0 -0.049479852383656611 -0.067543566470139038 0 -0.034846350139989962 -0.07108844977272101 0 -0.048784805137481749 -0.081200653853927454 0 -0.049479852383656611 -0.067543566470139038 0 -0.023323874919582349 -0.085411624431610003 0 -0.034846350139989962 -0.07108844977272101 0 -0.036149297736508462 -0.082943116858855345 0 -0.023323874919582349 -0.085411624431610003 0 -0.036149297736508462 -0.082943116858855345 0 -0.037642160748979789 -0.094071739377162955 0 -0.036149297736508462 -0.082943116858855345 0 -0.048784805137481749 -0.081200653853927454 0 -0.037642160748979789 -0.094071739377162955 0 -0.034846350139989962 -0.07108844977272101 0 -0.036149297736508462 -0.082943116858855345 0 -0.048784805137481749 -0.081200653853927454 0 -0.063732237529271596 -0.080733089011810297 0 -0.066023591375222151 -0.09957098179305135 0 -0.048784805137481749 -0.081200653853927454 0 -0.066023591375222151 -0.09957098179305135 0 -0.048784805137481749 -0.081200653853927454 0 -0.037642160748979789 -0.094071739377162955 0 -0.063732237529271596 -0.080733089011810297 0 -0.048784805137481749 -0.081200653853927454 0 -0.058000192015007383 -0.073011667883306972 0 -0.055978059279945473 -0.056388284161067823 0 -0.060830035872249492 -0.064558057335980773 0 -0.049479852383656611 -0.067543566470139038 0 -0.058000192015007383 -0.073011667883306972 0 -0.060830035872249492 -0.064558057335980773 0 -0.049479852383656611 -0.067543566470139038 0 -0.067174029152377468 -0.071022972744677337 0 -0.058000192015007383 -0.073011667883306972 0 -0.060830035872249492 -0.064558057335980773 0 -0.048784805137481749 -0.081200653853927454 0 -0.058000192015007383 -0.073011667883306972 0 -0.049479852383656611 -0.067543566470139038 0 -0.069466171350113709 -0.1135628440840601 0 -0.054384952187449757 -0.110609208962567 0 -0.059238207921678762 -0.13024384051707169 0 -0.054384952187449757 -0.110609208962567 0 -0.059238207921678762 -0.13024384051707169 0 -0.032945469352336033 -0.1293562392835419 0 -0.066023591375222151 -0.09957098179305135 0 -0.054384952187449757 -0.110609208962567 0 -0.037642160748979789 -0.094071739377162955 0 -0.066023591375222151 -0.09957098179305135 0 -0.037642160748979789 -0.094071739377162955 0 -0.054384952187449757 -0.110609208962567 0 -0.037642160748979789 -0.094071739377162955 0 -0.035661083064217503 -0.11124856921529409 0 -0.054384952187449757 -0.110609208962567 0 -0.032945469352336033 -0.1293562392835419 0 -0.054384952187449757 -0.110609208962567 0 -0.035661083064217503 -0.11124856921529409 0 -0.032945469352336033 -0.1293562392835419 0 -0.01767174996810443 -0.1109570892379047 0 -0.012892303975098539 -0.12786221844410239 0 -0.032945469352336033 -0.1293562392835419 0 -0.035661083064217503 -0.11124856921529409 0 -0.01767174996810443 -0.1109570892379047 0 -0.032945469352336033 -0.1293562392835419 0 -0.0092607301227374331 -0.088572496961274561 0 -0.037642160748979789 -0.094071739377162955 0 -0.01767174996810443 -0.1109570892379047 0 -0.037642160748979789 -0.094071739377162955 0 -0.035661083064217503 -0.11124856921529409 0 -0.01767174996810443 -0.1109570892379047 0 -0.01767174996810443 -0.1109570892379047 0 -0.00044729776891663488 -0.1011528385718463 0 0.005085065621477718 -0.1151057880332567 0 -0.0092607301227374331 -0.088572496961274561 0 -0.01767174996810443 -0.1109570892379047 0 -0.00044729776891663488 -0.1011528385718463 0 -0.01767174996810443 -0.1109570892379047 0 -0.012892303975098539 -0.12786221844410239 0 0.005085065621477718 -0.1151057880332567 0 -0.012892303975098539 -0.12786221844410239 0 0.0027021066240326768 -0.1317064378292063 0 0.005085065621477718 -0.1151057880332567 0 -0.011505986517222349 -0.14810326960451681 0 -0.033736789854580403 -0.16402697950055581 0 -0.032945469352336033 -0.1293562392835419 0 -0.012892303975098539 -0.12786221844410239 0 -0.011505986517222349 -0.14810326960451681 0 0.0027021066240326768 -0.1317064378292063 0 -0.011505986517222349 -0.14810326960451681 0 -0.032945469352336033 -0.1293562392835419 0 -0.012892303975098539 -0.12786221844410239 0 -0.011505986517222349 -0.14810326960451681 0 -0.032945469352336033 -0.1293562392835419 0 -0.011505986517222349 -0.14810326960451681 0 0.009933496317892726 -0.16685029992549011 0 -0.011505986517222349 -0.14810326960451681 0 -0.0085976242789068957 -0.177408956520272 0 0.009933496317892726 -0.16685029992549011 0 -0.0085976242789068957 -0.177408956520272 0 -0.003739977245034012 -0.19168309442994089 0 -0.02712874487570623 -0.18796761311505439 0 -0.0085976242789068957 -0.177408956520272 0 -0.003739977245034012 -0.19168309442994089 0 0.0034571977838801569 -0.17702496179755631 0 -0.0085976242789068957 -0.177408956520272 0 -0.02712874487570623 -0.18796761311505439 0 -0.0085976242789068957 -0.177408956520272 0 -0.033736789854580403 -0.16402697950055581 0 -0.02712874487570623 -0.18796761311505439 0 -0.011505986517222349 -0.14810326960451681 0 -0.0085976242789068957 -0.177408956520272 0 -0.033736789854580403 -0.16402697950055581 0 -0.033736789854580403 -0.16402697950055581 0 -0.041678182321736049 -0.18065303021324261 0 -0.02712874487570623 -0.18796761311505439 0 -0.033736789854580403 -0.16402697950055581 0 -0.041678182321736049 -0.18065303021324261 0 -0.060187329084152079 -0.17209125852752319 0 -0.041678182321736049 -0.18065303021324261 0 -0.060187329084152079 -0.17209125852752319 0 -0.045659865472505487 -0.198526269709837 0 -0.060187329084152079 -0.17209125852752319 0 -0.045659865472505487 -0.198526269709837 0 -0.033736789854580403 -0.16402697950055581 0 -0.060187329084152079 -0.17209125852752319 0 -0.051699405537506939 -0.14899167338562519 0 -0.060187329084152079 -0.17209125852752319 0 -0.051699405537506939 -0.14899167338562519 0 -0.072389231474787458 -0.1492400490994332 0 -0.051699405537506939 -0.14899167338562519 0 -0.059238207921678762 -0.13024384051707169 0 -0.072389231474787458 -0.1492400490994332 0 -0.033736789854580403 -0.16402697950055581 0 -0.051699405537506939 -0.14899167338562519 0 -0.032945469352336033 -0.1293562392835419 0 -0.051699405537506939 -0.14899167338562519 0 -0.059238207921678762 -0.13024384051707169 0 -0.032945469352336033 -0.1293562392835419 0 -0.025857267464119819 -0.25506418495113531 0 -0.02368513365757598 -0.23851275990414511 0 -0.036167443228362108 -0.24337299090061551 0 -0.01269776775011346 -0.25850600500130039 0 -0.02368513365757598 -0.23851275990414511 0 -0.01269776775011346 -0.25850600500130039 0 -0.02368513365757598 -0.23851275990414511 0 -0.01082738352359053 -0.24876902592697839 0 -0.02368513365757598 -0.23851275990414511 0 -0.0067432183097289999 -0.239968376336817 0 -0.0090267388034834407 -0.23007068799598671 0 -0.02368513365757598 -0.23851275990414511 0 -0.01082738352359053 -0.24876902592697839 0 -0.0067432183097289999 -0.239968376336817 0 -0.01082738352359053 -0.24876902592697839 0 -0.0029313858115674811 -0.24854412401401971 0 -0.0067432183097289999 -0.239968376336817 0 -0.0029313858115674811 -0.24854412401401971 0 -0.0067432183097289999 -0.239968376336817 0 0.0026199421412959989 -0.2430643023623929 0 -0.0067432183097289999 -0.239968376336817 0 0.0026199421412959989 -0.2430643023623929 0 0.0017465435191736189 -0.23378549097037141 0 -0.0067432183097289999 -0.239968376336817 0 -0.0090267388034834407 -0.23007068799598671 0 0.0017465435191736189 -0.23378549097037141 0 -0.0090267388034834407 -0.23007068799598671 0 -0.00080535468136348092 -0.21995366459000901 0 -0.01839049427805331 -0.2195873775130934 0 -0.0090267388034834407 -0.23007068799598671 0 -0.00080535468136348092 -0.21995366459000901 0 0.0017465435191736189 -0.23378549097037141 0 -0.02368513365757598 -0.23851275990414511 0 -0.0090267388034834407 -0.23007068799598671 0 -0.01839049427805331 -0.2195873775130934 0 -0.02368513365757598 -0.23851275990414511 0 -0.01839049427805331 -0.2195873775130934 0 -0.034672499565036527 -0.2185195148069887 0 -0.02368513365757598 -0.23851275990414511 0 -0.034672499565036527 -0.2185195148069887 0 -0.01839049427805331 -0.2195873775130934 0 -0.027127261386640289 -0.20489204062456881 0 -0.034672499565036527 -0.2185195148069887 0 -0.01839049427805331 -0.2195873775130934 0 -0.027127261386640289 -0.20489204062456881 0 -0.01084996336714465 -0.20584666152463099 0 -0.00080535468136348092 -0.21995366459000901 0 -0.01839049427805331 -0.2195873775130934 0 -0.01084996336714465 -0.20584666152463099 0 -0.00080535468136348092 -0.21995366459000901 0 -0.01084996336714465 -0.20584666152463099 0 0.01016515501406726 -0.20926501301563591 0 -0.01084996336714465 -0.20584666152463099 0 -0.003739977245034012 -0.19168309442994089 0 0.01016515501406726 -0.20926501301563591 0 -0.01084996336714465 -0.20584666152463099 0 -0.003739977245034012 -0.19168309442994089 0 -0.02712874487570623 -0.18796761311505439 0 -0.027127261386640289 -0.20489204062456881 0 -0.01084996336714465 -0.20584666152463099 0 -0.02712874487570623 -0.18796761311505439 0 -0.041678182321736049 -0.18065303021324261 0 -0.02712874487570623 -0.18796761311505439 0 -0.045659865472505487 -0.198526269709837 0 -0.02712874487570623 -0.18796761311505439 0 -0.045659865472505487 -0.198526269709837 0 -0.027127261386640289 -0.20489204062456881 0 -0.02712874487570623 -0.18796761311505439 0 -0.045659865472505487 -0.198526269709837 0 -0.045659865472505487 -0.198526269709837 0 -0.067682806497079445 -0.21107449474949169 0 -0.062708331551170268 -0.19442045911658551 0 -0.060187329084152079 -0.17209125852752319 0 -0.045659865472505487 -0.198526269709837 0 -0.062708331551170268 -0.19442045911658551 0 -0.045659865472505487 -0.198526269709837 0 -0.067682806497079445 -0.21107449474949169 0 -0.045659865472505487 -0.198526269709837 0 -0.054546183461555722 -0.22015285450131489 0 -0.067682806497079445 -0.21107449474949169 0 -0.045659865472505487 -0.198526269709837 0 -0.034672499565036527 -0.2185195148069887 0 -0.054546183461555722 -0.22015285450131489 0 -0.045659865472505487 -0.198526269709837 0 -0.034672499565036527 -0.2185195148069887 0 -0.027127261386640289 -0.20489204062456881 0 -0.045659865472505487 -0.198526269709837 0 -0.034672499565036527 -0.2185195148069887 0 -0.034672499565036527 -0.2185195148069887 0 -0.044145410485190079 -0.23242073182379891 0 -0.054546183461555722 -0.22015285450131489 0 -0.02368513365757598 -0.23851275990414511 0 -0.034672499565036527 -0.2185195148069887 0 -0.044145410485190079 -0.23242073182379891 0 -0.044145410485190079 -0.23242073182379891 0 -0.054546183461555722 -0.22015285450131489 0 -0.061280333386656921 -0.23284462843810469 0 -0.061280333386656921 -0.23284462843810469 0 -0.050191684441297867 -0.2485850187836515 0 -0.071591358857016049 -0.2429226102204386 0 -0.050191684441297867 -0.2485850187836515 0 -0.071591358857016049 -0.2429226102204386 0 -0.056939497423126581 -0.24878681181634871 0 -0.050191684441297867 -0.2485850187836515 0 -0.071591358857016049 -0.2429226102204386 0 -0.044145410485190079 -0.23242073182379891 0 -0.061280333386656921 -0.23284462843810469 0 -0.050191684441297867 -0.2485850187836515 0 -0.041398382443623198 -0.25192549838374201 0 -0.056939497423126581 -0.24878681181634871 0 -0.050191684441297867 -0.2485850187836515 0 -0.044145410485190079 -0.23242073182379891 0 -0.050191684441297867 -0.2485850187836515 0 -0.036167443228362108 -0.24337299090061551 0 -0.02368513365757598 -0.23851275990414511 0 -0.044145410485190079 -0.23242073182379891 0 -0.036167443228362108 -0.24337299090061551 0 -0.025857267464119819 -0.25506418495113531 0 -0.050191684441297867 -0.2485850187836515 0 -0.036167443228362108 -0.24337299090061551 0 -0.097628444613881649 -0.25834262822693399 0 -0.087470553331264578 -0.24262075389877999 0 -0.077955776651182085 -0.24454236002529731 0 -0.087470553331264578 -0.24262075389877999 0 -0.087928467376508473 -0.23859976953689591 0 -0.1005617376665941 -0.23997685579502359 0 -0.087928467376508473 -0.23859976953689591 0 -0.07453604668454375 -0.2421434382925548 0 -0.07383618536286593 -0.22753148747966839 0 -0.087928467376508473 -0.23859976953689591 0 -0.07453604668454375 -0.2421434382925548 0 -0.087928467376508473 -0.23859976953689591 0 -0.077955776651182085 -0.24454236002529731 0 -0.07453604668454375 -0.2421434382925548 0 -0.087470553331264578 -0.24262075389877999 0 -0.087928467376508473 -0.23859976953689591 0 -0.077955776651182085 -0.24454236002529731 0 -0.087470553331264578 -0.24262075389877999 0 -0.077955776651182085 -0.24454236002529731 0 -0.056939497423126581 -0.24878681181634871 0 -0.077955776651182085 -0.24454236002529731 0 -0.071591358857016049 -0.2429226102204386 0 -0.056939497423126581 -0.24878681181634871 0 -0.077955776651182085 -0.24454236002529731 0 -0.077955776651182085 -0.24454236002529731 0 -0.071591358857016049 -0.2429226102204386 0 -0.07453604668454375 -0.2421434382925548 0 -0.077955776651182085 -0.24454236002529731 0 -0.07453604668454375 -0.2421434382925548 0 -0.071591358857016049 -0.2429226102204386 0 -0.07453604668454375 -0.2421434382925548 0 -0.056939497423126581 -0.24878681181634871 0 -0.071591358857016049 -0.2429226102204386 0 -0.061280333386656921 -0.23284462843810469 0 -0.071591358857016049 -0.2429226102204386 0 -0.07453604668454375 -0.2421434382925548 0 -0.061280333386656921 -0.23284462843810469 0 -0.07453604668454375 -0.2421434382925548 0 -0.07383618536286593 -0.22753148747966839 0 -0.089705747521653334 -0.22362271978914661 0 -0.067682806497079445 -0.21107449474949169 0 -0.054546183461555722 -0.22015285450131489 0 -0.061280333386656921 -0.23284462843810469 0 -0.07383618536286593 -0.22753148747966839 0 -0.054546183461555722 -0.22015285450131489 0 -0.07383618536286593 -0.22753148747966839 0 -0.067682806497079445 -0.21107449474949169 0 -0.061280333386656921 -0.23284462843810469 0 -0.07453604668454375 -0.2421434382925548 0 -0.07383618536286593 -0.22753148747966839 0 -0.087928467376508473 -0.23859976953689591 0 -0.07383618536286593 -0.22753148747966839 0 -0.089705747521653334 -0.22362271978914661 0 -0.087928467376508473 -0.23859976953689591 0 -0.089705747521653334 -0.22362271978914661 0 -0.1005617376665941 -0.23997685579502359 0 -0.089705747521653334 -0.22362271978914661 0 -0.067682806497079445 -0.21107449474949169 0 -0.089705747521653334 -0.22362271978914661 0 -0.084027466008495671 -0.20735524824550181 0 -0.09921486728828334 -0.20109800384388701 0 -0.089705747521653334 -0.22362271978914661 0 -0.084027466008495671 -0.20735524824550181 0 -0.067682806497079445 -0.21107449474949169 0 -0.084027466008495671 -0.20735524824550181 0 -0.067682806497079445 -0.21107449474949169 0 -0.079506442726966622 -0.19362577459948219 0 -0.067682806497079445 -0.21107449474949169 0 -0.062708331551170268 -0.19442045911658551 0 -0.079506442726966622 -0.19362577459948219 0 -0.079506442726966622 -0.19362577459948219 0 -0.09921486728828334 -0.20109800384388701 0 -0.089369030920126963 -0.1732707743578942 0 -0.084027466008495671 -0.20735524824550181 0 -0.079506442726966622 -0.19362577459948219 0 -0.09921486728828334 -0.20109800384388701 0 -0.09921486728828334 -0.20109800384388701 0 -0.1156293974943295 -0.1822747327150937 0 -0.1210853022939376 -0.205467400633562 0 -0.1156293974943295 -0.1822747327150937 0 -0.13505851963374399 -0.18906788910329131 0 -0.09921486728828334 -0.20109800384388701 0 -0.1210853022939376 -0.205467400633562 0 -0.1156293974943295 -0.1822747327150937 0 -0.1210853022939376 -0.205467400633562 0 -0.10755849924533691 -0.2178899443088799 0 -0.11989889803527461 -0.22145143588075511 0 -0.1210853022939376 -0.205467400633562 0 -0.11989889803527461 -0.22145143588075511 0 -0.13086176299679239 -0.21746526838305219 0 -0.089705747521653334 -0.22362271978914661 0 -0.09921486728828334 -0.20109800384388701 0 -0.10755849924533691 -0.2178899443088799 0 -0.09921486728828334 -0.20109800384388701 0 -0.1210853022939376 -0.205467400633562 0 -0.10755849924533691 -0.2178899443088799 0 -0.089705747521653334 -0.22362271978914661 0 -0.11172868854622731 -0.23617094482880149 0 -0.1005617376665941 -0.23997685579502359 0 -0.089705747521653334 -0.22362271978914661 0 -0.11172868854622731 -0.23617094482880149 0 -0.089705747521653334 -0.22362271978914661 0 -0.10755849924533691 -0.2178899443088799 0 -0.11172868854622731 -0.23617094482880149 0 -0.11989889803527461 -0.22145143588075511 0 -0.11172868854622731 -0.23617094482880149 0 -0.127825895831608 -0.22987551408160201 0 -0.10755849924533691 -0.2178899443088799 0 -0.11989889803527461 -0.22145143588075511 0 -0.11172868854622731 -0.23617094482880149 0 -0.13218950310710981 -0.25272660122947088 0 -0.1218823470606431 -0.24640061544388489 0 -0.1098930818979398 -0.24798588601512411 0 -0.11172868854622731 -0.23617094482880149 0 -0.13375162957080131 -0.24871916986845621 0 -0.11172868854622731 -0.23617094482880149 0 -0.1218823470606431 -0.24640061544388489 0 -0.13375162957080131 -0.24871916986845621 0 -0.11172868854622731 -0.23617094482880149 0 -0.13375162957080131 -0.24871916986845621 0 -0.127825895831608 -0.22987551408160201 0 -0.11172868854622731 -0.23617094482880149 0 -0.1218823470606431 -0.24640061544388489 0 -0.1098930818979398 -0.24798588601512411 0 -0.097628444613881649 -0.25834262822693399 0 -0.087470553331264578 -0.24262075389877999 0 -0.1098930818979398 -0.24798588601512411 0 -0.087470553331264578 -0.24262075389877999 0 -0.1098930818979398 -0.24798588601512411 0 -0.1005617376665941 -0.23997685579502359 0 -0.087470553331264578 -0.24262075389877999 0 -0.1098930818979398 -0.24798588601512411 0 -0.11172868854622731 -0.23617094482880149 0 -0.1098930818979398 -0.24798588601512411 0 -0.1005617376665941 -0.23997685579502359 0 -0.087470553331264578 -0.24262075389877999 0 -0.1005617376665941 -0.23997685579502359 0 -0.072389231474787458 -0.1492400490994332 0 -0.089369030920126963 -0.1732707743578942 0 -0.096011965921864201 -0.14265464397282879 0 -0.077516787342341589 -0.1242022911324857 0 -0.093262550211769629 -0.1231040070079162 0 -0.096011965921864201 -0.14265464397282879 0 -0.077516787342341589 -0.1242022911324857 0 -0.072389231474787458 -0.1492400490994332 0 -0.096011965921864201 -0.14265464397282879 0 -0.077516787342341589 -0.1242022911324857 0 -0.059238207921678762 -0.13024384051707169 0 -0.072389231474787458 -0.1492400490994332 0 -0.060187329084152079 -0.17209125852752319 0 -0.072389231474787458 -0.1492400490994332 0 -0.089369030920126963 -0.1732707743578942 0 -0.060187329084152079 -0.17209125852752319 0 -0.079506442726966622 -0.19362577459948219 0 -0.089369030920126963 -0.1732707743578942 0 -0.060187329084152079 -0.17209125852752319 0 -0.062708331551170268 -0.19442045911658551 0 -0.079506442726966622 -0.19362577459948219 0 -0.089369030920126963 -0.1732707743578942 0 -0.1107512355661594 -0.16096683979900789 0 -0.096011965921864201 -0.14265464397282879 0 -0.09921486728828334 -0.20109800384388701 0 -0.089369030920126963 -0.1732707743578942 0 -0.1156293974943295 -0.1822747327150937 0 -0.089369030920126963 -0.1732707743578942 0 -0.1156293974943295 -0.1822747327150937 0 -0.1107512355661594 -0.16096683979900789 0 -0.1156293974943295 -0.1822747327150937 0 -0.13204392770037571 -0.1634514615863005 0 -0.1156293974943295 -0.1822747327150937 0 -0.1107512355661594 -0.16096683979900789 0 -0.13204392770037571 -0.1634514615863005 0 -0.1107512355661594 -0.16096683979900789 0 -0.12070185579410091 -0.1431825863629223 0 -0.13204392770037571 -0.1634514615863005 0 -0.1107512355661594 -0.16096683979900789 0 -0.12070185579410091 -0.1431825863629223 0 -0.096011965921864201 -0.14265464397282879 0 -0.1071147179002416 -0.1244919901550422 0 -0.12070185579410091 -0.1431825863629223 0 -0.096011965921864201 -0.14265464397282879 0 -0.093262550211769629 -0.1231040070079162 0 -0.1071147179002416 -0.1244919901550422 0 -0.096011965921864201 -0.14265464397282879 0 -0.1071147179002416 -0.1244919901550422 0 -0.12070185579410091 -0.1431825863629223 0 -0.1306137014228527 -0.1212095633787966 0 -0.12070185579410091 -0.1431825863629223 0 -0.14845845790642179 -0.14462819045750719 0 -0.1306137014228527 -0.1212095633787966 0 -0.14845845790642179 -0.14462819045750719 0 -0.1306137014228527 -0.1212095633787966 0 -0.15036797716661271 -0.14243845987679379 0 -0.14845845790642179 -0.14462819045750719 0 -0.1306137014228527 -0.1212095633787966 0 -0.15406265534163929 -0.1294064941378926 0 -0.15036797716661271 -0.14243845987679379 0 -0.1306137014228527 -0.1212095633787966 0 -0.15406265534163929 -0.1294064941378926 0 -0.15036797716661271 -0.14243845987679379 0 -0.1564494690737798 -0.13971242061594299 0 -0.1543278084257422 -0.1453912472931165 0 -0.14845845790642179 -0.14462819045750719 0 -0.15894149653025619 -0.15184230729274609 0 -0.15519343748037609 -0.14309809199123349 0 -0.15036797716661271 -0.14243845987679379 0 -0.1564494690737798 -0.13971242061594299 0 -0.1543278084257422 -0.1453912472931165 0 -0.15519343748037609 -0.14309809199123349 0 -0.15036797716661271 -0.14243845987679379 0 -0.1543278084257422 -0.1453912472931165 0 -0.15036797716661271 -0.14243845987679379 0 -0.14845845790642179 -0.14462819045750719 0 -0.15036797716661271 -0.14243845987679379 0 -0.14845845790642179 -0.14462819045750719 0 -0.12070185579410091 -0.1431825863629223 0 -0.14845845790642179 -0.14462819045750719 0 -0.13204392770037571 -0.1634514615863005 0 -0.14845845790642179 -0.14462819045750719 0 -0.13204392770037571 -0.1634514615863005 0 -0.13204392770037571 -0.1634514615863005 0 -0.1475860696211248 -0.17640031700015249 0 -0.13505851963374399 -0.18906788910329131 0 -0.1156293974943295 -0.1822747327150937 0 -0.13204392770037571 -0.1634514615863005 0 -0.13505851963374399 -0.18906788910329131 0 -0.1475860696211248 -0.17640031700015249 0 -0.1655722477793394 -0.1670875310098065 0 -0.15496537504316019 -0.19429807729602311 0 -0.1475860696211248 -0.17640031700015249 0 -0.13505851963374399 -0.18906788910329131 0 -0.15496537504316019 -0.19429807729602311 0 -0.1475860696211248 -0.17640031700015249 0 -0.14862352044039201 -0.16347018067920821 0 -0.1655722477793394 -0.1670875310098065 0 -0.14845845790642179 -0.14462819045750719 0 -0.13204392770037571 -0.1634514615863005 0 -0.14862352044039201 -0.16347018067920821 0 -0.14845845790642179 -0.14462819045750719 0 -0.14862352044039201 -0.16347018067920821 0 -0.1655722477793394 -0.1670875310098065 0 -0.13204392770037571 -0.1634514615863005 0 -0.1475860696211248 -0.17640031700015249 0 -0.14862352044039201 -0.16347018067920821 0 -0.1655722477793394 -0.1670875310098065 0 -0.1716614177265566 -0.15146656102038991 0 -0.1655722477793394 -0.1670875310098065 0 -0.15894149653025619 -0.15184230729274609 0 -0.1716614177265566 -0.15146656102038991 0 -0.1655722477793394 -0.1670875310098065 0 -0.17557921295501691 -0.18022020591375351 0 -0.1689483943248192 -0.19264195369377959 0 -0.1655722477793394 -0.1670875310098065 0 -0.15496537504316019 -0.19429807729602311 0 -0.1689483943248192 -0.19264195369377959 0 -0.1655722477793394 -0.1670875310098065 0 -0.15496537504316019 -0.19429807729602311 0 -0.1655722477793394 -0.1670875310098065 0 -0.17557921295501691 -0.18022020591375351 0 -0.17557921295501691 -0.18022020591375351 0 -0.18239484980351819 -0.16464781923938721 0 -0.1907059301477185 -0.18468107337543721 0 -0.1655722477793394 -0.1670875310098065 0 -0.17557921295501691 -0.18022020591375351 0 -0.18239484980351819 -0.16464781923938721 0 -0.1655722477793394 -0.1670875310098065 0 -0.18239484980351819 -0.16464781923938721 0 -0.1716614177265566 -0.15146656102038991 0 -0.18239484980351819 -0.16464781923938721 0 -0.1716614177265566 -0.15146656102038991 0 -0.1894311146879058 -0.1465309504005988 0 -0.17775058767377289 -0.13584559103097291 0 -0.1716614177265566 -0.15146656102038991 0 -0.1894311146879058 -0.1465309504005988 0 -0.17775058767377289 -0.13584559103097291 0 -0.1716614177265566 -0.15146656102038991 0 -0.17775058767377289 -0.13584559103097291 0 -0.1894311146879058 -0.1465309504005988 0 -0.17775058767377289 -0.13584559103097291 0 -0.19823449762692411 -0.13229999761030051 0 -0.18534812722118199 -0.1163550958908785 0 -0.17775058767377289 -0.13584559103097291 0 -0.18534812722118199 -0.1163550958908785 0 -0.15406265534163929 -0.1294064941378926 0 -0.16394560233522651 -0.1386698702264933 0 -0.15606779039194271 -0.1160101434681408 0 -0.17775058767377289 -0.13584559103097291 0 -0.16394560233522651 -0.1386698702264933 0 -0.15606779039194271 -0.1160101434681408 0 -0.17775058767377289 -0.13584559103097291 0 -0.15606779039194271 -0.1160101434681408 0 -0.15406265534163929 -0.1294064941378926 0 -0.16394560233522651 -0.1386698702264933 0 -0.1564494690737798 -0.13971242061594299 0 -0.16394560233522651 -0.1386698702264933 0 -0.1564494690737798 -0.13971242061594299 0 -0.15962849525536979 -0.1448502401790808 0 -0.14845845790642179 -0.14462819045750719 0 -0.1655722477793394 -0.1670875310098065 0 -0.14845845790642179 -0.14462819045750719 0 -0.1655722477793394 -0.1670875310098065 0 -0.15894149653025619 -0.15184230729274609 0 -0.15519343748037609 -0.14309809199123349 0 -0.1564494690737798 -0.13971242061594299 0 -0.15962849525536979 -0.1448502401790808 0 -0.1543278084257422 -0.1453912472931165 0 -0.15519343748037609 -0.14309809199123349 0 -0.15962849525536979 -0.1448502401790808 0 -0.1543278084257422 -0.1453912472931165 0 -0.15962849525536979 -0.1448502401790808 0 -0.15894149653025619 -0.15184230729274609 0 -0.15962849525536979 -0.1448502401790808 0 -0.15894149653025619 -0.15184230729274609 0 -0.1716614177265566 -0.15146656102038991 0 -0.17775058767377289 -0.13584559103097291 0 -0.16394560233522651 -0.1386698702264933 0 -0.1716614177265566 -0.15146656102038991 0 -0.16394560233522651 -0.1386698702264933 0 -0.15962849525536979 -0.1448502401790808 0 -0.1716614177265566 -0.15146656102038991 0 -0.1534429259631987 -0.25724555178864622 0 -0.15289321433053751 -0.246830478479277 0 -0.1378886282313006 -0.2381062402767252 0 -0.1534429259631987 -0.25724555178864622 0 -0.1378886282313006 -0.2381062402767252 0 -0.15348527020851541 -0.23913552791147211 0 -0.1378886282313006 -0.2381062402767252 0 -0.15430752157141919 -0.22794821467022949 0 -0.15289321433053751 -0.246830478479277 0 -0.15348527020851541 -0.23913552791147211 0 -0.1601832428566283 -0.24550858739866141 0 -0.15289321433053751 -0.246830478479277 0 -0.15348527020851541 -0.23913552791147211 0 -0.1378886282313006 -0.2381062402767252 0 -0.1459019403517107 -0.25564217047089421 0 -0.13375162957080131 -0.24871916986845621 0 -0.1378886282313006 -0.2381062402767252 0 -0.13375162957080131 -0.24871916986845621 0 -0.1378886282313006 -0.2381062402767252 0 -0.127825895831608 -0.22987551408160201 0 -0.13375162957080131 -0.24871916986845621 0 -0.1378886282313006 -0.2381062402767252 0 -0.13218950310710981 -0.25272660122947088 0 -0.1218823470606431 -0.24640061544388489 0 -0.13375162957080131 -0.24871916986845621 0 -0.127825895831608 -0.22987551408160201 0 -0.14435850230698141 -0.22150862358223991 0 -0.13086176299679239 -0.21746526838305219 0 -0.1378886282313006 -0.2381062402767252 0 -0.127825895831608 -0.22987551408160201 0 -0.14435850230698141 -0.22150862358223991 0 -0.11989889803527461 -0.22145143588075511 0 -0.127825895831608 -0.22987551408160201 0 -0.13086176299679239 -0.21746526838305219 0 -0.1378886282313006 -0.2381062402767252 0 -0.14435850230698141 -0.22150862358223991 0 -0.14435850230698141 -0.22150862358223991 0 -0.15430752157141919 -0.22794821467022949 0 -0.16410544360365359 -0.21493654602220469 0 -0.1378886282313006 -0.2381062402767252 0 -0.14435850230698141 -0.22150862358223991 0 -0.15430752157141919 -0.22794821467022949 0 -0.14435850230698141 -0.22150862358223991 0 -0.15496537504316019 -0.19429807729602311 0 -0.14435850230698141 -0.22150862358223991 0 -0.1373527607074172 -0.20563907323320921 0 -0.15496537504316019 -0.19429807729602311 0 -0.14435850230698141 -0.22150862358223991 0 -0.15496537504316019 -0.19429807729602311 0 -0.16410544360365359 -0.21493654602220469 0 -0.14435850230698141 -0.22150862358223991 0 -0.1373527607074172 -0.20563907323320921 0 -0.13086176299679239 -0.21746526838305219 0 -0.1210853022939376 -0.205467400633562 0 -0.1373527607074172 -0.20563907323320921 0 -0.13086176299679239 -0.21746526838305219 0 -0.1210853022939376 -0.205467400633562 0 -0.1373527607074172 -0.20563907323320921 0 -0.13505851963374399 -0.18906788910329131 0 -0.1373527607074172 -0.20563907323320921 0 -0.13505851963374399 -0.18906788910329131 0 -0.15496537504316019 -0.19429807729602311 0 -0.1689483943248192 -0.19264195369377959 0 -0.17994482166635981 -0.2014366202218163 0 -0.16410544360365359 -0.21493654602220469 0 -0.15496537504316019 -0.19429807729602311 0 -0.1689483943248192 -0.19264195369377959 0 -0.16410544360365359 -0.21493654602220469 0 -0.17557921295501691 -0.18022020591375351 0 -0.1689483943248192 -0.19264195369377959 0 -0.17994482166635981 -0.2014366202218163 0 -0.17557921295501691 -0.18022020591375351 0 -0.17994482166635981 -0.2014366202218163 0 -0.1907059301477185 -0.18468107337543721 0 -0.17994482166635981 -0.2014366202218163 0 -0.1784102433228649 -0.21681777692650089 0 -0.16410544360365359 -0.21493654602220469 0 -0.17994482166635981 -0.2014366202218163 0 -0.18904495760185211 -0.20873870471059999 0 -0.19252771524915421 -0.19930647688205899 0 -0.17994482166635981 -0.2014366202218163 0 -0.1784102433228649 -0.21681777692650089 0 -0.18904495760185211 -0.20873870471059999 0 -0.1784102433228649 -0.21681777692650089 0 -0.19175951728552271 -0.21959172261586679 0 -0.18904495760185211 -0.20873870471059999 0 -0.15430752157141919 -0.22794821467022949 0 -0.16410544360365359 -0.21493654602220469 0 -0.16877954452522659 -0.2255120540677526 0 -0.15430752157141919 -0.22794821467022949 0 -0.16877954452522659 -0.2255120540677526 0 -0.16324537569009509 -0.2357306359809743 0 -0.15348527020851541 -0.23913552791147211 0 -0.15430752157141919 -0.22794821467022949 0 -0.16324537569009509 -0.2357306359809743 0 -0.16877954452522659 -0.2255120540677526 0 -0.17781387366555559 -0.23090770197000129 0 -0.16324537569009509 -0.2357306359809743 0 -0.1784102433228649 -0.21681777692650089 0 -0.16410544360365359 -0.21493654602220469 0 -0.16877954452522659 -0.2255120540677526 0 -0.1784102433228649 -0.21681777692650089 0 -0.16877954452522659 -0.2255120540677526 0 -0.17781387366555559 -0.23090770197000129 0 -0.1784102433228649 -0.21681777692650089 0 -0.17781387366555559 -0.23090770197000129 0 -0.19175951728552271 -0.21959172261586679 0 -0.17781387366555559 -0.23090770197000129 0 -0.1805311654956796 -0.2411950136452527 0 -0.19410287643929239 -0.23312434657521411 0 -0.17781387366555559 -0.23090770197000129 0 -0.1805311654956796 -0.2411950136452527 0 -0.16955513552828311 -0.24305067226283769 0 -0.17679077873490559 -0.25046109420941731 0 -0.1805311654956796 -0.2411950136452527 0 -0.18863044441395099 -0.24733650333174401 0 -0.17679077873490559 -0.25046109420941731 0 -0.1805311654956796 -0.2411950136452527 0 -0.16955513552828311 -0.24305067226283769 0 -0.16709258238786229 -0.25188408856254202 0 -0.17679077873490559 -0.25046109420941731 0 -0.16955513552828311 -0.24305067226283769 0 -0.16709258238786229 -0.25188408856254202 0 -0.16955513552828311 -0.24305067226283769 0 -0.1601832428566283 -0.24550858739866141 0 -0.17781387366555559 -0.23090770197000129 0 -0.16955513552828311 -0.24305067226283769 0 -0.16324537569009509 -0.2357306359809743 0 -0.16955513552828311 -0.24305067226283769 0 -0.16324537569009509 -0.2357306359809743 0 -0.1601832428566283 -0.24550858739866141 0 -0.15348527020851541 -0.23913552791147211 0 -0.16324537569009509 -0.2357306359809743 0 -0.1601832428566283 -0.24550858739866141 0 -0.1593809120407062 -0.25278805690175971 0 -0.15289321433053751 -0.246830478479277 0 -0.1601832428566283 -0.24550858739866141 0 -0.20565562739327201 -0.24334207984173631 0 -0.19410287643929239 -0.23312434657521411 0 -0.21201774175915139 -0.2290986139018284 0 -0.21472073189145299 -0.25725591714607071 0 -0.20565562739327201 -0.24334207984173631 0 -0.22837296648480071 -0.23789375384220129 0 -0.20565562739327201 -0.24334207984173631 0 -0.21201774175915139 -0.2290986139018284 0 -0.22837296648480071 -0.23789375384220129 0 -0.20565562739327201 -0.24334207984173631 0 -0.18863044441395099 -0.24733650333174401 0 -0.19410287643929239 -0.23312434657521411 0 -0.1805311654956796 -0.2411950136452527 0 -0.18863044441395099 -0.24733650333174401 0 -0.19410287643929239 -0.23312434657521411 0 -0.17781387366555559 -0.23090770197000129 0 -0.19410287643929239 -0.23312434657521411 0 -0.19175951728552271 -0.21959172261586679 0 -0.19410287643929239 -0.23312434657521411 0 -0.19175951728552271 -0.21959172261586679 0 -0.20443040571370949 -0.21985141578154491 0 -0.21201774175915139 -0.2290986139018284 0 -0.20443040571370949 -0.21985141578154491 0 -0.22630383013383959 -0.21240708539258099 0 -0.19410287643929239 -0.23312434657521411 0 -0.21201774175915139 -0.2290986139018284 0 -0.20443040571370949 -0.21985141578154491 0 -0.20157622681128409 -0.2075672839719423 0 -0.21557055542943429 -0.1904257004922347 0 -0.22630383013383959 -0.21240708539258099 0 -0.20157622681128409 -0.2075672839719423 0 -0.22630383013383959 -0.21240708539258099 0 -0.20443040571370949 -0.21985141578154491 0 -0.20157622681128409 -0.2075672839719423 0 -0.22630383013383959 -0.21240708539258099 0 -0.19175951728552271 -0.21959172261586679 0 -0.20443040571370949 -0.21985141578154491 0 -0.20157622681128409 -0.2075672839719423 0 -0.19175951728552271 -0.21959172261586679 0 -0.20157622681128409 -0.2075672839719423 0 -0.19175951728552271 -0.21959172261586679 0 -0.18904495760185211 -0.20873870471059999 0 -0.20157622681128409 -0.2075672839719423 0 -0.18904495760185211 -0.20873870471059999 0 -0.20157622681128409 -0.2075672839719423 0 -0.19252771524915421 -0.19930647688205899 0 -0.17994482166635981 -0.2014366202218163 0 -0.19252771524915421 -0.19930647688205899 0 -0.1907059301477185 -0.18468107337543721 0 -0.20157622681128409 -0.2075672839719423 0 -0.19252771524915421 -0.19930647688205899 0 -0.20187756758401409 -0.19506767240709361 0 -0.19252771524915421 -0.19930647688205899 0 -0.20187756758401409 -0.19506767240709361 0 -0.1907059301477185 -0.18468107337543721 0 -0.20157622681128409 -0.2075672839719423 0 -0.21557055542943429 -0.1904257004922347 0 -0.20187756758401409 -0.19506767240709361 0 -0.21557055542943429 -0.1904257004922347 0 -0.2038146335316797 -0.1820121315948606 0 -0.20157622681128409 -0.2075672839719423 0 -0.20187756758401409 -0.19506767240709361 0 -0.21557055542943429 -0.1904257004922347 0 -0.21557055542943429 -0.1904257004922347 0 -0.23533053747689989 -0.1962925907305976 0 -0.22630383013383959 -0.21240708539258099 0 -0.23533053747689989 -0.1962925907305976 0 -0.25103143345639523 -0.21724688681321891 0 -0.25418198431724581 -0.18809916394242601 0 -0.22630383013383959 -0.21240708539258099 0 -0.25103143345639523 -0.21724688681321891 0 -0.23533053747689989 -0.1962925907305976 0 -0.22630383013383959 -0.21240708539258099 0 -0.25103143345639523 -0.21724688681321891 0 -0.21201774175915139 -0.2290986139018284 0 -0.22630383013383959 -0.21240708539258099 0 -0.22837296648480071 -0.23789375384220129 0 -0.22630383013383959 -0.21240708539258099 0 -0.22837296648480071 -0.23789375384220129 0 -0.25103143345639523 -0.21724688681321891 0 -0.22837296648480071 -0.23789375384220129 0 -0.25431856302814809 -0.24833495949118861 0 -0.25103143345639523 -0.21724688681321891 0 -0.2335542019388327 -0.26090262277066528 0 -0.22837296648480071 -0.23789375384220129 0 -0.25431856302814809 -0.24833495949118861 0 -0.20708483324238849 -0.15128624944667929 0 -0.22647357207813959 -0.15205360930679629 0 -0.2195633859389316 -0.1340578990397249 0 -0.20708483324238849 -0.15128624944667929 0 -0.19823449762692411 -0.13229999761030051 0 -0.2195633859389316 -0.1340578990397249 0 -0.19823449762692411 -0.13229999761030051 0 -0.2195633859389316 -0.1340578990397249 0 -0.21022893699736381 -0.1097241998529486 0 -0.17775058767377289 -0.13584559103097291 0 -0.19823449762692411 -0.13229999761030051 0 -0.1894311146879058 -0.1465309504005988 0 -0.20708483324238849 -0.15128624944667929 0 -0.1894311146879058 -0.1465309504005988 0 -0.19351686899232889 -0.15854259719770419 0 -0.20708483324238849 -0.15128624944667929 0 -0.19823449762692411 -0.13229999761030051 0 -0.1894311146879058 -0.1465309504005988 0 -0.20708483324238849 -0.15128624944667929 0 -0.19351686899232889 -0.15854259719770419 0 -0.19880271024428661 -0.17007658736909009 0 -0.18239484980351819 -0.16464781923938721 0 -0.1894311146879058 -0.1465309504005988 0 -0.19351686899232889 -0.15854259719770419 0 -0.18239484980351819 -0.16464781923938721 0 -0.19351686899232889 -0.15854259719770419 0 -0.19880271024428661 -0.17007658736909009 0 -0.18239484980351819 -0.16464781923938721 0 -0.19880271024428661 -0.17007658736909009 0 -0.1907059301477185 -0.18468107337543721 0 -0.19880271024428661 -0.17007658736909009 0 -0.1907059301477185 -0.18468107337543721 0 -0.2038146335316797 -0.1820121315948606 0 -0.20187756758401409 -0.19506767240709361 0 -0.1907059301477185 -0.18468107337543721 0 -0.2038146335316797 -0.1820121315948606 0 -0.21557055542943429 -0.1904257004922347 0 -0.2038146335316797 -0.1820121315948606 0 -0.21355186476225221 -0.16985639920369799 0 -0.19880271024428661 -0.17007658736909009 0 -0.2038146335316797 -0.1820121315948606 0 -0.21355186476225221 -0.16985639920369799 0 -0.20708483324238849 -0.15128624944667929 0 -0.21355186476225221 -0.16985639920369799 0 -0.22647357207813959 -0.15205360930679629 0 -0.20708483324238849 -0.15128624944667929 0 -0.19880271024428661 -0.17007658736909009 0 -0.21355186476225221 -0.16985639920369799 0 -0.22956488404758479 -0.1732841170125273 0 -0.2435592126657353 -0.1561425335328199 0 -0.22647357207813959 -0.15205360930679629 0 -0.21355186476225221 -0.16985639920369799 0 -0.22956488404758479 -0.1732841170125273 0 -0.22647357207813959 -0.15205360930679629 0 -0.21557055542943429 -0.1904257004922347 0 -0.21355186476225221 -0.16985639920369799 0 -0.22956488404758479 -0.1732841170125273 0 -0.21557055542943429 -0.1904257004922347 0 -0.22956488404758479 -0.1732841170125273 0 -0.21557055542943429 -0.1904257004922347 0 -0.23533053747689989 -0.1962925907305976 0 -0.22956488404758479 -0.1732841170125273 0 -0.23533053747689989 -0.1962925907305976 0 -0.22956488404758479 -0.1732841170125273 0 -0.25418198431724581 -0.18809916394242601 0 -0.22956488404758479 -0.1732841170125273 0 -0.25418198431724581 -0.18809916394242601 0 -0.2565438833259911 -0.1687602707777138 0 -0.22956488404758479 -0.1732841170125273 0 -0.2435592126657353 -0.1561425335328199 0 -0.22956488404758479 -0.1732841170125273 0 -0.2435592126657353 -0.1561425335328199 0 -0.2565438833259911 -0.1687602707777138 0 -0.2435592126657353 -0.1561425335328199 0 -0.22647357207813959 -0.15205360930679629 0 -0.2432602079730701 -0.13485583854350039 0 -0.22647357207813959 -0.15205360930679629 0 -0.2195633859389316 -0.1340578990397249 0 -0.2432602079730701 -0.13485583854350039 0 -0.2195633859389316 -0.1340578990397249 0 -0.2432602079730701 -0.13485583854350039 0 -0.23065476516460279 -0.11957242830579699 0 -0.2432602079730701 -0.13485583854350039 0 -0.2499653418643101 -0.1102460646797562 0 -0.23065476516460279 -0.11957242830579699 0 -0.2499653418643101 -0.1102460646797562 0 -0.2308399038819596 -0.1034577205422559 0 -0.23065476516460279 -0.11957242830579699 0 -0.2308399038819596 -0.1034577205422559 0 -0.25308440776240432 -0.086371671251396109 0 -0.2499653418643101 -0.1102460646797562 0 -0.2308399038819596 -0.1034577205422559 0 -0.25308440776240432 -0.086371671251396109 0 -0.2308399038819596 -0.1034577205422559 0 -0.21022893699736381 -0.1097241998529486 0 -0.21520721362926831 -0.098298511723915558 0 -0.2308399038819596 -0.1034577205422559 0 -0.22013457808717909 -0.089221868029860679 0 -0.21520721362926831 -0.098298511723915558 0 -0.2308399038819596 -0.1034577205422559 0 -0.23065476516460279 -0.11957242830579699 0 -0.21022893699736381 -0.1097241998529486 0 -0.2195633859389316 -0.1340578990397249 0 -0.23065476516460279 -0.11957242830579699 0 -0.21022893699736381 -0.1097241998529486 0 -0.2335598957907816 -0.079883889973887123 0 -0.24475965461883589 -0.059498385283178377 0 -0.2582325144520296 -0.070050845257802419 0 -0.2335598957907816 -0.079883889973887123 0 -0.2582325144520296 -0.070050845257802419 0 -0.25308440776240432 -0.086371671251396109 0 -0.2308399038819596 -0.1034577205422559 0 -0.2335598957907816 -0.079883889973887123 0 -0.25308440776240432 -0.086371671251396109 0 -0.2308399038819596 -0.1034577205422559 0 -0.22013457808717909 -0.089221868029860679 0 -0.2335598957907816 -0.079883889973887123 0 -0.22013457808717909 -0.089221868029860679 0 -0.2335598957907816 -0.079883889973887123 0 -0.21963876375789801 -0.077814354495200549 0 -0.2335598957907816 -0.079883889973887123 0 -0.21595644614104051 -0.065738508165203102 0 -0.24475965461883589 -0.059498385283178377 0 -0.21595644614104051 -0.065738508165203102 0 -0.24475965461883589 -0.059498385283178377 0 -0.2335598957907816 -0.079883889973887123 0 -0.21963876375789801 -0.077814354495200549 0 -0.21595644614104051 -0.065738508165203102 0 -0.20438945881064449 -0.068244458930106389 0 -0.21100771399754009 -0.086966924160961745 0 -0.21595644614104051 -0.065738508165203102 0 -0.21100771399754009 -0.086966924160961745 0 -0.20438945881064449 -0.068244458930106389 0 -0.21595644614104051 -0.065738508165203102 0 -0.21100771399754009 -0.086966924160961745 0 -0.21963876375789801 -0.077814354495200549 0 -0.21595644614104051 -0.065738508165203102 0 -0.21100771399754009 -0.086966924160961745 0 -0.20438945881064449 -0.068244458930106389 0 -0.21595644614104051 -0.065738508165203102 0 -0.20438945881064449 -0.068244458930106389 0 -0.21595644614104051 -0.065738508165203102 0 -0.20711132549122371 -0.057203435059411119 0 -0.20438945881064449 -0.068244458930106389 0 -0.21100771399754009 -0.086966924160961745 0 -0.19851231957361129 -0.085310821531315487 0 -0.22013457808717909 -0.089221868029860679 0 -0.21963876375789801 -0.077814354495200549 0 -0.21100771399754009 -0.086966924160961745 0 -0.22013457808717909 -0.089221868029860679 0 -0.21100771399754009 -0.086966924160961745 0 -0.21520721362926831 -0.098298511723915558 0 -0.21100771399754009 -0.086966924160961745 0 -0.19851231957361129 -0.085310821531315487 0 -0.20550431009004061 -0.095676697317907802 0 -0.21100771399754009 -0.086966924160961745 0 -0.21520721362926831 -0.098298511723915558 0 -0.20550431009004061 -0.095676697317907802 0 -0.19851231957361129 -0.085310821531315487 0 -0.18118326058104209 -0.08825419183970401 0 -0.18409944718507371 -0.07264022497537044 0 -0.19851231957361129 -0.085310821531315487 0 -0.19294566676858971 -0.096864600750783431 0 -0.18118326058104209 -0.08825419183970401 0 -0.19851231957361129 -0.085310821531315487 0 -0.20550431009004061 -0.095676697317907802 0 -0.19294566676858971 -0.096864600750783431 0 -0.20438945881064449 -0.068244458930106389 0 -0.19851231957361129 -0.085310821531315487 0 -0.18409944718507371 -0.07264022497537044 0 -0.20438945881064449 -0.068244458930106389 0 -0.18409944718507371 -0.07264022497537044 0 -0.18769526278089041 -0.057829612445021099 0 -0.20438945881064449 -0.068244458930106389 0 -0.18409944718507371 -0.07264022497537044 0 -0.21022893699736381 -0.1097241998529486 0 -0.21520721362926831 -0.098298511723915558 0 -0.20550431009004061 -0.095676697317907802 0 -0.21022893699736381 -0.1097241998529486 0 -0.20550431009004061 -0.095676697317907802 0 -0.19294566676858971 -0.096864600750783431 0 -0.19294566676858971 -0.096864600750783431 0 -0.18534812722118199 -0.1163550958908785 0 -0.21022893699736381 -0.1097241998529486 0 -0.19294566676858971 -0.096864600750783431 0 -0.18534812722118199 -0.1163550958908785 0 -0.19823449762692411 -0.13229999761030051 0 -0.21022893699736381 -0.1097241998529486 0 -0.18534812722118199 -0.1163550958908785 0 -0.18534812722118199 -0.1163550958908785 0 -0.17423934197139679 -0.1017815859784342 0 -0.15606779039194271 -0.1160101434681408 0 -0.17775058767377289 -0.13584559103097291 0 -0.18534812722118199 -0.1163550958908785 0 -0.15606779039194271 -0.1160101434681408 0 -0.16057304666404501 -0.10079887419961479 0 -0.17423934197139679 -0.1017815859784342 0 -0.15606779039194271 -0.1160101434681408 0 -0.16057304666404501 -0.10079887419961479 0 -0.16746185343044401 -0.091445336260546128 0 -0.1570966781871318 -0.090327755750333361 0 -0.16057304666404501 -0.10079887419961479 0 -0.17423934197139679 -0.1017815859784342 0 -0.16746185343044401 -0.091445336260546128 0 -0.17423934197139679 -0.1017815859784342 0 -0.18118326058104209 -0.08825419183970401 0 -0.16746185343044401 -0.091445336260546128 0 -0.19294566676858971 -0.096864600750783431 0 -0.18534812722118199 -0.1163550958908785 0 -0.17423934197139679 -0.1017815859784342 0 -0.19294566676858971 -0.096864600750783431 0 -0.17423934197139679 -0.1017815859784342 0 -0.18118326058104209 -0.08825419183970401 0 -0.18118326058104209 -0.08825419183970401 0 -0.18409944718507371 -0.07264022497537044 0 -0.16915717098214109 -0.081397787743409861 0 -0.18118326058104209 -0.08825419183970401 0 -0.16746185343044401 -0.091445336260546128 0 -0.16915717098214109 -0.081397787743409861 0 -0.18409944718507371 -0.07264022497537044 0 -0.1702117591297739 -0.06777753321031553 0 -0.16380943555950259 -0.077035991020633382 0 -0.18409944718507371 -0.07264022497537044 0 -0.16380943555950259 -0.077035991020633382 0 -0.16915717098214109 -0.081397787743409861 0 -0.18409944718507371 -0.07264022497537044 0 -0.17187825396406881 -0.057945450019426657 0 -0.18769526278089041 -0.057829612445021099 0 -0.18409944718507371 -0.07264022497537044 0 -0.16380943555950259 -0.077035991020633382 0 -0.18409944718507371 -0.07264022497537044 0 -0.1702117591297739 -0.06777753321031553 0 -0.17187825396406881 -0.057945450019426657 0 -0.16380943555950259 -0.077035991020633382 0 -0.16105989981045041 -0.063488466825831633 0 -0.14595160177326619 -0.062470528310013429 0 -0.1702117591297739 -0.06777753321031553 0 -0.16105989981045041 -0.063488466825831633 0 -0.17187825396406881 -0.057945450019426657 0 -0.1702117591297739 -0.06777753321031553 0 -0.16380943555950259 -0.077035991020633382 0 -0.16105989981045041 -0.063488466825831633 0 -0.16380943555950259 -0.077035991020633382 0 -0.16109871639751261 -0.084134952385501949 0 -0.14796844382834351 -0.080467891152587012 0 -0.16746185343044401 -0.091445336260546128 0 -0.16915717098214109 -0.081397787743409861 0 -0.16109871639751261 -0.084134952385501949 0 -0.16380943555950259 -0.077035991020633382 0 -0.16915717098214109 -0.081397787743409861 0 -0.16109871639751261 -0.084134952385501949 0 -0.16380943555950259 -0.077035991020633382 0 -0.16915717098214109 -0.081397787743409861 0 -0.16746185343044401 -0.091445336260546128 0 -0.16109871639751261 -0.084134952385501949 0 -0.1570966781871318 -0.090327755750333361 0 -0.16380943555950259 -0.077035991020633382 0 -0.14796844382834351 -0.080467891152587012 0 -0.14796844382834351 -0.080467891152587012 0 -0.13497135686491851 -0.078315161523928284 0 -0.1484932433812913 -0.094043062253026791 0 -0.1570966781871318 -0.090327755750333361 0 -0.14796844382834351 -0.080467891152587012 0 -0.1484932433812913 -0.094043062253026791 0 -0.16109871639751261 -0.084134952385501949 0 -0.1570966781871318 -0.090327755750333361 0 -0.14796844382834351 -0.080467891152587012 0 -0.16380943555950259 -0.077035991020633382 0 -0.14796844382834351 -0.080467891152587012 0 -0.14595160177326619 -0.062470528310013429 0 -0.16380943555950259 -0.077035991020633382 0 -0.14595160177326619 -0.062470528310013429 0 -0.14796844382834351 -0.080467891152587012 0 -0.13497135686491851 -0.078315161523928284 0 -0.14595160177326619 -0.062470528310013429 0 -0.1158705629695205 -0.060236298698018297 0 -0.13497135686491851 -0.078315161523928284 0 -0.1158705629695205 -0.060236298698018297 0 -0.13497135686491851 -0.078315161523928284 0 -0.13122182239868371 -0.062231763532838429 0 -0.13497135686491851 -0.078315161523928284 0 -0.13122182239868371 -0.062231763532838429 0 -0.14595160177326619 -0.062470528310013429 0 -0.112702195828283 -0.076339248342475546 0 -0.13497135686491851 -0.078315161523928284 0 -0.13438499311011279 -0.096174695905308166 0 -0.13497135686491851 -0.078315161523928284 0 -0.13438499311011279 -0.096174695905308166 0 -0.1484932433812913 -0.094043062253026791 0 -0.11276894493928399 -0.097790936300085646 0 -0.13438499311011279 -0.096174695905308166 0 -0.1306137014228527 -0.1212095633787966 0 -0.13438499311011279 -0.096174695905308166 0 -0.1306137014228527 -0.1212095633787966 0 -0.15606779039194271 -0.1160101434681408 0 -0.15406265534163929 -0.1294064941378926 0 -0.1306137014228527 -0.1212095633787966 0 -0.15606779039194271 -0.1160101434681408 0 -0.13438499311011279 -0.096174695905308166 0 -0.15606779039194271 -0.1160101434681408 0 -0.1484932433812913 -0.094043062253026791 0 -0.16057304666404501 -0.10079887419961479 0 -0.15606779039194271 -0.1160101434681408 0 -0.1484932433812913 -0.094043062253026791 0 -0.13438499311011279 -0.096174695905308166 0 -0.15606779039194271 -0.1160101434681408 0 -0.16057304666404501 -0.10079887419961479 0 -0.1570966781871318 -0.090327755750333361 0 -0.1484932433812913 -0.094043062253026791 0 -0.14513665439653431 -0.02122229521611602 0 -0.15148395360685291 -0.031475856168514699 0 -0.16129500549156001 -0.024264335985147129 0 -0.14513665439653431 -0.02122229521611602 0 -0.1346415055917565 -0.031432898451717602 0 -0.15148395360685291 -0.031475856168514699 0 -0.14513665439653431 -0.02122229521611602 0 -0.15327979458335059 -0.01391829646419882 0 -0.16129500549156001 -0.024264335985147129 0 -0.1412848112475209 -0.008091449167619497 0 -0.15773416148281841 -0.0035868741371463562 0 -0.14801408494475049 0.0031182785745780331 0 -0.15327979458335059 -0.01391829646419882 0 -0.1412848112475209 -0.008091449167619497 0 -0.15773416148281841 -0.0035868741371463562 0 -0.14513665439653431 -0.02122229521611602 0 -0.15327979458335059 -0.01391829646419882 0 -0.1412848112475209 -0.008091449167619497 0 -0.1236693299605585 -0.0137973575501921 0 -0.1412848112475209 -0.008091449167619497 0 -0.12735709500343681 0.004015926865657337 0 -0.1412848112475209 -0.008091449167619497 0 -0.12735709500343681 0.004015926865657337 0 -0.14801408494475049 0.0031182785745780331 0 -0.1236693299605585 -0.0137973575501921 0 -0.1412848112475209 -0.008091449167619497 0 -0.13426109495296229 -0.02049569832685658 0 -0.1236693299605585 -0.0137973575501921 0 -0.1221370268088495 -0.025998648103035 0 -0.13426109495296229 -0.02049569832685658 0 -0.14513665439653431 -0.02122229521611602 0 -0.1412848112475209 -0.008091449167619497 0 -0.13426109495296229 -0.02049569832685658 0 -0.14513665439653431 -0.02122229521611602 0 -0.13426109495296229 -0.02049569832685658 0 -0.1346415055917565 -0.031432898451717602 0 -0.1221370268088495 -0.025998648103035 0 -0.12530131535501859 -0.034952786400489197 0 -0.1346415055917565 -0.031432898451717602 0 -0.1221370268088495 -0.025998648103035 0 -0.13426109495296229 -0.02049569832685658 0 -0.1346415055917565 -0.031432898451717602 0 -0.12530131535501859 -0.034952786400489197 0 -0.1346415055917565 -0.031432898451717602 0 -0.12809376798702951 -0.047905065599393698 0 -0.1346415055917565 -0.031432898451717602 0 -0.12809376798702951 -0.047905065599393698 0 -0.14629371500633531 -0.042796653234188263 0 -0.12809376798702951 -0.047905065599393698 0 -0.14595160177326619 -0.062470528310013429 0 -0.12809376798702951 -0.047905065599393698 0 -0.14595160177326619 -0.062470528310013429 0 -0.14629371500633531 -0.042796653234188263 0 -0.13122182239868371 -0.062231763532838429 0 -0.12809376798702951 -0.047905065599393698 0 -0.14595160177326619 -0.062470528310013429 0 -0.1158705629695205 -0.060236298698018297 0 -0.13122182239868371 -0.062231763532838429 0 -0.12809376798702951 -0.047905065599393698 0 -0.14595160177326619 -0.062470528310013429 0 -0.14629371500633531 -0.042796653234188263 0 -0.15696853651444401 -0.052603520026387289 0 -0.16105989981045041 -0.063488466825831633 0 -0.14595160177326619 -0.062470528310013429 0 -0.15696853651444401 -0.052603520026387289 0 -0.15148395360685291 -0.031475856168514699 0 -0.14629371500633531 -0.042796653234188263 0 -0.16402488563849801 -0.041062174760887443 0 -0.1346415055917565 -0.031432898451717602 0 -0.15148395360685291 -0.031475856168514699 0 -0.14629371500633531 -0.042796653234188263 0 -0.14629371500633531 -0.042796653234188263 0 -0.16402488563849801 -0.041062174760887443 0 -0.15696853651444401 -0.052603520026387289 0 -0.15148395360685291 -0.031475856168514699 0 -0.16402488563849801 -0.041062174760887443 0 -0.16129500549156001 -0.024264335985147129 0 -0.16402488563849801 -0.041062174760887443 0 -0.17409393016306191 -0.030370879776367592 0 -0.16129500549156001 -0.024264335985147129 0 -0.16402488563849801 -0.041062174760887443 0 -0.15696853651444401 -0.052603520026387289 0 -0.17187825396406881 -0.057945450019426657 0 -0.16105989981045041 -0.063488466825831633 0 -0.15696853651444401 -0.052603520026387289 0 -0.17187825396406881 -0.057945450019426657 0 -0.16402488563849801 -0.041062174760887443 0 -0.17187825396406881 -0.057945450019426657 0 -0.18133558272394029 -0.043618149437272283 0 -0.17187825396406881 -0.057945450019426657 0 -0.18133558272394029 -0.043618149437272283 0 -0.18769526278089041 -0.057829612445021099 0 -0.18133558272394029 -0.043618149437272283 0 -0.17409393016306191 -0.030370879776367592 0 -0.18915768363079971 -0.025155098795753519 0 -0.16402488563849801 -0.041062174760887443 0 -0.18133558272394029 -0.043618149437272283 0 -0.17409393016306191 -0.030370879776367592 0 -0.17409393016306191 -0.030370879776367592 0 -0.17549551533112251 -0.014893414490097231 0 -0.18915768363079971 -0.025155098795753519 0 -0.16129500549156001 -0.024264335985147129 0 -0.16350931143073591 -0.01273440345064396 0 -0.17549551533112251 -0.014893414490097231 0 -0.17409393016306191 -0.030370879776367592 0 -0.16129500549156001 -0.024264335985147129 0 -0.17549551533112251 -0.014893414490097231 0 -0.15327979458335059 -0.01391829646419882 0 -0.16129500549156001 -0.024264335985147129 0 -0.16350931143073591 -0.01273440345064396 0 -0.15773416148281841 -0.0035868741371463562 0 -0.16716832075785379 -0.0032078365625175 0 -0.1619193683370386 0.0066468078375689294 0 -0.15773416148281841 -0.0035868741371463562 0 -0.16350931143073591 -0.01273440345064396 0 -0.16716832075785379 -0.0032078365625175 0 -0.15327979458335059 -0.01391829646419882 0 -0.15773416148281841 -0.0035868741371463562 0 -0.16350931143073591 -0.01273440345064396 0 -0.16350931143073591 -0.01273440345064396 0 -0.16716832075785379 -0.0032078365625175 0 -0.17549551533112251 -0.014893414490097231 0 -0.17549551533112251 -0.014893414490097231 0 -0.18154179604087481 -0.0036104187285780349 0 -0.18915768363079971 -0.025155098795753519 0 -0.18154179604087481 -0.0036104187285780349 0 -0.18915768363079971 -0.025155098795753519 0 -0.17549551533112251 -0.014893414490097231 0 -0.17584419881677341 0.0071523107965592754 0 -0.17549551533112251 -0.014893414490097231 0 -0.18154179604087481 -0.0036104187285780349 0 -0.17584419881677341 0.0071523107965592754 0 -0.16716832075785379 -0.0032078365625175 0 -0.17549551533112251 -0.014893414490097231 0 -0.17584419881677341 0.0071523107965592754 0 -0.18154179604087481 -0.0036104187285780349 0 -0.19066530249761049 -0.0041303576494283751 0 -0.18915768363079971 -0.025155098795753519 0 -0.18154179604087481 -0.0036104187285780349 0 -0.19066530249761049 -0.0041303576494283751 0 -0.18717715497560061 0.0062623078557712403 0 -0.19066530249761049 -0.0041303576494283751 0 -0.1989264366345522 -0.0080023544535597537 0 -0.18915768363079971 -0.025155098795753519 0 -0.19066530249761049 -0.0041303576494283751 0 -0.1989264366345522 -0.0080023544535597537 0 -0.1965234412062255 0.0098537758749781944 0 -0.1989264366345522 -0.0080023544535597537 0 -0.2007918169376324 -0.0191738513677071 0 -0.20680177871376751 -0.0119671669755851 0 -0.18915768363079971 -0.025155098795753519 0 -0.2007918169376324 -0.0191738513677071 0 -0.21013076049929519 -0.028334228638799381 0 -0.1989264366345522 -0.0080023544535597537 0 -0.18915768363079971 -0.025155098795753519 0 -0.2007918169376324 -0.0191738513677071 0 -0.2007918169376324 -0.0191738513677071 0 -0.21013076049929519 -0.028334228638799381 0 -0.20680177871376751 -0.0119671669755851 0 -0.21013076049929519 -0.028334228638799381 0 -0.21702438745170211 -0.0043907958627755336 0 -0.21921501925093501 -0.017985606360015789 0 -0.21013076049929519 -0.028334228638799381 0 -0.21702438745170211 -0.0043907958627755336 0 -0.21013076049929519 -0.028334228638799381 0 -0.22271521407306469 -0.037269361340154371 0 -0.21921501925093501 -0.017985606360015789 0 -0.21013076049929519 -0.028334228638799381 0 -0.21702438745170211 -0.0043907958627755336 0 -0.20680177871376751 -0.0119671669755851 0 -0.1989264366345522 -0.0080023544535597537 0 -0.20680177871376751 -0.0119671669755851 0 -0.20713549204565579 6.5395444916274768e-05 0 -0.21702438745170211 -0.0043907958627755336 0 -0.20680177871376751 -0.0119671669755851 0 -0.20713549204565579 6.5395444916274768e-05 0 -0.20438945881064449 -0.068244458930106389 0 -0.1967735712207245 -0.046699778862929052 0 -0.20438945881064449 -0.068244458930106389 0 -0.18769526278089041 -0.057829612445021099 0 -0.1967735712207245 -0.046699778862929052 0 -0.20438945881064449 -0.068244458930106389 0 -0.1967735712207245 -0.046699778862929052 0 -0.20711132549122371 -0.057203435059411119 0 -0.18133558272394029 -0.043618149437272283 0 -0.18769526278089041 -0.057829612445021099 0 -0.1967735712207245 -0.046699778862929052 0 -0.18133558272394029 -0.043618149437272283 0 -0.18915768363079971 -0.025155098795753519 0 -0.1967735712207245 -0.046699778862929052 0 -0.18915768363079971 -0.025155098795753519 0 -0.1967735712207245 -0.046699778862929052 0 -0.18915768363079971 -0.025155098795753519 0 -0.21013076049929519 -0.028334228638799381 0 -0.1967735712207245 -0.046699778862929052 0 -0.21013076049929519 -0.028334228638799381 0 -0.21132582579248671 -0.048130994279405613 0 -0.22271521407306469 -0.037269361340154371 0 -0.21013076049929519 -0.028334228638799381 0 -0.1967735712207245 -0.046699778862929052 0 -0.21132582579248671 -0.048130994279405613 0 -0.21595644614104051 -0.065738508165203102 0 -0.21132582579248671 -0.048130994279405613 0 -0.22271521407306469 -0.037269361340154371 0 -0.21595644614104051 -0.065738508165203102 0 -0.21132582579248671 -0.048130994279405613 0 -0.20711132549122371 -0.057203435059411119 0 -0.1967735712207245 -0.046699778862929052 0 -0.21132582579248671 -0.048130994279405613 0 -0.20711132549122371 -0.057203435059411119 0 -0.21595644614104051 -0.065738508165203102 0 -0.2284172135094342 -0.053659916570315727 0 -0.24475965461883589 -0.059498385283178377 0 -0.21595644614104051 -0.065738508165203102 0 -0.2284172135094342 -0.053659916570315727 0 -0.22271521407306469 -0.037269361340154371 0 -0.21595644614104051 -0.065738508165203102 0 -0.22271521407306469 -0.037269361340154371 0 -0.2284172135094342 -0.053659916570315727 0 -0.22271521407306469 -0.037269361340154371 0 -0.23903543051913109 -0.043198085603962481 0 -0.22271521407306469 -0.037269361340154371 0 -0.23903543051913109 -0.043198085603962481 0 -0.24161885061771041 -0.026720350447010301 0 -0.23903543051913109 -0.043198085603962481 0 -0.24161885061771041 -0.026720350447010301 0 -0.25766621977661042 -0.038842414379153638 0 -0.23903543051913109 -0.043198085603962481 0 -0.24475965461883589 -0.059498385283178377 0 -0.25766621977661042 -0.038842414379153638 0 -0.2284172135094342 -0.053659916570315727 0 -0.23903543051913109 -0.043198085603962481 0 -0.24475965461883589 -0.059498385283178377 0 -0.22947398200509031 -0.0088002145151058891 0 -0.22867745033346079 0.0038692188645070222 0 -0.2401015516947359 0.00075261550232862703 0 -0.21702438745170211 -0.0043907958627755336 0 -0.22947398200509031 -0.0088002145151058891 0 -0.22867745033346079 0.0038692188645070222 0 -0.21702438745170211 -0.0043907958627755336 0 -0.22947398200509031 -0.0088002145151058891 0 -0.21921501925093501 -0.017985606360015789 0 -0.22271521407306469 -0.037269361340154371 0 -0.22947398200509031 -0.0088002145151058891 0 -0.21921501925093501 -0.017985606360015789 0 -0.22271521407306469 -0.037269361340154371 0 -0.22947398200509031 -0.0088002145151058891 0 -0.22271521407306469 -0.037269361340154371 0 -0.22947398200509031 -0.0088002145151058891 0 -0.24161885061771041 -0.026720350447010301 0 -0.22947398200509031 -0.0088002145151058891 0 -0.24161885061771041 -0.026720350447010301 0 -0.2437457614006571 -0.011962382738850049 0 -0.24161885061771041 -0.026720350447010301 0 -0.2437457614006571 -0.011962382738850049 0 -0.2598032925822476 -0.0188915667982569 0 -0.22947398200509031 -0.0088002145151058891 0 -0.2437457614006571 -0.011962382738850049 0 -0.2401015516947359 0.00075261550232862703 0 -0.2437457614006571 -0.011962382738850049 0 -0.25267499080189931 -0.0034516002120552492 0 -0.2401015516947359 0.00075261550232862703 0 -0.25267499080189931 -0.0034516002120552492 0 -0.2598032925822476 -0.0188915667982569 0 -0.26909988492935111 -0.0018655285383734981 0 -0.2437457614006571 -0.011962382738850049 0 -0.25267499080189931 -0.0034516002120552492 0 -0.2598032925822476 -0.0188915667982569 0 -0.2598032925822476 -0.0188915667982569 0 -0.27267419604841259 -0.026924212746328481 0 -0.25766621977661042 -0.038842414379153638 0 -0.24161885061771041 -0.026720350447010301 0 -0.2598032925822476 -0.0188915667982569 0 -0.25766621977661042 -0.038842414379153638 0 -0.2598032925822476 -0.0188915667982569 0 -0.27267419604841259 -0.026924212746328481 0 -0.27804425228895369 -0.016131696666228459 0 -0.27267419604841259 -0.026924212746328481 0 -0.27804425228895369 -0.016131696666228459 0 -0.28378415359151371 -0.031280105512012511 0 -0.27804425228895369 -0.016131696666228459 0 -0.26909988492935111 -0.0018655285383734981 0 -0.2917254884257266 -0.0017566381736345419 0 -0.2598032925822476 -0.0188915667982569 0 -0.27804425228895369 -0.016131696666228459 0 -0.26909988492935111 -0.0018655285383734981 0 -0.27804425228895369 -0.016131696666228459 0 -0.2917254884257266 -0.0017566381736345419 0 -0.2928870998243559 -0.020527937726781 0 -0.27804425228895369 -0.016131696666228459 0 -0.2928870998243559 -0.020527937726781 0 -0.28378415359151371 -0.031280105512012511 0 -0.2928870998243559 -0.020527937726781 0 -0.29943422057661201 -0.032203920876667472 0 -0.28378415359151371 -0.031280105512012511 0 -0.2928870998243559 -0.020527937726781 0 -0.31144738423897378 -0.02126732740536201 0 -0.29943422057661201 -0.032203920876667472 0 -0.31144738423897378 -0.02126732740536201 0 -0.31110423911055801 -0.035316851109560482 0 -0.29943422057661201 -0.032203920876667472 0 -0.2917254884257266 -0.0017566381736345419 0 -0.31144738423897378 -0.02126732740536201 0 -0.31177688145040278 0.0050359958776742568 0 -0.2917254884257266 -0.0017566381736345419 0 -0.2928870998243559 -0.020527937726781 0 -0.31144738423897378 -0.02126732740536201 0 -0.2917254884257266 -0.0017566381736345419 0 -0.31144738423897378 -0.02126732740536201 0 -0.30323190850646392 -0.052883144282766713 0 -0.3023660715744253 -0.047018139519123002 0 -0.29757341552329353 -0.05219957266967655 0 -0.29931176789370939 -0.061629941742321552 0 -0.30659897303184058 -0.057135789817405573 0 -0.30728911182784302 -0.064893595009923935 0 -0.30323190850646392 -0.052883144282766713 0 -0.29931176789370939 -0.061629941742321552 0 -0.30659897303184058 -0.057135789817405573 0 -0.30323190850646392 -0.052883144282766713 0 -0.29757341552329353 -0.05219957266967655 0 -0.29931176789370939 -0.061629941742321552 0 -0.30659897303184058 -0.057135789817405573 0 -0.30728911182784302 -0.064893595009923935 0 -0.31405483352543062 -0.056831087900065053 0 -0.30323190850646392 -0.052883144282766713 0 -0.3023660715744253 -0.047018139519123002 0 -0.31025625293594222 -0.050033124508212908 0 -0.30659897303184058 -0.057135789817405573 0 -0.31025625293594222 -0.050033124508212908 0 -0.31405483352543062 -0.056831087900065053 0 -0.30323190850646392 -0.052883144282766713 0 -0.30659897303184058 -0.057135789817405573 0 -0.31025625293594222 -0.050033124508212908 0 -0.3023660715744253 -0.047018139519123002 0 -0.31110423911055801 -0.035316851109560482 0 -0.29943422057661201 -0.032203920876667472 0 -0.3023660715744253 -0.047018139519123002 0 -0.29943422057661201 -0.032203920876667472 0 -0.29166722635019171 -0.038853801873014321 0 -0.29943422057661201 -0.032203920876667472 0 -0.29166722635019171 -0.038853801873014321 0 -0.28378415359151371 -0.031280105512012511 0 -0.3023660715744253 -0.047018139519123002 0 -0.29166722635019171 -0.038853801873014321 0 -0.28390051605192418 -0.042754285685484159 0 -0.29166722635019171 -0.038853801873014321 0 -0.28378415359151371 -0.031280105512012511 0 -0.28390051605192418 -0.042754285685484159 0 -0.3023660715744253 -0.047018139519123002 0 -0.28390051605192418 -0.042754285685484159 0 -0.27356286309663053 -0.053258262401150697 0 -0.3023660715744253 -0.047018139519123002 0 -0.27356286309663053 -0.053258262401150697 0 -0.29757341552329353 -0.05219957266967655 0 -0.27356286309663053 -0.053258262401150697 0 -0.27532891164284878 -0.069285621960536392 0 -0.29757341552329353 -0.05219957266967655 0 -0.27532891164284878 -0.069285621960536392 0 -0.3023660715744253 -0.047018139519123002 0 -0.29757341552329353 -0.05219957266967655 0 -0.27356286309663053 -0.053258262401150697 0 -0.29757341552329353 -0.05219957266967655 0 -0.29931176789370939 -0.061629941742321552 0 -0.27532891164284878 -0.069285621960536392 0 -0.27267419604841259 -0.026924212746328481 0 -0.27375437843427658 -0.039043607324579933 0 -0.25766621977661042 -0.038842414379153638 0 -0.27356286309663053 -0.053258262401150697 0 -0.27375437843427658 -0.039043607324579933 0 -0.25766621977661042 -0.038842414379153638 0 -0.28378415359151371 -0.031280105512012511 0 -0.28390051605192418 -0.042754285685484159 0 -0.27375437843427658 -0.039043607324579933 0 -0.27267419604841259 -0.026924212746328481 0 -0.28378415359151371 -0.031280105512012511 0 -0.27375437843427658 -0.039043607324579933 0 -0.28390051605192418 -0.042754285685484159 0 -0.27356286309663053 -0.053258262401150697 0 -0.27375437843427658 -0.039043607324579933 0 -0.24475965461883589 -0.059498385283178377 0 -0.27356286309663053 -0.053258262401150697 0 -0.2582325144520296 -0.070050845257802419 0 -0.24475965461883589 -0.059498385283178377 0 -0.27356286309663053 -0.053258262401150697 0 -0.24475965461883589 -0.059498385283178377 0 -0.27356286309663053 -0.053258262401150697 0 -0.25766621977661042 -0.038842414379153638 0 -0.2582325144520296 -0.070050845257802419 0 -0.25308440776240432 -0.086371671251396109 0 -0.27532891164284878 -0.069285621960536392 0 -0.25308440776240432 -0.086371671251396109 0 -0.27532891164284878 -0.069285621960536392 0 -0.25308440776240432 -0.086371671251396109 0 -0.27361062541114611 -0.085405998149086934 0 -0.26907394573302829 -0.10103393024372311 0 -0.27361062541114611 -0.085405998149086934 0 -0.26907394573302829 -0.10103393024372311 0 -0.28494676303449051 -0.09097811142482605 0 -0.25308440776240432 -0.086371671251396109 0 -0.27361062541114611 -0.085405998149086934 0 -0.27532891164284878 -0.069285621960536392 0 -0.27356286309663053 -0.053258262401150697 0 -0.2582325144520296 -0.070050845257802419 0 -0.27532891164284878 -0.069285621960536392 0 -0.27361062541114611 -0.085405998149086934 0 -0.27532891164284878 -0.069285621960536392 0 -0.28561909888295839 -0.079360655864953042 0 -0.2432602079730701 -0.13485583854350039 0 -0.2499653418643101 -0.1102460646797562 0 -0.26490928006600228 -0.12397715003998409 0 -0.2499653418643101 -0.1102460646797562 0 -0.26490928006600228 -0.12397715003998409 0 -0.26907394573302829 -0.10103393024372311 0 -0.2499653418643101 -0.1102460646797562 0 -0.25308440776240432 -0.086371671251396109 0 -0.26907394573302829 -0.10103393024372311 0 -0.26907394573302829 -0.10103393024372311 0 -0.28789548083438649 -0.11161882002010511 0 -0.28494676303449051 -0.09097811142482605 0 -0.26490928006600228 -0.12397715003998409 0 -0.28789548083438649 -0.11161882002010511 0 -0.28428672055728371 -0.13281235115180859 0 -0.26490928006600228 -0.12397715003998409 0 -0.26907394573302829 -0.10103393024372311 0 -0.28789548083438649 -0.11161882002010511 0 -0.28789548083438649 -0.11161882002010511 0 -0.28428672055728371 -0.13281235115180859 0 -0.30877835781368662 -0.12931532841693749 0 -0.28789548083438649 -0.11161882002010511 0 -0.29765529442092259 -0.094840601490837839 0 -0.28494676303449051 -0.09097811142482605 0 -0.30761934067920371 -0.1042503242997595 0 -0.29765529442092259 -0.094840601490837839 0 -0.30832877355579341 -0.086934752854072747 0 -0.30761934067920371 -0.1042503242997595 0 -0.30832877355579341 -0.086934752854072747 0 -0.31968159473222052 -0.091584555267719248 0 -0.28789548083438649 -0.11161882002010511 0 -0.30761934067920371 -0.1042503242997595 0 -0.29765529442092259 -0.094840601490837839 0 -0.28789548083438649 -0.11161882002010511 0 -0.30761934067920371 -0.1042503242997595 0 -0.30877835781368662 -0.12931532841693749 0 -0.29931176789370939 -0.061629941742321552 0 -0.27532891164284878 -0.069285621960536392 0 -0.29568251685582603 -0.071589435967753134 0 -0.27532891164284878 -0.069285621960536392 0 -0.29568251685582603 -0.071589435967753134 0 -0.28561909888295839 -0.079360655864953042 0 -0.29568251685582603 -0.071589435967753134 0 -0.28561909888295839 -0.079360655864953042 0 -0.29849490204505058 -0.081938345925378783 0 -0.27361062541114611 -0.085405998149086934 0 -0.28561909888295839 -0.079360655864953042 0 -0.28494676303449051 -0.09097811142482605 0 -0.29765529442092259 -0.094840601490837839 0 -0.28494676303449051 -0.09097811142482605 0 -0.29849490204505058 -0.081938345925378783 0 -0.28561909888295839 -0.079360655864953042 0 -0.28494676303449051 -0.09097811142482605 0 -0.29849490204505058 -0.081938345925378783 0 -0.29849490204505058 -0.081938345925378783 0 -0.30832877355579341 -0.086934752854072747 0 -0.3066986514807607 -0.074546990101646726 0 -0.29765529442092259 -0.094840601490837839 0 -0.29849490204505058 -0.081938345925378783 0 -0.30832877355579341 -0.086934752854072747 0 -0.30832877355579341 -0.086934752854072747 0 -0.3066986514807607 -0.074546990101646726 0 -0.31636087034116728 -0.076704125898778439 0 -0.3066986514807607 -0.074546990101646726 0 -0.31411021802290889 -0.069356746280106005 0 -0.31636087034116728 -0.076704125898778439 0 -0.29568251685582603 -0.071589435967753134 0 -0.29849490204505058 -0.081938345925378783 0 -0.3066986514807607 -0.074546990101646726 0 -0.29568251685582603 -0.071589435967753134 0 -0.3066986514807607 -0.074546990101646726 0 -0.30728911182784302 -0.064893595009923935 0 -0.29931176789370939 -0.061629941742321552 0 -0.29568251685582603 -0.071589435967753134 0 -0.30728911182784302 -0.064893595009923935 0 -0.3066986514807607 -0.074546990101646726 0 -0.30728911182784302 -0.064893595009923935 0 -0.31411021802290889 -0.069356746280106005 0 -0.30728911182784302 -0.064893595009923935 0 -0.31630436981946819 -0.062936971351065629 0 -0.31411021802290889 -0.069356746280106005 0 -0.31630436981946819 -0.062936971351065629 0 -0.31411021802290889 -0.069356746280106005 0 -0.32389808664530562 -0.067702049039115322 0 -0.31630436981946819 -0.062936971351065629 0 -0.32389808664530562 -0.067702049039115322 0 -0.32481687078849097 -0.058022226865728103 0 -0.32389808664530562 -0.067702049039115322 0 -0.3259684841043719 -0.075020057435826168 0 -0.31636087034116728 -0.076704125898778439 0 -0.31411021802290889 -0.069356746280106005 0 -0.32389808664530562 -0.067702049039115322 0 -0.31636087034116728 -0.076704125898778439 0 -0.30832877355579341 -0.086934752854072747 0 -0.32608803180755441 -0.084321365842938284 0 -0.30832877355579341 -0.086934752854072747 0 -0.31968159473222052 -0.091584555267719248 0 -0.32608803180755441 -0.084321365842938284 0 -0.30832877355579341 -0.086934752854072747 0 -0.31636087034116728 -0.076704125898778439 0 -0.32608803180755441 -0.084321365842938284 0 -0.31968159473222052 -0.091584555267719248 0 -0.32608803180755441 -0.084321365842938284 0 -0.3259684841043719 -0.075020057435826168 0 -0.31636087034116728 -0.076704125898778439 0 -0.32608803180755441 -0.084321365842938284 0 -0.31968159473222052 -0.091584555267719248 0 -0.32608803180755441 -0.084321365842938284 0 -0.34030971713070318 -0.087052614945596102 0 -0.32608803180755441 -0.084321365842938284 0 -0.34030971713070318 -0.087052614945596102 0 -0.34745734249292459 -0.081176736816750444 0 -0.32608803180755441 -0.084321365842938284 0 -0.33752694762346008 -0.07135268896247253 0 -0.34745734249292459 -0.081176736816750444 0 -0.32608803180755441 -0.084321365842938284 0 -0.34745734249292459 -0.081176736816750444 0 -0.33752694762346008 -0.07135268896247253 0 -0.3489658634393657 -0.058384012082006782 0 -0.33645864726091979 -0.05858208772264157 0 -0.33752694762346008 -0.07135268896247253 0 -0.3489658634393657 -0.058384012082006782 0 -0.32389808664530562 -0.067702049039115322 0 -0.33752694762346008 -0.07135268896247253 0 -0.33645864726091979 -0.05858208772264157 0 -0.3259684841043719 -0.075020057435826168 0 -0.32608803180755441 -0.084321365842938284 0 -0.33752694762346008 -0.07135268896247253 0 -0.32608803180755441 -0.084321365842938284 0 -0.33752694762346008 -0.07135268896247253 0 -0.32389808664530562 -0.067702049039115322 0 -0.3259684841043719 -0.075020057435826168 0 -0.33752694762346008 -0.07135268896247253 0 -0.32454403747219479 -0.1081839716812668 0 -0.30877835781368662 -0.12931532841693749 0 -0.30761934067920371 -0.1042503242997595 0 -0.32454403747219479 -0.1081839716812668 0 -0.30877835781368662 -0.12931532841693749 0 -0.32454403747219479 -0.1081839716812668 0 -0.33570809008837621 -0.11845594114356341 0 -0.30877835781368662 -0.12931532841693749 0 -0.30761934067920371 -0.1042503242997595 0 -0.31968159473222052 -0.091584555267719248 0 -0.32454403747219479 -0.1081839716812668 0 -0.34030971713070318 -0.087052614945596102 0 -0.32454403747219479 -0.1081839716812668 0 -0.34278855512837281 -0.1049294584887832 0 -0.31968159473222052 -0.091584555267719248 0 -0.34030971713070318 -0.087052614945596102 0 -0.32454403747219479 -0.1081839716812668 0 -0.34030971713070318 -0.087052614945596102 0 -0.32454403747219479 -0.1081839716812668 0 -0.32454403747219479 -0.1081839716812668 0 -0.34278855512837281 -0.1049294584887832 0 -0.33570809008837621 -0.11845594114356341 0 -0.33570809008837621 -0.11845594114356341 0 -0.35404294059136687 -0.1217835462641018 0 -0.33688620478323589 -0.13358080389391511 0 -0.34278855512837281 -0.1049294584887832 0 -0.35404294059136687 -0.1217835462641018 0 -0.35932798989652742 -0.1047455147758234 0 -0.34278855512837281 -0.1049294584887832 0 -0.33570809008837621 -0.11845594114356341 0 -0.35404294059136687 -0.1217835462641018 0 -0.34278855512837281 -0.1049294584887832 0 -0.35932798989652742 -0.1047455147758234 0 -0.35079718399447979 -0.093651592615473511 0 -0.34030971713070318 -0.087052614945596102 0 -0.34278855512837281 -0.1049294584887832 0 -0.35079718399447979 -0.093651592615473511 0 -0.35932798989652742 -0.1047455147758234 0 -0.35079718399447979 -0.093651592615473511 0 -0.36132419909701757 -0.091459041133748031 0 -0.35932798989652742 -0.1047455147758234 0 -0.37367929427193591 -0.1014825750548952 0 -0.37212838853434238 -0.11808059788504249 0 -0.35932798989652742 -0.1047455147758234 0 -0.37367929427193591 -0.1014825750548952 0 -0.36132419909701757 -0.091459041133748031 0 -0.35404294059136687 -0.1217835462641018 0 -0.37212838853434238 -0.11808059788504249 0 -0.37028068739271691 -0.13083580994494901 0 -0.35404294059136687 -0.1217835462641018 0 -0.35932798989652742 -0.1047455147758234 0 -0.37212838853434238 -0.11808059788504249 0 -0.35069420168351129 -0.07223638641294812 0 -0.34745734249292459 -0.081176736816750444 0 -0.36882665317829499 -0.078032107790563188 0 -0.36882665317829499 -0.078032107790563188 0 -0.3489658634393657 -0.058384012082006782 0 -0.35069420168351129 -0.07223638641294812 0 -0.36882665317829499 -0.078032107790563188 0 -0.3489658634393657 -0.058384012082006782 0 -0.33752694762346008 -0.07135268896247253 0 -0.35069420168351129 -0.07223638641294812 0 -0.3489658634393657 -0.058384012082006782 0 -0.33752694762346008 -0.07135268896247253 0 -0.35069420168351129 -0.07223638641294812 0 -0.34745734249292459 -0.081176736816750444 0 -0.34745734249292459 -0.081176736816750444 0 -0.36882665317829499 -0.078032107790563188 0 -0.34745734249292459 -0.081176736816750444 0 -0.36132419909701757 -0.091459041133748031 0 -0.36882665317829499 -0.078032107790563188 0 -0.34030971713070318 -0.087052614945596102 0 -0.34745734249292459 -0.081176736816750444 0 -0.35079718399447979 -0.093651592615473511 0 -0.34745734249292459 -0.081176736816750444 0 -0.35079718399447979 -0.093651592615473511 0 -0.36132419909701757 -0.091459041133748031 0 -0.37367929427193591 -0.1014825750548952 0 -0.36132419909701757 -0.091459041133748031 0 -0.36882665317829499 -0.078032107790563188 0 -0.36882665317829499 -0.078032107790563188 0 -0.36862349457690058 -0.057461967220355487 0 -0.3489658634393657 -0.058384012082006782 0 -0.36882665317829499 -0.078032107790563188 0 -0.36862349457690058 -0.057461967220355487 0 -0.37947166312044489 -0.067272628224985004 0 -0.36862349457690058 -0.057461967220355487 0 -0.3489658634393657 -0.058384012082006782 0 -0.36066681755822472 -0.045118253717945672 0 -0.36862349457690058 -0.057461967220355487 0 -0.37355784227175309 -0.045246792894939887 0 -0.3815482533063424 -0.052412606119804542 0 -0.36862349457690058 -0.057461967220355487 0 -0.36066681755822472 -0.045118253717945672 0 -0.37355784227175309 -0.045246792894939887 0 -0.3489658634393657 -0.058384012082006782 0 -0.36066681755822472 -0.045118253717945672 0 -0.3489658634393657 -0.058384012082006782 0 -0.34511111307690212 -0.046137334811030092 0 -0.36066681755822472 -0.045118253717945672 0 -0.35304062521722218 -0.036039659744318157 0 -0.3553139768507978 -0.023567241021099371 0 -0.33371347875736079 -0.040226824134751989 0 -0.34511111307690212 -0.046137334811030092 0 -0.35304062521722218 -0.036039659744318157 0 -0.33371347875736079 -0.040226824134751989 0 -0.34511111307690212 -0.046137334811030092 0 -0.35304062521722218 -0.036039659744318157 0 -0.36066681755822472 -0.045118253717945672 0 -0.36066681755822472 -0.045118253717945672 0 -0.37236777167708351 -0.031852495353884333 0 -0.35304062521722218 -0.036039659744318157 0 -0.37236777167708351 -0.031852495353884333 0 -0.35304062521722218 -0.036039659744318157 0 -0.36066681755822472 -0.045118253717945672 0 -0.37236777167708351 -0.031852495353884333 0 -0.36066681755822472 -0.045118253717945672 0 -0.37355784227175309 -0.045246792894939887 0 -0.37236777167708351 -0.031852495353884333 0 -0.37236777167708351 -0.031852495353884333 0 -0.3739022591900184 -0.02415390189740213 0 -0.36770044175442279 -0.02036669541201027 0 -0.37236777167708351 -0.031852495353884333 0 -0.36770044175442279 -0.02036669541201027 0 -0.3553139768507978 -0.023567241021099371 0 -0.36770044175442279 -0.02036669541201027 0 -0.35847393927256738 -0.010652033510738681 0 -0.38297625517291389 -0.017448943304264108 0 -0.35304062521722218 -0.036039659744318157 0 -0.37236777167708351 -0.031852495353884333 0 -0.3553139768507978 -0.023567241021099371 0 -0.3739022591900184 -0.02415390189740213 0 -0.36770044175442279 -0.02036669541201027 0 -0.38297625517291389 -0.017448943304264108 0 -0.36770044175442279 -0.02036669541201027 0 -0.35847393927256738 -0.010652033510738681 0 -0.3553139768507978 -0.023567241021099371 0 -0.35847393927256738 -0.010652033510738681 0 -0.38297625517291389 -0.017448943304264108 0 -0.37278444596104371 -0.0079457960458173115 0 -0.35847393927256738 -0.010652033510738681 0 -0.38297625517291389 -0.017448943304264108 0 -0.37474494217865062 -0.0022388935110706832 0 -0.37278444596104371 -0.0079457960458173115 0 -0.36307869926690151 -0.00068504054922277494 0 -0.37278444596104371 -0.0079457960458173115 0 -0.36307869926690151 -0.00068504054922277494 0 -0.35847393927256738 -0.010652033510738681 0 -0.36307869926690151 -0.00068504054922277494 0 -0.34718119132474479 -0.01384164818341615 0 -0.36064890389212972 0.0125435277679194 0 -0.36307869926690151 -0.00068504054922277494 0 -0.35847393927256738 -0.010652033510738681 0 -0.34718119132474479 -0.01384164818341615 0 -0.34718119132474479 -0.01384164818341615 0 -0.36064890389212972 0.0125435277679194 0 -0.34718119132474479 -0.01384164818341615 0 -0.3553139768507978 -0.023567241021099371 0 -0.33371347875736079 -0.040226824134751989 0 -0.35847393927256738 -0.010652033510738681 0 -0.34718119132474479 -0.01384164818341615 0 -0.3553139768507978 -0.023567241021099371 0 -0.34718119132474479 -0.01384164818341615 0 -0.33035884889608558 -0.02420969997450095 0 -0.33371347875736079 -0.040226824134751989 0 -0.34718119132474479 -0.01384164818341615 0 -0.33371347875736079 -0.040226824134751989 0 -0.34718119132474479 -0.01384164818341615 0 -0.32828291010712762 -0.0049346835118845543 0 -0.34055428987364128 0.0059527955302196532 0 -0.34718119132474479 -0.01384164818341615 0 -0.33035884889608558 -0.02420969997450095 0 -0.32828291010712762 -0.0049346835118845543 0 -0.31144738423897378 -0.02126732740536201 0 -0.32828291010712762 -0.0049346835118845543 0 -0.31177688145040278 0.0050359958776742568 0 -0.31144738423897378 -0.02126732740536201 0 -0.33116928005221918 -0.040778016637091109 0 -0.31144738423897378 -0.02126732740536201 0 -0.33035884889608558 -0.02420969997450095 0 -0.32828291010712762 -0.0049346835118845543 0 -0.31144738423897378 -0.02126732740536201 0 -0.33035884889608558 -0.02420969997450095 0 -0.33116928005221918 -0.040778016637091109 0 -0.3023660715744253 -0.047018139519123002 0 -0.31110423911055801 -0.035316851109560482 0 -0.33116928005221918 -0.040778016637091109 0 -0.3023660715744253 -0.047018139519123002 0 -0.31025625293594222 -0.050033124508212908 0 -0.33116928005221918 -0.040778016637091109 0 -0.3023660715744253 -0.047018139519123002 0 -0.33116928005221918 -0.040778016637091109 0 -0.31144738423897378 -0.02126732740536201 0 -0.31110423911055801 -0.035316851109560482 0 -0.33116928005221918 -0.040778016637091109 0 -0.31025625293594222 -0.050033124508212908 0 -0.31770057673851387 -0.05020147555903863 0 -0.33116928005221918 -0.040778016637091109 0 -0.31025625293594222 -0.050033124508212908 0 -0.31770057673851387 -0.05020147555903863 0 -0.31405483352543062 -0.056831087900065053 0 -0.31770057673851387 -0.05020147555903863 0 -0.31405483352543062 -0.056831087900065053 0 -0.31936567051967829 -0.054711673150449433 0 -0.31630436981946819 -0.062936971351065629 0 -0.31936567051967829 -0.054711673150449433 0 -0.32481687078849097 -0.058022226865728103 0 -0.30728911182784302 -0.064893595009923935 0 -0.31630436981946819 -0.062936971351065629 0 -0.31405483352543062 -0.056831087900065053 0 -0.31630436981946819 -0.062936971351065629 0 -0.31405483352543062 -0.056831087900065053 0 -0.31936567051967829 -0.054711673150449433 0 -0.31770057673851387 -0.05020147555903863 0 -0.32448711316898249 -0.050622394842538963 0 -0.33116928005221918 -0.040778016637091109 0 -0.31936567051967829 -0.054711673150449433 0 -0.32481687078849097 -0.058022226865728103 0 -0.32448711316898249 -0.050622394842538963 0 -0.31770057673851387 -0.05020147555903863 0 -0.31936567051967829 -0.054711673150449433 0 -0.32448711316898249 -0.050622394842538963 0 -0.32481687078849097 -0.058022226865728103 0 -0.32770904195502032 -0.053173566283506987 0 -0.32448711316898249 -0.050622394842538963 0 -0.32770904195502032 -0.053173566283506987 0 -0.32448711316898249 -0.050622394842538963 0 -0.32972533979495861 -0.048040159006195682 0 -0.3489658634393657 -0.058384012082006782 0 -0.34511111307690212 -0.046137334811030092 0 -0.3326728772282519 -0.042265511425067279 0 -0.32972533979495861 -0.048040159006195682 0 -0.33645864726091979 -0.05858208772264157 0 -0.3326728772282519 -0.042265511425067279 0 -0.3489658634393657 -0.058384012082006782 0 -0.3326728772282519 -0.042265511425067279 0 -0.32770904195502032 -0.053173566283506987 0 -0.32972533979495861 -0.048040159006195682 0 -0.33645864726091979 -0.05858208772264157 0 -0.3489658634393657 -0.058384012082006782 0 -0.33645864726091979 -0.05858208772264157 0 -0.3326728772282519 -0.042265511425067279 0 -0.32389808664530562 -0.067702049039115322 0 -0.32481687078849097 -0.058022226865728103 0 -0.33645864726091979 -0.05858208772264157 0 -0.32481687078849097 -0.058022226865728103 0 -0.32770904195502032 -0.053173566283506987 0 -0.33645864726091979 -0.05858208772264157 0 -0.34511111307690212 -0.046137334811030092 0 -0.33371347875736079 -0.040226824134751989 0 -0.3326728772282519 -0.042265511425067279 0 -0.33035884889608558 -0.02420969997450095 0 -0.33116928005221918 -0.040778016637091109 0 -0.33371347875736079 -0.040226824134751989 0 -0.35304062521722218 -0.036039659744318157 0 -0.33371347875736079 -0.040226824134751989 0 -0.32448711316898249 -0.050622394842538963 0 -0.32972533979495861 -0.048040159006195682 0 -0.33116928005221918 -0.040778016637091109 0 -0.33116928005221918 -0.040778016637091109 0 -0.3326728772282519 -0.042265511425067279 0 -0.32972533979495861 -0.048040159006195682 0 -0.3326728772282519 -0.042265511425067279 0 -0.32972533979495861 -0.048040159006195682 0 -0.33116928005221918 -0.040778016637091109 0 -0.3326728772282519 -0.042265511425067279 0 -0.33116928005221918 -0.040778016637091109 0 -0.33371347875736079 -0.040226824134751989 0 -0.33116928005221918 -0.040778016637091109 0 -0.33371347875736079 -0.040226824134751989 0 -0.3326728772282519 -0.042265511425067279 0 -0.33371347875736079 -0.040226824134751989 0 -0.3326728772282519 -0.042265511425067279 0 -0.2907170577323625 -0.25177677077710309 0 -0.30853150187083839 -0.25429835417001312 0 -0.30748271917561598 -0.2431056607245809 0 -0.30748271917561598 -0.2431056607245809 0 -0.3004866401015065 -0.2269264896544945 0 -0.32066485276457768 -0.2334308190911655 0 -0.2907170577323625 -0.25177677077710309 0 -0.30748271917561598 -0.2431056607245809 0 -0.3004866401015065 -0.2269264896544945 0 -0.30853150187083839 -0.25429835417001312 0 -0.30748271917561598 -0.2431056607245809 0 -0.32023222063025569 -0.2489608815952247 0 -0.3004866401015065 -0.2269264896544945 0 -0.27575903677895092 -0.22208668823385669 0 -0.3004866401015065 -0.2269264896544945 0 -0.27309361240676189 -0.24179026653703889 0 -0.27575903677895092 -0.22208668823385669 0 -0.3004866401015065 -0.2269264896544945 0 -0.27575903677895092 -0.22208668823385669 0 -0.29482007196541532 -0.2089319155152673 0 -0.2907170577323625 -0.25177677077710309 0 -0.3004866401015065 -0.2269264896544945 0 -0.27309361240676189 -0.24179026653703889 0 -0.27309361240676189 -0.24179026653703889 0 -0.25431856302814809 -0.24833495949118861 0 -0.25103143345639523 -0.21724688681321891 0 -0.27575903677895092 -0.22208668823385669 0 -0.25103143345639523 -0.21724688681321891 0 -0.27309361240676189 -0.24179026653703889 0 -0.27575903677895092 -0.22208668823385669 0 -0.25103143345639523 -0.21724688681321891 0 -0.27575903677895092 -0.22208668823385669 0 -0.25103143345639523 -0.21724688681321891 0 -0.27708552823660842 -0.19790031786117671 0 -0.25103143345639523 -0.21724688681321891 0 -0.25418198431724581 -0.18809916394242601 0 -0.27708552823660842 -0.19790031786117671 0 -0.27708552823660842 -0.19790031786117671 0 -0.29482007196541532 -0.2089319155152673 0 -0.30195969341908391 -0.19078830755985379 0 -0.29482007196541532 -0.2089319155152673 0 -0.30195969341908391 -0.19078830755985379 0 -0.32674672588845421 -0.2120308859258328 0 -0.3004866401015065 -0.2269264896544945 0 -0.29482007196541532 -0.2089319155152673 0 -0.32674672588845421 -0.2120308859258328 0 -0.27575903677895092 -0.22208668823385669 0 -0.27708552823660842 -0.19790031786117671 0 -0.29482007196541532 -0.2089319155152673 0 -0.30195969341908391 -0.19078830755985379 0 -0.30674796742087651 -0.1684647150882764 0 -0.32123008678095788 -0.18729232698745699 0 -0.30674796742087651 -0.1684647150882764 0 -0.2930126781551784 -0.15044668515260809 0 -0.3206808779707625 -0.15110047818677941 0 -0.27724699849667023 -0.17157804188827869 0 -0.2930126781551784 -0.15044668515260809 0 -0.30674796742087651 -0.1684647150882764 0 -0.27724699849667023 -0.17157804188827869 0 -0.2930126781551784 -0.15044668515260809 0 -0.27708552823660842 -0.19790031786117671 0 -0.30195969341908391 -0.19078830755985379 0 -0.27724699849667023 -0.17157804188827869 0 -0.30195969341908391 -0.19078830755985379 0 -0.30674796742087651 -0.1684647150882764 0 -0.27724699849667023 -0.17157804188827869 0 -0.25418198431724581 -0.18809916394242601 0 -0.27708552823660842 -0.19790031786117671 0 -0.27724699849667023 -0.17157804188827869 0 -0.25418198431724581 -0.18809916394242601 0 -0.2565438833259911 -0.1687602707777138 0 -0.27724699849667023 -0.17157804188827869 0 -0.2435592126657353 -0.1561425335328199 0 -0.2565438833259911 -0.1687602707777138 0 -0.26683780591716472 -0.14870377212940841 0 -0.27724699849667023 -0.17157804188827869 0 -0.26683780591716472 -0.14870377212940841 0 -0.2930126781551784 -0.15044668515260809 0 -0.2565438833259911 -0.1687602707777138 0 -0.27724699849667023 -0.17157804188827869 0 -0.26683780591716472 -0.14870377212940841 0 -0.2435592126657353 -0.1561425335328199 0 -0.2432602079730701 -0.13485583854350039 0 -0.26683780591716472 -0.14870377212940841 0 -0.2432602079730701 -0.13485583854350039 0 -0.26490928006600228 -0.12397715003998409 0 -0.26683780591716472 -0.14870377212940841 0 -0.26490928006600228 -0.12397715003998409 0 -0.26683780591716472 -0.14870377212940841 0 -0.28428672055728371 -0.13281235115180859 0 -0.28428672055728371 -0.13281235115180859 0 -0.2930126781551784 -0.15044668515260809 0 -0.30877835781368662 -0.12931532841693749 0 -0.26683780591716472 -0.14870377212940841 0 -0.28428672055728371 -0.13281235115180859 0 -0.2930126781551784 -0.15044668515260809 0 -0.2930126781551784 -0.15044668515260809 0 -0.30877835781368662 -0.12931532841693749 0 -0.3206808779707625 -0.15110047818677941 0 -0.2930126781551784 -0.15044668515260809 0 -0.30877835781368662 -0.12931532841693749 0 -0.33570809008837621 -0.11845594114356341 0 -0.30877835781368662 -0.12931532841693749 0 -0.33688620478323589 -0.13358080389391511 0 -0.30877835781368662 -0.12931532841693749 0 -0.3206808779707625 -0.15110047818677941 0 -0.33688620478323589 -0.13358080389391511 0 -0.3206808779707625 -0.15110047818677941 0 -0.33688620478323589 -0.13358080389391511 0 -0.34399943231138669 -0.15408109000358611 0 -0.33688620478323589 -0.13358080389391511 0 -0.35929992868189681 -0.1386942596847188 0 -0.35404294059136687 -0.1217835462641018 0 -0.33688620478323589 -0.13358080389391511 0 -0.35929992868189681 -0.1386942596847188 0 -0.35404294059136687 -0.1217835462641018 0 -0.35929992868189681 -0.1386942596847188 0 -0.37028068739271691 -0.13083580994494901 0 -0.35929992868189681 -0.1386942596847188 0 -0.37028068739271691 -0.13083580994494901 0 -0.3804539816512269 -0.14482329966991631 0 -0.35929992868189681 -0.1386942596847188 0 -0.3804539816512269 -0.14482329966991631 0 -0.35929992868189681 -0.1386942596847188 0 -0.3655172116091886 -0.15688196674787641 0 -0.3804539816512269 -0.14482329966991631 0 -0.3655172116091886 -0.15688196674787641 0 -0.3804539816512269 -0.14482329966991631 0 -0.3655172116091886 -0.15688196674787641 0 -0.37839901512320262 -0.15996290040625341 0 -0.3804539816512269 -0.14482329966991631 0 -0.33688620478323589 -0.13358080389391511 0 -0.35929992868189681 -0.1386942596847188 0 -0.34399943231138669 -0.15408109000358611 0 -0.35929992868189681 -0.1386942596847188 0 -0.34399943231138669 -0.15408109000358611 0 -0.3655172116091886 -0.15688196674787641 0 -0.34399943231138669 -0.15408109000358611 0 -0.35323542112630057 -0.1671812377988513 0 -0.3655172116091886 -0.15688196674787641 0 -0.3655172116091886 -0.15688196674787641 0 -0.37378547386561772 -0.17392500984250869 0 -0.37839901512320262 -0.15996290040625341 0 -0.35323542112630057 -0.1671812377988513 0 -0.3655172116091886 -0.15688196674787641 0 -0.37378547386561772 -0.17392500984250869 0 -0.37378547386561772 -0.17392500984250869 0 -0.35240556330307887 -0.18479875362473361 0 -0.36895563931783232 -0.19259611207654981 0 -0.35323542112630057 -0.1671812377988513 0 -0.37378547386561772 -0.17392500984250869 0 -0.35240556330307887 -0.18479875362473361 0 -0.35323542112630057 -0.1671812377988513 0 -0.35240556330307887 -0.18479875362473361 0 -0.33400288196205857 -0.17193246321376471 0 -0.35240556330307887 -0.18479875362473361 0 -0.33400288196205857 -0.17193246321376471 0 -0.33669316521431608 -0.19324526314955739 0 -0.33400288196205857 -0.17193246321376471 0 -0.32123008678095788 -0.18729232698745699 0 -0.33669316521431608 -0.19324526314955739 0 -0.3206808779707625 -0.15110047818677941 0 -0.34399943231138669 -0.15408109000358611 0 -0.33400288196205857 -0.17193246321376471 0 -0.34399943231138669 -0.15408109000358611 0 -0.35323542112630057 -0.1671812377988513 0 -0.33400288196205857 -0.17193246321376471 0 -0.30674796742087651 -0.1684647150882764 0 -0.3206808779707625 -0.15110047818677941 0 -0.33400288196205857 -0.17193246321376471 0 -0.30674796742087651 -0.1684647150882764 0 -0.33400288196205857 -0.17193246321376471 0 -0.32123008678095788 -0.18729232698745699 0 -0.30195969341908391 -0.19078830755985379 0 -0.32123008678095788 -0.18729232698745699 0 -0.32674672588845421 -0.2120308859258328 0 -0.32674672588845421 -0.2120308859258328 0 -0.35024140450074381 -0.20994798342056251 0 -0.32674672588845421 -0.2120308859258328 0 -0.33669316521431608 -0.19324526314955739 0 -0.35024140450074381 -0.20994798342056251 0 -0.32674672588845421 -0.2120308859258328 0 -0.35024140450074381 -0.20994798342056251 0 -0.3377174746324717 -0.2284461722996495 0 -0.32123008678095788 -0.18729232698745699 0 -0.32674672588845421 -0.2120308859258328 0 -0.33669316521431608 -0.19324526314955739 0 -0.35240556330307887 -0.18479875362473361 0 -0.36895563931783232 -0.19259611207654981 0 -0.35024140450074381 -0.20994798342056251 0 -0.35240556330307887 -0.18479875362473361 0 -0.33669316521431608 -0.19324526314955739 0 -0.35024140450074381 -0.20994798342056251 0 -0.36895563931783232 -0.19259611207654981 0 -0.37373608311303341 -0.20786508091529229 0 -0.35024140450074381 -0.20994798342056251 0 -0.37373608311303341 -0.20786508091529229 0 -0.35024140450074381 -0.20994798342056251 0 -0.37373608311303341 -0.20786508091529229 0 -0.35024140450074381 -0.20994798342056251 0 -0.36602803805366552 -0.21914337572849349 0 -0.37373608311303341 -0.20786508091529229 0 -0.36602803805366552 -0.21914337572849349 0 -0.37785639846487218 -0.21906994256996459 0 -0.35024140450074381 -0.20994798342056251 0 -0.357966965356528 -0.23170644806675769 0 -0.3377174746324717 -0.2284461722996495 0 -0.35024140450074381 -0.20994798342056251 0 -0.357966965356528 -0.23170644806675769 0 -0.36602803805366552 -0.21914337572849349 0 -0.357966965356528 -0.23170644806675769 0 -0.36602803805366552 -0.21914337572849349 0 -0.36983275924353248 -0.22875232439276311 0 -0.36602803805366552 -0.21914337572849349 0 -0.36983275924353248 -0.22875232439276311 0 -0.37785639846487218 -0.21906994256996459 0 -0.357966965356528 -0.23170644806675769 0 -0.36983275924353248 -0.22875232439276311 0 -0.37747963509906429 -0.24508953120583671 0 -0.35872453044413888 -0.25078889886649508 0 -0.357966965356528 -0.23170644806675769 0 -0.37747963509906429 -0.24508953120583671 0 -0.357966965356528 -0.23170644806675769 0 -0.34395992200845399 -0.24382677409400949 0 -0.3377174746324717 -0.2284461722996495 0 -0.35872453044413888 -0.25078889886649508 0 -0.357966965356528 -0.23170644806675769 0 -0.34395992200845399 -0.24382677409400949 0 -0.33345250408021371 -0.25331871279766999 0 -0.34395992200845399 -0.24382677409400949 0 -0.33132333615916232 -0.2411148243472106 0 -0.33345250408021371 -0.25331871279766999 0 -0.33132333615916232 -0.2411148243472106 0 -0.32023222063025569 -0.2489608815952247 0 -0.34395992200845399 -0.24382677409400949 0 -0.33132333615916232 -0.2411148243472106 0 -0.3377174746324717 -0.2284461722996495 0 -0.32674672588845421 -0.2120308859258328 0 -0.3377174746324717 -0.2284461722996495 0 -0.32066485276457768 -0.2334308190911655 0 -0.33132333615916232 -0.2411148243472106 0 -0.3377174746324717 -0.2284461722996495 0 -0.32066485276457768 -0.2334308190911655 0 -0.3004866401015065 -0.2269264896544945 0 -0.32674672588845421 -0.2120308859258328 0 -0.32066485276457768 -0.2334308190911655 0 -0.30748271917561598 -0.2431056607245809 0 -0.32066485276457768 -0.2334308190911655 0 -0.32023222063025569 -0.2489608815952247 0 -0.33132333615916232 -0.2411148243472106 0 -0.32066485276457768 -0.2334308190911655 0 -0.32023222063025569 -0.2489608815952247 0 -0.43445882011373449 -0.25478651907497341 0 -0.43806130733353449 -0.23541812032183559 0 -0.43445882011373449 -0.25478651907497341 0 -0.4258852610480256 -0.24284815888716721 0 -0.43806130733353449 -0.23541812032183559 0 -0.4258852610480256 -0.24284815888716721 0 -0.42538833238501789 -0.2333934851751748 0 -0.41698539980062188 -0.23875950084572559 0 -0.43445882011373449 -0.25478651907497341 0 -0.4258852610480256 -0.24284815888716721 0 -0.42335340856967768 -0.24893549408922019 0 -0.4258852610480256 -0.24284815888716721 0 -0.42538833238501789 -0.2333934851751748 0 -0.43806130733353449 -0.23541812032183559 0 -0.43091611572645672 -0.22699763907763329 0 -0.42538833238501789 -0.2333934851751748 0 -0.43806130733353449 -0.23541812032183559 0 -0.43091611572645672 -0.22699763907763329 0 -0.44166379455333399 -0.21604972156869759 0 -0.43806130733353449 -0.23541812032183559 0 -0.43091611572645672 -0.22699763907763329 0 -0.43133498143110582 -0.21921018883561361 0 -0.44166379455333399 -0.21604972156869759 0 -0.43133498143110582 -0.21921018883561361 0 -0.4232485836513401 -0.22477446532261011 0 -0.4232102070061276 -0.21869015764887889 0 -0.43091611572645672 -0.22699763907763329 0 -0.43133498143110582 -0.21921018883561361 0 -0.4232485836513401 -0.22477446532261011 0 -0.43091611572645672 -0.22699763907763329 0 -0.4232485836513401 -0.22477446532261011 0 -0.42538833238501789 -0.2333934851751748 0 -0.4232485836513401 -0.22477446532261011 0 -0.42538833238501789 -0.2333934851751748 0 -0.41731365953457839 -0.2310953018814938 0 -0.4232485836513401 -0.22477446532261011 0 -0.41731365953457839 -0.2310953018814938 0 -0.4121948509493269 -0.2247325638453028 0 -0.41731365953457839 -0.2310953018814938 0 -0.4080561583250083 -0.23272886934204159 0 -0.41698539980062188 -0.23875950084572559 0 -0.4232485836513401 -0.22477446532261011 0 -0.4121948509493269 -0.2247325638453028 0 -0.41685681033243982 -0.21746512418924929 0 -0.4232485836513401 -0.22477446532261011 0 -0.41685681033243982 -0.21746512418924929 0 -0.4232102070061276 -0.21869015764887889 0 -0.4121948509493269 -0.2247325638453028 0 -0.4080561583250083 -0.23272886934204159 0 -0.39971520205611372 -0.2221352637332015 0 -0.4121948509493269 -0.2247325638453028 0 -0.40807454407470489 -0.21592977391801271 0 -0.41685681033243982 -0.21746512418924929 0 -0.4121948509493269 -0.2247325638453028 0 -0.39971520205611372 -0.2221352637332015 0 -0.40807454407470489 -0.21592977391801271 0 -0.41731365953457839 -0.2310953018814938 0 -0.4121948509493269 -0.2247325638453028 0 -0.4080561583250083 -0.23272886934204159 0 -0.4080561583250083 -0.23272886934204159 0 -0.40983148527785651 -0.24118391776602099 0 -0.41698539980062188 -0.23875950084572559 0 -0.42538833238501789 -0.2333934851751748 0 -0.41731365953457839 -0.2310953018814938 0 -0.41698539980062188 -0.23875950084572559 0 -0.40983148527785651 -0.24118391776602099 0 -0.41698539980062188 -0.23875950084572559 0 -0.41627810448972868 -0.24641300060905449 0 -0.4258852610480256 -0.24284815888716721 0 -0.42335340856967768 -0.24893549408922019 0 -0.41627810448972868 -0.24641300060905449 0 -0.4258852610480256 -0.24284815888716721 0 -0.41698539980062188 -0.23875950084572559 0 -0.41627810448972868 -0.24641300060905449 0 -0.41679144862722167 -0.25169429778568547 0 -0.42335340856967768 -0.24893549408922019 0 -0.41627810448972868 -0.24641300060905449 0 -0.41385673751816382 -0.25312989710486528 0 -0.41627810448972868 -0.24641300060905449 0 -0.4086566941719203 -0.24778871483445111 0 -0.40983148527785651 -0.24118391776602099 0 -0.41627810448972868 -0.24641300060905449 0 -0.4086566941719203 -0.24778871483445111 0 -0.40282532782868952 -0.25224285689579767 0 -0.4086566941719203 -0.24778871483445111 0 -0.40022281387448849 -0.24084313907701979 0 -0.40983148527785651 -0.24118391776602099 0 -0.4086566941719203 -0.24778871483445111 0 -0.40022281387448849 -0.24084313907701979 0 -0.4080561583250083 -0.23272886934204159 0 -0.40983148527785651 -0.24118391776602099 0 -0.40022281387448849 -0.24084313907701979 0 -0.40022281387448849 -0.24084313907701979 0 -0.3903832871219331 -0.2411545733314838 0 -0.38772777019650018 -0.2315142496456449 0 -0.3938256931015453 -0.25037754026629511 0 -0.40022281387448849 -0.24084313907701979 0 -0.3903832871219331 -0.2411545733314838 0 -0.3938256931015453 -0.25037754026629511 0 -0.3903832871219331 -0.2411545733314838 0 -0.37747963509906429 -0.24508953120583671 0 -0.3903832871219331 -0.2411545733314838 0 -0.37747963509906429 -0.24508953120583671 0 -0.38772777019650018 -0.2315142496456449 0 -0.37747963509906429 -0.24508953120583671 0 -0.37785639846487218 -0.21906994256996459 0 -0.37747963509906429 -0.24508953120583671 0 -0.37785639846487218 -0.21906994256996459 0 -0.38772777019650018 -0.2315142496456449 0 -0.36983275924353248 -0.22875232439276311 0 -0.37747963509906429 -0.24508953120583671 0 -0.37785639846487218 -0.21906994256996459 0 -0.37785639846487218 -0.21906994256996459 0 -0.38772777019650018 -0.2315142496456449 0 -0.38790285805175961 -0.2167146319195192 0 -0.4080561583250083 -0.23272886934204159 0 -0.40022281387448849 -0.24084313907701979 0 -0.39971520205611372 -0.2221352637332015 0 -0.40022281387448849 -0.24084313907701979 0 -0.39971520205611372 -0.2221352637332015 0 -0.38772777019650018 -0.2315142496456449 0 -0.39971520205611372 -0.2221352637332015 0 -0.38790285805175961 -0.2167146319195192 0 -0.40022281387448849 -0.24084313907701979 0 -0.38772777019650018 -0.2315142496456449 0 -0.39971520205611372 -0.2221352637332015 0 -0.39971520205611372 -0.2221352637332015 0 -0.39723076172532301 -0.205782178410022 0 -0.40807454407470489 -0.21592977391801271 0 -0.39971520205611372 -0.2221352637332015 0 -0.39723076172532301 -0.205782178410022 0 -0.38790285805175961 -0.2167146319195192 0 -0.39723076172532301 -0.205782178410022 0 -0.41303892827123678 -0.21093405469715851 0 -0.40807454407470489 -0.21592977391801271 0 -0.37373608311303341 -0.20786508091529229 0 -0.39723076172532301 -0.205782178410022 0 -0.38370630256805799 -0.1971119561512929 0 -0.37373608311303341 -0.20786508091529229 0 -0.39723076172532301 -0.205782178410022 0 -0.38790285805175961 -0.2167146319195192 0 -0.37373608311303341 -0.20786508091529229 0 -0.39723076172532301 -0.205782178410022 0 -0.37373608311303341 -0.20786508091529229 0 -0.37785639846487218 -0.21906994256996459 0 -0.38790285805175961 -0.2167146319195192 0 -0.36895563931783232 -0.19259611207654981 0 -0.38370630256805799 -0.1971119561512929 0 -0.3831693110633177 -0.1873742460103984 0 -0.36895563931783232 -0.19259611207654981 0 -0.37373608311303341 -0.20786508091529229 0 -0.38370630256805799 -0.1971119561512929 0 -0.38370630256805799 -0.1971119561512929 0 -0.39543971762078378 -0.19194216334420211 0 -0.3831693110633177 -0.1873742460103984 0 -0.39723076172532301 -0.205782178410022 0 -0.38370630256805799 -0.1971119561512929 0 -0.39543971762078378 -0.19194216334420211 0 -0.39723076172532301 -0.205782178410022 0 -0.39543971762078378 -0.19194216334420211 0 -0.40534117689708921 -0.19634387975323889 0 -0.39543971762078378 -0.19194216334420211 0 -0.40534117689708921 -0.19634387975323889 0 -0.40730162077548249 -0.18407395049314179 0 -0.39723076172532301 -0.205782178410022 0 -0.40534117689708921 -0.19634387975323889 0 -0.42072544033761272 -0.20369927590475301 0 -0.42032122747045741 -0.1927313373696285 0 -0.42072544033761272 -0.20369927590475301 0 -0.40730162077548249 -0.18407395049314179 0 -0.42072544033761272 -0.20369927590475301 0 -0.40730162077548249 -0.18407395049314179 0 -0.40534117689708921 -0.19634387975323889 0 -0.42072544033761272 -0.20369927590475301 0 -0.40730162077548249 -0.18407395049314179 0 -0.39723076172532301 -0.205782178410022 0 -0.41303892827123678 -0.21093405469715851 0 -0.42072544033761272 -0.20369927590475301 0 -0.39723076172532301 -0.205782178410022 0 -0.42072544033761272 -0.20369927590475301 0 -0.41303892827123678 -0.21093405469715851 0 -0.40807454407470489 -0.21592977391801271 0 -0.41685681033243982 -0.21746512418924929 0 -0.41303892827123678 -0.21093405469715851 0 -0.41685681033243982 -0.21746512418924929 0 -0.42140045260962489 -0.21331085224804261 0 -0.41685681033243982 -0.21746512418924929 0 -0.42140045260962489 -0.21331085224804261 0 -0.4232102070061276 -0.21869015764887889 0 -0.41303892827123678 -0.21093405469715851 0 -0.42140045260962489 -0.21331085224804261 0 -0.42072544033761272 -0.20369927590475301 0 -0.42512182626149492 -0.2033095177213731 0 -0.43378961613155448 -0.20908682079381441 0 -0.44184138868315109 -0.20247798044170351 0 -0.42072544033761272 -0.20369927590475301 0 -0.42512182626149492 -0.2033095177213731 0 -0.43133498143110582 -0.21921018883561361 0 -0.42072544033761272 -0.20369927590475301 0 -0.42512182626149492 -0.2033095177213731 0 -0.43133498143110582 -0.21921018883561361 0 -0.42512182626149492 -0.2033095177213731 0 -0.43378961613155448 -0.20908682079381441 0 -0.43133498143110582 -0.21921018883561361 0 -0.42140045260962489 -0.21331085224804261 0 -0.4232102070061276 -0.21869015764887889 0 -0.43133498143110582 -0.21921018883561361 0 -0.42072544033761272 -0.20369927590475301 0 -0.43133498143110582 -0.21921018883561361 0 -0.42140045260962489 -0.21331085224804261 0 -0.42072544033761272 -0.20369927590475301 0 -0.43133498143110582 -0.21921018883561361 0 -0.43378961613155448 -0.20908682079381441 0 -0.44166379455333399 -0.21604972156869759 0 -0.42032122747045741 -0.1927313373696285 0 -0.44184138868315109 -0.20247798044170351 0 -0.42032122747045741 -0.1927313373696285 0 -0.43099962817645188 -0.18319011649723049 0 -0.43833565968517207 -0.19112957676178299 0 -0.42032122747045741 -0.1927313373696285 0 -0.42512182626149492 -0.2033095177213731 0 -0.44184138868315109 -0.20247798044170351 0 -0.42032122747045741 -0.1927313373696285 0 -0.43833565968517207 -0.19112957676178299 0 -0.44184138868315109 -0.20247798044170351 0 -0.42032122747045741 -0.1927313373696285 0 -0.42072544033761272 -0.20369927590475301 0 -0.42512182626149492 -0.2033095177213731 0 -0.42549584187692119 -0.17333418479170171 0 -0.43099962817645188 -0.18319011649723049 0 -0.41834400919125792 -0.18158621355319651 0 -0.42032122747045741 -0.1927313373696285 0 -0.43099962817645188 -0.18319011649723049 0 -0.41834400919125792 -0.18158621355319651 0 -0.43099962817645188 -0.18319011649723049 0 -0.43495901877196291 -0.17485617288990979 0 -0.44455133712372419 -0.18300714728765441 0 -0.42549584187692119 -0.17333418479170171 0 -0.43099962817645188 -0.18319011649723049 0 -0.43495901877196291 -0.17485617288990979 0 -0.42549584187692119 -0.17333418479170171 0 -0.43495901877196291 -0.17485617288990979 0 -0.43155613508544272 -0.1669321437644439 0 -0.43495901877196291 -0.17485617288990979 0 -0.43155613508544272 -0.1669321437644439 0 -0.44219215159727421 -0.16781727210851849 0 -0.43155613508544272 -0.1669321437644439 0 -0.43166640735559808 -0.1552039120346444 0 -0.44219215159727421 -0.16781727210851849 0 -0.43155613508544272 -0.1669321437644439 0 -0.4214232379976206 -0.16216052115063159 0 -0.43166640735559808 -0.1552039120346444 0 -0.42549584187692119 -0.17333418479170171 0 -0.43155613508544272 -0.1669321437644439 0 -0.4214232379976206 -0.16216052115063159 0 -0.42549584187692119 -0.17333418479170171 0 -0.4214232379976206 -0.16216052115063159 0 -0.41110577652129249 -0.1670682470007229 0 -0.4214232379976206 -0.16216052115063159 0 -0.41110577652129249 -0.1670682470007229 0 -0.40669002996807779 -0.1495058137550834 0 -0.41110577652129249 -0.1670682470007229 0 -0.41834400919125792 -0.18158621355319651 0 -0.40730162077548249 -0.18407395049314179 0 -0.42549584187692119 -0.17333418479170171 0 -0.41110577652129249 -0.1670682470007229 0 -0.41834400919125792 -0.18158621355319651 0 -0.42032122747045741 -0.1927313373696285 0 -0.41834400919125792 -0.18158621355319651 0 -0.40730162077548249 -0.18407395049314179 0 -0.39543971762078378 -0.19194216334420211 0 -0.40730162077548249 -0.18407395049314179 0 -0.39267839793348491 -0.17927693187167279 0 -0.40730162077548249 -0.18407395049314179 0 -0.39267839793348491 -0.17927693187167279 0 -0.39387780121335469 -0.16444862508152899 0 -0.40730162077548249 -0.18407395049314179 0 -0.39387780121335469 -0.16444862508152899 0 -0.37378547386561772 -0.17392500984250869 0 -0.36895563931783232 -0.19259611207654981 0 -0.3831693110633177 -0.1873742460103984 0 -0.37378547386561772 -0.17392500984250869 0 -0.39267839793348491 -0.17927693187167279 0 -0.3831693110633177 -0.1873742460103984 0 -0.37378547386561772 -0.17392500984250869 0 -0.39267839793348491 -0.17927693187167279 0 -0.39387780121335469 -0.16444862508152899 0 -0.39543971762078378 -0.19194216334420211 0 -0.39267839793348491 -0.17927693187167279 0 -0.3831693110633177 -0.1873742460103984 0 -0.37378547386561772 -0.17392500984250869 0 -0.37839901512320262 -0.15996290040625341 0 -0.39387780121335469 -0.16444862508152899 0 -0.37839901512320262 -0.15996290040625341 0 -0.39387780121335469 -0.16444862508152899 0 -0.3804539816512269 -0.14482329966991631 0 -0.41110577652129249 -0.1670682470007229 0 -0.39387780121335469 -0.16444862508152899 0 -0.40669002996807779 -0.1495058137550834 0 -0.41110577652129249 -0.1670682470007229 0 -0.40730162077548249 -0.18407395049314179 0 -0.39387780121335469 -0.16444862508152899 0 -0.39387780121335469 -0.16444862508152899 0 -0.3804539816512269 -0.14482329966991631 0 -0.40669002996807779 -0.1495058137550834 0 -0.3804539816512269 -0.14482329966991631 0 -0.39647179587780151 -0.13189450107720049 0 -0.40669002996807779 -0.1495058137550834 0 -0.3804539816512269 -0.14482329966991631 0 -0.40669002996807779 -0.1495058137550834 0 -0.39387780121335469 -0.16444862508152899 0 -0.3804539816512269 -0.14482329966991631 0 -0.3804539816512269 -0.14482329966991631 0 -0.38278168804071749 -0.12940228238898679 0 -0.39647179587780151 -0.13189450107720049 0 -0.3804539816512269 -0.14482329966991631 0 -0.39647179587780151 -0.13189450107720049 0 -0.37212838853434238 -0.11808059788504249 0 -0.37028068739271691 -0.13083580994494901 0 -0.38278168804071749 -0.12940228238898679 0 -0.37028068739271691 -0.13083580994494901 0 -0.3804539816512269 -0.14482329966991631 0 -0.38278168804071749 -0.12940228238898679 0 -0.38278168804071749 -0.12940228238898679 0 -0.39647179587780151 -0.13189450107720049 0 -0.39044023874876249 -0.11757149150947201 0 -0.39647179587780151 -0.13189450107720049 0 -0.40828286160401828 -0.1310364195873514 0 -0.40669002996807779 -0.1495058137550834 0 -0.39647179587780151 -0.13189450107720049 0 -0.40828286160401828 -0.1310364195873514 0 -0.41122993917504558 -0.1199812866788818 0 -0.39647179587780151 -0.13189450107720049 0 -0.41122993917504558 -0.1199812866788818 0 -0.40828286160401828 -0.1310364195873514 0 -0.41930562378398423 -0.12797048681614909 0 -0.41122993917504558 -0.1199812866788818 0 -0.41930562378398423 -0.12797048681614909 0 -0.41533589961201212 -0.13938201891822019 0 -0.4273858072007774 -0.14414008567558009 0 -0.40828286160401828 -0.1310364195873514 0 -0.41533589961201212 -0.13938201891822019 0 -0.40669002996807779 -0.1495058137550834 0 -0.40828286160401828 -0.1310364195873514 0 -0.41930562378398423 -0.12797048681614909 0 -0.41533589961201212 -0.13938201891822019 0 -0.40669002996807779 -0.1495058137550834 0 -0.43166640735559808 -0.1552039120346444 0 -0.4214232379976206 -0.16216052115063159 0 -0.40669002996807779 -0.1495058137550834 0 -0.43166640735559808 -0.1552039120346444 0 -0.41533589961201212 -0.13938201891822019 0 -0.40669002996807779 -0.1495058137550834 0 -0.4273858072007774 -0.14414008567558009 0 -0.40669002996807779 -0.1495058137550834 0 -0.4273858072007774 -0.14414008567558009 0 -0.43166640735559808 -0.1552039120346444 0 -0.43166640735559808 -0.1552039120346444 0 -0.43525592456887258 -0.14374997194848471 0 -0.44410307239699631 -0.15282998285397989 0 -0.4273858072007774 -0.14414008567558009 0 -0.43166640735559808 -0.1552039120346444 0 -0.43525592456887258 -0.14374997194848471 0 -0.41930562378398423 -0.12797048681614909 0 -0.43525592456887258 -0.14374997194848471 0 -0.41930562378398423 -0.12797048681614909 0 -0.4273858072007774 -0.14414008567558009 0 -0.43525592456887258 -0.14374997194848471 0 -0.41930562378398423 -0.12797048681614909 0 -0.4273858072007774 -0.14414008567558009 0 -0.41930562378398423 -0.12797048681614909 0 -0.43525592456887258 -0.14374997194848471 0 -0.43389101300267191 -0.13422730327376839 0 -0.41930562378398423 -0.12797048681614909 0 -0.43389101300267191 -0.13422730327376839 0 -0.4149348530849476 -0.1169905694289516 0 -0.43389101300267191 -0.13422730327376839 0 -0.4149348530849476 -0.1169905694289516 0 -0.43389101300267191 -0.13422730327376839 0 -0.43160182387889101 -0.1187955019330571 0 -0.44085253015216358 -0.1237950587173612 0 -0.43389101300267191 -0.13422730327376839 0 -0.44872577578551592 -0.13320174295465559 0 -0.452847172920396 -0.1514640371185853 0 -0.44872577578551592 -0.13320174295465559 0 -0.45896755277767909 -0.12575633132281341 0 -0.45000974795797011 -0.119430952696417 0 -0.44872577578551592 -0.13320174295465559 0 -0.45000974795797011 -0.119430952696417 0 -0.44085253015216358 -0.1237950587173612 0 -0.43389101300267191 -0.13422730327376839 0 -0.44872577578551592 -0.13320174295465559 0 -0.44085253015216358 -0.1237950587173612 0 -0.43525592456887258 -0.14374997194848471 0 -0.43389101300267191 -0.13422730327376839 0 -0.452847172920396 -0.1514640371185853 0 -0.43525592456887258 -0.14374997194848471 0 -0.44410307239699631 -0.15282998285397989 0 -0.452847172920396 -0.1514640371185853 0 -0.44872577578551592 -0.13320174295465559 0 -0.452847172920396 -0.1514640371185853 0 -0.456386085566235 -0.14096643446963419 0 -0.43389101300267191 -0.13422730327376839 0 -0.452847172920396 -0.1514640371185853 0 -0.44410307239699631 -0.15282998285397989 0 -0.452847172920396 -0.1514640371185853 0 -0.45664278474311831 -0.16090201031420531 0 -0.452847172920396 -0.1514640371185853 0 -0.456386085566235 -0.14096643446963419 0 -0.46738274896045578 -0.15003021006820461 0 -0.452847172920396 -0.1514640371185853 0 -0.46738274896045578 -0.15003021006820461 0 -0.45664278474311831 -0.16090201031420531 0 -0.456386085566235 -0.14096643446963419 0 -0.46738274896045578 -0.15003021006820461 0 -0.47200539146090159 -0.13839174763128981 0 -0.456386085566235 -0.14096643446963419 0 -0.47200539146090159 -0.13839174763128981 0 -0.47750202174635031 -0.1215216316744509 0 -0.456386085566235 -0.14096643446963419 0 -0.45896755277767909 -0.12575633132281341 0 -0.47750202174635031 -0.1215216316744509 0 -0.456386085566235 -0.14096643446963419 0 -0.47750202174635031 -0.1215216316744509 0 -0.44872577578551592 -0.13320174295465559 0 -0.456386085566235 -0.14096643446963419 0 -0.45896755277767909 -0.12575633132281341 0 -0.47200539146090159 -0.13839174763128981 0 -0.48675070957056549 -0.14104871431286931 0 -0.47750202174635031 -0.1215216316744509 0 -0.50000000000000011 -0.12648838757554831 0 -0.48675070957056549 -0.14104871431286931 0 -0.5 -0.15043640832747529 0 -0.50000000000000011 -0.12648838757554831 0 -0.48675070957056549 -0.14104871431286931 0 -0.47750202174635031 -0.1215216316744509 0 -0.48675070957056549 -0.14104871431286931 0 -0.5 -0.15043640832747529 0 -0.48062174440056549 -0.15969986187448909 0 -0.46738274896045578 -0.15003021006820461 0 -0.47200539146090159 -0.13839174763128981 0 -0.48675070957056549 -0.14104871431286931 0 -0.48675070957056549 -0.14104871431286931 0 -0.48062174440056549 -0.15969986187448909 0 -0.46738274896045578 -0.15003021006820461 0 -0.48675070957056549 -0.14104871431286931 0 -0.48062174440056549 -0.15969986187448909 0 -0.48062174440056549 -0.15969986187448909 0 -0.46548313673471758 -0.16971310035941381 0 -0.46753260370971428 -0.1600862956540782 0 -0.46738274896045578 -0.15003021006820461 0 -0.48062174440056549 -0.15969986187448909 0 -0.46753260370971428 -0.1600862956540782 0 -0.48062174440056549 -0.15969986187448909 0 -0.47449277923056221 -0.17835100943610771 0 -0.46548313673471758 -0.16971310035941381 0 -0.48062174440056549 -0.15969986187448909 0 -0.47449277923056221 -0.17835100943610771 0 -0.5 -0.15043640832747529 0 -0.48062174440056549 -0.15969986187448909 0 -0.49999999999999828 -0.17438442907940241 0 -0.48062174440056549 -0.15969986187448909 0 -0.49999999999999828 -0.17438442907940241 0 -0.47449277923056221 -0.17835100943610771 0 -0.49999999999999828 -0.17438442907940241 0 -0.47449277923056221 -0.17835100943610771 0 -0.49999999999999828 -0.17438442907940241 0 -0.47449277923056221 -0.17835100943610771 0 -0.48549376880548989 -0.19132810400505559 0 -0.47449277923056221 -0.17835100943610771 0 -0.46892716456320649 -0.19528781647494389 0 -0.47449277923056221 -0.17835100943610771 0 -0.45952205817714309 -0.18067907836188021 0 -0.46892716456320649 -0.19528781647494389 0 -0.45952205817714309 -0.18067907836188021 0 -0.46548313673471758 -0.16971310035941381 0 -0.45289664290439807 -0.17180374819378549 0 -0.47449277923056221 -0.17835100943610771 0 -0.45952205817714309 -0.18067907836188021 0 -0.47449277923056221 -0.17835100943610771 0 -0.45952205817714309 -0.18067907836188021 0 -0.46548313673471758 -0.16971310035941381 0 -0.46548313673471758 -0.16971310035941381 0 -0.46753260370971428 -0.1600862956540782 0 -0.45664278474311831 -0.16090201031420531 0 -0.46738274896045578 -0.15003021006820461 0 -0.46753260370971428 -0.1600862956540782 0 -0.45664278474311831 -0.16090201031420531 0 -0.46548313673471758 -0.16971310035941381 0 -0.45664278474311831 -0.16090201031420531 0 -0.45289664290439807 -0.17180374819378549 0 -0.45664278474311831 -0.16090201031420531 0 -0.45289664290439807 -0.17180374819378549 0 -0.44219215159727421 -0.16781727210851849 0 -0.43166640735559808 -0.1552039120346444 0 -0.45664278474311831 -0.16090201031420531 0 -0.44219215159727421 -0.16781727210851849 0 -0.43166640735559808 -0.1552039120346444 0 -0.45664278474311831 -0.16090201031420531 0 -0.43166640735559808 -0.1552039120346444 0 -0.44410307239699631 -0.15282998285397989 0 -0.45664278474311831 -0.16090201031420531 0 -0.43495901877196291 -0.17485617288990979 0 -0.44219215159727421 -0.16781727210851849 0 -0.44455133712372419 -0.18300714728765441 0 -0.43099962817645188 -0.18319011649723049 0 -0.44455133712372419 -0.18300714728765441 0 -0.43833565968517207 -0.19112957676178299 0 -0.45952205817714309 -0.18067907836188021 0 -0.44455133712372419 -0.18300714728765441 0 -0.45396471697207569 -0.194241302212698 0 -0.45952205817714309 -0.18067907836188021 0 -0.44455133712372419 -0.18300714728765441 0 -0.45952205817714309 -0.18067907836188021 0 -0.45289664290439807 -0.17180374819378549 0 -0.44455133712372419 -0.18300714728765441 0 -0.45289664290439807 -0.17180374819378549 0 -0.44219215159727421 -0.16781727210851849 0 -0.44455133712372419 -0.18300714728765441 0 -0.44455133712372419 -0.18300714728765441 0 -0.43833565968517207 -0.19112957676178299 0 -0.45396471697207569 -0.194241302212698 0 -0.43833565968517207 -0.19112957676178299 0 -0.44184138868315109 -0.20247798044170351 0 -0.45396471697207569 -0.194241302212698 0 -0.44184138868315109 -0.20247798044170351 0 -0.46336154989584488 -0.2122246235137781 0 -0.45396471697207569 -0.194241302212698 0 -0.44184138868315109 -0.20247798044170351 0 -0.46336154989584488 -0.2122246235137781 0 -0.45338394269579491 -0.2190794284651259 0 -0.43378961613155448 -0.20908682079381441 0 -0.44184138868315109 -0.20247798044170351 0 -0.44166379455333399 -0.21604972156869759 0 -0.44184138868315109 -0.20247798044170351 0 -0.44166379455333399 -0.21604972156869759 0 -0.45338394269579491 -0.2190794284651259 0 -0.44184138868315109 -0.20247798044170351 0 -0.46336154989584488 -0.2122246235137781 0 -0.46336154989584488 -0.2122246235137781 0 -0.46892716456320649 -0.19528781647494389 0 -0.46336154989584488 -0.2122246235137781 0 -0.45396471697207569 -0.194241302212698 0 -0.46892716456320649 -0.19528781647494389 0 -0.45952205817714309 -0.18067907836188021 0 -0.45396471697207569 -0.194241302212698 0 -0.46892716456320649 -0.19528781647494389 0 -0.47449277923056221 -0.17835100943610771 0 -0.46892716456320649 -0.19528781647494389 0 -0.48549376880548989 -0.19132810400505559 0 -0.46892716456320649 -0.19528781647494389 0 -0.48549376880548989 -0.19132810400505559 0 -0.47978640147694102 -0.20418872613165631 0 -0.5 -0.20182215567114031 0 -0.48549376880548989 -0.19132810400505559 0 -0.47978640147694102 -0.20418872613165631 0 -0.49999999999999828 -0.17438442907940241 0 -0.5 -0.20182215567114031 0 -0.48549376880548989 -0.19132810400505559 0 -0.5 -0.20182215567114031 0 -0.48114952412016337 -0.22028093099336349 0 -0.49893749834448198 -0.22833723847294871 0 -0.5 -0.20182215567114031 0 -0.47978640147694102 -0.20418872613165631 0 -0.48114952412016337 -0.22028093099336349 0 -0.46336154989584488 -0.2122246235137781 0 -0.48114952412016337 -0.22028093099336349 0 -0.46336154989584488 -0.2122246235137781 0 -0.47978640147694102 -0.20418872613165631 0 -0.48114952412016337 -0.22028093099336349 0 -0.46336154989584488 -0.2122246235137781 0 -0.46892716456320649 -0.19528781647494389 0 -0.47978640147694102 -0.20418872613165631 0 -0.46336154989584488 -0.2122246235137781 0 -0.48114952412016337 -0.22028093099336349 0 -0.46857810181099829 -0.22486784275082261 0 -0.48114952412016337 -0.22028093099336349 0 -0.48798868478634799 -0.231470988200419 0 -0.47142395938804471 -0.23802335247430181 0 -0.48114952412016337 -0.22028093099336349 0 -0.47142395938804471 -0.23802335247430181 0 -0.46857810181099829 -0.22486784275082261 0 -0.48114952412016337 -0.22028093099336349 0 -0.48798868478634799 -0.231470988200419 0 -0.49893749834448198 -0.22833723847294871 0 -0.48114952412016337 -0.22028093099336349 0 -0.49893749834448198 -0.22833723847294871 0 -0.48798868478634799 -0.231470988200419 0 -0.49893749834448198 -0.22833723847294871 0 -0.4875835208682564 -0.24248539692068891 0 -0.5 -0.25669760885461612 0 -0.49893749834448198 -0.22833723847294871 0 -0.4875835208682564 -0.24248539692068891 0 -0.48798868478634799 -0.231470988200419 0 -0.4875835208682564 -0.24248539692068891 0 -0.47142395938804471 -0.23802335247430181 0 -0.47878778985378329 -0.25835102983948688 0 -0.4875835208682564 -0.24248539692068891 0 -0.47142395938804471 -0.23802335247430181 0 -0.45662330498375908 -0.25656877445722759 0 -0.47142395938804471 -0.23802335247430181 0 -0.45034617445999431 -0.24335722649563979 0 -0.47142395938804471 -0.23802335247430181 0 -0.45735065046854989 -0.23051648340969341 0 -0.45034617445999431 -0.24335722649563979 0 -0.46336154989584488 -0.2122246235137781 0 -0.46857810181099829 -0.22486784275082261 0 -0.45735065046854989 -0.23051648340969341 0 -0.46336154989584488 -0.2122246235137781 0 -0.45735065046854989 -0.23051648340969341 0 -0.47142395938804471 -0.23802335247430181 0 -0.46857810181099829 -0.22486784275082261 0 -0.45735065046854989 -0.23051648340969341 0 -0.46336154989584488 -0.2122246235137781 0 -0.45338394269579491 -0.2190794284651259 0 -0.45735065046854989 -0.23051648340969341 0 -0.45338394269579491 -0.2190794284651259 0 -0.45735065046854989 -0.23051648340969341 0 -0.43806130733353449 -0.23541812032183559 0 -0.44166379455333399 -0.21604972156869759 0 -0.43806130733353449 -0.23541812032183559 0 -0.44166379455333399 -0.21604972156869759 0 -0.45338394269579491 -0.2190794284651259 0 -0.43806130733353449 -0.23541812032183559 0 -0.45735065046854989 -0.23051648340969341 0 -0.45034617445999431 -0.24335722649563979 0 -0.43806130733353449 -0.23541812032183559 0 -0.43445882011373449 -0.25478651907497341 0 -0.45034617445999431 -0.24335722649563979 0 -0.43806130733353449 -0.23541812032183559 0 -0.41324955929443102 -0.038374170610562031 0 -0.41005136228565903 -0.05540387285823338 0 -0.42435348212729052 -0.04457483879584373 0 -0.41324955929443102 -0.038374170610562031 0 -0.41005136228565903 -0.05540387285823338 0 -0.39900851660089293 -0.046429079601448257 0 -0.41324955929443102 -0.038374170610562031 0 -0.40747857107326091 -0.02424585309778798 0 -0.40045416304880688 -0.034240371911693122 0 -0.41005136228565903 -0.05540387285823338 0 -0.4246600563061857 -0.059067830999859447 0 -0.41422906440869389 -0.068128229862373102 0 -0.41005136228565903 -0.05540387285823338 0 -0.4246600563061857 -0.059067830999859447 0 -0.42435348212729052 -0.04457483879584373 0 -0.4246600563061857 -0.059067830999859447 0 -0.42435348212729052 -0.04457483879584373 0 -0.43957367317472601 -0.045089571971719818 0 -0.4246600563061857 -0.059067830999859447 0 -0.43957367317472601 -0.045089571971719818 0 -0.44544580640037118 -0.056213229689383748 0 -0.41324955929443102 -0.038374170610562031 0 -0.42435348212729052 -0.04457483879584373 0 -0.42981912379901888 -0.030443092666165631 0 -0.42435348212729052 -0.04457483879584373 0 -0.42981912379901888 -0.030443092666165631 0 -0.43957367317472601 -0.045089571971719818 0 -0.41302196833726168 -0.01226972299954816 0 -0.4392085005598273 -0.024676348383282701 0 -0.42659341977192161 -0.010103830507352861 0 -0.41302196833726168 -0.01226972299954816 0 -0.4392085005598273 -0.024676348383282701 0 -0.42981912379901888 -0.030443092666165631 0 -0.41673372021425997 -0.022240754673565791 0 -0.4392085005598273 -0.024676348383282701 0 -0.41302196833726168 -0.01226972299954816 0 -0.41673372021425997 -0.022240754673565791 0 -0.4392085005598273 -0.024676348383282701 0 -0.43741768347029059 -0.01288367903972009 0 -0.42659341977192161 -0.010103830507352861 0 -0.4392085005598273 -0.024676348383282701 0 -0.4441818909265971 -0.00998157505946092 0 -0.42578104856505677 0.0031949168855625672 0 -0.43741768347029059 -0.01288367903972009 0 -0.4441818909265971 -0.00998157505946092 0 -0.42578104856505677 0.0031949168855625672 0 -0.43741768347029059 -0.01288367903972009 0 -0.42659341977192161 -0.010103830507352861 0 -0.42578104856505677 0.0031949168855625672 0 -0.43741768347029059 -0.01288367903972009 0 -0.42578104856505677 0.0031949168855625672 0 -0.42659341977192161 -0.010103830507352861 0 -0.41753789792717189 -0.0038843189997757009 0 -0.42578104856505677 0.0031949168855625672 0 -0.42659341977192161 -0.010103830507352861 0 -0.41753789792717189 -0.0038843189997757009 0 -0.41302196833726168 -0.01226972299954816 0 -0.41753789792717189 -0.0038843189997757009 0 -0.41302196833726168 -0.01226972299954816 0 -0.40771050441737638 -0.0035262849216432719 0 -0.41753789792717189 -0.0038843189997757009 0 -0.40771050441737638 -0.0035262849216432719 0 -0.41105156913745711 0.0034129409419674369 0 -0.42981912379901888 -0.030443092666165631 0 -0.40747857107326091 -0.02424585309778798 0 -0.41324955929443102 -0.038374170610562031 0 -0.42981912379901888 -0.030443092666165631 0 -0.40747857107326091 -0.02424585309778798 0 -0.42981912379901888 -0.030443092666165631 0 -0.41673372021425997 -0.022240754673565791 0 -0.40747857107326091 -0.02424585309778798 0 -0.41302196833726168 -0.01226972299954816 0 -0.41673372021425997 -0.022240754673565791 0 -0.40747857107326091 -0.02424585309778798 0 -0.41673372021425997 -0.022240754673565791 0 -0.40747857107326091 -0.02424585309778798 0 -0.40747857107326091 -0.02424585309778798 0 -0.38992317137517202 -0.02804917422583518 0 -0.40747857107326091 -0.02424585309778798 0 -0.38992317137517202 -0.02804917422583518 0 -0.38297625517291389 -0.017448943304264108 0 -0.40747857107326091 -0.02424585309778798 0 -0.38992317137517202 -0.02804917422583518 0 -0.40045416304880688 -0.034240371911693122 0 -0.40747857107326091 -0.02424585309778798 0 -0.39567459441968961 -0.012635194689989219 0 -0.38297625517291389 -0.017448943304264108 0 -0.40747857107326091 -0.02424585309778798 0 -0.38297625517291389 -0.017448943304264108 0 -0.41302196833726168 -0.01226972299954816 0 -0.40747857107326091 -0.02424585309778798 0 -0.39567459441968961 -0.012635194689989219 0 -0.41302196833726168 -0.01226972299954816 0 -0.40771050441737638 -0.0035262849216432719 0 -0.38683543611469601 0.0001369023841863784 0 -0.41302196833726168 -0.01226972299954816 0 -0.39567459441968961 -0.012635194689989219 0 -0.38683543611469601 0.0001369023841863784 0 -0.41302196833726168 -0.01226972299954816 0 -0.38683543611469601 0.0001369023841863784 0 -0.40771050441737638 -0.0035262849216432719 0 -0.38683543611469601 0.0001369023841863784 0 -0.40226596945639398 0.0014711925349297271 0 -0.39567459441968961 -0.012635194689989219 0 -0.38502252263107412 -0.0084426060797158468 0 -0.38683543611469601 0.0001369023841863784 0 -0.39567459441968961 -0.012635194689989219 0 -0.38502252263107412 -0.0084426060797158468 0 -0.38297625517291389 -0.017448943304264108 0 -0.38502252263107412 -0.0084426060797158468 0 -0.38009964520605882 -0.0090403485437739461 0 -0.38297625517291389 -0.017448943304264108 0 -0.37278444596104371 -0.0079457960458173115 0 -0.38009964520605882 -0.0090403485437739461 0 -0.38297625517291389 -0.017448943304264108 0 -0.37474494217865062 -0.0022388935110706832 0 -0.38502252263107412 -0.0084426060797158468 0 -0.38683543611469601 0.0001369023841863784 0 -0.37474494217865062 -0.0022388935110706832 0 -0.38502252263107412 -0.0084426060797158468 0 -0.38009964520605882 -0.0090403485437739461 0 -0.37474494217865062 -0.0022388935110706832 0 -0.37278444596104371 -0.0079457960458173115 0 -0.38009964520605882 -0.0090403485437739461 0 -0.37236777167708351 -0.031852495353884333 0 -0.38992317137517202 -0.02804917422583518 0 -0.37990921189048049 -0.023302515363219579 0 -0.37236777167708351 -0.031852495353884333 0 -0.38992317137517202 -0.02804917422583518 0 -0.38992317137517202 -0.02804917422583518 0 -0.38297625517291389 -0.017448943304264108 0 -0.37990921189048049 -0.023302515363219579 0 -0.3739022591900184 -0.02415390189740213 0 -0.38297625517291389 -0.017448943304264108 0 -0.37990921189048049 -0.023302515363219579 0 -0.37236777167708351 -0.031852495353884333 0 -0.3739022591900184 -0.02415390189740213 0 -0.37990921189048049 -0.023302515363219579 0 -0.37236777167708351 -0.031852495353884333 0 -0.37990921189048049 -0.023302515363219579 0 -0.38458287424021398 -0.039388642062709187 0 -0.39900851660089293 -0.046429079601448257 0 -0.3815482533063424 -0.052412606119804542 0 -0.37355784227175309 -0.045246792894939887 0 -0.37236777167708351 -0.031852495353884333 0 -0.38458287424021398 -0.039388642062709187 0 -0.37236777167708351 -0.031852495353884333 0 -0.38992317137517202 -0.02804917422583518 0 -0.38458287424021398 -0.039388642062709187 0 -0.37355784227175309 -0.045246792894939887 0 -0.38458287424021398 -0.039388642062709187 0 -0.3815482533063424 -0.052412606119804542 0 -0.38458287424021398 -0.039388642062709187 0 -0.39900851660089293 -0.046429079601448257 0 -0.40045416304880688 -0.034240371911693122 0 -0.38992317137517202 -0.02804917422583518 0 -0.38458287424021398 -0.039388642062709187 0 -0.40045416304880688 -0.034240371911693122 0 -0.41324955929443102 -0.038374170610562031 0 -0.39900851660089293 -0.046429079601448257 0 -0.40045416304880688 -0.034240371911693122 0 -0.39900851660089293 -0.046429079601448257 0 -0.39626447370361728 -0.06091275685647668 0 -0.3815482533063424 -0.052412606119804542 0 -0.41005136228565903 -0.05540387285823338 0 -0.39626447370361728 -0.06091275685647668 0 -0.40517181862379281 -0.066558370858305557 0 -0.41005136228565903 -0.05540387285823338 0 -0.39900851660089293 -0.046429079601448257 0 -0.39626447370361728 -0.06091275685647668 0 -0.36862349457690058 -0.057461967220355487 0 -0.3815482533063424 -0.052412606119804542 0 -0.37947166312044489 -0.067272628224985004 0 -0.3815482533063424 -0.052412606119804542 0 -0.37947166312044489 -0.067272628224985004 0 -0.39260231949431601 -0.074533368335879327 0 -0.36882665317829499 -0.078032107790563188 0 -0.39260231949431601 -0.074533368335879327 0 -0.39626447370361728 -0.06091275685647668 0 -0.3815482533063424 -0.052412606119804542 0 -0.39260231949431601 -0.074533368335879327 0 -0.3815482533063424 -0.052412606119804542 0 -0.39260231949431601 -0.074533368335879327 0 -0.36882665317829499 -0.078032107790563188 0 -0.37947166312044489 -0.067272628224985004 0 -0.39260231949431601 -0.074533368335879327 0 -0.36882665317829499 -0.078032107790563188 0 -0.39260231949431601 -0.074533368335879327 0 -0.39002829617667018 -0.099006697234722524 0 -0.36882665317829499 -0.078032107790563188 0 -0.39002829617667018 -0.099006697234722524 0 -0.37367929427193591 -0.1014825750548952 0 -0.36882665317829499 -0.078032107790563188 0 -0.39002829617667018 -0.099006697234722524 0 -0.39260231949431601 -0.074533368335879327 0 -0.39002829617667018 -0.099006697234722524 0 -0.39510370691593599 -0.098958215311000047 0 -0.39260231949431601 -0.074533368335879327 0 -0.40274583300482147 -0.094831984843681591 0 -0.39260231949431601 -0.074533368335879327 0 -0.39510370691593599 -0.098958215311000047 0 -0.40274583300482147 -0.094831984843681591 0 -0.40361170428446441 -0.083317353290434007 0 -0.39260231949431601 -0.074533368335879327 0 -0.40274583300482147 -0.094831984843681591 0 -0.40361170428446441 -0.083317353290434007 0 -0.39867569396630093 -0.073639632925658519 0 -0.40696916935602839 -0.074517235882718885 0 -0.39867569396630093 -0.073639632925658519 0 -0.40517181862379281 -0.066558370858305557 0 -0.40696916935602839 -0.074517235882718885 0 -0.39626447370361728 -0.06091275685647668 0 -0.39867569396630093 -0.073639632925658519 0 -0.40517181862379281 -0.066558370858305557 0 -0.39626447370361728 -0.06091275685647668 0 -0.39867569396630093 -0.073639632925658519 0 -0.39260231949431601 -0.074533368335879327 0 -0.40361170428446441 -0.083317353290434007 0 -0.39867569396630093 -0.073639632925658519 0 -0.39260231949431601 -0.074533368335879327 0 -0.39867569396630093 -0.073639632925658519 0 -0.39260231949431601 -0.074533368335879327 0 -0.37212838853434238 -0.11808059788504249 0 -0.38278168804071749 -0.12940228238898679 0 -0.39044023874876249 -0.11757149150947201 0 -0.37367929427193591 -0.1014825750548952 0 -0.37212838853434238 -0.11808059788504249 0 -0.39044023874876249 -0.11757149150947201 0 -0.37367929427193591 -0.1014825750548952 0 -0.39044023874876249 -0.11757149150947201 0 -0.39002829617667018 -0.099006697234722524 0 -0.39510370691593599 -0.098958215311000047 0 -0.40274583300482147 -0.094831984843681591 0 -0.41288934651532883 -0.11513060135148299 0 -0.39002829617667018 -0.099006697234722524 0 -0.39510370691593599 -0.098958215311000047 0 -0.41122993917504558 -0.1199812866788818 0 -0.39510370691593599 -0.098958215311000047 0 -0.41288934651532883 -0.11513060135148299 0 -0.39647179587780151 -0.13189450107720049 0 -0.39044023874876249 -0.11757149150947201 0 -0.41122993917504558 -0.1199812866788818 0 -0.39002829617667018 -0.099006697234722524 0 -0.41122993917504558 -0.1199812866788818 0 -0.39044023874876249 -0.11757149150947201 0 -0.39002829617667018 -0.099006697234722524 0 -0.41122993917504558 -0.1199812866788818 0 -0.39510370691593599 -0.098958215311000047 0 -0.41122993917504558 -0.1199812866788818 0 -0.41288934651532883 -0.11513060135148299 0 -0.41930562378398423 -0.12797048681614909 0 -0.41122993917504558 -0.1199812866788818 0 -0.4149348530849476 -0.1169905694289516 0 -0.41930562378398423 -0.12797048681614909 0 -0.41122993917504558 -0.1199812866788818 0 -0.41930562378398423 -0.12797048681614909 0 -0.4149348530849476 -0.1169905694289516 0 -0.41122993917504558 -0.1199812866788818 0 -0.41288934651532883 -0.11513060135148299 0 -0.4149348530849476 -0.1169905694289516 0 -0.41122993917504558 -0.1199812866788818 0 -0.4149348530849476 -0.1169905694289516 0 -0.41288934651532883 -0.11513060135148299 0 -0.4149348530849476 -0.1169905694289516 0 -0.41288934651532883 -0.11513060135148299 0 -0.4149348530849476 -0.1169905694289516 0 -0.41458672172207622 -0.10427776634057311 0 -0.40274583300482147 -0.094831984843681591 0 -0.41288934651532883 -0.11513060135148299 0 -0.4149348530849476 -0.1169905694289516 0 -0.41458672172207622 -0.10427776634057311 0 -0.43059848591229039 -0.1043464168163742 0 -0.40274583300482147 -0.094831984843681591 0 -0.41288934651532883 -0.11513060135148299 0 -0.41458672172207622 -0.10427776634057311 0 -0.41458672172207622 -0.10427776634057311 0 -0.41348552386521947 -0.090840815536544176 0 -0.43025813067654672 -0.08737754853092726 0 -0.40274583300482147 -0.094831984843681591 0 -0.41458672172207622 -0.10427776634057311 0 -0.41348552386521947 -0.090840815536544176 0 -0.43059848591229039 -0.1043464168163742 0 -0.43025813067654672 -0.08737754853092726 0 -0.44626211873963212 -0.091702264203795431 0 -0.41458672172207622 -0.10427776634057311 0 -0.43059848591229039 -0.1043464168163742 0 -0.43025813067654672 -0.08737754853092726 0 -0.41458672172207622 -0.10427776634057311 0 -0.43025813067654672 -0.08737754853092726 0 -0.4149348530849476 -0.1169905694289516 0 -0.43059848591229039 -0.1043464168163742 0 -0.43160182387889101 -0.1187955019330571 0 -0.4149348530849476 -0.1169905694289516 0 -0.43059848591229039 -0.1043464168163742 0 -0.43389101300267191 -0.13422730327376839 0 -0.4149348530849476 -0.1169905694289516 0 -0.43160182387889101 -0.1187955019330571 0 -0.43059848591229039 -0.1043464168163742 0 -0.43160182387889101 -0.1187955019330571 0 -0.44003429013576911 -0.11331979272890801 0 -0.43160182387889101 -0.1187955019330571 0 -0.44085253015216358 -0.1237950587173612 0 -0.44003429013576911 -0.11331979272890801 0 -0.41422906440869389 -0.068128229862373102 0 -0.41539885585273961 -0.080089681603359497 0 -0.42594434486026628 -0.073522222089585226 0 -0.4246600563061857 -0.059067830999859447 0 -0.41422906440869389 -0.068128229862373102 0 -0.42594434486026628 -0.073522222089585226 0 -0.41005136228565903 -0.05540387285823338 0 -0.40517181862379281 -0.066558370858305557 0 -0.41422906440869389 -0.068128229862373102 0 -0.40517181862379281 -0.066558370858305557 0 -0.41422906440869389 -0.068128229862373102 0 -0.40696916935602839 -0.074517235882718885 0 -0.41422906440869389 -0.068128229862373102 0 -0.40696916935602839 -0.074517235882718885 0 -0.41539885585273961 -0.080089681603359497 0 -0.41348552386521947 -0.090840815536544176 0 -0.41539885585273961 -0.080089681603359497 0 -0.43025813067654672 -0.08737754853092726 0 -0.40361170428446441 -0.083317353290434007 0 -0.41348552386521947 -0.090840815536544176 0 -0.41539885585273961 -0.080089681603359497 0 -0.40361170428446441 -0.083317353290434007 0 -0.40696916935602839 -0.074517235882718885 0 -0.41539885585273961 -0.080089681603359497 0 -0.40361170428446441 -0.083317353290434007 0 -0.40274583300482147 -0.094831984843681591 0 -0.41348552386521947 -0.090840815536544176 0 -0.41539885585273961 -0.080089681603359497 0 -0.43025813067654672 -0.08737754853092726 0 -0.42594434486026628 -0.073522222089585226 0 -0.4246600563061857 -0.059067830999859447 0 -0.44592953963101739 -0.07047733072128165 0 -0.43025813067654672 -0.08737754853092726 0 -0.42594434486026628 -0.073522222089585226 0 -0.44592953963101739 -0.07047733072128165 0 -0.4246600563061857 -0.059067830999859447 0 -0.42594434486026628 -0.073522222089585226 0 -0.44592953963101739 -0.07047733072128165 0 -0.44592953963101739 -0.07047733072128165 0 -0.45893666683642192 -0.056450303318209168 0 -0.44592953963101739 -0.07047733072128165 0 -0.44626211873963212 -0.091702264203795431 0 -0.46192575156697407 -0.079058111591217034 0 -0.43025813067654672 -0.08737754853092726 0 -0.44592953963101739 -0.07047733072128165 0 -0.43025813067654672 -0.08737754853092726 0 -0.44592953963101739 -0.07047733072128165 0 -0.44626211873963212 -0.091702264203795431 0 -0.44626211873963212 -0.091702264203795431 0 -0.46631049206888459 -0.091444160656324658 0 -0.46192575156697407 -0.079058111591217034 0 -0.44626211873963212 -0.091702264203795431 0 -0.46192575156697407 -0.079058111591217034 0 -0.46631049206888459 -0.091444160656324658 0 -0.46192575156697407 -0.079058111591217034 0 -0.47702460168979111 -0.087157524427869615 0 -0.44592953963101739 -0.07047733072128165 0 -0.46192575156697407 -0.079058111591217034 0 -0.45893666683642192 -0.056450303318209168 0 -0.46192575156697407 -0.079058111591217034 0 -0.47491389520024407 -0.068573693827893439 0 -0.45893666683642192 -0.056450303318209168 0 -0.46192575156697407 -0.079058111591217034 0 -0.47491389520024407 -0.068573693827893439 0 -0.44592953963101739 -0.07047733072128165 0 -0.46192575156697407 -0.079058111591217034 0 -0.45000974795797011 -0.119430952696417 0 -0.44085253015216358 -0.1237950587173612 0 -0.44003429013576911 -0.11331979272890801 0 -0.45000974795797011 -0.119430952696417 0 -0.44003429013576911 -0.11331979272890801 0 -0.44926481423485548 -0.10476542824413421 0 -0.43059848591229039 -0.1043464168163742 0 -0.44626211873963212 -0.091702264203795431 0 -0.43059848591229039 -0.1043464168163742 0 -0.44626211873963212 -0.091702264203795431 0 -0.44926481423485548 -0.10476542824413421 0 -0.43059848591229039 -0.1043464168163742 0 -0.44003429013576911 -0.11331979272890801 0 -0.44926481423485548 -0.10476542824413421 0 -0.44626211873963212 -0.091702264203795431 0 -0.44926481423485548 -0.10476542824413421 0 -0.46153012095291662 -0.1019472767233552 0 -0.44626211873963212 -0.091702264203795431 0 -0.46631049206888459 -0.091444160656324658 0 -0.46153012095291662 -0.1019472767233552 0 -0.46631049206888459 -0.091444160656324658 0 -0.46153012095291662 -0.1019472767233552 0 -0.4710589232177344 -0.098453604121520433 0 -0.46153012095291662 -0.1019472767233552 0 -0.46221413283232399 -0.11366089481890911 0 -0.47430793409480421 -0.10627177682285049 0 -0.44926481423485548 -0.10476542824413421 0 -0.46153012095291662 -0.1019472767233552 0 -0.46221413283232399 -0.11366089481890911 0 -0.45896755277767909 -0.12575633132281341 0 -0.46221413283232399 -0.11366089481890911 0 -0.47750202174635031 -0.1215216316744509 0 -0.45000974795797011 -0.119430952696417 0 -0.44926481423485548 -0.10476542824413421 0 -0.46221413283232399 -0.11366089481890911 0 -0.45896755277767909 -0.12575633132281341 0 -0.45000974795797011 -0.119430952696417 0 -0.46221413283232399 -0.11366089481890911 0 -0.47750202174635031 -0.1215216316744509 0 -0.47430793409480421 -0.10627177682285049 0 -0.48673501487359588 -0.1010237797652184 0 -0.46221413283232399 -0.11366089481890911 0 -0.47750202174635031 -0.1215216316744509 0 -0.47430793409480421 -0.10627177682285049 0 -0.47430793409480421 -0.10627177682285049 0 -0.47745372589702628 -0.099742000537211661 0 -0.48673501487359588 -0.1010237797652184 0 -0.46153012095291662 -0.1019472767233552 0 -0.47430793409480421 -0.10627177682285049 0 -0.4710589232177344 -0.098453604121520433 0 -0.46631049206888459 -0.091444160656324658 0 -0.4710589232177344 -0.098453604121520433 0 -0.47771303140197108 -0.093218841439257433 0 -0.47430793409480421 -0.10627177682285049 0 -0.4710589232177344 -0.098453604121520433 0 -0.47745372589702628 -0.099742000537211661 0 -0.4710589232177344 -0.098453604121520433 0 -0.47745372589702628 -0.099742000537211661 0 -0.47771303140197108 -0.093218841439257433 0 -0.47745372589702628 -0.099742000537211661 0 -0.48673501487359588 -0.1010237797652184 0 -0.47771303140197108 -0.093218841439257433 0 -0.48673501487359588 -0.1010237797652184 0 -0.47771303140197108 -0.093218841439257433 0 -0.47702460168979111 -0.087157524427869615 0 -0.47750202174635031 -0.1215216316744509 0 -0.48673501487359588 -0.1010237797652184 0 -0.4986179579264654 -0.1020768288792674 0 -0.48673501487359588 -0.1010237797652184 0 -0.49842317329231273 -0.098636270432611556 0 -0.47702460168979111 -0.087157524427869615 0 -0.48673501487359588 -0.1010237797652184 0 -0.49842317329231273 -0.098636270432611556 0 -0.4986179579264654 -0.1020768288792674 0 -0.49999999999999939 -0.099482120969144883 0 -0.49842317329231273 -0.098636270432611556 0 -0.4986179579264654 -0.1020768288792674 0 -0.49842317329231273 -0.098636270432611556 0 -0.4986179579264654 -0.1020768288792674 0 -0.49999999999999939 -0.099482120969144883 0 -0.49842317329231273 -0.098636270432611556 0 -0.50000000000000011 -0.12648838757554831 0 -0.47750202174635031 -0.1215216316744509 0 -0.4986179579264654 -0.1020768288792674 0 -0.47750202174635031 -0.1215216316744509 0 -0.4986179579264654 -0.1020768288792674 0 -0.47491389520024407 -0.068573693827893439 0 -0.47702460168979111 -0.087157524427869615 0 -0.4847984782487687 -0.075944598732494498 0 -0.47491389520024407 -0.068573693827893439 0 -0.47702460168979111 -0.087157524427869615 0 -0.47967839073812912 -0.064727650616396362 0 -0.4847984782487687 -0.075944598732494498 0 -0.48794163871831331 -0.064119883023254248 0 -0.47967839073812912 -0.064727650616396362 0 -0.47491389520024407 -0.068573693827893439 0 -0.4847984782487687 -0.075944598732494498 0 -0.47967839073812912 -0.064727650616396362 0 -0.47491389520024407 -0.068573693827893439 0 -0.46192575156697407 -0.079058111591217034 0 -0.47702460168979111 -0.087157524427869615 0 -0.46192575156697407 -0.079058111591217034 0 -0.47491389520024407 -0.068573693827893439 0 -0.47702460168979111 -0.087157524427869615 0 -0.46631049206888459 -0.091444160656324658 0 -0.47771303140197108 -0.093218841439257433 0 -0.47702460168979111 -0.087157524427869615 0 -0.47771303140197108 -0.093218841439257433 0 -0.47702460168979111 -0.087157524427869615 0 -0.49842317329231273 -0.098636270432611556 0 -0.49712708577170861 -0.075742961183477536 0 -0.4847984782487687 -0.075944598732494498 0 -0.49999999999999939 -0.099482120969144883 0 -0.49842317329231273 -0.098636270432611556 0 -0.5 -0.078030389970551228 0 -0.49842317329231273 -0.098636270432611556 0 -0.49712708577170861 -0.075742961183477536 0 -0.49842317329231273 -0.098636270432611556 0 -0.5 -0.078030389970551228 0 -0.49712708577170861 -0.075742961183477536 0 -0.49842317329231273 -0.098636270432611556 0 -0.47702460168979111 -0.087157524427869615 0 -0.4847984782487687 -0.075944598732494498 0 -0.49842317329231273 -0.098636270432611556 0 -0.47702460168979111 -0.087157524427869615 0 -0.5 -0.078030389970551228 0 -0.49712708577170861 -0.075742961183477536 0 -0.49999999999999928 -0.056578658971957581 0 -0.49712708577170861 -0.075742961183477536 0 -0.49583099825110311 -0.052849651934343489 0 -0.49712708577170861 -0.075742961183477536 0 -0.48794163871831331 -0.064119883023254248 0 -0.49583099825110311 -0.052849651934343489 0 -0.49712708577170861 -0.075742961183477536 0 -0.4847984782487687 -0.075944598732494498 0 -0.48794163871831331 -0.064119883023254248 0 -0.49712708577170861 -0.075742961183477536 0 -0.49999999999999928 -0.056578658971957581 0 -0.49583099825110311 -0.052849651934343489 0 -0.49583099825110311 -0.052849651934343489 0 -0.47748890114140963 -0.036443372127734748 0 -0.48227324058185622 -0.051334552649559453 0 -0.49999999999999928 -0.056578658971957581 0 -0.49583099825110311 -0.052849651934343489 0 -0.49999999999999928 -0.056578658971957581 0 -0.50000000000000144 -0.053559852644015388 0 -0.49583099825110311 -0.052849651934343489 0 -0.48794163871831331 -0.064119883023254248 0 -0.49583099825110311 -0.052849651934343489 0 -0.48227324058185622 -0.051334552649559453 0 -0.50000000000000144 -0.053559852644015388 0 -0.49583099825110311 -0.052849651934343489 0 -0.48598145264485831 -0.02728491224803695 0 -0.49583099825110311 -0.052849651934343489 0 -0.47748890114140963 -0.036443372127734748 0 -0.48598145264485831 -0.02728491224803695 0 -0.50000000000000144 -0.053559852644015388 0 -0.48598145264485831 -0.02728491224803695 0 -0.50000000000000144 -0.053559852644015388 0 -0.48598145264485831 -0.02728491224803695 0 -0.5 -0.025161366008633609 0 -0.49583099825110311 -0.052849651934343489 0 -0.47748890114140963 -0.036443372127734748 0 -0.47748890114140963 -0.036443372127734748 0 -0.48598145264485831 -0.02728491224803695 0 -0.47748890114140963 -0.036443372127734748 0 -0.47194379404182718 -0.042423275915137587 0 -0.48227324058185622 -0.051334552649559453 0 -0.47748890114140963 -0.036443372127734748 0 -0.47194379404182718 -0.042423275915137587 0 -0.47748890114140963 -0.036443372127734748 0 -0.47194379404182718 -0.042423275915137587 0 -0.47056077858213702 -0.03024644074295027 0 -0.47194379404182718 -0.042423275915137587 0 -0.46539503278239303 -0.037082973767017267 0 -0.47056077858213702 -0.03024644074295027 0 -0.47194379404182718 -0.042423275915137587 0 -0.47056077858213702 -0.03024644074295027 0 -0.47748890114140963 -0.036443372127734748 0 -0.47056077858213702 -0.03024644074295027 0 -0.47748890114140963 -0.036443372127734748 0 -0.47056077858213702 -0.03024644074295027 0 -0.47745882259212458 -0.028728106929589409 0 -0.47967839073812912 -0.064727650616396362 0 -0.47491389520024407 -0.068573693827893439 0 -0.47194379404182718 -0.042423275915137587 0 -0.47967839073812912 -0.064727650616396362 0 -0.47194379404182718 -0.042423275915137587 0 -0.48227324058185622 -0.051334552649559453 0 -0.47491389520024407 -0.068573693827893439 0 -0.47194379404182718 -0.042423275915137587 0 -0.47967839073812912 -0.064727650616396362 0 -0.48794163871831331 -0.064119883023254248 0 -0.48227324058185622 -0.051334552649559453 0 -0.47491389520024407 -0.068573693827893439 0 -0.47194379404182718 -0.042423275915137587 0 -0.45893666683642192 -0.056450303318209168 0 -0.45893666683642192 -0.056450303318209168 0 -0.45743491846808387 -0.04563500224908737 0 -0.44544580640037118 -0.056213229689383748 0 -0.47194379404182718 -0.042423275915137587 0 -0.45893666683642192 -0.056450303318209168 0 -0.45743491846808387 -0.04563500224908737 0 -0.47194379404182718 -0.042423275915137587 0 -0.45893666683642192 -0.056450303318209168 0 -0.46539503278239303 -0.037082973767017267 0 -0.44890774518284438 -0.02927164544362729 0 -0.46539503278239303 -0.037082973767017267 0 -0.45215967652477718 -0.036640332234541717 0 -0.44890774518284438 -0.02927164544362729 0 -0.46539503278239303 -0.037082973767017267 0 -0.44890774518284438 -0.02927164544362729 0 -0.46189821575704781 -0.02986243911986371 0 -0.47194379404182718 -0.042423275915137587 0 -0.46539503278239303 -0.037082973767017267 0 -0.45743491846808387 -0.04563500224908737 0 -0.46539503278239303 -0.037082973767017267 0 -0.46189821575704781 -0.02986243911986371 0 -0.47056077858213702 -0.03024644074295027 0 -0.46539503278239303 -0.037082973767017267 0 -0.45743491846808387 -0.04563500224908737 0 -0.45215967652477718 -0.036640332234541717 0 -0.42981912379901888 -0.030443092666165631 0 -0.45215967652477718 -0.036640332234541717 0 -0.45743491846808387 -0.04563500224908737 0 -0.45215967652477718 -0.036640332234541717 0 -0.43957367317472601 -0.045089571971719818 0 -0.42981912379901888 -0.030443092666165631 0 -0.45215967652477718 -0.036640332234541717 0 -0.43957367317472601 -0.045089571971719818 0 -0.45743491846808387 -0.04563500224908737 0 -0.43957367317472601 -0.045089571971719818 0 -0.44544580640037118 -0.056213229689383748 0 -0.4246600563061857 -0.059067830999859447 0 -0.44592953963101739 -0.07047733072128165 0 -0.44544580640037118 -0.056213229689383748 0 -0.44592953963101739 -0.07047733072128165 0 -0.45893666683642192 -0.056450303318209168 0 -0.44544580640037118 -0.056213229689383748 0 -0.4441818909265971 -0.00998157505946092 0 -0.45588653083934588 0.00041698580085632909 0 -0.44737850259376799 0.0077656591989471307 0 -0.4441818909265971 -0.00998157505946092 0 -0.4570262928383732 -0.018140378997512391 0 -0.45633913854906122 -0.0094275687658610888 0 -0.4441818909265971 -0.00998157505946092 0 -0.45633913854906122 -0.0094275687658610888 0 -0.45588653083934588 0.00041698580085632909 0 -0.43741768347029059 -0.01288367903972009 0 -0.4441818909265971 -0.00998157505946092 0 -0.44890774518284438 -0.02927164544362729 0 -0.42981912379901888 -0.030443092666165631 0 -0.45215967652477718 -0.036640332234541717 0 -0.4392085005598273 -0.024676348383282701 0 -0.4441818909265971 -0.00998157505946092 0 -0.44890774518284438 -0.02927164544362729 0 -0.46258273328813732 -0.023158067004484729 0 -0.43741768347029059 -0.01288367903972009 0 -0.44890774518284438 -0.02927164544362729 0 -0.43741768347029059 -0.01288367903972009 0 -0.4392085005598273 -0.024676348383282701 0 -0.44890774518284438 -0.02927164544362729 0 -0.4392085005598273 -0.024676348383282701 0 -0.44890774518284438 -0.02927164544362729 0 -0.45215967652477718 -0.036640332234541717 0 -0.4392085005598273 -0.024676348383282701 0 -0.44890774518284438 -0.02927164544362729 0 -0.4441818909265971 -0.00998157505946092 0 -0.46258273328813732 -0.023158067004484729 0 -0.46258273328813732 -0.023158067004484729 0 -0.46826183959192841 -0.01000530680732737 0 -0.47056077858213702 -0.03024644074295027 0 -0.4441818909265971 -0.00998157505946092 0 -0.4570262928383732 -0.018140378997512391 0 -0.46258273328813732 -0.023158067004484729 0 -0.4570262928383732 -0.018140378997512391 0 -0.46258273328813732 -0.023158067004484729 0 -0.44890774518284438 -0.02927164544362729 0 -0.46189821575704781 -0.02986243911986371 0 -0.46258273328813732 -0.023158067004484729 0 -0.46258273328813732 -0.023158067004484729 0 -0.47056077858213702 -0.03024644074295027 0 -0.46189821575704781 -0.02986243911986371 0 -0.46258273328813732 -0.023158067004484729 0 -0.47056077858213702 -0.03024644074295027 0 -0.4570262928383732 -0.018140378997512391 0 -0.46258273328813732 -0.023158067004484729 0 -0.46826183959192841 -0.01000530680732737 0 -0.4570262928383732 -0.018140378997512391 0 -0.46826183959192841 -0.01000530680732737 0 -0.45633913854906122 -0.0094275687658610888 0 -0.46826183959192841 -0.01000530680732737 0 -0.45633913854906122 -0.0094275687658610888 0 -0.45588653083934588 0.00041698580085632909 0 -0.46826183959192841 -0.01000530680732737 0 -0.47597217662329228 -0.0085245425598697612 0 -0.4659629006017233 0.010235827128295859 0 -0.46826183959192841 -0.01000530680732737 0 -0.47597217662329228 -0.0085245425598697612 0 -0.47580415800009379 -0.02093770259963601 0 -0.47597217662329228 -0.0085245425598697612 0 -0.48922725890134677 -0.010453537226696331 0 -0.48082517856277007 0.001845263919603602 0 -0.47597217662329228 -0.0085245425598697612 0 -0.47580415800009379 -0.02093770259963601 0 -0.48598145264485831 -0.02728491224803695 0 -0.47597217662329228 -0.0085245425598697612 0 -0.48598145264485831 -0.02728491224803695 0 -0.46826183959192841 -0.01000530680732737 0 -0.47056077858213702 -0.03024644074295027 0 -0.47580415800009379 -0.02093770259963601 0 -0.47597217662329228 -0.0085245425598697612 0 -0.48598145264485831 -0.02728491224803695 0 -0.4893389393206713 -0.02366416211133009 0 -0.46826183959192841 -0.01000530680732737 0 -0.47056077858213702 -0.03024644074295027 0 -0.47056077858213702 -0.03024644074295027 0 -0.47580415800009379 -0.02093770259963601 0 -0.47745882259212458 -0.028728106929589409 0 -0.47580415800009379 -0.02093770259963601 0 -0.47745882259212458 -0.028728106929589409 0 -0.48598145264485831 -0.02728491224803695 0 -0.47748890114140963 -0.036443372127734748 0 -0.47745882259212458 -0.028728106929589409 0 -0.48598145264485831 -0.02728491224803695 0 -0.48598145264485831 -0.02728491224803695 0 -0.4893389393206713 -0.02366416211133009 0 -0.5 -0.025161366008633609 0 -0.48598145264485831 -0.02728491224803695 0 -0.4893389393206713 -0.02366416211133009 0 -0.4893389393206713 -0.02366416211133009 0 -0.5 -0.025161366008633609 0 -0.48922725890134677 -0.010453537226696331 0 -0.48922725890134677 -0.010453537226696331 0 -0.5 0.0032371206267481911 0 -0.48082517856277007 0.001845263919603602 0 -0.5 -0.025161366008633609 0 -0.48922725890134677 -0.010453537226696331 0 -0.5 0.0032371206267481911 0 -0.47597217662329228 -0.0085245425598697612 0 -0.4893389393206713 -0.02366416211133009 0 -0.48922725890134677 -0.010453537226696331 0 -0.5 0.0032371206267481911 0 -0.48596576445654982 0.01457961489688041 0 -0.48082517856277007 0.001845263919603602 0 -0.48596576445654982 0.01457961489688041 0 -0.47541999506787802 0.025418180444172121 0 -0.5 0.031635607262129987 0 -0.5 0.0032371206267481911 0 -0.48596576445654982 0.01457961489688041 0 -0.5 0.031635607262129987 0 -0.48596576445654982 0.01457961489688041 0 -0.47541999506787802 0.025418180444172121 0 -0.47401658579892991 0.013489912392399149 0 -0.47541999506787802 0.025418180444172121 0 -0.46963945276383978 0.01793989872667965 0 -0.47401658579892991 0.013489912392399149 0 -0.47597217662329228 -0.0085245425598697612 0 -0.48082517856277007 0.001845263919603602 0 -0.4659629006017233 0.010235827128295859 0 -0.47401658579892991 0.013489912392399149 0 -0.48082517856277007 0.001845263919603602 0 -0.4659629006017233 0.010235827128295859 0 -0.46963945276383978 0.01793989872667965 0 -0.47401658579892991 0.013489912392399149 0 -0.4659629006017233 0.010235827128295859 0 -0.47597217662329228 -0.0085245425598697612 0 -0.4659629006017233 0.010235827128295859 0 -0.48596576445654982 0.01457961489688041 0 -0.47401658579892991 0.013489912392399149 0 -0.48082517856277007 0.001845263919603602 0 -0.5 0.060034093897511798 0 -0.47816362815030861 0.043832779932641487 0 -0.48068047186290208 0.063626500276227002 0 -0.47541999506787802 0.025418180444172121 0 -0.5 0.031635607262129987 0 -0.47816362815030861 0.043832779932641487 0 -0.5 0.060034093897511798 0 -0.5 0.031635607262129987 0 -0.47816362815030861 0.043832779932641487 0 -0.47541999506787802 0.025418180444172121 0 -0.47816362815030861 0.043832779932641487 0 -0.46442391639916691 0.036471327701905212 0 -0.47816362815030861 0.043832779932641487 0 -0.46119618507356652 0.049359273152949731 0 -0.48068047186290208 0.063626500276227002 0 -0.46119618507356652 0.049359273152949731 0 -0.46103932749027238 0.064238871702306077 0 -0.48068047186290208 0.063626500276227002 0 -0.46119618507356652 0.049359273152949731 0 -0.44286953411296898 0.045255716157198693 0 -0.46103932749027238 0.064238871702306077 0 -0.47816362815030861 0.043832779932641487 0 -0.46119618507356652 0.049359273152949731 0 -0.46442391639916691 0.036471327701905212 0 -0.46119618507356652 0.049359273152949731 0 -0.46442391639916691 0.036471327701905212 0 -0.45082509298125129 0.038608595210277222 0 -0.46442391639916691 0.036471327701905212 0 -0.45082509298125129 0.038608595210277222 0 -0.4583939967914884 0.024422211169287101 0 -0.45082509298125129 0.038608595210277222 0 -0.4583939967914884 0.024422211169287101 0 -0.46119618507356652 0.049359273152949731 0 -0.45082509298125129 0.038608595210277222 0 -0.44286953411296898 0.045255716157198693 0 -0.45082509298125129 0.038608595210277222 0 -0.4405409619944019 0.035432846457562263 0 -0.4458839614772655 0.023387518650519249 0 -0.45082509298125129 0.038608595210277222 0 -0.4405409619944019 0.035432846457562263 0 -0.44286953411296898 0.045255716157198693 0 -0.4405409619944019 0.035432846457562263 0 -0.44286953411296898 0.045255716157198693 0 -0.43229092530358848 0.04451632412921195 0 -0.44286953411296898 0.045255716157198693 0 -0.44282721760043869 0.062046251170956107 0 -0.46103932749027238 0.064238871702306077 0 -0.44286953411296898 0.045255716157198693 0 -0.44282721760043869 0.062046251170956107 0 -0.43188097302969042 0.056955122555226501 0 -0.44286953411296898 0.045255716157198693 0 -0.46103932749027238 0.064238871702306077 0 -0.46826183959192841 -0.01000530680732737 0 -0.45588653083934588 0.00041698580085632909 0 -0.4659629006017233 0.010235827128295859 0 -0.46826183959192841 -0.01000530680732737 0 -0.4659629006017233 0.010235827128295859 0 -0.45609316173783881 0.014082317838893479 0 -0.45588653083934588 0.00041698580085632909 0 -0.4659629006017233 0.010235827128295859 0 -0.46963945276383978 0.01793989872667965 0 -0.4659629006017233 0.010235827128295859 0 -0.4583939967914884 0.024422211169287101 0 -0.4659629006017233 0.010235827128295859 0 -0.4583939967914884 0.024422211169287101 0 -0.47541999506787802 0.025418180444172121 0 -0.46963945276383978 0.01793989872667965 0 -0.4583939967914884 0.024422211169287101 0 -0.47541999506787802 0.025418180444172121 0 -0.46442391639916691 0.036471327701905212 0 -0.4583939967914884 0.024422211169287101 0 -0.45609316173783881 0.014082317838893479 0 -0.4659629006017233 0.010235827128295859 0 -0.4583939967914884 0.024422211169287101 0 -0.45609316173783881 0.014082317838893479 0 -0.4583939967914884 0.024422211169287101 0 -0.4458839614772655 0.023387518650519249 0 -0.45082509298125129 0.038608595210277222 0 -0.4583939967914884 0.024422211169287101 0 -0.4458839614772655 0.023387518650519249 0 -0.4405409619944019 0.035432846457562263 0 -0.4458839614772655 0.023387518650519249 0 -0.43566193494816191 0.02574822372494872 0 -0.4458839614772655 0.023387518650519249 0 -0.4359559447540089 0.01018896392150693 0 -0.43566193494816191 0.02574822372494872 0 -0.4441818909265971 -0.00998157505946092 0 -0.44737850259376799 0.0077656591989471307 0 -0.4359559447540089 0.01018896392150693 0 -0.4458839614772655 0.023387518650519249 0 -0.44737850259376799 0.0077656591989471307 0 -0.4359559447540089 0.01018896392150693 0 -0.45609316173783881 0.014082317838893479 0 -0.4458839614772655 0.023387518650519249 0 -0.44737850259376799 0.0077656591989471307 0 -0.45609316173783881 0.014082317838893479 0 -0.45588653083934588 0.00041698580085632909 0 -0.44737850259376799 0.0077656591989471307 0 -0.4441818909265971 -0.00998157505946092 0 -0.4359559447540089 0.01018896392150693 0 -0.42578104856505677 0.0031949168855625672 0 -0.42578104856505677 0.0031949168855625672 0 -0.41622595309658328 0.016397403714119251 0 -0.42870406893849561 0.019163111370922251 0 -0.4359559447540089 0.01018896392150693 0 -0.42578104856505677 0.0031949168855625672 0 -0.42870406893849561 0.019163111370922251 0 -0.41753789792717189 -0.0038843189997757009 0 -0.42578104856505677 0.0031949168855625672 0 -0.41105156913745711 0.0034129409419674369 0 -0.42578104856505677 0.0031949168855625672 0 -0.40852807671777941 0.0155494406680463 0 -0.41622595309658328 0.016397403714119251 0 -0.42578104856505677 0.0031949168855625672 0 -0.40852807671777941 0.0155494406680463 0 -0.41105156913745711 0.0034129409419674369 0 -0.42578104856505677 0.0031949168855625672 0 -0.40852807671777941 0.0155494406680463 0 -0.42578104856505677 0.0031949168855625672 0 -0.41622595309658328 0.016397403714119251 0 -0.40852807671777941 0.0155494406680463 0 -0.41105156913745711 0.0034129409419674369 0 -0.40262572535869262 0.0089097845909437267 0 -0.40771050441737638 -0.0035262849216432719 0 -0.41105156913745711 0.0034129409419674369 0 -0.40226596945639398 0.0014711925349297271 0 -0.40667085762811028 0.029599890542676258 0 -0.41622595309658328 0.016397403714119251 0 -0.42870406893849561 0.019163111370922251 0 -0.40667085762811028 0.029599890542676258 0 -0.42870406893849561 0.019163111370922251 0 -0.40667085762811028 0.029599890542676258 0 -0.41990433555607742 0.03061685230769556 0 -0.42870406893849561 0.019163111370922251 0 -0.40852807671777941 0.0155494406680463 0 -0.40667085762811028 0.029599890542676258 0 -0.41622595309658328 0.016397403714119251 0 -0.40667085762811028 0.029599890542676258 0 -0.41622595309658328 0.016397403714119251 0 -0.41990433555607742 0.03061685230769556 0 -0.4284463216954002 0.029357354603554459 0 -0.42870406893849561 0.019163111370922251 0 -0.4359559447540089 0.01018896392150693 0 -0.42870406893849561 0.019163111370922251 0 -0.43566193494816191 0.02574822372494872 0 -0.4284463216954002 0.029357354603554459 0 -0.42870406893849561 0.019163111370922251 0 -0.43566193494816191 0.02574822372494872 0 -0.4284463216954002 0.029357354603554459 0 -0.43566193494816191 0.02574822372494872 0 -0.43264023121812112 0.033917661463996759 0 -0.4405409619944019 0.035432846457562263 0 -0.43264023121812112 0.033917661463996759 0 -0.43229092530358848 0.04451632412921195 0 -0.43264023121812112 0.033917661463996759 0 -0.43229092530358848 0.04451632412921195 0 -0.42532103781614489 0.037340924150209003 0 -0.4405409619944019 0.035432846457562263 0 -0.43566193494816191 0.02574822372494872 0 -0.43264023121812112 0.033917661463996759 0 -0.43229092530358848 0.04451632412921195 0 -0.42532103781614489 0.037340924150209003 0 -0.42042490988599091 0.046091327469671317 0 -0.4284463216954002 0.029357354603554459 0 -0.43264023121812112 0.033917661463996759 0 -0.42532103781614489 0.037340924150209003 0 -0.41990433555607742 0.03061685230769556 0 -0.4284463216954002 0.029357354603554459 0 -0.42532103781614489 0.037340924150209003 0 -0.43229092530358848 0.04451632412921195 0 -0.43188097302969042 0.056955122555226501 0 -0.42585725303016408 0.051510102087770737 0 -0.44286953411296898 0.045255716157198693 0 -0.43229092530358848 0.04451632412921195 0 -0.43188097302969042 0.056955122555226501 0 -0.43229092530358848 0.04451632412921195 0 -0.42585725303016408 0.051510102087770737 0 -0.42042490988599091 0.046091327469671317 0 -0.43188097302969042 0.056955122555226501 0 -0.41883220390138681 0.058477634196973202 0 -0.43131469147834472 0.070632617455275076 0 -0.43188097302969042 0.056955122555226501 0 -0.42585725303016408 0.051510102087770737 0 -0.41883220390138681 0.058477634196973202 0 -0.41883220390138681 0.058477634196973202 0 -0.40840220717331749 0.048304634434869917 0 -0.39985653820026013 0.060860810446949978 0 -0.42585725303016408 0.051510102087770737 0 -0.41883220390138681 0.058477634196973202 0 -0.42042490988599091 0.046091327469671317 0 -0.41883220390138681 0.058477634196973202 0 -0.40840220717331749 0.048304634434869917 0 -0.42042490988599091 0.046091327469671317 0 -0.41990433555607742 0.03061685230769556 0 -0.42532103781614489 0.037340924150209003 0 -0.4122967326089878 0.037821593301397609 0 -0.42532103781614489 0.037340924150209003 0 -0.42042490988599091 0.046091327469671317 0 -0.4122967326089878 0.037821593301397609 0 -0.40840220717331749 0.048304634434869917 0 -0.4122967326089878 0.037821593301397609 0 -0.40579981868685489 0.041495006097714962 0 -0.40840220717331749 0.048304634434869917 0 -0.42042490988599091 0.046091327469671317 0 -0.4122967326089878 0.037821593301397609 0 -0.4122967326089878 0.037821593301397609 0 -0.40278544391907911 0.034968452634622761 0 -0.40579981868685489 0.041495006097714962 0 -0.40667085762811028 0.029599890542676258 0 -0.4122967326089878 0.037821593301397609 0 -0.40278544391907911 0.034968452634622761 0 -0.40667085762811028 0.029599890542676258 0 -0.41990433555607742 0.03061685230769556 0 -0.4122967326089878 0.037821593301397609 0 -0.40667085762811028 0.029599890542676258 0 -0.40278544391907911 0.034968452634622761 0 -0.40667085762811028 0.029599890542676258 0 -0.38856614517843069 0.038175802748282091 0 -0.40667085762811028 0.029599890542676258 0 -0.38856614517843069 0.038175802748282091 0 -0.39127510487050182 0.027903964450529759 0 -0.40667085762811028 0.029599890542676258 0 -0.40278544391907911 0.034968452634622761 0 -0.38856614517843069 0.038175802748282091 0 -0.40278544391907911 0.034968452634622761 0 -0.40579981868685489 0.041495006097714962 0 -0.3977250587697031 0.045015474274426849 0 -0.40840220717331749 0.048304634434869917 0 -0.40579981868685489 0.041495006097714962 0 -0.3977250587697031 0.045015474274426849 0 -0.40278544391907911 0.034968452634622761 0 -0.3977250587697031 0.045015474274426849 0 -0.38856614517843069 0.038175802748282091 0 -0.40840220717331749 0.048304634434869917 0 -0.3977250587697031 0.045015474274426849 0 -0.39985653820026013 0.060860810446949978 0 -0.3977250587697031 0.045015474274426849 0 -0.39985653820026013 0.060860810446949978 0 -0.38472691017257071 0.052921849058569698 0 -0.39985653820026013 0.060860810446949978 0 -0.38472691017257071 0.052921849058569698 0 -0.38510762700538009 0.066428587654483159 0 -0.38472691017257071 0.052921849058569698 0 -0.37046143272875132 0.04675171495388801 0 -0.37000681959492809 0.05831264468359916 0 -0.38472691017257071 0.052921849058569698 0 -0.38510762700538009 0.066428587654483159 0 -0.37000681959492809 0.05831264468359916 0 -0.38856614517843069 0.038175802748282091 0 -0.37871402691879819 0.03757115751491092 0 -0.37046143272875132 0.04675171495388801 0 -0.38856614517843069 0.038175802748282091 0 -0.37046143272875132 0.04675171495388801 0 -0.38472691017257071 0.052921849058569698 0 -0.38856614517843069 0.038175802748282091 0 -0.37046143272875132 0.04675171495388801 0 -0.38856614517843069 0.038175802748282091 0 -0.38315308642314733 0.033917821982192238 0 -0.39127510487050182 0.027903964450529759 0 -0.38856614517843069 0.038175802748282091 0 -0.38315308642314733 0.033917821982192238 0 -0.37871402691879819 0.03757115751491092 0 -0.3977250587697031 0.045015474274426849 0 -0.38472691017257071 0.052921849058569698 0 -0.38856614517843069 0.038175802748282091 0 -0.37871402691879819 0.03757115751491092 0 -0.3764786745208083 0.032098692741998169 0 -0.37046143272875132 0.04675171495388801 0 -0.38315308642314733 0.033917821982192238 0 -0.3764786745208083 0.032098692741998169 0 -0.38155727091044611 0.028316364585127811 0 -0.38315308642314733 0.033917821982192238 0 -0.37871402691879819 0.03757115751491092 0 -0.3764786745208083 0.032098692741998169 0 -0.3764786745208083 0.032098692741998169 0 -0.38155727091044611 0.028316364585127811 0 -0.37960108001976323 0.022263106047543741 0 -0.37960108001976323 0.022263106047543741 0 -0.37998819155715241 0.0057865511937031933 0 -0.37123175334181557 0.027162262264614271 0 -0.3764786745208083 0.032098692741998169 0 -0.37960108001976323 0.022263106047543741 0 -0.37123175334181557 0.027162262264614271 0 -0.38155727091044611 0.028316364585127811 0 -0.38533699425949169 0.022674384769296389 0 -0.37960108001976323 0.022263106047543741 0 -0.38155727091044611 0.028316364585127811 0 -0.38533699425949169 0.022674384769296389 0 -0.39127510487050182 0.027903964450529759 0 -0.38315308642314733 0.033917821982192238 0 -0.38155727091044611 0.028316364585127811 0 -0.39127510487050182 0.027903964450529759 0 -0.39054146691731162 0.018060194648231769 0 -0.38533699425949169 0.022674384769296389 0 -0.39127510487050182 0.027903964450529759 0 -0.38533699425949169 0.022674384769296389 0 -0.3837100485794358 0.01682829411504885 0 -0.37960108001976323 0.022263106047543741 0 -0.39054146691731162 0.018060194648231769 0 -0.38533699425949169 0.022674384769296389 0 -0.3837100485794358 0.01682829411504885 0 -0.3837100485794358 0.01682829411504885 0 -0.37960108001976323 0.022263106047543741 0 -0.37998819155715241 0.0057865511937031933 0 -0.37998819155715241 0.0057865511937031933 0 -0.38683543611469601 0.0001369023841863784 0 -0.36064890389212972 0.0125435277679194 0 -0.37998819155715241 0.0057865511937031933 0 -0.38683543611469601 0.0001369023841863784 0 -0.38901012294298121 0.0062908016400105649 0 -0.38683543611469601 0.0001369023841863784 0 -0.38901012294298121 0.0062908016400105649 0 -0.39501457079486157 0.0055715078560810288 0 -0.37998819155715241 0.0057865511937031933 0 -0.38901012294298121 0.0062908016400105649 0 -0.38744744785130802 0.01185902438546781 0 -0.3837100485794358 0.01682829411504885 0 -0.37998819155715241 0.0057865511937031933 0 -0.38744744785130802 0.01185902438546781 0 -0.38901012294298121 0.0062908016400105649 0 -0.38744744785130802 0.01185902438546781 0 -0.39422738021243581 0.01127211946813913 0 -0.39054146691731162 0.018060194648231769 0 -0.3837100485794358 0.01682829411504885 0 -0.38744744785130802 0.01185902438546781 0 -0.39054146691731162 0.018060194648231769 0 -0.39422738021243581 0.01127211946813913 0 -0.39743955081534421 0.016339100765178138 0 -0.39054146691731162 0.018060194648231769 0 -0.38744744785130802 0.01185902438546781 0 -0.39422738021243581 0.01127211946813913 0 -0.39422738021243581 0.01127211946813913 0 -0.39501457079486157 0.0055715078560810288 0 -0.40262572535869262 0.0089097845909437267 0 -0.39422738021243581 0.01127211946813913 0 -0.40262572535869262 0.0089097845909437267 0 -0.39743955081534421 0.016339100765178138 0 -0.38683543611469601 0.0001369023841863784 0 -0.39501457079486157 0.0055715078560810288 0 -0.40226596945639398 0.0014711925349297271 0 -0.38901012294298121 0.0062908016400105649 0 -0.39422738021243581 0.01127211946813913 0 -0.39501457079486157 0.0055715078560810288 0 -0.41105156913745711 0.0034129409419674369 0 -0.40226596945639398 0.0014711925349297271 0 -0.40262572535869262 0.0089097845909437267 0 -0.39501457079486157 0.0055715078560810288 0 -0.40226596945639398 0.0014711925349297271 0 -0.40262572535869262 0.0089097845909437267 0 -0.40852807671777941 0.0155494406680463 0 -0.40262572535869262 0.0089097845909437267 0 -0.39743955081534421 0.016339100765178138 0 -0.40852807671777941 0.0155494406680463 0 -0.39127510487050182 0.027903964450529759 0 -0.40852807671777941 0.0155494406680463 0 -0.40667085762811028 0.029599890542676258 0 -0.39127510487050182 0.027903964450529759 0 -0.40852807671777941 0.0155494406680463 0 -0.39127510487050182 0.027903964450529759 0 -0.39743955081534421 0.016339100765178138 0 -0.39054146691731162 0.018060194648231769 0 -0.39127510487050182 0.027903964450529759 0 -0.39743955081534421 0.016339100765178138 0 -0.39792088922733271 0.1160922105611595 0 -0.40104213778508202 0.092866093853817611 0 -0.41467909406405851 0.1139188519362445 0 -0.39792088922733271 0.1160922105611595 0 -0.3782625711058698 0.101617738696854 0 -0.40104213778508202 0.092866093853817611 0 -0.3782625711058698 0.101617738696854 0 -0.38372255811484618 0.13025780258704611 0 -0.3782625711058698 0.101617738696854 0 -0.38372255811484618 0.13025780258704611 0 -0.36747352968705388 0.12273486311700831 0 -0.39792088922733271 0.1160922105611595 0 -0.3782625711058698 0.101617738696854 0 -0.38372255811484618 0.13025780258704611 0 -0.39792088922733271 0.1160922105611595 0 -0.3782625711058698 0.101617738696854 0 -0.3782625711058698 0.101617738696854 0 -0.40104213778508202 0.092866093853817611 0 -0.37470600383380392 0.082961959162170973 0 -0.39520328107527708 0.075997639864115257 0 -0.40104213778508202 0.092866093853817611 0 -0.37470600383380392 0.082961959162170973 0 -0.3782625711058698 0.101617738696854 0 -0.37470600383380392 0.082961959162170973 0 -0.40104213778508202 0.092866093853817611 0 -0.37470600383380392 0.082961959162170973 0 -0.38510762700538009 0.066428587654483159 0 -0.37000681959492809 0.05831264468359916 0 -0.37470600383380392 0.082961959162170973 0 -0.38510762700538009 0.066428587654483159 0 -0.39520328107527708 0.075997639864115257 0 -0.37470600383380392 0.082961959162170973 0 -0.39985653820026013 0.060860810446949978 0 -0.39520328107527708 0.075997639864115257 0 -0.41322693425173768 0.074694678089132868 0 -0.39985653820026013 0.060860810446949978 0 -0.38510762700538009 0.066428587654483159 0 -0.39520328107527708 0.075997639864115257 0 -0.39520328107527708 0.075997639864115257 0 -0.40104213778508202 0.092866093853817611 0 -0.41322693425173768 0.074694678089132868 0 -0.40104213778508202 0.092866093853817611 0 -0.41322693425173768 0.074694678089132868 0 -0.42957324029363853 0.085693113452461764 0 -0.41883220390138681 0.058477634196973202 0 -0.41322693425173768 0.074694678089132868 0 -0.43131469147834472 0.070632617455275076 0 -0.41883220390138681 0.058477634196973202 0 -0.39985653820026013 0.060860810446949978 0 -0.41322693425173768 0.074694678089132868 0 -0.43131469147834472 0.070632617455275076 0 -0.42957324029363853 0.085693113452461764 0 -0.4470315618909167 0.073148927984774167 0 -0.41322693425173768 0.074694678089132868 0 -0.43131469147834472 0.070632617455275076 0 -0.42957324029363853 0.085693113452461764 0 -0.44282721760043869 0.062046251170956107 0 -0.43188097302969042 0.056955122555226501 0 -0.43131469147834472 0.070632617455275076 0 -0.42957324029363853 0.085693113452461764 0 -0.42737827173636012 0.1027702285454639 0 -0.44343173260412461 0.097571970950778963 0 -0.40104213778508202 0.092866093853817611 0 -0.42737827173636012 0.1027702285454639 0 -0.41467909406405851 0.1139188519362445 0 -0.40104213778508202 0.092866093853817611 0 -0.42737827173636012 0.1027702285454639 0 -0.40104213778508202 0.092866093853817611 0 -0.42957324029363853 0.085693113452461764 0 -0.42737827173636012 0.1027702285454639 0 -0.39792088922733271 0.1160922105611595 0 -0.41467909406405851 0.1139188519362445 0 -0.417579207348795 0.13056668242546571 0 -0.39792088922733271 0.1160922105611595 0 -0.417579207348795 0.13056668242546571 0 -0.41467909406405851 0.1139188519362445 0 -0.42608096723388439 0.1205091241492761 0 -0.417579207348795 0.13056668242546571 0 -0.42737827173636012 0.1027702285454639 0 -0.41467909406405851 0.1139188519362445 0 -0.42608096723388439 0.1205091241492761 0 -0.42737827173636012 0.1027702285454639 0 -0.42608096723388439 0.1205091241492761 0 -0.43826405507869293 0.1195835460605416 0 -0.42608096723388439 0.1205091241492761 0 -0.43826405507869293 0.1195835460605416 0 -0.43293323699752101 0.1317554923945817 0 -0.43826405507869293 0.1195835460605416 0 -0.45371440568763749 0.1126743632371118 0 -0.44901593584904892 0.12912088192892021 0 -0.42737827173636012 0.1027702285454639 0 -0.43826405507869293 0.1195835460605416 0 -0.45371440568763749 0.1126743632371118 0 -0.4523882543875366 0.10983005993361 0 -0.45371440568763749 0.1126743632371118 0 -0.42737827173636012 0.1027702285454639 0 -0.4523882543875366 0.10983005993361 0 -0.44343173260412461 0.097571970950778963 0 -0.42737827173636012 0.1027702285454639 0 -0.4523882543875366 0.10983005993361 0 -0.45371440568763749 0.1126743632371118 0 -0.42737827173636012 0.1027702285454639 0 -0.45371440568763749 0.1126743632371118 0 -0.44343173260412461 0.097571970950778963 0 -0.45084974973894648 0.096020795281878568 0 -0.45306155814551219 0.1028275296158008 0 -0.44343173260412461 0.097571970950778963 0 -0.45084974973894648 0.096020795281878568 0 -0.44733932132275389 0.088290098875458828 0 -0.4523882543875366 0.10983005993361 0 -0.44343173260412461 0.097571970950778963 0 -0.45306155814551219 0.1028275296158008 0 -0.4523882543875366 0.10983005993361 0 -0.45306155814551219 0.1028275296158008 0 -0.45661100561120399 0.109540819014999 0 -0.45306155814551219 0.1028275296158008 0 -0.46084618436187341 0.10490351706993729 0 -0.45661100561120399 0.109540819014999 0 -0.45306155814551219 0.1028275296158008 0 -0.46084618436187341 0.10490351706993729 0 -0.45799439118323759 0.099220837031069903 0 -0.46084618436187341 0.10490351706993729 0 -0.4635407771028337 0.1124237257980706 0 -0.45661100561120399 0.109540819014999 0 -0.45799439118323759 0.099220837031069903 0 -0.46723244863383712 0.097971273043108306 0 -0.45594156200913483 0.091684632610025046 0 -0.45084974973894648 0.096020795281878568 0 -0.45799439118323759 0.099220837031069903 0 -0.45594156200913483 0.091684632610025046 0 -0.45084974973894648 0.096020795281878568 0 -0.45306155814551219 0.1028275296158008 0 -0.45799439118323759 0.099220837031069903 0 -0.46084618436187341 0.10490351706993729 0 -0.45799439118323759 0.099220837031069903 0 -0.46723244863383712 0.097971273043108306 0 -0.46084618436187341 0.10490351706993729 0 -0.46723244863383712 0.097971273043108306 0 -0.46686982756835349 0.1074114054382402 0 -0.46084618436187341 0.10490351706993729 0 -0.46686982756835349 0.1074114054382402 0 -0.4635407771028337 0.1124237257980706 0 -0.45371440568763749 0.1126743632371118 0 -0.46425598871103851 0.13528374379222011 0 -0.4635407771028337 0.1124237257980706 0 -0.45674497769142258 0.1138140594952527 0 -0.46958882025875243 0.12035793204680111 0 -0.46686982756835349 0.1074114054382402 0 -0.4635407771028337 0.1124237257980706 0 -0.47044075898603932 0.11380610730348489 0 -0.4635407771028337 0.1124237257980706 0 -0.46958882025875243 0.12035793204680111 0 -0.47044075898603932 0.11380610730348489 0 -0.45674497769142258 0.1138140594952527 0 -0.45371440568763749 0.1126743632371118 0 -0.46425598871103851 0.13528374379222011 0 -0.45674497769142258 0.1138140594952527 0 -0.46958882025875243 0.12035793204680111 0 -0.46425598871103851 0.13528374379222011 0 -0.4523882543875366 0.10983005993361 0 -0.45661100561120399 0.109540819014999 0 -0.45371440568763749 0.1126743632371118 0 -0.45674497769142258 0.1138140594952527 0 -0.45661100561120399 0.109540819014999 0 -0.45371440568763749 0.1126743632371118 0 -0.45674497769142258 0.1138140594952527 0 -0.45371440568763749 0.1126743632371118 0 -0.4635407771028337 0.1124237257980706 0 -0.45674497769142258 0.1138140594952527 0 -0.45661100561120399 0.109540819014999 0 -0.44282721760043869 0.062046251170956107 0 -0.4470315618909167 0.073148927984774167 0 -0.46103932749027238 0.064238871702306077 0 -0.44282721760043869 0.062046251170956107 0 -0.43131469147834472 0.070632617455275076 0 -0.4470315618909167 0.073148927984774167 0 -0.42957324029363853 0.085693113452461764 0 -0.44343173260412461 0.097571970950778963 0 -0.44733932132275389 0.088290098875458828 0 -0.42957324029363853 0.085693113452461764 0 -0.4470315618909167 0.073148927984774167 0 -0.44733932132275389 0.088290098875458828 0 -0.4470315618909167 0.073148927984774167 0 -0.44733932132275389 0.088290098875458828 0 -0.46047789149500767 0.082617330138573752 0 -0.45084974973894648 0.096020795281878568 0 -0.44733932132275389 0.088290098875458828 0 -0.45594156200913483 0.091684632610025046 0 -0.44733932132275389 0.088290098875458828 0 -0.45594156200913483 0.091684632610025046 0 -0.46047789149500767 0.082617330138573752 0 -0.46723244863383712 0.097971273043108306 0 -0.45594156200913483 0.091684632610025046 0 -0.46047789149500767 0.082617330138573752 0 -0.46047789149500767 0.082617330138573752 0 -0.46103932749027238 0.064238871702306077 0 -0.47920912086757578 0.083222027247413538 0 -0.4470315618909167 0.073148927984774167 0 -0.46047789149500767 0.082617330138573752 0 -0.46103932749027238 0.064238871702306077 0 -0.46103932749027238 0.064238871702306077 0 -0.48068047186290208 0.063626500276227002 0 -0.47920912086757578 0.083222027247413538 0 -0.46103932749027238 0.064238871702306077 0 -0.47920912086757578 0.083222027247413538 0 -0.46723244863383712 0.097971273043108306 0 -0.46047789149500767 0.082617330138573752 0 -0.47920912086757578 0.083222027247413538 0 -0.48068047186290208 0.063626500276227002 0 -0.47920912086757578 0.083222027247413538 0 -0.5 0.088432580532893601 0 -0.47920912086757578 0.083222027247413538 0 -0.49737891424487929 0.102205182792521 0 -0.47920912086757578 0.083222027247413538 0 -0.5 0.088432580532893601 0 -0.49737891424487929 0.102205182792521 0 -0.5 0.060034093897511798 0 -0.48068047186290208 0.063626500276227002 0 -0.5 0.088432580532893601 0 -0.47827810320487629 0.116675775998883 0 -0.48837893466537508 0.1117690854599766 0 -0.4842723158563047 0.1301441798928954 0 -0.47827810320487629 0.116675775998883 0 -0.47512549980118862 0.10796659812409699 0 -0.48837893466537508 0.1117690854599766 0 -0.47827810320487629 0.116675775998883 0 -0.46958882025875243 0.12035793204680111 0 -0.4842723158563047 0.1301441798928954 0 -0.47827810320487629 0.116675775998883 0 -0.47044075898603932 0.11380610730348489 0 -0.47512549980118862 0.10796659812409699 0 -0.46686982756835349 0.1074114054382402 0 -0.47044075898603932 0.11380610730348489 0 -0.47512549980118862 0.10796659812409699 0 -0.47827810320487629 0.116675775998883 0 -0.46958882025875243 0.12035793204680111 0 -0.47044075898603932 0.11380610730348489 0 -0.46723244863383712 0.097971273043108306 0 -0.47512549980118862 0.10796659812409699 0 -0.48162445158666772 0.1005823670901454 0 -0.46723244863383712 0.097971273043108306 0 -0.47920912086757578 0.083222027247413538 0 -0.48162445158666772 0.1005823670901454 0 -0.46723244863383712 0.097971273043108306 0 -0.46686982756835349 0.1074114054382402 0 -0.47512549980118862 0.10796659812409699 0 -0.47512549980118862 0.10796659812409699 0 -0.48162445158666772 0.1005823670901454 0 -0.48837893466537508 0.1117690854599766 0 -0.48162445158666772 0.1005823670901454 0 -0.49737891424487929 0.102205182792521 0 -0.48837893466537508 0.1117690854599766 0 -0.47920912086757578 0.083222027247413538 0 -0.48162445158666772 0.1005823670901454 0 -0.49737891424487929 0.102205182792521 0 -0.5 0.088432580532893601 0 -0.49737891424487929 0.102205182792521 0 -0.5 0.1168310671682755 0 -0.49737891424487929 0.102205182792521 0 -0.5 0.1168310671682755 0 -0.48837893466537508 0.1117690854599766 0 -0.5 0.1168310671682755 0 -0.48837893466537508 0.1117690854599766 0 -0.4842723158563047 0.1301441798928954 0 -0.5 0.1168310671682755 0 -0.4842723158563047 0.1301441798928954 0 -0.5 0.14522955380365729 0 -0.46958882025875243 0.12035793204680111 0 -0.4842723158563047 0.1301441798928954 0 -0.46425598871103851 0.13528374379222011 0 -0.4842723158563047 0.1301441798928954 0 -0.47479757173443998 0.15789312434732811 0 -0.46425598871103851 0.13528374379222011 0 -0.47479757173443998 0.15789312434732811 0 -0.46425598871103851 0.13528374379222011 0 -0.4842723158563047 0.1301441798928954 0 -0.5 0.14522955380365729 0 -0.47479757173443998 0.15789312434732811 0 -0.5 0.14522955380365729 0 -0.49999999999999972 0.17362804043903909 0 -0.47479757173443998 0.15789312434732811 0 -0.49999999999999972 0.17362804043903909 0 -0.47479757173443998 0.15789312434732811 0 -0.49999999999999972 0.17362804043903909 0 -0.49200992699072321 0.1743962810239672 0 -0.47479757173443998 0.15789312434732811 0 -0.48341269367675271 0.17637066895233999 0 -0.49170634683837577 0.1941587336203292 0 -0.49368671912131301 0.1828531969182482 0 -0.49999999999999972 0.17362804043903909 0 -0.5 0.19278741936367841 0 -0.49368671912131301 0.1828531969182482 0 -0.48341269367675271 0.17637066895233999 0 -0.49170634683837577 0.1941587336203292 0 -0.49368671912131301 0.1828531969182482 0 -0.49999999999999972 0.17362804043903909 0 -0.49200992699072321 0.1743962810239672 0 -0.49200992699072321 0.1743962810239672 0 -0.48341269367675271 0.17637066895233999 0 -0.49368671912131301 0.1828531969182482 0 -0.49200992699072321 0.1743962810239672 0 -0.48341269367675271 0.17637066895233999 0 -0.48341269367675271 0.17637066895233999 0 -0.45591042926964898 0.18268667049205081 0 -0.47274380268756999 0.19288508587190861 0 -0.48341269367675271 0.17637066895233999 0 -0.45591042926964898 0.18268667049205081 0 -0.49200992699072321 0.1743962810239672 0 -0.48341269367675271 0.17637066895233999 0 -0.47479757173443998 0.15789312434732811 0 -0.48341269367675271 0.17637066895233999 0 -0.47479757173443998 0.15789312434732811 0 -0.48341269367675271 0.17637066895233999 0 -0.47479757173443998 0.15789312434732811 0 -0.45723956394668003 0.16387676974864759 0 -0.48341269367675271 0.17637066895233999 0 -0.45723956394668003 0.16387676974864759 0 -0.45591042926964898 0.18268667049205081 0 -0.45591042926964898 0.18268667049205081 0 -0.43992511097516529 0.17411109905454999 0 -0.4284081648625454 0.1890026720317621 0 -0.45591042926964898 0.18268667049205081 0 -0.4284081648625454 0.1890026720317621 0 -0.45723956394668003 0.16387676974864759 0 -0.45591042926964898 0.18268667049205081 0 -0.43992511097516529 0.17411109905454999 0 -0.45723956394668003 0.16387676974864759 0 -0.43992511097516529 0.17411109905454999 0 -0.43892522612619872 0.15930650560997939 0 -0.43892522612619872 0.15930650560997939 0 -0.43796764784210812 0.14528805014891141 0 -0.45386540436598038 0.14482430837095511 0 -0.45723956394668003 0.16387676974864759 0 -0.43892522612619872 0.15930650560997939 0 -0.45386540436598038 0.14482430837095511 0 -0.45386540436598038 0.14482430837095511 0 -0.43293323699752101 0.1317554923945817 0 -0.43826405507869293 0.1195835460605416 0 -0.44901593584904892 0.12912088192892021 0 -0.43293323699752101 0.1317554923945817 0 -0.43796764784210812 0.14528805014891141 0 -0.45386540436598038 0.14482430837095511 0 -0.43293323699752101 0.1317554923945817 0 -0.44901593584904892 0.12912088192892021 0 -0.45386540436598038 0.14482430837095511 0 -0.43293323699752101 0.1317554923945817 0 -0.45371440568763749 0.1126743632371118 0 -0.44901593584904892 0.12912088192892021 0 -0.46425598871103851 0.13528374379222011 0 -0.44901593584904892 0.12912088192892021 0 -0.46425598871103851 0.13528374379222011 0 -0.45386540436598038 0.14482430837095511 0 -0.47479757173443998 0.15789312434732811 0 -0.45723956394668003 0.16387676974864759 0 -0.45386540436598038 0.14482430837095511 0 -0.47479757173443998 0.15789312434732811 0 -0.46425598871103851 0.13528374379222011 0 -0.45386540436598038 0.14482430837095511 0 -0.47479757173443998 0.15789312434732811 0 -0.45386540436598038 0.14482430837095511 0 -0.48226153920099157 0.23766317590200001 0 -0.47864167104372218 0.246590621409366 0 -0.48932095354102823 0.25454658797793611 0 -0.47315400564016008 0.2364435414805684 0 -0.47864167104372218 0.246590621409366 0 -0.46938038244821267 0.25133041049185839 0 -0.47315400564016008 0.2364435414805684 0 -0.48226153920099157 0.23766317590200001 0 -0.47864167104372218 0.246590621409366 0 -0.49106398183666961 0.22759324404760359 0 -0.48932095354102823 0.25454658797793611 0 -0.5 0.23810140997737081 0 -0.49106398183666961 0.22759324404760359 0 -0.48932095354102823 0.25454658797793611 0 -0.48226153920099157 0.23766317590200001 0 -0.49106398183666961 0.22759324404760359 0 -0.48932095354102823 0.25454658797793611 0 -0.5 0.23810140997737081 0 -0.49106398183666961 0.22759324404760359 0 -0.50000000000000022 0.21194679828831781 0 -0.49106398183666961 0.22759324404760359 0 -0.47912708394337772 0.2231418845945258 0 -0.48726644121087642 0.21298690825741631 0 -0.48226153920099157 0.23766317590200001 0 -0.49106398183666961 0.22759324404760359 0 -0.47912708394337772 0.2231418845945258 0 -0.47315400564016008 0.2364435414805684 0 -0.48226153920099157 0.23766317590200001 0 -0.47912708394337772 0.2231418845945258 0 -0.47315400564016008 0.2364435414805684 0 -0.47912708394337772 0.2231418845945258 0 -0.46764368341616458 0.22415830119077751 0 -0.47912708394337772 0.2231418845945258 0 -0.47360767850491831 0.20951316246361981 0 -0.46764368341616458 0.22415830119077751 0 -0.47360767850491831 0.20951316246361981 0 -0.48726644121087642 0.21298690825741631 0 -0.49170634683837577 0.1941587336203292 0 -0.47912708394337772 0.2231418845945258 0 -0.47360767850491831 0.20951316246361981 0 -0.48726644121087642 0.21298690825741631 0 -0.49106398183666961 0.22759324404760359 0 -0.50000000000000022 0.21194679828831781 0 -0.48726644121087642 0.21298690825741631 0 -0.50000000000000022 0.21194679828831781 0 -0.48726644121087642 0.21298690825741631 0 -0.49170634683837577 0.1941587336203292 0 -0.50000000000000022 0.21194679828831781 0 -0.49170634683837577 0.1941587336203292 0 -0.50000000000000022 0.21194679828831781 0 -0.5 0.19278741936367841 0 -0.49170634683837577 0.1941587336203292 0 -0.49368671912131301 0.1828531969182482 0 -0.5 0.19278741936367841 0 -0.49170634683837577 0.1941587336203292 0 -0.48341269367675271 0.17637066895233999 0 -0.49170634683837577 0.1941587336203292 0 -0.47274380268756999 0.19288508587190861 0 -0.47360767850491831 0.20951316246361981 0 -0.49170634683837577 0.1941587336203292 0 -0.47274380268756999 0.19288508587190861 0 -0.47360767850491831 0.20951316246361981 0 -0.47274380268756999 0.19288508587190861 0 -0.45820261548712909 0.20353130823034371 0 -0.45591042926964898 0.18268667049205081 0 -0.47274380268756999 0.19288508587190861 0 -0.45820261548712909 0.20353130823034371 0 -0.45591042926964898 0.18268667049205081 0 -0.43516662619925378 0.20614333559983469 0 -0.4284081648625454 0.1890026720317621 0 -0.45591042926964898 0.18268667049205081 0 -0.45820261548712909 0.20353130823034371 0 -0.43516662619925378 0.20614333559983469 0 -0.44192508753596349 0.22328399916790689 0 -0.43516662619925378 0.20614333559983469 0 -0.45032248765871591 0.2151961798839368 0 -0.44192508753596349 0.22328399916790689 0 -0.43516662619925378 0.20614333559983469 0 -0.45032248765871591 0.2151961798839368 0 -0.45820261548712909 0.20353130823034371 0 -0.43516662619925378 0.20614333559983469 0 -0.45032248765871591 0.2151961798839368 0 -0.46109406183397039 0.21551848415653921 0 -0.45620465585954723 0.2251951411450015 0 -0.45032248765871591 0.2151961798839368 0 -0.45820261548712909 0.20353130823034371 0 -0.46109406183397039 0.21551848415653921 0 -0.47360767850491831 0.20951316246361981 0 -0.45820261548712909 0.20353130823034371 0 -0.46109406183397039 0.21551848415653921 0 -0.47360767850491831 0.20951316246361981 0 -0.46109406183397039 0.21551848415653921 0 -0.46764368341616458 0.22415830119077751 0 -0.47315400564016008 0.2364435414805684 0 -0.46764368341616458 0.22415830119077751 0 -0.45925329591452863 0.2407771106774913 0 -0.46764368341616458 0.22415830119077751 0 -0.45620465585954723 0.2251951411450015 0 -0.45925329591452863 0.2407771106774913 0 -0.46109406183397039 0.21551848415653921 0 -0.46764368341616458 0.22415830119077751 0 -0.45620465585954723 0.2251951411450015 0 -0.45032248765871591 0.2151961798839368 0 -0.45620465585954723 0.2251951411450015 0 -0.44192508753596349 0.22328399916790689 0 -0.44192508753596349 0.22328399916790689 0 -0.44062222049055039 0.24203477259657111 0 -0.43146145522804691 0.2313120115293863 0 -0.45620465585954723 0.2251951411450015 0 -0.44062222049055039 0.24203477259657111 0 -0.45620465585954723 0.2251951411450015 0 -0.44192508753596349 0.22328399916790689 0 -0.44062222049055039 0.24203477259657111 0 -0.44062222049055039 0.24203477259657111 0 -0.45046339488490522 0.249057113070103 0 -0.44442574262614493 0.25832327296872359 0 -0.44062222049055039 0.24203477259657111 0 -0.45046339488490522 0.249057113070103 0 -0.45925329591452863 0.2407771106774913 0 -0.45620465585954723 0.2251951411450015 0 -0.44062222049055039 0.24203477259657111 0 -0.45925329591452863 0.2407771106774913 0 -0.45046339488490522 0.249057113070103 0 -0.45925329591452863 0.2407771106774913 0 -0.45807104112411212 0.25534721177055669 0 -0.45925329591452863 0.2407771106774913 0 -0.46938038244821267 0.25133041049185839 0 -0.45807104112411212 0.25534721177055669 0 -0.47315400564016008 0.2364435414805684 0 -0.45925329591452863 0.2407771106774913 0 -0.46938038244821267 0.25133041049185839 0 -0.4198454647722451 0.23985190764030939 0 -0.40081965837488509 0.24074316727492401 0 -0.40585136056822319 0.25674789398696107 0 -0.4198454647722451 0.23985190764030939 0 -0.405480724964072 0.22581663549259839 0 -0.40081965837488509 0.24074316727492401 0 -0.44062222049055039 0.24203477259657111 0 -0.4198454647722451 0.23985190764030939 0 -0.42503978512155383 0.25887440404814072 0 -0.44062222049055039 0.24203477259657111 0 -0.4198454647722451 0.23985190764030939 0 -0.43146145522804691 0.2313120115293863 0 -0.4198454647722451 0.23985190764030939 0 -0.43146145522804691 0.2313120115293863 0 -0.42370673975344808 0.22056464269113771 0 -0.44192508753596349 0.22328399916790689 0 -0.43146145522804691 0.2313120115293863 0 -0.42370673975344808 0.22056464269113771 0 -0.4198454647722451 0.23985190764030939 0 -0.42370673975344808 0.22056464269113771 0 -0.405480724964072 0.22581663549259839 0 -0.42370673975344808 0.22056464269113771 0 -0.40708390191205951 0.20882890034131879 0 -0.405480724964072 0.22581663549259839 0 -0.42370673975344808 0.22056464269113771 0 -0.40708390191205951 0.20882890034131879 0 -0.42107335870595469 0.2022269477122331 0 -0.44192508753596349 0.22328399916790689 0 -0.42370673975344808 0.22056464269113771 0 -0.43516662619925378 0.20614333559983469 0 -0.42370673975344808 0.22056464269113771 0 -0.43516662619925378 0.20614333559983469 0 -0.42107335870595469 0.2022269477122331 0 -0.43516662619925378 0.20614333559983469 0 -0.4284081648625454 0.1890026720317621 0 -0.42107335870595469 0.2022269477122331 0 -0.43516662619925378 0.20614333559983469 0 -0.4284081648625454 0.1890026720317621 0 -0.4284081648625454 0.1890026720317621 0 -0.40915969581062839 0.19342315750049971 0 -0.4284081648625454 0.1890026720317621 0 -0.42107335870595469 0.2022269477122331 0 -0.40915969581062839 0.19342315750049971 0 -0.40708390191205951 0.20882890034131879 0 -0.42107335870595469 0.2022269477122331 0 -0.40915969581062839 0.19342315750049971 0 -0.40708390191205951 0.20882890034131879 0 -0.40915969581062839 0.19342315750049971 0 -0.38991122675871148 0.19784364296923759 0 -0.40915969581062839 0.19342315750049971 0 -0.38991122675871148 0.19784364296923759 0 -0.40915969581062839 0.19342315750049971 0 -0.38991122675871148 0.19784364296923759 0 -0.39569501158598158 0.17813944679546001 0 -0.39158905321283283 0.2136173787495643 0 -0.38435338999826391 0.22831720607051781 0 -0.36414166766971379 0.2074649771098355 0 -0.38991122675871148 0.19784364296923759 0 -0.39158905321283283 0.2136173787495643 0 -0.36414166766971379 0.2074649771098355 0 -0.40708390191205951 0.20882890034131879 0 -0.39158905321283283 0.2136173787495643 0 -0.405480724964072 0.22581663549259839 0 -0.40708390191205951 0.20882890034131879 0 -0.38991122675871148 0.19784364296923759 0 -0.39158905321283283 0.2136173787495643 0 -0.405480724964072 0.22581663549259839 0 -0.38435338999826391 0.22831720607051781 0 -0.40081965837488509 0.24074316727492401 0 -0.39158905321283283 0.2136173787495643 0 -0.405480724964072 0.22581663549259839 0 -0.38435338999826391 0.22831720607051781 0 -0.37619177155740557 0.24036243622333081 0 -0.38790582398472923 0.24962922847932231 0 -0.36318679658289171 0.25196182354824148 0 -0.38435338999826391 0.22831720607051781 0 -0.37619177155740557 0.24036243622333081 0 -0.38790582398472923 0.24962922847932231 0 -0.38435338999826391 0.22831720607051781 0 -0.38790582398472923 0.24962922847932231 0 -0.40081965837488509 0.24074316727492401 0 -0.38790582398472923 0.24962922847932231 0 -0.40081965837488509 0.24074316727492401 0 -0.40585136056822319 0.25674789398696107 0 -0.40926453963391513 0.14045102348790381 0 -0.42614672387873248 0.14526589422012931 0 -0.41883635224822963 0.16472684775983329 0 -0.40926453963391513 0.14045102348790381 0 -0.41883635224822963 0.16472684775983329 0 -0.40926453963391513 0.14045102348790381 0 -0.41883635224822963 0.16472684775983329 0 -0.40029434983296169 0.15790366282291429 0 -0.40926453963391513 0.14045102348790381 0 -0.417579207348795 0.13056668242546571 0 -0.40026410281127539 0.13237877311027449 0 -0.40926453963391513 0.14045102348790381 0 -0.417579207348795 0.13056668242546571 0 -0.42614672387873248 0.14526589422012931 0 -0.417579207348795 0.13056668242546571 0 -0.43293323699752101 0.1317554923945817 0 -0.42614672387873248 0.14526589422012931 0 -0.42608096723388439 0.1205091241492761 0 -0.417579207348795 0.13056668242546571 0 -0.43293323699752101 0.1317554923945817 0 -0.43796764784210812 0.14528805014891141 0 -0.43293323699752101 0.1317554923945817 0 -0.42614672387873248 0.14526589422012931 0 -0.43892522612619872 0.15930650560997939 0 -0.43796764784210812 0.14528805014891141 0 -0.42614672387873248 0.14526589422012931 0 -0.43892522612619872 0.15930650560997939 0 -0.42614672387873248 0.14526589422012931 0 -0.41883635224822963 0.16472684775983329 0 -0.43992511097516529 0.17411109905454999 0 -0.43892522612619872 0.15930650560997939 0 -0.41883635224822963 0.16472684775983329 0 -0.4284081648625454 0.1890026720317621 0 -0.41883635224822963 0.16472684775983329 0 -0.43992511097516529 0.17411109905454999 0 -0.4284081648625454 0.1890026720317621 0 -0.41883635224822963 0.16472684775983329 0 -0.40915969581062839 0.19342315750049971 0 -0.41883635224822963 0.16472684775983329 0 -0.39569501158598158 0.17813944679546001 0 -0.4284081648625454 0.1890026720317621 0 -0.40915969581062839 0.19342315750049971 0 -0.41883635224822963 0.16472684775983329 0 -0.40029434983296169 0.15790366282291429 0 -0.39569501158598158 0.17813944679546001 0 -0.38484252596519369 0.16167484958157691 0 -0.41883635224822963 0.16472684775983329 0 -0.40029434983296169 0.15790366282291429 0 -0.39569501158598158 0.17813944679546001 0 -0.39569501158598158 0.17813944679546001 0 -0.38484252596519369 0.16167484958157691 0 -0.36525228834216061 0.17922160577889321 0 -0.38991122675871148 0.19784364296923759 0 -0.39569501158598158 0.17813944679546001 0 -0.36525228834216061 0.17922160577889321 0 -0.39283331973148827 0.14452614648979731 0 -0.38372255811484618 0.13025780258704611 0 -0.36636290901460722 0.1509782344479508 0 -0.38484252596519369 0.16167484958157691 0 -0.39283331973148827 0.14452614648979731 0 -0.36636290901460722 0.1509782344479508 0 -0.40029434983296169 0.15790366282291429 0 -0.38484252596519369 0.16167484958157691 0 -0.39283331973148827 0.14452614648979731 0 -0.40926453963391513 0.14045102348790381 0 -0.40029434983296169 0.15790366282291429 0 -0.39283331973148827 0.14452614648979731 0 -0.39283331973148827 0.14452614648979731 0 -0.40026410281127539 0.13237877311027449 0 -0.38372255811484618 0.13025780258704611 0 -0.39792088922733271 0.1160922105611595 0 -0.417579207348795 0.13056668242546571 0 -0.40026410281127539 0.13237877311027449 0 -0.39792088922733271 0.1160922105611595 0 -0.40026410281127539 0.13237877311027449 0 -0.38372255811484618 0.13025780258704611 0 -0.40926453963391513 0.14045102348790381 0 -0.39283331973148827 0.14452614648979731 0 -0.40026410281127539 0.13237877311027449 0 -0.38372255811484618 0.13025780258704611 0 -0.36636290901460722 0.1509782344479508 0 -0.36747352968705388 0.12273486311700831 0 -0.36636290901460722 0.1509782344479508 0 -0.36747352968705388 0.12273486311700831 0 -0.35528769071996391 0.12689780186549679 0 -0.36636290901460722 0.1509782344479508 0 -0.36747352968705388 0.12273486311700831 0 -0.35528769071996391 0.12689780186549679 0 -0.33512599087492562 0.1447950320020088 0 -0.35528769071996391 0.12689780186549679 0 -0.35168351666373848 0.14314256241625531 0 -0.33512599087492562 0.1447950320020088 0 -0.35528769071996391 0.12689780186549679 0 -0.33512599087492562 0.1447950320020088 0 -0.34115039425197219 0.12498493974687711 0 -0.35528769071996391 0.12689780186549679 0 -0.35168351666373848 0.14314256241625531 0 -0.36636290901460722 0.1509782344479508 0 -0.35168351666373848 0.14314256241625531 0 -0.36636290901460722 0.1509782344479508 0 -0.34333519974196419 0.16612441953572921 0 -0.38484252596519369 0.16167484958157691 0 -0.36636290901460722 0.1509782344479508 0 -0.36525228834216061 0.17922160577889321 0 -0.36636290901460722 0.1509782344479508 0 -0.36525228834216061 0.17922160577889321 0 -0.36525228834216061 0.17922160577889321 0 -0.34333519974196419 0.16612441953572921 0 -0.34654591437965571 0.19533490523866279 0 -0.36636290901460722 0.1509782344479508 0 -0.36525228834216061 0.17922160577889321 0 -0.34333519974196419 0.16612441953572921 0 -0.34333519974196419 0.16612441953572921 0 -0.31496429102988749 0.16269226213852109 0 -0.33512599087492562 0.1447950320020088 0 -0.34333519974196419 0.16612441953572921 0 -0.34654591437965571 0.19533490523866279 0 -0.32412519241006588 0.1878495682783011 0 -0.31496429102988749 0.16269226213852109 0 -0.32412519241006588 0.1878495682783011 0 -0.34333519974196419 0.16612441953572921 0 -0.31496429102988749 0.16269226213852109 0 -0.32412519241006588 0.1878495682783011 0 -0.31303823693556859 0.17707572181323081 0 -0.31496429102988749 0.16269226213852109 0 -0.32412519241006588 0.1878495682783011 0 -0.31303823693556859 0.17707572181323081 0 -0.32412519241006588 0.1878495682783011 0 -0.3108046026399135 0.18379038091696129 0 -0.31496429102988749 0.16269226213852109 0 -0.31353256245119709 0.1587605055712967 0 -0.31354631638020197 0.13395604467094269 0 -0.33512599087492562 0.1447950320020088 0 -0.3122891553291075 0.14635758184588041 0 -0.31353256245119709 0.1587605055712967 0 -0.33512599087492562 0.1447950320020088 0 -0.3122891553291075 0.14635758184588041 0 -0.31496429102988749 0.16269226213852109 0 -0.31353256245119709 0.1587605055712967 0 -0.33512599087492562 0.1447950320020088 0 -0.31496429102988749 0.16269226213852109 0 -0.33512599087492562 0.1447950320020088 0 -0.31354631638020197 0.13395604467094269 0 -0.32917568526667751 0.12578156900391591 0 -0.33512599087492562 0.1447950320020088 0 -0.31354631638020197 0.13395604467094269 0 -0.32917568526667751 0.12578156900391591 0 -0.32114709127587232 0.11611322513389059 0 -0.32917568526667751 0.12578156900391591 0 -0.33512599087492562 0.1447950320020088 0 -0.34115039425197219 0.12498493974687711 0 -0.35168351666373848 0.14314256241625531 0 -0.34333519974196419 0.16612441953572921 0 -0.33512599087492562 0.1447950320020088 0 -0.36303104699726713 0.23570834844077809 0 -0.34244699517042121 0.23816418055786151 0 -0.36318679658289171 0.25196182354824148 0 -0.34244699517042121 0.23816418055786151 0 -0.36318679658289171 0.25196182354824148 0 -0.33952374355129727 0.25899057541505788 0 -0.37619177155740557 0.24036243622333081 0 -0.36303104699726713 0.23570834844077809 0 -0.36318679658289171 0.25196182354824148 0 -0.38435338999826391 0.22831720607051781 0 -0.37619177155740557 0.24036243622333081 0 -0.36303104699726713 0.23570834844077809 0 -0.38435338999826391 0.22831720607051781 0 -0.36303104699726713 0.23570834844077809 0 -0.36414166766971379 0.2074649771098355 0 -0.36303104699726713 0.23570834844077809 0 -0.36414166766971379 0.2074649771098355 0 -0.36303104699726713 0.23570834844077809 0 -0.35084793517488477 0.2210857468323085 0 -0.34244699517042121 0.23816418055786151 0 -0.36303104699726713 0.23570834844077809 0 -0.35084793517488477 0.2210857468323085 0 -0.36414166766971379 0.2074649771098355 0 -0.35084793517488477 0.2210857468323085 0 -0.36414166766971379 0.2074649771098355 0 -0.34654591437965571 0.19533490523866279 0 -0.36525228834216061 0.17922160577889321 0 -0.36414166766971379 0.2074649771098355 0 -0.38991122675871148 0.19784364296923759 0 -0.36525228834216061 0.17922160577889321 0 -0.36414166766971379 0.2074649771098355 0 -0.36525228834216061 0.17922160577889321 0 -0.36414166766971379 0.2074649771098355 0 -0.34654591437965571 0.19533490523866279 0 -0.32412519241006588 0.1878495682783011 0 -0.33328609379024349 0.2130068744180813 0 -0.34654591437965571 0.19533490523866279 0 -0.32412519241006588 0.1878495682783011 0 -0.33328609379024349 0.2130068744180813 0 -0.32412519241006588 0.1878495682783011 0 -0.33328609379024349 0.2130068744180813 0 -0.31080006153106382 0.20197173666100501 0 -0.32412519241006588 0.1878495682783011 0 -0.31080006153106382 0.20197173666100501 0 -0.3108046026399135 0.18379038091696129 0 -0.33328609379024349 0.2130068744180813 0 -0.31873218963182409 0.22654972870499029 0 -0.31080006153106382 0.20197173666100501 0 -0.35084793517488477 0.2210857468323085 0 -0.34654591437965571 0.19533490523866279 0 -0.33328609379024349 0.2130068744180813 0 -0.35084793517488477 0.2210857468323085 0 -0.33328609379024349 0.2130068744180813 0 -0.34244699517042121 0.23816418055786151 0 -0.33328609379024349 0.2130068744180813 0 -0.34244699517042121 0.23816418055786151 0 -0.33328609379024349 0.2130068744180813 0 -0.31873218963182409 0.22654972870499029 0 -0.34244699517042121 0.23816418055786151 0 -0.31873218963182409 0.22654972870499029 0 -0.32200613725511351 0.24850726385495631 0 -0.34244699517042121 0.23816418055786151 0 -0.31873218963182409 0.22654972870499029 0 -0.32200613725511351 0.24850726385495631 0 -0.30672251365844311 0.23743048015470111 0 -0.32200613725511351 0.24850726385495631 0 -0.34244699517042121 0.23816418055786151 0 -0.33952374355129727 0.25899057541505788 0 -0.29125564533142001 0.24067530578368901 0 -0.30672251365844311 0.23743048015470111 0 -0.30640548876467488 0.25787073169030861 0 -0.32200613725511351 0.24850726385495631 0 -0.30672251365844311 0.23743048015470111 0 -0.30640548876467488 0.25787073169030861 0 -0.29125564533142001 0.24067530578368901 0 -0.30672251365844311 0.23743048015470111 0 -0.29521310730918271 0.21354937073956171 0 -0.31873218963182409 0.22654972870499029 0 -0.30672251365844311 0.23743048015470111 0 -0.29521310730918271 0.21354937073956171 0 -0.29125564533142001 0.24067530578368901 0 -0.29521310730918271 0.21354937073956171 0 -0.29125564533142001 0.24067530578368901 0 -0.29521310730918271 0.21354937073956171 0 -0.27258595833473342 0.22149207507906341 0 -0.29521310730918271 0.21354937073956171 0 -0.28878760701375322 0.1984352968903606 0 -0.27490594785389072 0.20112241201531189 0 -0.31873218963182409 0.22654972870499029 0 -0.29521310730918271 0.21354937073956171 0 -0.31080006153106382 0.20197173666100501 0 -0.29521310730918271 0.21354937073956171 0 -0.29917056928694541 0.1864234356954344 0 -0.29521310730918271 0.21354937073956171 0 -0.31080006153106382 0.20197173666100501 0 -0.29917056928694541 0.1864234356954344 0 -0.31080006153106382 0.20197173666100501 0 -0.3108046026399135 0.18379038091696129 0 -0.29917056928694541 0.1864234356954344 0 -0.28878760701375322 0.1984352968903606 0 -0.29917056928694541 0.1864234356954344 0 -0.28955343229492791 0.1852490896997587 0 -0.29521310730918271 0.21354937073956171 0 -0.28878760701375322 0.1984352968903606 0 -0.29917056928694541 0.1864234356954344 0 -0.28878760701375322 0.1984352968903606 0 -0.27938784373491388 0.18917199981814359 0 -0.28955343229492791 0.1852490896997587 0 -0.27938784373491388 0.18917199981814359 0 -0.27490594785389072 0.20112241201531189 0 -0.26439180367967152 0.18225540552070321 0 -0.28878760701375322 0.1984352968903606 0 -0.27938784373491388 0.18917199981814359 0 -0.27490594785389072 0.20112241201531189 0 -0.27490594785389072 0.20112241201531189 0 -0.25370102580463139 0.2052288024824625 0 -0.26439180367967152 0.18225540552070321 0 -0.25370102580463139 0.2052288024824625 0 -0.26439180367967152 0.18225540552070321 0 -0.23359887481107691 0.1809086922627815 0 -0.27490594785389072 0.20112241201531189 0 -0.25370102580463139 0.2052288024824625 0 -0.27258595833473342 0.22149207507906341 0 -0.29521310730918271 0.21354937073956171 0 -0.27490594785389072 0.20112241201531189 0 -0.27258595833473342 0.22149207507906341 0 -0.29125564533142001 0.24067530578368901 0 -0.27258595833473342 0.22149207507906341 0 -0.26834113505385238 0.23837358332174549 0 -0.27258595833473342 0.22149207507906341 0 -0.25272375818517617 0.22994970808158929 0 -0.26834113505385238 0.23837358332174549 0 -0.25370102580463139 0.2052288024824625 0 -0.27258595833473342 0.22149207507906341 0 -0.25272375818517617 0.22994970808158929 0 -0.25272375818517617 0.22994970808158929 0 -0.25621817608628389 0.2460965770837312 0 -0.26834113505385238 0.23837358332174549 0 -0.25621817608628389 0.2460965770837312 0 -0.26834113505385238 0.23837358332174549 0 -0.26892213733164849 0.25365425058065472 0 -0.29125564533142001 0.24067530578368901 0 -0.26834113505385238 0.23837358332174549 0 -0.26892213733164849 0.25365425058065472 0 -0.29370567785695612 0.15770531643225719 0 -0.28412418886142132 0.16518528890623771 0 -0.28065913062351988 0.14575155473079041 0 -0.30159211447790629 0.14759241864651959 0 -0.29370567785695612 0.15770531643225719 0 -0.28065913062351988 0.14575155473079041 0 -0.29682817834931757 0.13068013418198679 0 -0.30159211447790629 0.14759241864651959 0 -0.28065913062351988 0.14575155473079041 0 -0.29682817834931757 0.13068013418198679 0 -0.28065913062351988 0.14575155473079041 0 -0.28285123447775751 0.1183560919224374 0 -0.31354631638020197 0.13395604467094269 0 -0.29682817834931757 0.13068013418198679 0 -0.30159211447790629 0.14759241864651959 0 -0.31354631638020197 0.13395604467094269 0 -0.3122891553291075 0.14635758184588041 0 -0.30159211447790629 0.14759241864651959 0 -0.31353256245119709 0.1587605055712967 0 -0.3122891553291075 0.14635758184588041 0 -0.30159211447790629 0.14759241864651959 0 -0.31496429102988749 0.16269226213852109 0 -0.31353256245119709 0.1587605055712967 0 -0.30488677357152572 0.1641353808659653 0 -0.30159211447790629 0.14759241864651959 0 -0.30488677357152572 0.1641353808659653 0 -0.29370567785695612 0.15770531643225719 0 -0.31353256245119709 0.1587605055712967 0 -0.30159211447790629 0.14759241864651959 0 -0.30488677357152572 0.1641353808659653 0 -0.31496429102988749 0.16269226213852109 0 -0.30225886166240762 0.17397067591913981 0 -0.31303823693556859 0.17707572181323081 0 -0.31496429102988749 0.16269226213852109 0 -0.30225886166240762 0.17397067591913981 0 -0.31496429102988749 0.16269226213852109 0 -0.30488677357152572 0.1641353808659653 0 -0.30225886166240762 0.17397067591913981 0 -0.30488677357152572 0.1641353808659653 0 -0.30225886166240762 0.17397067591913981 0 -0.29597535979189887 0.1670989905046398 0 -0.30488677357152572 0.1641353808659653 0 -0.29370567785695612 0.15770531643225719 0 -0.29597535979189887 0.1670989905046398 0 -0.31303823693556859 0.17707572181323081 0 -0.3108046026399135 0.18379038091696129 0 -0.30225886166240762 0.17397067591913981 0 -0.30225886166240762 0.17397067591913981 0 -0.29917056928694541 0.1864234356954344 0 -0.28955343229492791 0.1852490896997587 0 -0.3108046026399135 0.18379038091696129 0 -0.30225886166240762 0.17397067591913981 0 -0.29917056928694541 0.1864234356954344 0 -0.30225886166240762 0.17397067591913981 0 -0.28955343229492791 0.1852490896997587 0 -0.30225886166240762 0.17397067591913981 0 -0.28955343229492791 0.1852490896997587 0 -0.29024545837739651 0.173916500811098 0 -0.28955343229492791 0.1852490896997587 0 -0.29024545837739651 0.173916500811098 0 -0.27889874324695868 0.17762520371433099 0 -0.29024545837739651 0.173916500811098 0 -0.28412418886142132 0.16518528890623771 0 -0.27889874324695868 0.17762520371433099 0 -0.27938784373491388 0.18917199981814359 0 -0.28955343229492791 0.1852490896997587 0 -0.27889874324695868 0.17762520371433099 0 -0.29370567785695612 0.15770531643225719 0 -0.29597535979189887 0.1670989905046398 0 -0.28412418886142132 0.16518528890623771 0 -0.30225886166240762 0.17397067591913981 0 -0.29024545837739651 0.173916500811098 0 -0.29597535979189887 0.1670989905046398 0 -0.29024545837739651 0.173916500811098 0 -0.29597535979189887 0.1670989905046398 0 -0.28412418886142132 0.16518528890623771 0 -0.28412418886142132 0.16518528890623771 0 -0.26844272787379447 0.16268744982768751 0 -0.27889874324695868 0.17762520371433099 0 -0.28412418886142132 0.16518528890623771 0 -0.26844272787379447 0.16268744982768751 0 -0.28065913062351988 0.14575155473079041 0 -0.26844272787379447 0.16268744982768751 0 -0.27889874324695868 0.17762520371433099 0 -0.26439180367967152 0.18225540552070321 0 -0.27938784373491388 0.18917199981814359 0 -0.27889874324695868 0.17762520371433099 0 -0.26439180367967152 0.18225540552070321 0 -0.26844272787379447 0.16268744982768751 0 -0.26439180367967152 0.18225540552070321 0 -0.247018622616726 0.15992587597476091 0 -0.26844272787379447 0.16268744982768751 0 -0.25846103874104392 0.14702121199507179 0 -0.247018622616726 0.15992587597476091 0 -0.26844272787379447 0.16268744982768751 0 -0.25846103874104392 0.14702121199507179 0 -0.28065913062351988 0.14575155473079041 0 -0.25846103874104392 0.14702121199507179 0 -0.28065913062351988 0.14575155473079041 0 -0.25922316449870308 0.12628093809151891 0 -0.28065913062351988 0.14575155473079041 0 -0.25922316449870308 0.12628093809151891 0 -0.28285123447775751 0.1183560919224374 0 -0.25846103874104392 0.14702121199507179 0 -0.25922316449870308 0.12628093809151891 0 -0.2369615480924761 0.1404602413506009 0 -0.25922316449870308 0.12628093809151891 0 -0.25136603029008331 0.1103208693098497 0 -0.26687835675477128 0.1014348965859585 0 -0.25136603029008331 0.1103208693098497 0 -0.26687835675477128 0.1014348965859585 0 -0.24377998071086901 0.096378574065869249 0 -0.26687835675477128 0.1014348965859585 0 -0.28737892951993471 0.098967158637655914 0 -0.27569457229827071 0.081243623470509244 0 -0.26687835675477128 0.1014348965859585 0 -0.28285123447775751 0.1183560919224374 0 -0.28737892951993471 0.098967158637655914 0 -0.25922316449870308 0.12628093809151891 0 -0.26687835675477128 0.1014348965859585 0 -0.28285123447775751 0.1183560919224374 0 -0.29682817834931757 0.13068013418198679 0 -0.28285123447775751 0.1183560919224374 0 -0.30549209578720232 0.10774456093924389 0 -0.28285123447775751 0.1183560919224374 0 -0.28737892951993471 0.098967158637655914 0 -0.30549209578720232 0.10774456093924389 0 -0.28737892951993471 0.098967158637655914 0 -0.30549209578720232 0.10774456093924389 0 -0.29743787519420251 0.08153307720754506 0 -0.30549209578720232 0.10774456093924389 0 -0.29743787519420251 0.08153307720754506 0 -0.31354631638020197 0.13395604467094269 0 -0.29682817834931757 0.13068013418198679 0 -0.30549209578720232 0.10774456093924389 0 -0.31354631638020197 0.13395604467094269 0 -0.30549209578720232 0.10774456093924389 0 -0.29926204670725021 0.066629363318123747 0 -0.30931237829482389 0.073252958087475881 0 -0.31697319293959142 0.061410437985649477 0 -0.29926204670725021 0.066629363318123747 0 -0.30931237829482389 0.073252958087475881 0 -0.29743787519420251 0.08153307720754506 0 -0.30549209578720232 0.10774456093924389 0 -0.29743787519420251 0.08153307720754506 0 -0.31312795334666071 0.083579729522452809 0 -0.30931237829482389 0.073252958087475881 0 -0.29743787519420251 0.08153307720754506 0 -0.31312795334666071 0.083579729522452809 0 -0.28737892951993471 0.098967158637655914 0 -0.29743787519420251 0.08153307720754506 0 -0.27569457229827071 0.081243623470509244 0 -0.29743787519420251 0.08153307720754506 0 -0.28743776060402371 0.060458689408765323 0 -0.28938365460120269 0.05532159347584624 0 -0.29743787519420251 0.08153307720754506 0 -0.28938365460120269 0.05532159347584624 0 -0.29926204670725021 0.066629363318123747 0 -0.29743787519420251 0.08153307720754506 0 -0.28938365460120269 0.05532159347584624 0 -0.29743787519420251 0.08153307720754506 0 -0.27569457229827071 0.081243623470509244 0 -0.28743776060402371 0.060458689408765323 0 -0.27569457229827071 0.081243623470509244 0 -0.26257114212692878 0.06573449919026883 0 -0.28743776060402371 0.060458689408765323 0 -0.26257114212692878 0.06573449919026883 0 -0.28743776060402371 0.060458689408765323 0 -0.26687835675477128 0.1014348965859585 0 -0.25261226255175379 0.080423606239198905 0 -0.24377998071086901 0.096378574065869249 0 -0.26687835675477128 0.1014348965859585 0 -0.27569457229827071 0.081243623470509244 0 -0.25261226255175379 0.080423606239198905 0 -0.26257114212692878 0.06573449919026883 0 -0.23770452364983391 0.071010308971772351 0 -0.25261226255175379 0.080423606239198905 0 -0.26257114212692878 0.06573449919026883 0 -0.23770452364983391 0.071010308971772351 0 -0.27569457229827071 0.081243623470509244 0 -0.25261226255175379 0.080423606239198905 0 -0.26257114212692878 0.06573449919026883 0 -0.2522816967992324 0.037264740289820159 0 -0.27263172987273521 0.051913181220590639 0 -0.24906194248509719 0.058488871325365822 0 -0.26257114212692878 0.06573449919026883 0 -0.27263172987273521 0.051913181220590639 0 -0.24906194248509719 0.058488871325365822 0 -0.2522816967992324 0.037264740289820159 0 -0.2684979789729644 0.03593820420606865 0 -0.27263172987273521 0.051913181220590639 0 -0.2684979789729644 0.03593820420606865 0 -0.27263172987273521 0.051913181220590639 0 -0.28132943400820298 0.02911010974414751 0 -0.27263172987273521 0.051913181220590639 0 -0.28132943400820298 0.02911010974414751 0 -0.28938365460120269 0.05532159347584624 0 -0.26257114212692878 0.06573449919026883 0 -0.27263172987273521 0.051913181220590639 0 -0.28743776060402371 0.060458689408765323 0 -0.25267499080189931 -0.0034516002120552492 0 -0.26909988492935111 -0.0018655285383734981 0 -0.25157722050270093 0.012682655753942951 0 -0.26909988492935111 -0.0018655285383734981 0 -0.25157722050270093 0.012682655753942951 0 -0.27200359261247947 0.017754051058092819 0 -0.2522816967992324 0.037264740289820159 0 -0.25157722050270093 0.012682655753942951 0 -0.27200359261247947 0.017754051058092819 0 -0.2522816967992324 0.037264740289820159 0 -0.2684979789729644 0.03593820420606865 0 -0.27200359261247947 0.017754051058092819 0 -0.2522816967992324 0.037264740289820159 0 -0.27200359261247947 0.017754051058092819 0 -0.27200359261247947 0.017754051058092819 0 -0.28831373269731447 0.017122983851404761 0 -0.28132943400820298 0.02911010974414751 0 -0.2684979789729644 0.03593820420606865 0 -0.27200359261247947 0.017754051058092819 0 -0.28132943400820298 0.02911010974414751 0 -0.26909988492935111 -0.0018655285383734981 0 -0.2917254884257266 -0.0017566381736345419 0 -0.27200359261247947 0.017754051058092819 0 -0.2917254884257266 -0.0017566381736345419 0 -0.27200359261247947 0.017754051058092819 0 -0.28831373269731447 0.017122983851404761 0 -0.2917254884257266 -0.0017566381736345419 0 -0.28831373269731447 0.017122983851404761 0 -0.29997880334656019 0.01439552450637107 0 -0.2917254884257266 -0.0017566381736345419 0 -0.27200359261247947 0.017754051058092819 0 -0.28831373269731447 0.017122983851404761 0 -0.29656482898857922 0.02610767777843559 0 -0.29997880334656019 0.01439552450637107 0 -0.28831373269731447 0.017122983851404761 0 -0.28132943400820298 0.02911010974414751 0 -0.29656482898857922 0.02610767777843559 0 -0.28132943400820298 0.02911010974414751 0 -0.29656482898857922 0.02610767777843559 0 -0.29344050585463782 0.03493273697686209 0 -0.29656482898857922 0.02610767777843559 0 -0.31039051656375261 0.022327184027059441 0 -0.30541723396373921 0.038711125382435783 0 -0.31039051656375261 0.022327184027059441 0 -0.30541723396373921 0.038711125382435783 0 -0.32038394146944787 0.031620215762440292 0 -0.29656482898857922 0.02610767777843559 0 -0.31039051656375261 0.022327184027059441 0 -0.29997880334656019 0.01439552450637107 0 -0.31039051656375261 0.022327184027059441 0 -0.31177688145040278 0.0050359958776742568 0 -0.29997880334656019 0.01439552450637107 0 -0.2917254884257266 -0.0017566381736345419 0 -0.31177688145040278 0.0050359958776742568 0 -0.29997880334656019 0.01439552450637107 0 -0.27263172987273521 0.051913181220590639 0 -0.28743776060402371 0.060458689408765323 0 -0.28938365460120269 0.05532159347584624 0 -0.28938365460120269 0.05532159347584624 0 -0.29045052645802971 0.045802035002429492 0 -0.29738278035354182 0.050541329601553678 0 -0.28938365460120269 0.05532159347584624 0 -0.29738278035354182 0.050541329601553678 0 -0.29780899910201009 0.056562827273038227 0 -0.29926204670725021 0.066629363318123747 0 -0.28938365460120269 0.05532159347584624 0 -0.29780899910201009 0.056562827273038227 0 -0.28132943400820298 0.02911010974414751 0 -0.28938365460120269 0.05532159347584624 0 -0.29045052645802971 0.045802035002429492 0 -0.28132943400820298 0.02911010974414751 0 -0.28938365460120269 0.05532159347584624 0 -0.28132943400820298 0.02911010974414751 0 -0.29344050585463782 0.03493273697686209 0 -0.29045052645802971 0.045802035002429492 0 -0.29344050585463782 0.03493273697686209 0 -0.29045052645802971 0.045802035002429492 0 -0.30541723396373921 0.038711125382435783 0 -0.29045052645802971 0.045802035002429492 0 -0.30541723396373921 0.038711125382435783 0 -0.29738278035354182 0.050541329601553678 0 -0.29045052645802971 0.045802035002429492 0 -0.30541723396373921 0.038711125382435783 0 -0.29656482898857922 0.02610767777843559 0 -0.29344050585463782 0.03493273697686209 0 -0.30541723396373921 0.038711125382435783 0 -0.30541723396373921 0.038711125382435783 0 -0.30520751474604563 0.05375902269662923 0 -0.31780711793698518 0.045521831715634557 0 -0.29926204670725021 0.066629363318123747 0 -0.30520751474604563 0.05375902269662923 0 -0.31697319293959142 0.061410437985649477 0 -0.30541723396373921 0.038711125382435783 0 -0.30520751474604563 0.05375902269662923 0 -0.29738278035354182 0.050541329601553678 0 -0.30520751474604563 0.05375902269662923 0 -0.29738278035354182 0.050541329601553678 0 -0.29780899910201009 0.056562827273038227 0 -0.29926204670725021 0.066629363318123747 0 -0.30520751474604563 0.05375902269662923 0 -0.29780899910201009 0.056562827273038227 0 -0.32553678940662539 0.052415823907368687 0 -0.31780711793698518 0.045521831715634557 0 -0.33422422494732851 0.04449049745268327 0 -0.31697319293959142 0.061410437985649477 0 -0.32553678940662539 0.052415823907368687 0 -0.31780711793698518 0.045521831715634557 0 -0.30520751474604563 0.05375902269662923 0 -0.31697319293959142 0.061410437985649477 0 -0.31780711793698518 0.045521831715634557 0 -0.31697319293959142 0.061410437985649477 0 -0.32808937753058609 0.059947696530402161 0 -0.32553678940662539 0.052415823907368687 0 -0.31780711793698518 0.045521831715634557 0 -0.32038394146944787 0.031620215762440292 0 -0.33422422494732851 0.04449049745268327 0 -0.30541723396373921 0.038711125382435783 0 -0.31780711793698518 0.045521831715634557 0 -0.32038394146944787 0.031620215762440292 0 -0.30541723396373921 0.038711125382435783 0 -0.32038394146944787 0.031620215762440292 0 -0.32038394146944787 0.031620215762440292 0 -0.33422422494732851 0.04449049745268327 0 -0.33422422494732851 0.04449049745268327 0 -0.34051642268078958 0.02208187176518148 0 -0.34924074101412461 0.03711639968071382 0 -0.32038394146944787 0.031620215762440292 0 -0.33422422494732851 0.04449049745268327 0 -0.34051642268078958 0.02208187176518148 0 -0.33422422494732851 0.04449049745268327 0 -0.34715076893326918 0.04673829876922056 0 -0.34924074101412461 0.03711639968071382 0 -0.33422422494732851 0.04449049745268327 0 -0.34806450842520742 0.057360779142928031 0 -0.34715076893326918 0.04673829876922056 0 -0.33422422494732851 0.04449049745268327 0 -0.34806450842520742 0.057360779142928031 0 -0.33422422494732851 0.04449049745268327 0 -0.33482930480244999 0.055095026294593591 0 -0.34806450842520742 0.057360779142928031 0 -0.3407399656121517 0.06083029771636933 0 -0.33482930480244999 0.055095026294593591 0 -0.33440717105718593 0.063083878638897639 0 -0.3407399656121517 0.06083029771636933 0 -0.33482930480244999 0.055095026294593591 0 -0.34806450842520742 0.057360779142928031 0 -0.32808937753058609 0.059947696530402161 0 -0.33482930480244999 0.055095026294593591 0 -0.33440717105718593 0.063083878638897639 0 -0.32808937753058609 0.059947696530402161 0 -0.32553678940662539 0.052415823907368687 0 -0.33482930480244999 0.055095026294593591 0 -0.32553678940662539 0.052415823907368687 0 -0.33422422494732851 0.04449049745268327 0 -0.33482930480244999 0.055095026294593591 0 -0.31039051656375261 0.022327184027059441 0 -0.31177688145040278 0.0050359958776742568 0 -0.3261420213634148 0.01391490981329808 0 -0.32828291010712762 -0.0049346835118845543 0 -0.31177688145040278 0.0050359958776742568 0 -0.3261420213634148 0.01391490981329808 0 -0.31039051656375261 0.022327184027059441 0 -0.32038394146944787 0.031620215762440292 0 -0.3261420213634148 0.01391490981329808 0 -0.31039051656375261 0.022327184027059441 0 -0.32038394146944787 0.031620215762440292 0 -0.32038394146944787 0.031620215762440292 0 -0.34051642268078958 0.02208187176518148 0 -0.32038394146944787 0.031620215762440292 0 -0.3261420213634148 0.01391490981329808 0 -0.34051642268078958 0.02208187176518148 0 -0.3261420213634148 0.01391490981329808 0 -0.34051642268078958 0.02208187176518148 0 -0.34055428987364128 0.0059527955302196532 0 -0.32828291010712762 -0.0049346835118845543 0 -0.3261420213634148 0.01391490981329808 0 -0.34055428987364128 0.0059527955302196532 0 -0.34051642268078958 0.02208187176518148 0 -0.34055428987364128 0.0059527955302196532 0 -0.36064890389212972 0.0125435277679194 0 -0.34718119132474479 -0.01384164818341615 0 -0.34055428987364128 0.0059527955302196532 0 -0.36064890389212972 0.0125435277679194 0 -0.34051642268078958 0.02208187176518148 0 -0.36064890389212972 0.0125435277679194 0 -0.34051642268078958 0.02208187176518148 0 -0.35699945364537122 0.027147445145089769 0 -0.34924074101412461 0.03711639968071382 0 -0.34051642268078958 0.02208187176518148 0 -0.35699945364537122 0.027147445145089769 0 -0.36064890389212972 0.0125435277679194 0 -0.35699945364537122 0.027147445145089769 0 -0.36163302121541668 0.029781402687577421 0 -0.35940737946489582 0.035374977024224222 0 -0.37998819155715241 0.0057865511937031933 0 -0.36738966121720701 0.029980518529024301 0 -0.37123175334181557 0.027162262264614271 0 -0.37998819155715241 0.0057865511937031933 0 -0.36738966121720701 0.029980518529024301 0 -0.3645477689834325 0.020181962352102071 0 -0.37998819155715241 0.0057865511937031933 0 -0.36738966121720701 0.029980518529024301 0 -0.36273559053419291 0.026622670051971411 0 -0.36738966121720701 0.029980518529024301 0 -0.3645477689834325 0.020181962352102071 0 -0.35699945364537122 0.027147445145089769 0 -0.36163302121541668 0.029781402687577421 0 -0.36273559053419291 0.026622670051971411 0 -0.35699945364537122 0.027147445145089769 0 -0.36273559053419291 0.026622670051971411 0 -0.3645477689834325 0.020181962352102071 0 -0.36163302121541668 0.029781402687577421 0 -0.36273559053419291 0.026622670051971411 0 -0.36738966121720701 0.029980518529024301 0 -0.35699945364537122 0.027147445145089769 0 -0.3645477689834325 0.020181962352102071 0 -0.36064890389212972 0.0125435277679194 0 -0.3645477689834325 0.020181962352102071 0 -0.36064890389212972 0.0125435277679194 0 -0.37998819155715241 0.0057865511937031933 0 -0.3645477689834325 0.020181962352102071 0 -0.36064890389212972 0.0125435277679194 0 -0.38683543611469601 0.0001369023841863784 0 -0.36064890389212972 0.0125435277679194 0 -0.37474494217865062 -0.0022388935110706832 0 -0.38683543611469601 0.0001369023841863784 0 -0.36064890389212972 0.0125435277679194 0 -0.37474494217865062 -0.0022388935110706832 0 -0.36307869926690151 -0.00068504054922277494 0 -0.36064890389212972 0.0125435277679194 0 -0.35479113087726238 0.05417448586434577 0 -0.34715076893326918 0.04673829876922056 0 -0.35593663516940488 0.04278932274017315 0 -0.35479113087726238 0.05417448586434577 0 -0.35147867423579721 0.06053566178096708 0 -0.3622197730044176 0.060127746183944272 0 -0.35479113087726238 0.05417448586434577 0 -0.35147867423579721 0.06053566178096708 0 -0.35479113087726238 0.05417448586434577 0 -0.34806450842520742 0.057360779142928031 0 -0.35147867423579721 0.06053566178096708 0 -0.35479113087726238 0.05417448586434577 0 -0.34806450842520742 0.057360779142928031 0 -0.34806450842520742 0.057360779142928031 0 -0.35147867423579721 0.06053566178096708 0 -0.3447014191436914 0.063951910484466787 0 -0.34806450842520742 0.057360779142928031 0 -0.35147867423579721 0.06053566178096708 0 -0.3407399656121517 0.06083029771636933 0 -0.34806450842520742 0.057360779142928031 0 -0.3407399656121517 0.06083029771636933 0 -0.34806450842520742 0.057360779142928031 0 -0.3447014191436914 0.063951910484466787 0 -0.35479113087726238 0.05417448586434577 0 -0.34806450842520742 0.057360779142928031 0 -0.34715076893326918 0.04673829876922056 0 -0.34715076893326918 0.04673829876922056 0 -0.34924074101412461 0.03711639968071382 0 -0.35593663516940488 0.04278932274017315 0 -0.36738966121720701 0.029980518529024301 0 -0.35479113087726238 0.05417448586434577 0 -0.35593663516940488 0.04278932274017315 0 -0.35699945364537122 0.027147445145089769 0 -0.34924074101412461 0.03711639968071382 0 -0.35940737946489582 0.035374977024224222 0 -0.34924074101412461 0.03711639968071382 0 -0.35593663516940488 0.04278932274017315 0 -0.35940737946489582 0.035374977024224222 0 -0.36738966121720701 0.029980518529024301 0 -0.35479113087726238 0.05417448586434577 0 -0.36677646394688163 0.041367990420506082 0 -0.37123175334181557 0.027162262264614271 0 -0.37046143272875132 0.04675171495388801 0 -0.36738966121720701 0.029980518529024301 0 -0.35479113087726238 0.05417448586434577 0 -0.37123175334181557 0.027162262264614271 0 -0.36677646394688163 0.041367990420506082 0 -0.37046143272875132 0.04675171495388801 0 -0.3764786745208083 0.032098692741998169 0 -0.37123175334181557 0.027162262264614271 0 -0.37046143272875132 0.04675171495388801 0 -0.36163302121541668 0.029781402687577421 0 -0.36738966121720701 0.029980518529024301 0 -0.35940737946489582 0.035374977024224222 0 -0.36738966121720701 0.029980518529024301 0 -0.35593663516940488 0.04278932274017315 0 -0.35940737946489582 0.035374977024224222 0 -0.36738966121720701 0.029980518529024301 0 -0.37123175334181557 0.027162262264614271 0 -0.36677646394688163 0.041367990420506082 0 -0.36677646394688163 0.041367990420506082 0 -0.37046143272875132 0.04675171495388801 0 -0.36802302346639398 0.047906750352184523 0 -0.36677646394688163 0.041367990420506082 0 -0.36802302346639398 0.047906750352184523 0 -0.37046143272875132 0.04675171495388801 0 -0.37000681959492809 0.05831264468359916 0 -0.36802302346639398 0.047906750352184523 0 -0.37000681959492809 0.05831264468359916 0 -0.37046143272875132 0.04675171495388801 0 -0.36802302346639398 0.047906750352184523 0 -0.37000681959492809 0.05831264468359916 0 -0.37046143272875132 0.04675171495388801 0 -0.36802302346639398 0.047906750352184523 0 -0.35479113087726238 0.05417448586434577 0 -0.36802302346639398 0.047906750352184523 0 -0.35479113087726238 0.05417448586434577 0 -0.36802302346639398 0.047906750352184523 0 -0.3622197730044176 0.060127746183944272 0 -0.35479113087726238 0.05417448586434577 0 -0.36677646394688163 0.041367990420506082 0 -0.36802302346639398 0.047906750352184523 0 -0.36802302346639398 0.047906750352184523 0 -0.3622197730044176 0.060127746183944272 0 -0.37000681959492809 0.05831264468359916 0 -0.35147867423579721 0.06053566178096708 0 -0.36926886504626422 0.077079019973005369 0 -0.3622197730044176 0.060127746183944272 0 -0.37000681959492809 0.05831264468359916 0 -0.36926886504626422 0.077079019973005369 0 -0.37000681959492809 0.05831264468359916 0 -0.36926886504626422 0.077079019973005369 0 -0.37079498002478778 0.078498176574577722 0 -0.36926886504626422 0.077079019973005369 0 -0.34551673285671652 0.071984855543133663 0 -0.36912013352382872 0.080861301107253064 0 -0.37000681959492809 0.05831264468359916 0 -0.37079498002478778 0.078498176574577722 0 -0.37470600383380392 0.082961959162170973 0 -0.35147867423579721 0.06053566178096708 0 -0.3622197730044176 0.060127746183944272 0 -0.36926886504626422 0.077079019973005369 0 -0.37000681959492809 0.05831264468359916 0 -0.37470600383380392 0.082961959162170973 0 -0.37000681959492809 0.05831264468359916 0 -0.36926886504626422 0.077079019973005369 0 -0.36926886504626422 0.077079019973005369 0 -0.37079498002478778 0.078498176574577722 0 -0.34551673285671652 0.071984855543133663 0 -0.34763839367566191 0.079069075487607554 0 -0.36912013352382872 0.080861301107253064 0 -0.34551673285671652 0.071984855543133663 0 -0.36912013352382872 0.080861301107253064 0 -0.35147867423579721 0.06053566178096708 0 -0.36926886504626422 0.077079019973005369 0 -0.34551673285671652 0.071984855543133663 0 -0.34408269824063842 0.074738747125954852 0 -0.34763839367566191 0.079069075487607554 0 -0.34179116264722731 0.080399472229040897 0 -0.34408269824063842 0.074738747125954852 0 -0.34551673285671652 0.071984855543133663 0 -0.34763839367566191 0.079069075487607554 0 -0.34408269824063842 0.074738747125954852 0 -0.34551673285671652 0.071984855543133663 0 -0.35147867423579721 0.06053566178096708 0 -0.34551673285671652 0.071984855543133663 0 -0.3447014191436914 0.063951910484466787 0 -0.35147867423579721 0.06053566178096708 0 -0.34551673285671652 0.071984855543133663 0 -0.34763839367566191 0.079069075487607554 0 -0.36858415035949882 0.094491491786065696 0 -0.34763839367566191 0.079069075487607554 0 -0.36858415035949882 0.094491491786065696 0 -0.35198293914272999 0.094145145766245733 0 -0.34456144318064219 0.08667329674911145 0 -0.34763839367566191 0.079069075487607554 0 -0.35198293914272999 0.094145145766245733 0 -0.34456144318064219 0.08667329674911145 0 -0.35198293914272999 0.094145145766245733 0 -0.34431035454597703 0.093789606507308373 0 -0.34456144318064219 0.08667329674911145 0 -0.34763839367566191 0.079069075487607554 0 -0.34179116264722731 0.080399472229040897 0 -0.3782625711058698 0.101617738696854 0 -0.37470600383380392 0.082961959162170973 0 -0.36858415035949882 0.094491491786065696 0 -0.34763839367566191 0.079069075487607554 0 -0.36912013352382872 0.080861301107253064 0 -0.36858415035949882 0.094491491786065696 0 -0.36926886504626422 0.077079019973005369 0 -0.37079498002478778 0.078498176574577722 0 -0.36912013352382872 0.080861301107253064 0 -0.36926886504626422 0.077079019973005369 0 -0.36912013352382872 0.080861301107253064 0 -0.36912013352382872 0.080861301107253064 0 -0.37470600383380392 0.082961959162170973 0 -0.37079498002478778 0.078498176574577722 0 -0.36912013352382872 0.080861301107253064 0 -0.37470600383380392 0.082961959162170973 0 -0.36912013352382872 0.080861301107253064 0 -0.37470600383380392 0.082961959162170973 0 -0.36858415035949882 0.094491491786065696 0 -0.36912013352382872 0.080861301107253064 0 -0.36858415035949882 0.094491491786065696 0 -0.36858415035949882 0.094491491786065696 0 -0.36747352968705388 0.12273486311700831 0 -0.3782625711058698 0.101617738696854 0 -0.36858415035949882 0.094491491786065696 0 -0.36858415035949882 0.094491491786065696 0 -0.36006702585218792 0.10838608290929221 0 -0.35198293914272999 0.094145145766245733 0 -0.36858415035949882 0.094491491786065696 0 -0.36006702585218792 0.10838608290929221 0 -0.36747352968705388 0.12273486311700831 0 -0.3782625711058698 0.101617738696854 0 -0.36858415035949882 0.094491491786065696 0 -0.36747352968705388 0.12273486311700831 0 -0.36006702585218792 0.10838608290929221 0 -0.36747352968705388 0.12273486311700831 0 -0.35832203275528268 0.1183511860346923 0 -0.35528769071996391 0.12689780186549679 0 -0.36747352968705388 0.12273486311700831 0 -0.35832203275528268 0.1183511860346923 0 -0.35528769071996391 0.12689780186549679 0 -0.35832203275528268 0.1183511860346923 0 -0.35045988476192508 0.115385996246972 0 -0.36006702585218792 0.10838608290929221 0 -0.35832203275528268 0.1183511860346923 0 -0.35045988476192508 0.115385996246972 0 -0.35045988476192508 0.115385996246972 0 -0.34547580274860562 0.10394098399483009 0 -0.33570271963636877 0.11206429961599181 0 -0.35528769071996391 0.12689780186549679 0 -0.35045988476192508 0.115385996246972 0 -0.34115039425197219 0.12498493974687711 0 -0.36006702585218792 0.10838608290929221 0 -0.35198293914272999 0.094145145766245733 0 -0.34547580274860562 0.10394098399483009 0 -0.36006702585218792 0.10838608290929221 0 -0.35045988476192508 0.115385996246972 0 -0.34547580274860562 0.10394098399483009 0 -0.35198293914272999 0.094145145766245733 0 -0.34547580274860562 0.10394098399483009 0 -0.34431035454597703 0.093789606507308373 0 -0.34547580274860562 0.10394098399483009 0 -0.34431035454597703 0.093789606507308373 0 -0.335413749579693 0.097286071719103154 0 -0.34547580274860562 0.10394098399483009 0 -0.335413749579693 0.097286071719103154 0 -0.33570271963636877 0.11206429961599181 0 -0.335413749579693 0.097286071719103154 0 -0.33570271963636877 0.11206429961599181 0 -0.32444247844199348 0.1047035033472971 0 -0.35045988476192508 0.115385996246972 0 -0.34115039425197219 0.12498493974687711 0 -0.33570271963636877 0.11206429961599181 0 -0.32917568526667751 0.12578156900391591 0 -0.33570271963636877 0.11206429961599181 0 -0.32114709127587232 0.11611322513389059 0 -0.32917568526667751 0.12578156900391591 0 -0.34115039425197219 0.12498493974687711 0 -0.33570271963636877 0.11206429961599181 0 -0.31354631638020197 0.13395604467094269 0 -0.30549209578720232 0.10774456093924389 0 -0.32114709127587232 0.11611322513389059 0 -0.30549209578720232 0.10774456093924389 0 -0.32114709127587232 0.11611322513389059 0 -0.32444247844199348 0.1047035033472971 0 -0.33570271963636877 0.11206429961599181 0 -0.32114709127587232 0.11611322513389059 0 -0.32444247844199348 0.1047035033472971 0 -0.30549209578720232 0.10774456093924389 0 -0.32444247844199348 0.1047035033472971 0 -0.32445673593083119 0.090309359328255762 0 -0.30549209578720232 0.10774456093924389 0 -0.32445673593083119 0.090309359328255762 0 -0.31312795334666071 0.083579729522452809 0 -0.335413749579693 0.097286071719103154 0 -0.32444247844199348 0.1047035033472971 0 -0.32445673593083119 0.090309359328255762 0 -0.32445673593083119 0.090309359328255762 0 -0.3275606083710243 0.080211281293741998 0 -0.31312795334666071 0.083579729522452809 0 -0.3275606083710243 0.080211281293741998 0 -0.31312795334666071 0.083579729522452809 0 -0.31976082328641481 0.073112182403608325 0 -0.30931237829482389 0.073252958087475881 0 -0.31312795334666071 0.083579729522452809 0 -0.31976082328641481 0.073112182403608325 0 -0.30931237829482389 0.073252958087475881 0 -0.31697319293959142 0.061410437985649477 0 -0.31976082328641481 0.073112182403608325 0 -0.31697319293959142 0.061410437985649477 0 -0.31976082328641481 0.073112182403608325 0 -0.32886731949388731 0.069155273298144179 0 -0.31697319293959142 0.061410437985649477 0 -0.32808937753058609 0.059947696530402161 0 -0.32886731949388731 0.069155273298144179 0 -0.3275606083710243 0.080211281293741998 0 -0.31976082328641481 0.073112182403608325 0 -0.32886731949388731 0.069155273298144179 0 -0.32886731949388731 0.069155273298144179 0 -0.33770721458858299 0.069047958238937293 0 -0.336378655355973 0.076693290193422539 0 -0.3275606083710243 0.080211281293741998 0 -0.32886731949388731 0.069155273298144179 0 -0.336378655355973 0.076693290193422539 0 -0.33440717105718593 0.063083878638897639 0 -0.32886731949388731 0.069155273298144179 0 -0.33770721458858299 0.069047958238937293 0 -0.32808937753058609 0.059947696530402161 0 -0.33440717105718593 0.063083878638897639 0 -0.32886731949388731 0.069155273298144179 0 -0.3407399656121517 0.06083029771636933 0 -0.33440717105718593 0.063083878638897639 0 -0.33770721458858299 0.069047958238937293 0 -0.3407399656121517 0.06083029771636933 0 -0.3447014191436914 0.063951910484466787 0 -0.33770721458858299 0.069047958238937293 0 -0.34551673285671652 0.071984855543133663 0 -0.3447014191436914 0.063951910484466787 0 -0.33770721458858299 0.069047958238937293 0 -0.34408269824063842 0.074738747125954852 0 -0.33770721458858299 0.069047958238937293 0 -0.336378655355973 0.076693290193422539 0 -0.34408269824063842 0.074738747125954852 0 -0.34551673285671652 0.071984855543133663 0 -0.33770721458858299 0.069047958238937293 0 -0.34551673285671652 0.071984855543133663 0 -0.33770721458858299 0.069047958238937293 0 -0.34408269824063842 0.074738747125954852 0 -0.336378655355973 0.076693290193422539 0 -0.34179116264722731 0.080399472229040897 0 -0.336378655355973 0.076693290193422539 0 -0.34179116264722731 0.080399472229040897 0 -0.33708436589161489 0.085963183755354639 0 -0.34456144318064219 0.08667329674911145 0 -0.34179116264722731 0.080399472229040897 0 -0.33708436589161489 0.085963183755354639 0 -0.34456144318064219 0.08667329674911145 0 -0.34431035454597703 0.093789606507308373 0 -0.33708436589161489 0.085963183755354639 0 -0.34431035454597703 0.093789606507308373 0 -0.335413749579693 0.097286071719103154 0 -0.33708436589161489 0.085963183755354639 0 -0.335413749579693 0.097286071719103154 0 -0.32445673593083119 0.090309359328255762 0 -0.33708436589161489 0.085963183755354639 0 -0.32445673593083119 0.090309359328255762 0 -0.3275606083710243 0.080211281293741998 0 -0.33708436589161489 0.085963183755354639 0 -0.3275606083710243 0.080211281293741998 0 -0.336378655355973 0.076693290193422539 0 -0.33708436589161489 0.085963183755354639 0 -0.38891458820749281 0.47713565504117422 0 -0.42172655890518862 0.5 0 -0.3640375775585698 0.5 0 -0.38891458820749281 0.47713565504117422 0 -0.37103467036260362 0.45695891695805302 0 -0.36943712044780219 0.47475959506207249 0 -0.39694697642853649 0.45370639251272787 0 -0.37103467036260362 0.45695891695805302 0 -0.38891458820749281 0.47713565504117422 0 -0.39694697642853649 0.45370639251272787 0 -0.37103467036260362 0.45695891695805302 0 -0.38249991962136642 0.44345487931465249 0 -0.39694697642853649 0.45370639251272787 0 -0.37103467036260362 0.45695891695805302 0 -0.38249991962136642 0.44345487931465249 0 -0.39694697642853649 0.45370639251272787 0 -0.40464661760035381 0.43350824459614162 0 -0.38891458820749281 0.47713565504117422 0 -0.39694697642853649 0.45370639251272787 0 -0.41631826774707797 0.4711213942969617 0 -0.39694697642853649 0.45370639251272787 0 -0.42285928249446952 0.45045386806740279 0 -0.41631826774707797 0.4711213942969617 0 -0.42285928249446952 0.45045386806740279 0 -0.42501824733507809 0.43459816807542118 0 -0.40464661760035381 0.43350824459614162 0 -0.39694697642853649 0.45370639251272787 0 -0.42285928249446952 0.45045386806740279 0 -0.39694697642853649 0.45370639251272787 0 -0.42285928249446952 0.45045386806740279 0 -0.40464661760035381 0.43350824459614162 0 -0.42285928249446952 0.45045386806740279 0 -0.43521244088076849 0.46107148678855758 0 -0.44877158856040261 0.44720134362207808 0 -0.42285928249446952 0.45045386806740279 0 -0.44877158856040261 0.44720134362207808 0 -0.42285928249446952 0.45045386806740279 0 -0.43592409671607729 0.44045812782560079 0 -0.44877158856040261 0.44720134362207808 0 -0.42285928249446952 0.45045386806740279 0 -0.43592409671607729 0.44045812782560079 0 -0.42501824733507809 0.43459816807542118 0 -0.42285928249446952 0.45045386806740279 0 -0.43521244088076849 0.46107148678855758 0 -0.41631826774707797 0.4711213942969617 0 -0.41631826774707797 0.4711213942969617 0 -0.42172655890518862 0.5 0 -0.43935827984199688 0.47473889959161758 0 -0.43521244088076849 0.46107148678855758 0 -0.41631826774707797 0.4711213942969617 0 -0.43935827984199688 0.47473889959161758 0 -0.38891458820749281 0.47713565504117422 0 -0.41631826774707797 0.4711213942969617 0 -0.42172655890518862 0.5 0 -0.42172655890518862 0.5 0 -0.43935827984199688 0.47473889959161758 0 -0.47784082473980471 0.47626967285504462 0 -0.42172655890518862 0.5 0 -0.5 0.5 0 -0.47784082473980471 0.47626967285504462 0 -0.43935827984199688 0.47473889959161758 0 -0.47784082473980471 0.47626967285504462 0 -0.4487547857598953 0.46184192836472759 0 -0.5 0.5 0 -0.47784082473980471 0.47626967285504462 0 -0.49999999999999589 0.44077113011354369 0 -0.47784082473980471 0.47626967285504462 0 -0.47438579428019922 0.44398623686781052 0 -0.4627013265822788 0.4545376326069438 0 -0.47784082473980471 0.47626967285504462 0 -0.49999999999999589 0.44077113011354369 0 -0.47438579428019922 0.44398623686781052 0 -0.49999999999999589 0.44077113011354369 0 -0.47438579428019922 0.44398623686781052 0 -0.48180565015534738 0.42787197640755792 0 -0.49999999999999589 0.44077113011354369 0 -0.47438579428019922 0.44398623686781052 0 -0.47438579428019922 0.44398623686781052 0 -0.4627013265822788 0.4545376326069438 0 -0.44877158856040261 0.44720134362207808 0 -0.47438579428019922 0.44398623686781052 0 -0.44877158856040261 0.44720134362207808 0 -0.47438579428019922 0.44398623686781052 0 -0.44877158856040261 0.44720134362207808 0 -0.46289485375526918 0.43579199928955081 0 -0.44877158856040261 0.44720134362207808 0 -0.44878504691792248 0.43547483269414872 0 -0.46289485375526918 0.43579199928955081 0 -0.47784082473980471 0.47626967285504462 0 -0.4627013265822788 0.4545376326069438 0 -0.4487547857598953 0.46184192836472759 0 -0.4627013265822788 0.4545376326069438 0 -0.4487547857598953 0.46184192836472759 0 -0.44877158856040261 0.44720134362207808 0 -0.4487547857598953 0.46184192836472759 0 -0.44877158856040261 0.44720134362207808 0 -0.43521244088076849 0.46107148678855758 0 -0.4487547857598953 0.46184192836472759 0 -0.44877158856040261 0.44720134362207808 0 -0.43521244088076849 0.46107148678855758 0 -0.43935827984199688 0.47473889959161758 0 -0.4487547857598953 0.46184192836472759 0 -0.44877158856040261 0.44720134362207808 0 -0.44508566455651338 0.43839632914573512 0 -0.44878504691792248 0.43547483269414872 0 -0.44877158856040261 0.44720134362207808 0 -0.44878504691792248 0.43547483269414872 0 -0.43592409671607729 0.44045812782560079 0 -0.44877158856040261 0.44720134362207808 0 -0.44508566455651338 0.43839632914573512 0 -0.44531233658805403 0.42513554986162888 0 -0.44878504691792248 0.43547483269414872 0 -0.44880957839306629 0.41410011360809668 0 -0.44878504691792248 0.43547483269414872 0 -0.44880957839306629 0.41410011360809668 0 -0.43788570063392329 0.43164093021736671 0 -0.44531233658805403 0.42513554986162888 0 -0.44878504691792248 0.43547483269414872 0 -0.43592409671607729 0.44045812782560079 0 -0.44508566455651338 0.43839632914573512 0 -0.43788570063392329 0.43164093021736671 0 -0.44508566455651338 0.43839632914573512 0 -0.43788570063392329 0.43164093021736671 0 -0.44878504691792248 0.43547483269414872 0 -0.44508566455651338 0.43839632914573512 0 -0.44878504691792248 0.43547483269414872 0 -0.44531233658805403 0.42513554986162888 0 -0.44880957839306629 0.41410011360809668 0 -0.42391867717568832 0.41711337076656618 0 -0.44880957839306629 0.41410011360809668 0 -0.46585669794528167 0.42199291516666237 0 -0.4641229039382897 0.40091036417177778 0 -0.44878504691792248 0.43547483269414872 0 -0.46585669794528167 0.42199291516666237 0 -0.44878504691792248 0.43547483269414872 0 -0.44880957839306629 0.41410011360809668 0 -0.46585669794528167 0.42199291516666237 0 -0.44878504691792248 0.43547483269414872 0 -0.46585669794528167 0.42199291516666237 0 -0.46289485375526918 0.43579199928955081 0 -0.47438579428019922 0.44398623686781052 0 -0.46289485375526918 0.43579199928955081 0 -0.48180565015534738 0.42787197640755792 0 -0.46585669794528167 0.42199291516666237 0 -0.46289485375526918 0.43579199928955081 0 -0.48180565015534738 0.42787197640755792 0 -0.46585669794528167 0.42199291516666237 0 -0.48292834897264081 0.4085109976391762 0 -0.4641229039382897 0.40091036417177778 0 -0.46585669794528167 0.42199291516666237 0 -0.48292834897264081 0.4085109976391762 0 -0.46585669794528167 0.42199291516666237 0 -0.48180565015534738 0.42787197640755792 0 -0.48292834897264081 0.4085109976391762 0 -0.48292834897264081 0.4085109976391762 0 -0.5 0.41790010511261683 0 -0.5 0.39502908011169002 0 -0.48180565015534738 0.42787197640755792 0 -0.48292834897264081 0.4085109976391762 0 -0.5 0.41790010511261683 0 -0.49999999999999589 0.44077113011354369 0 -0.48180565015534738 0.42787197640755792 0 -0.5 0.41790010511261683 0 -0.48850556386005051 0.3766603246979251 0 -0.5 0.39502908011169002 0 -0.47832653283541199 0.38608194873200979 0 -0.48850556386005051 0.3766603246979251 0 -0.5 0.39502908011169002 0 -0.5 0.36887446842263683 0 -0.48292834897264081 0.4085109976391762 0 -0.5 0.39502908011169002 0 -0.47832653283541199 0.38608194873200979 0 -0.48292834897264081 0.4085109976391762 0 -0.5 0.39502908011169002 0 -0.48292834897264081 0.4085109976391762 0 -0.47832653283541199 0.38608194873200979 0 -0.4641229039382897 0.40091036417177778 0 -0.48850556386005051 0.3766603246979251 0 -0.47832653283541199 0.38608194873200979 0 -0.48259334700195489 0.36409898273387958 0 -0.47832653283541199 0.38608194873200979 0 -0.46059005399087027 0.38292215568240928 0 -0.4641229039382897 0.40091036417177778 0 -0.47832653283541199 0.38608194873200979 0 -0.46059005399087027 0.38292215568240928 0 -0.46572599417265398 0.36772482908493609 0 -0.44880957839306629 0.41410011360809668 0 -0.4641229039382897 0.40091036417177778 0 -0.44883410986820999 0.3927253945220448 0 -0.46059005399087027 0.38292215568240928 0 -0.4641229039382897 0.40091036417177778 0 -0.44883410986820999 0.3927253945220448 0 -0.44880957839306629 0.41410011360809668 0 -0.44883410986820999 0.3927253945220448 0 -0.43699833754743561 0.40294499431243458 0 -0.44880957839306629 0.41410011360809668 0 -0.44883410986820999 0.3927253945220448 0 -0.44883410986820999 0.3927253945220448 0 -0.43978391516082421 0.3912231797547942 0 -0.43699833754743561 0.40294499431243458 0 -0.44883410986820999 0.3927253945220448 0 -0.43978391516082421 0.3912231797547942 0 -0.44802713623065987 0.37645115623263098 0 -0.44883410986820999 0.3927253945220448 0 -0.44885864134335329 0.37135067543599282 0 -0.44883410986820999 0.3927253945220448 0 -0.44802713623065987 0.37645115623263098 0 -0.44885864134335329 0.37135067543599282 0 -0.43978391516082421 0.3912231797547942 0 -0.44802713623065987 0.37645115623263098 0 -0.42527607699699133 0.39277117395206662 0 -0.46059005399087027 0.38292215568240928 0 -0.44883410986820999 0.3927253945220448 0 -0.44885864134335329 0.37135067543599282 0 -0.44802713623065987 0.37645115623263098 0 -0.4250431626101242 0.37647010748543319 0 -0.42527607699699133 0.39277117395206662 0 -0.44802713623065987 0.37645115623263098 0 -0.42527607699699133 0.39277117395206662 0 -0.4250431626101242 0.37647010748543319 0 -0.4134887672477453 0.38574914578498593 0 -0.40122768387689522 0.38158953953487368 0 -0.4250431626101242 0.37647010748543319 0 -0.40122768387689522 0.38158953953487368 0 -0.4250431626101242 0.37647010748543319 0 -0.4134887672477453 0.38574914578498593 0 -0.42527607699699133 0.39277117395206662 0 -0.4250431626101242 0.37647010748543319 0 -0.40122768387689522 0.38158953953487368 0 -0.40086489287733429 0.37467411733839928 0 -0.4134887672477453 0.38574914578498593 0 -0.40798835104355652 0.39359067917546098 0 -0.40557429982823212 0.38794008425198068 0 -0.4134887672477453 0.38574914578498593 0 -0.40122768387689522 0.38158953953487368 0 -0.40557429982823212 0.38794008425198068 0 -0.40798835104355652 0.39359067917546098 0 -0.42527607699699133 0.39277117395206662 0 -0.40252501776332311 0.40909119167150271 0 -0.42527607699699133 0.39277117395206662 0 -0.40252501776332311 0.40909119167150271 0 -0.4134887672477453 0.38574914578498593 0 -0.40798835104355652 0.39359067917546098 0 -0.42527607699699133 0.39277117395206662 0 -0.42527607699699133 0.39277117395206662 0 -0.43699833754743561 0.40294499431243458 0 -0.42391867717568832 0.41711337076656618 0 -0.43978391516082421 0.3912231797547942 0 -0.42527607699699133 0.39277117395206662 0 -0.43699833754743561 0.40294499431243458 0 -0.44880957839306629 0.41410011360809668 0 -0.43699833754743561 0.40294499431243458 0 -0.42391867717568832 0.41711337076656618 0 -0.44531233658805403 0.42513554986162888 0 -0.42391867717568832 0.41711337076656618 0 -0.43788570063392329 0.43164093021736671 0 -0.44531233658805403 0.42513554986162888 0 -0.42391867717568832 0.41711337076656618 0 -0.43788570063392329 0.43164093021736671 0 -0.42391867717568832 0.41711337076656618 0 -0.42501824733507809 0.43459816807542118 0 -0.43592409671607729 0.44045812782560079 0 -0.43788570063392329 0.43164093021736671 0 -0.42501824733507809 0.43459816807542118 0 -0.42391867717568832 0.41711337076656618 0 -0.42501824733507809 0.43459816807542118 0 -0.40464661760035381 0.43350824459614162 0 -0.42527607699699133 0.39277117395206662 0 -0.42391867717568832 0.41711337076656618 0 -0.40252501776332311 0.40909119167150271 0 -0.42391867717568832 0.41711337076656618 0 -0.40252501776332311 0.40909119167150271 0 -0.40464661760035381 0.43350824459614162 0 -0.42391867717568832 0.41711337076656618 0 -0.40252501776332311 0.40909119167150271 0 -0.40252501776332311 0.40909119167150271 0 -0.37875820238401509 0.42613984176471847 0 -0.40252501776332311 0.40909119167150271 0 -0.40464661760035381 0.43350824459614162 0 -0.37875820238401509 0.42613984176471847 0 -0.38249991962136642 0.44345487931465249 0 -0.40464661760035381 0.43350824459614162 0 -0.37875820238401509 0.42613984176471847 0 -0.40252501776332311 0.40909119167150271 0 -0.37875820238401509 0.42613984176471847 0 -0.37769092578324193 0.39977892163450779 0 -0.37769092578324193 0.39977892163450779 0 -0.38963770449155072 0.39285491215608792 0 -0.37686086334024771 0.38257038446795849 0 -0.40252501776332311 0.40909119167150271 0 -0.37769092578324193 0.39977892163450779 0 -0.38963770449155072 0.39285491215608792 0 -0.40252501776332311 0.40909119167150271 0 -0.37769092578324193 0.39977892163450779 0 -0.37686086334024771 0.38257038446795849 0 -0.39363670834615189 0.38450398520198442 0 -0.40086489287733429 0.37467411733839928 0 -0.38963770449155072 0.39285491215608792 0 -0.37686086334024771 0.38257038446795849 0 -0.39363670834615189 0.38450398520198442 0 -0.37686086334024771 0.38257038446795849 0 -0.40086489287733429 0.37467411733839928 0 -0.37686086334024771 0.38257038446795849 0 -0.40086489287733429 0.37467411733839928 0 -0.39033592763893787 0.37070590072739279 0 -0.39363670834615189 0.38450398520198442 0 -0.40122768387689522 0.38158953953487368 0 -0.39959239714473138 0.39083097251260251 0 -0.38963770449155072 0.39285491215608792 0 -0.39363670834615189 0.38450398520198442 0 -0.39959239714473138 0.39083097251260251 0 -0.39363670834615189 0.38450398520198442 0 -0.40122768387689522 0.38158953953487368 0 -0.40086489287733429 0.37467411733839928 0 -0.40122768387689522 0.38158953953487368 0 -0.40557429982823212 0.38794008425198068 0 -0.39959239714473138 0.39083097251260251 0 -0.40798835104355652 0.39359067917546098 0 -0.40557429982823212 0.38794008425198068 0 -0.39959239714473138 0.39083097251260251 0 -0.40252501776332311 0.40909119167150271 0 -0.38963770449155072 0.39285491215608792 0 -0.39959239714473138 0.39083097251260251 0 -0.40798835104355652 0.39359067917546098 0 -0.40252501776332311 0.40909119167150271 0 -0.39959239714473138 0.39083097251260251 0 -0.3926828114571661 0.35541775914535301 0 -0.40105078960399698 0.34662517948293931 0 -0.40586906590548888 0.3393029225754271 0 -0.3926828114571661 0.35541775914535301 0 -0.39400561065841477 0.34382680172727831 0 -0.40586906590548888 0.3393029225754271 0 -0.3926828114571661 0.35541775914535301 0 -0.40586906590548888 0.3393029225754271 0 -0.3926828114571661 0.35541775914535301 0 -0.39969836615416421 0.35756427730283669 0 -0.39341808057325789 0.36431669671432632 0 -0.3926828114571661 0.35541775914535301 0 -0.40105078960399698 0.34662517948293931 0 -0.39969836615416421 0.35756427730283669 0 -0.3926828114571661 0.35541775914535301 0 -0.39400561065841477 0.34382680172727831 0 -0.38539473684528258 0.34837828204789067 0 -0.40105078960399698 0.34662517948293931 0 -0.40525205349158999 0.35429039595711992 0 -0.40888688292129022 0.34941903462410451 0 -0.40105078960399698 0.34662517948293931 0 -0.4080564418273247 0.34368885170405422 0 -0.40888688292129022 0.34941903462410451 0 -0.40105078960399698 0.34662517948293931 0 -0.40525205349158999 0.35429039595711992 0 -0.39969836615416421 0.35756427730283669 0 -0.40525205349158999 0.35429039595711992 0 -0.39969836615416421 0.35756427730283669 0 -0.40553625032349627 0.36037170931698131 0 -0.40553625032349627 0.36037170931698131 0 -0.40544017780568847 0.3661562974108753 0 -0.40025021147547779 0.36436392320030081 0 -0.40544017780568847 0.3661562974108753 0 -0.40025021147547779 0.36436392320030081 0 -0.397742957241214 0.36844985128713797 0 -0.39969836615416421 0.35756427730283669 0 -0.40553625032349627 0.36037170931698131 0 -0.40025021147547779 0.36436392320030081 0 -0.40544017780568847 0.3661562974108753 0 -0.40086489287733429 0.37467411733839928 0 -0.397742957241214 0.36844985128713797 0 -0.40086489287733429 0.37467411733839928 0 -0.397742957241214 0.36844985128713797 0 -0.39033592763893787 0.37070590072739279 0 -0.397742957241214 0.36844985128713797 0 -0.39341808057325789 0.36431669671432632 0 -0.39033592763893787 0.37070590072739279 0 -0.39969836615416421 0.35756427730283669 0 -0.40025021147547779 0.36436392320030081 0 -0.39341808057325789 0.36431669671432632 0 -0.40025021147547779 0.36436392320030081 0 -0.397742957241214 0.36844985128713797 0 -0.39341808057325789 0.36431669671432632 0 -0.3926828114571661 0.35541775914535301 0 -0.39341808057325789 0.36431669671432632 0 -0.37949655700884349 0.37153259571527891 0 -0.37949655700884349 0.37153259571527891 0 -0.37823932191431281 0.35548757599615399 0 -0.37024808467873749 0.36543132639488701 0 -0.3926828114571661 0.35541775914535301 0 -0.37949655700884349 0.37153259571527891 0 -0.37823932191431281 0.35548757599615399 0 -0.3926828114571661 0.35541775914535301 0 -0.37949655700884349 0.37153259571527891 0 -0.39341808057325789 0.36431669671432632 0 -0.39033592763893787 0.37070590072739279 0 -0.37949655700884349 0.37153259571527891 0 -0.37686086334024771 0.38257038446795849 0 -0.39033592763893787 0.37070590072739279 0 -0.37949655700884349 0.37153259571527891 0 -0.37823932191431281 0.35548757599615399 0 -0.38539473684528258 0.34837828204789067 0 -0.3787015959315434 0.33902802614693439 0 -0.3926828114571661 0.35541775914535301 0 -0.37823932191431281 0.35548757599615399 0 -0.38539473684528258 0.34837828204789067 0 -0.3787015959315434 0.33902802614693439 0 -0.37816355277066899 0.32985684687273281 0 -0.39158393304450312 0.32769252248945308 0 -0.39400561065841477 0.34382680172727831 0 -0.38539473684528258 0.34837828204789067 0 -0.3787015959315434 0.33902802614693439 0 -0.39158393304450312 0.32769252248945308 0 -0.37442838800096029 0.32044424157556423 0 -0.37816355277066899 0.32985684687273281 0 -0.39158393304450312 0.32769252248945308 0 -0.37442838800096029 0.32044424157556423 0 -0.38613629988198012 0.31665983269396758 0 -0.39158393304450312 0.32769252248945308 0 -0.37442838800096029 0.32044424157556423 0 -0.38613629988198012 0.31665983269396758 0 -0.37442838800096029 0.32044424157556423 0 -0.37415321332832258 0.31386652142517069 0 -0.39158393304450312 0.32769252248945308 0 -0.4039094095666334 0.320812311378052 0 -0.40925887999808552 0.33516025262174892 0 -0.38613629988198012 0.31665983269396758 0 -0.39830358576524327 0.31266849694114901 0 -0.39158393304450312 0.32769252248945308 0 -0.39830358576524327 0.31266849694114901 0 -0.39158393304450312 0.32769252248945308 0 -0.4039094095666334 0.320812311378052 0 -0.39830358576524327 0.31266849694114901 0 -0.4039094095666334 0.320812311378052 0 -0.40826549608127172 0.31275764886218971 0 -0.3787015959315434 0.33902802614693439 0 -0.40777024278950652 0.33697950655941222 0 -0.39158393304450312 0.32769252248945308 0 -0.40925887999808552 0.33516025262174892 0 -0.39158393304450312 0.32769252248945308 0 -0.40777024278950652 0.33697950655941222 0 -0.40925887999808552 0.33516025262174892 0 -0.3787015959315434 0.33902802614693439 0 -0.39158393304450312 0.32769252248945308 0 -0.40777024278950652 0.33697950655941222 0 -0.39400561065841477 0.34382680172727831 0 -0.3787015959315434 0.33902802614693439 0 -0.40777024278950652 0.33697950655941222 0 -0.39400561065841477 0.34382680172727831 0 -0.40586906590548888 0.3393029225754271 0 -0.40777024278950652 0.33697950655941222 0 -0.40105078960399698 0.34662517948293931 0 -0.40586906590548888 0.3393029225754271 0 -0.40105078960399698 0.34662517948293931 0 -0.40586906590548888 0.3393029225754271 0 -0.4080564418273247 0.34368885170405422 0 -0.4080564418273247 0.34368885170405422 0 -0.41125860555200922 0.34134685969384471 0 -0.40895905381070002 0.33957121871677393 0 -0.40586906590548888 0.3393029225754271 0 -0.4080564418273247 0.34368885170405422 0 -0.40895905381070002 0.33957121871677393 0 -0.4080564418273247 0.34368885170405422 0 -0.41125860555200922 0.34134685969384471 0 -0.41366919887348358 0.34576378073699821 0 -0.41125860555200922 0.34134685969384471 0 -0.41273643032526569 0.33662953043248711 0 -0.41433336845197538 0.3415594658204692 0 -0.41125860555200922 0.34134685969384471 0 -0.41433336845197538 0.3415594658204692 0 -0.41366919887348358 0.34576378073699821 0 -0.41125860555200922 0.34134685969384471 0 -0.41273643032526569 0.33662953043248711 0 -0.40895905381070002 0.33957121871677393 0 -0.41273643032526569 0.33662953043248711 0 -0.40777024278950652 0.33697950655941222 0 -0.41273643032526569 0.33662953043248711 0 -0.40895905381070002 0.33957121871677393 0 -0.40777024278950652 0.33697950655941222 0 -0.41273643032526569 0.33662953043248711 0 -0.40777024278950652 0.33697950655941222 0 -0.40925887999808552 0.33516025262174892 0 -0.40777024278950652 0.33697950655941222 0 -0.40925887999808552 0.33516025262174892 0 -0.40586906590548888 0.3393029225754271 0 -0.40895905381070002 0.33957121871677393 0 -0.40777024278950652 0.33697950655941222 0 -0.40586906590548888 0.3393029225754271 0 -0.40777024278950652 0.33697950655941222 0 -0.41273643032526569 0.33662953043248711 0 -0.40925887999808552 0.33516025262174892 0 -0.40925887999808552 0.33516025262174892 0 -0.42024067891477529 0.32173946694831868 0 -0.40925887999808552 0.33516025262174892 0 -0.42071708592719742 0.33131558094746122 0 -0.42024067891477529 0.32173946694831868 0 -0.41273643032526569 0.33662953043248711 0 -0.40925887999808552 0.33516025262174892 0 -0.42071708592719742 0.33131558094746122 0 -0.41273643032526569 0.33662953043248711 0 -0.4199209072431685 0.34318781838679219 0 -0.41433336845197538 0.3415594658204692 0 -0.4199209072431685 0.34318781838679219 0 -0.41433336845197538 0.3415594658204692 0 -0.41366919887348358 0.34576378073699821 0 -0.40925887999808552 0.33516025262174892 0 -0.41892768793075841 0.31754462100172592 0 -0.42141481873501418 0.31567829233095179 0 -0.40925887999808552 0.33516025262174892 0 -0.411263050936583 0.31954773430139438 0 -0.41892768793075841 0.31754462100172592 0 -0.40925887999808552 0.33516025262174892 0 -0.42141481873501418 0.31567829233095179 0 -0.40925887999808552 0.33516025262174892 0 -0.42024067891477529 0.32173946694831868 0 -0.42141481873501418 0.31567829233095179 0 -0.411263050936583 0.31954773430139438 0 -0.40826549608127172 0.31275764886218971 0 -0.41647318301620623 0.31168328686166002 0 -0.4039094095666334 0.320812311378052 0 -0.411263050936583 0.31954773430139438 0 -0.40826549608127172 0.31275764886218971 0 -0.4039094095666334 0.320812311378052 0 -0.40925887999808552 0.33516025262174892 0 -0.411263050936583 0.31954773430139438 0 -0.411263050936583 0.31954773430139438 0 -0.41892768793075841 0.31754462100172592 0 -0.41647318301620623 0.31168328686166002 0 -0.41892768793075841 0.31754462100172592 0 -0.42141481873501418 0.31567829233095179 0 -0.41892768793075841 0.31754462100172592 0 -0.42141481873501418 0.31567829233095179 0 -0.41647318301620623 0.31168328686166002 0 -0.42024067891477529 0.32173946694831868 0 -0.43790895006943947 0.32081412042189511 0 -0.43122247783146522 0.30831868127488848 0 -0.42024067891477529 0.32173946694831868 0 -0.42938605365092247 0.3272194948190838 0 -0.43790895006943947 0.32081412042189511 0 -0.42024067891477529 0.32173946694831868 0 -0.42141481873501418 0.31567829233095179 0 -0.43122247783146522 0.30831868127488848 0 -0.42024067891477529 0.32173946694831868 0 -0.43122247783146522 0.30831868127488848 0 -0.42071708592719742 0.33131558094746122 0 -0.42024067891477529 0.32173946694831868 0 -0.42938605365092247 0.3272194948190838 0 -0.42938605365092247 0.3272194948190838 0 -0.43674098495811231 0.33493788649063261 0 -0.43790895006943947 0.32081412042189511 0 -0.43790895006943947 0.32081412042189511 0 -0.4401847358662575 0.3127477530096977 0 -0.43122247783146522 0.30831868127488848 0 -0.41273643032526569 0.33662953043248711 0 -0.43674098495811231 0.33493788649063261 0 -0.42071708592719742 0.33131558094746122 0 -0.42938605365092247 0.3272194948190838 0 -0.43674098495811231 0.33493788649063261 0 -0.41273643032526569 0.33662953043248711 0 -0.4199209072431685 0.34318781838679219 0 -0.43385085243219867 0.34555045147446217 0 -0.41273643032526569 0.33662953043248711 0 -0.42071708592719742 0.33131558094746122 0 -0.43674098495811231 0.33493788649063261 0 -0.41273643032526569 0.33662953043248711 0 -0.43385085243219867 0.34555045147446217 0 -0.41273643032526569 0.33662953043248711 0 -0.43674098495811231 0.33493788649063261 0 -0.43385085243219867 0.34555045147446217 0 -0.43385085243219867 0.34555045147446217 0 -0.4302486007270056 0.35272204188882378 0 -0.42573384958437638 0.34916959158482058 0 -0.43385085243219867 0.34555045147446217 0 -0.43539550265875948 0.35741731211322858 0 -0.44110397924445488 0.35756373905142852 0 -0.43539550265875948 0.35741731211322858 0 -0.4302486007270056 0.35272204188882378 0 -0.42757171946388478 0.35850981688022993 0 -0.43385085243219867 0.34555045147446217 0 -0.43539550265875948 0.35741731211322858 0 -0.4302486007270056 0.35272204188882378 0 -0.4302486007270056 0.35272204188882378 0 -0.42480748600639012 0.35482075793933809 0 -0.42573384958437638 0.34916959158482058 0 -0.4302486007270056 0.35272204188882378 0 -0.42757171946388478 0.35850981688022993 0 -0.42480748600639012 0.35482075793933809 0 -0.42757171946388478 0.35850981688022993 0 -0.42480748600639012 0.35482075793933809 0 -0.42195212413097077 0.36043988011418487 0 -0.4199209072431685 0.34318781838679219 0 -0.43385085243219867 0.34555045147446217 0 -0.42573384958437638 0.34916959158482058 0 -0.42480748600639012 0.35482075793933809 0 -0.42573384958437638 0.34916959158482058 0 -0.41984140151311927 0.3495668882346864 0 -0.4199209072431685 0.34318781838679219 0 -0.42573384958437638 0.34916959158482058 0 -0.41984140151311927 0.3495668882346864 0 -0.4199209072431685 0.34318781838679219 0 -0.41984140151311927 0.3495668882346864 0 -0.41366919887348358 0.34576378073699821 0 -0.41984140151311927 0.3495668882346864 0 -0.41366919887348358 0.34576378073699821 0 -0.41404230344944593 0.35073751764187411 0 -0.42480748600639012 0.35482075793933809 0 -0.41984140151311927 0.3495668882346864 0 -0.41755863725870102 0.35684421707679032 0 -0.42480748600639012 0.35482075793933809 0 -0.41755863725870102 0.35684421707679032 0 -0.42195212413097077 0.36043988011418487 0 -0.41984140151311927 0.3495668882346864 0 -0.41755863725870102 0.35684421707679032 0 -0.41404230344944593 0.35073751764187411 0 -0.41755863725870102 0.35684421707679032 0 -0.41125051028190041 0.35540848222164118 0 -0.41404230344944593 0.35073751764187411 0 -0.41125051028190041 0.35540848222164118 0 -0.40888688292129022 0.34941903462410451 0 -0.41404230344944593 0.35073751764187411 0 -0.41755863725870102 0.35684421707679032 0 -0.41125051028190041 0.35540848222164118 0 -0.41142088061722581 0.36176204086772412 0 -0.40553625032349627 0.36037170931698131 0 -0.41125051028190041 0.35540848222164118 0 -0.41142088061722581 0.36176204086772412 0 -0.40525205349158999 0.35429039595711992 0 -0.40553625032349627 0.36037170931698131 0 -0.41125051028190041 0.35540848222164118 0 -0.40525205349158999 0.35429039595711992 0 -0.41125051028190041 0.35540848222164118 0 -0.40888688292129022 0.34941903462410451 0 -0.4080564418273247 0.34368885170405422 0 -0.40888688292129022 0.34941903462410451 0 -0.41366919887348358 0.34576378073699821 0 -0.40888688292129022 0.34941903462410451 0 -0.41366919887348358 0.34576378073699821 0 -0.41404230344944593 0.35073751764187411 0 -0.4250431626101242 0.37647010748543319 0 -0.40086489287733429 0.37467411733839928 0 -0.42486892241442098 0.36677785020884007 0 -0.40086489287733429 0.37467411733839928 0 -0.42486892241442098 0.36677785020884007 0 -0.40086489287733429 0.37467411733839928 0 -0.41378193274770297 0.36450427419225789 0 -0.42486892241442098 0.36677785020884007 0 -0.40544017780568847 0.3661562974108753 0 -0.40086489287733429 0.37467411733839928 0 -0.41378193274770297 0.36450427419225789 0 -0.40544017780568847 0.3661562974108753 0 -0.41142088061722581 0.36176204086772412 0 -0.41378193274770297 0.36450427419225789 0 -0.40553625032349627 0.36037170931698131 0 -0.40544017780568847 0.3661562974108753 0 -0.41142088061722581 0.36176204086772412 0 -0.41755863725870102 0.35684421707679032 0 -0.41378193274770297 0.36450427419225789 0 -0.42195212413097077 0.36043988011418487 0 -0.41378193274770297 0.36450427419225789 0 -0.42486892241442098 0.36677785020884007 0 -0.42195212413097077 0.36043988011418487 0 -0.41755863725870102 0.35684421707679032 0 -0.41142088061722581 0.36176204086772412 0 -0.41378193274770297 0.36450427419225789 0 -0.4250431626101242 0.37647010748543319 0 -0.44885864134335329 0.37135067543599282 0 -0.4250431626101242 0.37647010748543319 0 -0.42486892241442098 0.36677785020884007 0 -0.44885864134335329 0.37135067543599282 0 -0.42486892241442098 0.36677785020884007 0 -0.448872951951507 0.35888158307927881 0 -0.43539550265875948 0.35741731211322858 0 -0.42486892241442098 0.36677785020884007 0 -0.44110397924445488 0.35756373905142852 0 -0.43539550265875948 0.35741731211322858 0 -0.42757171946388478 0.35850981688022993 0 -0.42486892241442098 0.36677785020884007 0 -0.42757171946388478 0.35850981688022993 0 -0.42486892241442098 0.36677785020884007 0 -0.42195212413097077 0.36043988011418487 0 -0.42486892241442098 0.36677785020884007 0 -0.44885864134335329 0.37135067543599282 0 -0.448872951951507 0.35888158307927881 0 -0.44802713623065987 0.37645115623263098 0 -0.4250431626101242 0.37647010748543319 0 -0.44885864134335329 0.37135067543599282 0 -0.42486892241442098 0.36677785020884007 0 -0.44110397924445488 0.35756373905142852 0 -0.448872951951507 0.35888158307927881 0 -0.44885864134335329 0.37135067543599282 0 -0.448872951951507 0.35888158307927881 0 -0.44885864134335329 0.37135067543599282 0 -0.448872951951507 0.35888158307927881 0 -0.45634368000688869 0.36512471152292858 0 -0.43385085243219867 0.34555045147446217 0 -0.45496527453913199 0.35447137251643651 0 -0.44889299330712729 0.34242966823447613 0 -0.43385085243219867 0.34555045147446217 0 -0.45496527453913199 0.35447137251643651 0 -0.43385085243219867 0.34555045147446217 0 -0.44887533288597797 0.35680703170406669 0 -0.45496527453913199 0.35447137251643651 0 -0.43385085243219867 0.34555045147446217 0 -0.44110397924445488 0.35756373905142852 0 -0.44887533288597797 0.35680703170406669 0 -0.44110397924445488 0.35756373905142852 0 -0.44887533288597797 0.35680703170406669 0 -0.448872951951507 0.35888158307927881 0 -0.44887533288597797 0.35680703170406669 0 -0.448872951951507 0.35888158307927881 0 -0.44887533288597797 0.35680703170406669 0 -0.448872951951507 0.35888158307927881 0 -0.45496527453913199 0.35447137251643651 0 -0.448872951951507 0.35888158307927881 0 -0.45496527453913199 0.35447137251643651 0 -0.47186707529616939 0.3513175305497272 0 -0.448872951951507 0.35888158307927881 0 -0.47186707529616939 0.3513175305497272 0 -0.448872951951507 0.35888158307927881 0 -0.45634368000688869 0.36512471152292858 0 -0.47186707529616939 0.3513175305497272 0 -0.45911772068334677 0.34536620346235469 0 -0.45496527453913199 0.35447137251643651 0 -0.47186707529616939 0.3513175305497272 0 -0.45911772068334677 0.34536620346235469 0 -0.45496527453913199 0.35447137251643651 0 -0.44889299330712729 0.34242966823447613 0 -0.46572599417265398 0.36772482908493609 0 -0.45634368000688869 0.36512471152292858 0 -0.47186707529616939 0.3513175305497272 0 -0.46059005399087027 0.38292215568240928 0 -0.44885864134335329 0.37135067543599282 0 -0.46572599417265398 0.36772482908493609 0 -0.44885864134335329 0.37135067543599282 0 -0.46572599417265398 0.36772482908493609 0 -0.44885864134335329 0.37135067543599282 0 -0.46572599417265398 0.36772482908493609 0 -0.45634368000688869 0.36512471152292858 0 -0.47832653283541199 0.38608194873200979 0 -0.46572599417265398 0.36772482908493609 0 -0.48259334700195489 0.36409898273387958 0 -0.46572599417265398 0.36772482908493609 0 -0.48259334700195489 0.36409898273387958 0 -0.47186707529616939 0.3513175305497272 0 -0.46572599417265398 0.36772482908493609 0 -0.48259334700195489 0.36409898273387958 0 -0.47186707529616939 0.3513175305497272 0 -0.494861198640831 0.34375347802017348 0 -0.47186707529616939 0.3513175305497272 0 -0.48536711719674469 0.35339641184703091 0 -0.494861198640831 0.34375347802017348 0 -0.48259334700195489 0.36409898273387958 0 -0.47186707529616939 0.3513175305497272 0 -0.48536711719674469 0.35339641184703091 0 -0.48259334700195489 0.36409898273387958 0 -0.49214684784802371 0.35441565608434311 0 -0.48536711719674469 0.35339641184703091 0 -0.49214684784802371 0.35441565608434311 0 -0.5 0.36887446842263683 0 -0.5 0.34271985673358363 0 -0.49214684784802371 0.35441565608434311 0 -0.48536711719674469 0.35339641184703091 0 -0.494861198640831 0.34375347802017348 0 -0.49214684784802371 0.35441565608434311 0 -0.494861198640831 0.34375347802017348 0 -0.5 0.34271985673358363 0 -0.48850556386005051 0.3766603246979251 0 -0.48259334700195489 0.36409898273387958 0 -0.5 0.36887446842263683 0 -0.48259334700195489 0.36409898273387958 0 -0.49214684784802371 0.35441565608434311 0 -0.5 0.36887446842263683 0 -0.485708092488497 0.3189911195031831 0 -0.5 0.31656524504453032 0 -0.48475009422380527 0.3315545986069256 0 -0.485708092488497 0.3189911195031831 0 -0.5 0.31656524504453032 0 -0.48583489694974541 0.30845327583860088 0 -0.5 0.31656524504453032 0 -0.5 0.34271985673358363 0 -0.48475009422380527 0.3315545986069256 0 -0.494861198640831 0.34375347802017348 0 -0.5 0.34271985673358363 0 -0.48475009422380527 0.3315545986069256 0 -0.48475009422380527 0.3315545986069256 0 -0.46074553959095882 0.3332462425487791 0 -0.47186707529616939 0.3513175305497272 0 -0.494861198640831 0.34375347802017348 0 -0.48475009422380527 0.3315545986069256 0 -0.47186707529616939 0.3513175305497272 0 -0.48475009422380527 0.3315545986069256 0 -0.46074553959095882 0.3332462425487791 0 -0.48475009422380527 0.3315545986069256 0 -0.47224737878043732 0.31939135852267558 0 -0.46074553959095882 0.3332462425487791 0 -0.485708092488497 0.3189911195031831 0 -0.48475009422380527 0.3315545986069256 0 -0.47224737878043732 0.31939135852267558 0 -0.485708092488497 0.3189911195031831 0 -0.47224737878043732 0.31939135852267558 0 -0.48583489694974541 0.30845327583860088 0 -0.47224737878043732 0.31939135852267558 0 -0.46258830912673421 0.31343425170936878 0 -0.46074553959095882 0.3332462425487791 0 -0.46258830912673421 0.31343425170936878 0 -0.46074553959095882 0.3332462425487791 0 -0.45107709460752138 0.31557533431346357 0 -0.45911772068334677 0.34536620346235469 0 -0.47186707529616939 0.3513175305497272 0 -0.46074553959095882 0.3332462425487791 0 -0.45911772068334677 0.34536620346235469 0 -0.46074553959095882 0.3332462425487791 0 -0.44889299330712729 0.34242966823447613 0 -0.43674098495811231 0.33493788649063261 0 -0.46074553959095882 0.3332462425487791 0 -0.43674098495811231 0.33493788649063261 0 -0.46074553959095882 0.3332462425487791 0 -0.44889299330712729 0.34242966823447613 0 -0.43674098495811231 0.33493788649063261 0 -0.46074553959095882 0.3332462425487791 0 -0.43790895006943947 0.32081412042189511 0 -0.43674098495811231 0.33493788649063261 0 -0.43385085243219867 0.34555045147446217 0 -0.44889299330712729 0.34242966823447613 0 -0.46074553959095882 0.3332462425487791 0 -0.45107709460752138 0.31557533431346357 0 -0.43790895006943947 0.32081412042189511 0 -0.45107709460752138 0.31557533431346357 0 -0.43790895006943947 0.32081412042189511 0 -0.4401847358662575 0.3127477530096977 0 -0.44444415583193408 0.29216055381020578 0 -0.43122247783146522 0.30831868127488848 0 -0.44810052680614793 0.29565349026271098 0 -0.43122247783146522 0.30831868127488848 0 -0.44368336155109173 0.30649675881006838 0 -0.44810052680614793 0.29565349026271098 0 -0.43122247783146522 0.30831868127488848 0 -0.4401847358662575 0.3127477530096977 0 -0.44368336155109173 0.30649675881006838 0 -0.43122247783146522 0.30831868127488848 0 -0.44444415583193408 0.29216055381020578 0 -0.44810052680614793 0.29565349026271098 0 -0.43122247783146522 0.30831868127488848 0 -0.45107709460752138 0.31557533431346357 0 -0.4401847358662575 0.3127477530096977 0 -0.44368336155109173 0.30649675881006838 0 -0.44368336155109173 0.30649675881006838 0 -0.44996115485610377 0.3015940899144034 0 -0.4551770389262465 0.30483297142504889 0 -0.44368336155109173 0.30649675881006838 0 -0.44996115485610377 0.3015940899144034 0 -0.44810052680614793 0.29565349026271098 0 -0.45288369214092922 0.29939313915978533 0 -0.44996115485610377 0.3015940899144034 0 -0.44810052680614793 0.29565349026271098 0 -0.45288369214092922 0.29939313915978533 0 -0.44996115485610377 0.3015940899144034 0 -0.4551770389262465 0.30483297142504889 0 -0.45107709460752138 0.31557533431346357 0 -0.44368336155109173 0.30649675881006838 0 -0.4551770389262465 0.30483297142504889 0 -0.44702735364695217 0.27675533545947301 0 -0.43422108619098299 0.29621681389521232 0 -0.44444415583193408 0.29216055381020578 0 -0.44702735364695217 0.27675533545947301 0 -0.43422108619098299 0.29621681389521232 0 -0.44702735364695217 0.27675533545947301 0 -0.43274811138672559 0.28469846643612018 0 -0.43422108619098299 0.29621681389521232 0 -0.44810052680614793 0.29565349026271098 0 -0.4493542421043164 0.28919027156790111 0 -0.45395006383388498 0.28587005882998617 0 -0.44444415583193408 0.29216055381020578 0 -0.44810052680614793 0.29565349026271098 0 -0.4493542421043164 0.28919027156790111 0 -0.44444415583193408 0.29216055381020578 0 -0.4493542421043164 0.28919027156790111 0 -0.44702735364695217 0.27675533545947301 0 -0.4493542421043164 0.28919027156790111 0 -0.45395006383388498 0.28587005882998617 0 -0.44702735364695217 0.27675533545947301 0 -0.44810052680614793 0.29565349026271098 0 -0.45395006383388498 0.28587005882998617 0 -0.46497857578083068 0.28298829925053381 0 -0.44810052680614793 0.29565349026271098 0 -0.4593999708052337 0.29480301670676529 0 -0.46497857578083068 0.28298829925053381 0 -0.44810052680614793 0.29565349026271098 0 -0.46497857578083068 0.28298829925053381 0 -0.45288369214092922 0.29939313915978533 0 -0.44810052680614793 0.29565349026271098 0 -0.4593999708052337 0.29480301670676529 0 -0.4593999708052337 0.29480301670676529 0 -0.46827174088950307 0.29409138505043392 0 -0.46497857578083068 0.28298829925053381 0 -0.46258830912673421 0.31343425170936878 0 -0.45107709460752138 0.31557533431346357 0 -0.4551770389262465 0.30483297142504889 0 -0.45288369214092922 0.29939313915978533 0 -0.4593999708052337 0.29480301670676529 0 -0.4551770389262465 0.30483297142504889 0 -0.4593999708052337 0.29480301670676529 0 -0.4551770389262465 0.30483297142504889 0 -0.46625021185001803 0.30380681263807602 0 -0.4593999708052337 0.29480301670676529 0 -0.46827174088950307 0.29409138505043392 0 -0.46625021185001803 0.30380681263807602 0 -0.47224737878043732 0.31939135852267558 0 -0.46258830912673421 0.31343425170936878 0 -0.46625021185001803 0.30380681263807602 0 -0.46258830912673421 0.31343425170936878 0 -0.4551770389262465 0.30483297142504889 0 -0.46625021185001803 0.30380681263807602 0 -0.47551717359816043 0.30301602212345602 0 -0.4769183937012712 0.29196404103452073 0 -0.48583489694974541 0.30845327583860088 0 -0.47224737878043732 0.31939135852267558 0 -0.46625021185001803 0.30380681263807602 0 -0.47551717359816043 0.30301602212345602 0 -0.47224737878043732 0.31939135852267558 0 -0.47551717359816043 0.30301602212345602 0 -0.48583489694974541 0.30845327583860088 0 -0.46827174088950307 0.29409138505043392 0 -0.46625021185001803 0.30380681263807602 0 -0.47551717359816043 0.30301602212345602 0 -0.46827174088950307 0.29409138505043392 0 -0.46497857578083068 0.28298829925053381 0 -0.4769183937012712 0.29196404103452073 0 -0.4769183937012712 0.29196404103452073 0 -0.48757792524538679 0.2814999319082685 0 -0.48583489694974541 0.30845327583860088 0 -0.46827174088950307 0.29409138505043392 0 -0.47551717359816043 0.30301602212345602 0 -0.4769183937012712 0.29196404103452073 0 -0.46497857578083068 0.28298829925053381 0 -0.47783287987075052 0.28169384510791978 0 -0.4769183937012712 0.29196404103452073 0 -0.47783287987075052 0.28169384510791978 0 -0.4769183937012712 0.29196404103452073 0 -0.48757792524538679 0.2814999319082685 0 -0.5 0.29041063335547701 0 -0.48757792524538679 0.2814999319082685 0 -0.48583489694974541 0.30845327583860088 0 -0.48757792524538679 0.2814999319082685 0 -0.48583489694974541 0.30845327583860088 0 -0.5 0.31656524504453032 0 -0.5 0.29041063335547701 0 -0.48583489694974541 0.30845327583860088 0 -0.5 0.23810140997737081 0 -0.5 0.26425602166642381 0 -0.48932095354102823 0.25454658797793611 0 -0.48757792524538679 0.2814999319082685 0 -0.48932095354102823 0.25454658797793611 0 -0.48366697684514259 0.26703881783025729 0 -0.48757792524538679 0.2814999319082685 0 -0.5 0.26425602166642381 0 -0.48932095354102823 0.25454658797793611 0 -0.48757792524538679 0.2814999319082685 0 -0.48932095354102823 0.25454658797793611 0 -0.5 0.29041063335547701 0 -0.48757792524538679 0.2814999319082685 0 -0.5 0.26425602166642381 0 -0.46497857578083068 0.28298829925053381 0 -0.48185662475551339 0.27032310823835648 0 -0.46497857578083068 0.28298829925053381 0 -0.47783287987075052 0.28169384510791978 0 -0.48185662475551339 0.27032310823835648 0 -0.48366697684514259 0.26703881783025729 0 -0.45893043448094739 0.2699305570534084 0 -0.48757792524538679 0.2814999319082685 0 -0.48366697684514259 0.26703881783025729 0 -0.48185662475551339 0.27032310823835648 0 -0.48366697684514259 0.26703881783025729 0 -0.48185662475551339 0.27032310823835648 0 -0.47235815296560851 0.27257019559313889 0 -0.46497857578083068 0.28298829925053381 0 -0.48185662475551339 0.27032310823835648 0 -0.47235815296560851 0.27257019559313889 0 -0.48366697684514259 0.26703881783025729 0 -0.46959483388743167 0.25994315597580908 0 -0.45893043448094739 0.2699305570534084 0 -0.48366697684514259 0.26703881783025729 0 -0.47235815296560851 0.27257019559313889 0 -0.45893043448094739 0.2699305570534084 0 -0.47783287987075052 0.28169384510791978 0 -0.48757792524538679 0.2814999319082685 0 -0.48185662475551339 0.27032310823835648 0 -0.48932095354102823 0.25454658797793611 0 -0.48366697684514259 0.26703881783025729 0 -0.47792533453874358 0.25606878273296479 0 -0.48366697684514259 0.26703881783025729 0 -0.46959483388743167 0.25994315597580908 0 -0.47792533453874358 0.25606878273296479 0 -0.47864167104372218 0.246590621409366 0 -0.48932095354102823 0.25454658797793611 0 -0.47792533453874358 0.25606878273296479 0 -0.47864167104372218 0.246590621409366 0 -0.47792533453874358 0.25606878273296479 0 -0.46938038244821267 0.25133041049185839 0 -0.46959483388743167 0.25994315597580908 0 -0.47792533453874358 0.25606878273296479 0 -0.46938038244821267 0.25133041049185839 0 -0.46959483388743167 0.25994315597580908 0 -0.46938038244821267 0.25133041049185839 0 -0.45807104112411212 0.25534721177055669 0 -0.46959483388743167 0.25994315597580908 0 -0.45807104112411212 0.25534721177055669 0 -0.45893043448094739 0.2699305570534084 0 -0.45807104112411212 0.25534721177055669 0 -0.45893043448094739 0.2699305570534084 0 -0.44442574262614493 0.25832327296872359 0 -0.45395006383388498 0.28587005882998617 0 -0.46497857578083068 0.28298829925053381 0 -0.45893043448094739 0.2699305570534084 0 -0.45395006383388498 0.28587005882998617 0 -0.45893043448094739 0.2699305570534084 0 -0.44702735364695217 0.27675533545947301 0 -0.46497857578083068 0.28298829925053381 0 -0.47235815296560851 0.27257019559313889 0 -0.45893043448094739 0.2699305570534084 0 -0.45893043448094739 0.2699305570534084 0 -0.43419389211675241 0.27282229627655952 0 -0.45893043448094739 0.2699305570534084 0 -0.44442574262614493 0.25832327296872359 0 -0.43419389211675241 0.27282229627655952 0 -0.45893043448094739 0.2699305570534084 0 -0.44702735364695217 0.27675533545947301 0 -0.43419389211675241 0.27282229627655952 0 -0.44702735364695217 0.27675533545947301 0 -0.43419389211675241 0.27282229627655952 0 -0.43274811138672559 0.28469846643612018 0 -0.45046339488490522 0.249057113070103 0 -0.45807104112411212 0.25534721177055669 0 -0.44442574262614493 0.25832327296872359 0 -0.44062222049055039 0.24203477259657111 0 -0.44442574262614493 0.25832327296872359 0 -0.42503978512155383 0.25887440404814072 0 -0.44062222049055039 0.24203477259657111 0 -0.42503978512155383 0.25887440404814072 0 -0.44442574262614493 0.25832327296872359 0 -0.42503978512155383 0.25887440404814072 0 -0.43419389211675241 0.27282229627655952 0 -0.42503978512155383 0.25887440404814072 0 -0.40945734975255721 0.27571403549971041 0 -0.40585136056822319 0.25674789398696107 0 -0.4198454647722451 0.23985190764030939 0 -0.42503978512155383 0.25887440404814072 0 -0.40585136056822319 0.25674789398696107 0 -0.40945734975255721 0.27571403549971041 0 -0.43419389211675241 0.27282229627655952 0 -0.42503978512155383 0.25887440404814072 0 -0.40945734975255721 0.27571403549971041 0 -0.42503978512155383 0.25887440404814072 0 -0.40945734975255721 0.27571403549971041 0 -0.43419389211675241 0.27282229627655952 0 -0.40945734975255721 0.27571403549971041 0 -0.43419389211675241 0.27282229627655952 0 -0.4229835889384117 0.28415291652507912 0 -0.43419389211675241 0.27282229627655952 0 -0.43274811138672559 0.28469846643612018 0 -0.4229835889384117 0.28415291652507912 0 -0.43274811138672559 0.28469846643612018 0 -0.43422108619098299 0.29621681389521232 0 -0.42519236151645012 0.29288975242762622 0 -0.43274811138672559 0.28469846643612018 0 -0.42519236151645012 0.29288975242762622 0 -0.4229835889384117 0.28415291652507912 0 -0.42141481873501418 0.31567829233095179 0 -0.43422108619098299 0.29621681389521232 0 -0.42141481873501418 0.31567829233095179 0 -0.43422108619098299 0.29621681389521232 0 -0.42237726971740519 0.30236741203524931 0 -0.44444415583193408 0.29216055381020578 0 -0.43422108619098299 0.29621681389521232 0 -0.43122247783146522 0.30831868127488848 0 -0.42141481873501418 0.31567829233095179 0 -0.43422108619098299 0.29621681389521232 0 -0.43122247783146522 0.30831868127488848 0 -0.43422108619098299 0.29621681389521232 0 -0.42519236151645012 0.29288975242762622 0 -0.42237726971740519 0.30236741203524931 0 -0.42141481873501418 0.31567829233095179 0 -0.43122247783146522 0.30831868127488848 0 -0.42237726971740519 0.30236741203524931 0 -0.41647318301620623 0.31168328686166002 0 -0.40812109447663159 0.30329838776079099 0 -0.42141481873501418 0.31567829233095179 0 -0.42237726971740519 0.30236741203524931 0 -0.41647318301620623 0.31168328686166002 0 -0.42237726971740519 0.30236741203524931 0 -0.40812109447663159 0.30329838776079099 0 -0.41256551749876041 0.29129965580367562 0 -0.40826549608127172 0.31275764886218971 0 -0.41647318301620623 0.31168328686166002 0 -0.40812109447663159 0.30329838776079099 0 -0.40945734975255721 0.27571403549971041 0 -0.4229835889384117 0.28415291652507912 0 -0.41256551749876041 0.29129965580367562 0 -0.42519236151645012 0.29288975242762622 0 -0.4229835889384117 0.28415291652507912 0 -0.41256551749876041 0.29129965580367562 0 -0.42519236151645012 0.29288975242762622 0 -0.42237726971740519 0.30236741203524931 0 -0.41256551749876041 0.29129965580367562 0 -0.40945734975255721 0.27571403549971041 0 -0.39180528154043992 0.29479027846244049 0 -0.39350738277932218 0.27757861076756318 0 -0.40945734975255721 0.27571403549971041 0 -0.39180528154043992 0.29479027846244049 0 -0.40812109447663159 0.30329838776079099 0 -0.41256551749876041 0.29129965580367562 0 -0.39180528154043992 0.29479027846244049 0 -0.40945734975255721 0.27571403549971041 0 -0.41256551749876041 0.29129965580367562 0 -0.39180528154043992 0.29479027846244049 0 -0.38613629988198012 0.31665983269396758 0 -0.39830358576524327 0.31266849694114901 0 -0.39180528154043992 0.29479027846244049 0 -0.39830358576524327 0.31266849694114901 0 -0.40812109447663159 0.30329838776079099 0 -0.39180528154043992 0.29479027846244049 0 -0.39830358576524327 0.31266849694114901 0 -0.40826549608127172 0.31275764886218971 0 -0.40812109447663159 0.30329838776079099 0 -0.39180528154043992 0.29479027846244049 0 -0.37819889022761238 0.29924868842846319 0 -0.37415321332832258 0.31386652142517069 0 -0.38613629988198012 0.31665983269396758 0 -0.39180528154043992 0.29479027846244049 0 -0.37415321332832258 0.31386652142517069 0 -0.39180528154043992 0.29479027846244049 0 -0.37415321332832258 0.31386652142517069 0 -0.39180528154043992 0.29479027846244049 0 -0.37819889022761238 0.29924868842846319 0 -0.37870614451813112 0.28175948497688769 0 -0.39180528154043992 0.29479027846244049 0 -0.37870614451813112 0.28175948497688769 0 -0.39350738277932218 0.27757861076756318 0 -0.37870614451813112 0.28175948497688769 0 -0.37647038179830861 0.26645711442365799 0 -0.39350738277932218 0.27757861076756318 0 -0.37647038179830861 0.26645711442365799 0 -0.39336972403141229 0.26369738761855421 0 -0.39350738277932218 0.27757861076756318 0 -0.38790582398472923 0.24962922847932231 0 -0.37647038179830861 0.26645711442365799 0 -0.39336972403141229 0.26369738761855421 0 -0.38790582398472923 0.24962922847932231 0 -0.37647038179830861 0.26645711442365799 0 -0.36318679658289171 0.25196182354824148 0 -0.40945734975255721 0.27571403549971041 0 -0.40585136056822319 0.25674789398696107 0 -0.39336972403141229 0.26369738761855421 0 -0.38790582398472923 0.24962922847932231 0 -0.40585136056822319 0.25674789398696107 0 -0.39336972403141229 0.26369738761855421 0 -0.40945734975255721 0.27571403549971041 0 -0.39336972403141229 0.26369738761855421 0 -0.39350738277932218 0.27757861076756318 0 -0.40945734975255721 0.27571403549971041 0 -0.39350738277932218 0.27757861076756318 0 -0.35583614606747688 0.27501819518035592 0 -0.36318679658289171 0.25196182354824148 0 -0.33952374355129727 0.25899057541505788 0 -0.37647038179830861 0.26645711442365799 0 -0.35583614606747688 0.27501819518035592 0 -0.36318679658289171 0.25196182354824148 0 -0.37870614451813112 0.28175948497688769 0 -0.37647038179830861 0.26645711442365799 0 -0.35583614606747688 0.27501819518035592 0 -0.37819889022761238 0.29924868842846319 0 -0.37870614451813112 0.28175948497688769 0 -0.36775571630023218 0.2927315942663431 0 -0.37870614451813112 0.28175948497688769 0 -0.35583614606747688 0.27501819518035592 0 -0.36775571630023218 0.2927315942663431 0 -0.37819889022761238 0.29924868842846319 0 -0.36899777432263853 0.30469822459034263 0 -0.37415321332832258 0.31386652142517069 0 -0.36899777432263853 0.30469822459034263 0 -0.36272901898995358 0.31473918551029578 0 -0.37415321332832258 0.31386652142517069 0 -0.37819889022761238 0.29924868842846319 0 -0.36775571630023218 0.2927315942663431 0 -0.36899777432263853 0.30469822459034263 0 -0.36775571630023218 0.2927315942663431 0 -0.36899777432263853 0.30469822459034263 0 -0.35931620367806588 0.30475084950198522 0 -0.36775571630023218 0.2927315942663431 0 -0.35931620367806588 0.30475084950198522 0 -0.35261706249820868 0.29381533636168528 0 -0.36899777432263853 0.30469822459034263 0 -0.35931620367806588 0.30475084950198522 0 -0.36272901898995358 0.31473918551029578 0 -0.35931620367806588 0.30475084950198522 0 -0.35261706249820868 0.29381533636168528 0 -0.34344143829887858 0.30736403781452232 0 -0.35931620367806588 0.30475084950198522 0 -0.34344143829887858 0.30736403781452232 0 -0.35467675850453528 0.31743756764607989 0 -0.35931620367806588 0.30475084950198522 0 -0.35467675850453528 0.31743756764607989 0 -0.36272901898995358 0.31473918551029578 0 -0.35583614606747688 0.27501819518035592 0 -0.36775571630023218 0.2927315942663431 0 -0.35261706249820868 0.29381533636168528 0 -0.35583614606747688 0.27501819518035592 0 -0.35261706249820868 0.29381533636168528 0 -0.33673580814638959 0.28921200504521999 0 -0.35261706249820868 0.29381533636168528 0 -0.33673580814638959 0.28921200504521999 0 -0.34344143829887858 0.30736403781452232 0 -0.33673580814638959 0.28921200504521999 0 -0.32075162894010661 0.28280614760534989 0 -0.33379142081270979 0.2734424933293601 0 -0.34344143829887858 0.30736403781452232 0 -0.31699951866320542 0.30755322334125379 0 -0.34344143829887858 0.30736403781452232 0 -0.31699951866320542 0.30755322334125379 0 -0.33459812393413729 0.32207732583041709 0 -0.33673580814638959 0.28921200504521999 0 -0.34344143829887858 0.30736403781452232 0 -0.31699951866320542 0.30755322334125379 0 -0.33673580814638959 0.28921200504521999 0 -0.31699951866320542 0.30755322334125379 0 -0.32075162894010661 0.28280614760534989 0 -0.31699951866320542 0.30755322334125379 0 -0.32075162894010661 0.28280614760534989 0 -0.30493521127791462 0.28695781074044469 0 -0.32075162894010661 0.28280614760534989 0 -0.31931282352829687 0.26617321261290411 0 -0.33379142081270979 0.2734424933293601 0 -0.32075162894010661 0.28280614760534989 0 -0.31931282352829687 0.26617321261290411 0 -0.30493521127791462 0.28695781074044469 0 -0.35583614606747688 0.27501819518035592 0 -0.33673580814638959 0.28921200504521999 0 -0.33379142081270979 0.2734424933293601 0 -0.35583614606747688 0.27501819518035592 0 -0.33379142081270979 0.2734424933293601 0 -0.33952374355129727 0.25899057541505788 0 -0.31931282352829687 0.26617321261290411 0 -0.33379142081270979 0.2734424933293601 0 -0.33952374355129727 0.25899057541505788 0 -0.32200613725511351 0.24850726385495631 0 -0.31931282352829687 0.26617321261290411 0 -0.33952374355129727 0.25899057541505788 0 -0.32200613725511351 0.24850726385495631 0 -0.31931282352829687 0.26617321261290411 0 -0.30640548876467488 0.25787073169030861 0 -0.31931282352829687 0.26617321261290411 0 -0.30640548876467488 0.25787073169030861 0 -0.3010630097917536 0.27273037638764702 0 -0.31931282352829687 0.26617321261290411 0 -0.3010630097917536 0.27273037638764702 0 -0.30493521127791462 0.28695781074044469 0 -0.31931282352829687 0.26617321261290411 0 -0.30493521127791462 0.28695781074044469 0 -0.3010630097917536 0.27273037638764702 0 -0.29309283898050847 0.28048055459605348 0 -0.30493521127791462 0.28695781074044469 0 -0.3010630097917536 0.27273037638764702 0 -0.29309283898050847 0.28048055459605348 0 -0.28156868640737281 0.27216957229852412 0 -0.30640548876467488 0.25787073169030861 0 -0.3010630097917536 0.27273037638764702 0 -0.28156868640737281 0.27216957229852412 0 -0.30640548876467488 0.25787073169030861 0 -0.28156868640737281 0.27216957229852412 0 -0.28729818335365731 0.26780124082781631 0 -0.28156868640737281 0.27216957229852412 0 -0.28729818335365731 0.26780124082781631 0 -0.27880962639343299 0.26078065685839158 0 -0.29309283898050847 0.28048055459605348 0 -0.28156868640737281 0.27216957229852412 0 -0.28401529333418091 0.28255904946725641 0 -0.30640548876467488 0.25787073169030861 0 -0.28156868640737281 0.27216957229852412 0 -0.29125564533142001 0.24067530578368901 0 -0.30640548876467488 0.25787073169030861 0 -0.28729818335365731 0.26780124082781631 0 -0.29125564533142001 0.24067530578368901 0 -0.28729818335365731 0.26780124082781631 0 -0.27880962639343299 0.26078065685839158 0 -0.29125564533142001 0.24067530578368901 0 -0.28729818335365731 0.26780124082781631 0 -0.29125564533142001 0.24067530578368901 0 -0.26892213733164849 0.25365425058065472 0 -0.27880962639343299 0.26078065685839158 0 -0.26892213733164849 0.25365425058065472 0 -0.27880962639343299 0.26078065685839158 0 -0.26500347954306669 0.26960291480127369 0 -0.28156868640737281 0.27216957229852412 0 -0.25673188405007052 0.28646841290673969 0 -0.28156868640737281 0.27216957229852412 0 -0.26500347954306669 0.26960291480127369 0 -0.25673188405007052 0.28646841290673969 0 -0.28156868640737281 0.27216957229852412 0 -0.27880962639343299 0.26078065685839158 0 -0.26500347954306669 0.26960291480127369 0 -0.28156868640737281 0.27216957229852412 0 -0.27479408276187339 0.28687287199942368 0 -0.28401529333418091 0.28255904946725641 0 -0.26500347954306669 0.26960291480127369 0 -0.25265925142613249 0.26128234508680298 0 -0.25673188405007052 0.28646841290673969 0 -0.26892213733164849 0.25365425058065472 0 -0.26500347954306669 0.26960291480127369 0 -0.25265925142613249 0.26128234508680298 0 -0.25621817608628389 0.2460965770837312 0 -0.26892213733164849 0.25365425058065472 0 -0.25265925142613249 0.26128234508680298 0 -0.25505401324638421 0.30366623925853881 0 -0.26661761067819428 0.2958317928062858 0 -0.26721257633701828 0.30790943684761429 0 -0.25505401324638421 0.30366623925853881 0 -0.26721257633701828 0.30790943684761429 0 -0.25901197930261888 0.31383205914145501 0 -0.26721257633701828 0.30790943684761429 0 -0.25901197930261888 0.31383205914145501 0 -0.26528599585519008 0.31471464054907522 0 -0.25505401324638421 0.30366623925853881 0 -0.25901197930261888 0.31383205914145501 0 -0.24885494741763489 0.31718848033418301 0 -0.25505401324638421 0.30366623925853881 0 -0.25673188405007052 0.28646841290673969 0 -0.26661761067819428 0.2958317928062858 0 -0.26661761067819428 0.2958317928062858 0 -0.27573637841232751 0.29432500902679382 0 -0.27326763327687947 0.30016750757533939 0 -0.28156868640737281 0.27216957229852412 0 -0.25673188405007052 0.28646841290673969 0 -0.27479408276187339 0.28687287199942368 0 -0.26661761067819428 0.2958317928062858 0 -0.27479408276187339 0.28687287199942368 0 -0.27573637841232751 0.29432500902679382 0 -0.25673188405007052 0.28646841290673969 0 -0.26661761067819428 0.2958317928062858 0 -0.27479408276187339 0.28687287199942368 0 -0.27479408276187339 0.28687287199942368 0 -0.28401529333418091 0.28255904946725641 0 -0.28313816676434478 0.29069510378855717 0 -0.27479408276187339 0.28687287199942368 0 -0.27573637841232751 0.29432500902679382 0 -0.28313816676434478 0.29069510378855717 0 -0.27573637841232751 0.29432500902679382 0 -0.28086439858034518 0.29805776896436298 0 -0.28313816676434478 0.29069510378855717 0 -0.28086439858034518 0.29805776896436298 0 -0.27753065875984329 0.30327410754998058 0 -0.28274061889410179 0.30278083970340541 0 -0.27753065875984329 0.30327410754998058 0 -0.27514776209796898 0.30785266251660498 0 -0.28274061889410179 0.30278083970340541 0 -0.27753065875984329 0.30327410754998058 0 -0.27326763327687947 0.30016750757533939 0 -0.27348155140824082 0.30658246875079598 0 -0.28086439858034518 0.29805776896436298 0 -0.27753065875984329 0.30327410754998058 0 -0.27326763327687947 0.30016750757533939 0 -0.27573637841232751 0.29432500902679382 0 -0.28086439858034518 0.29805776896436298 0 -0.27326763327687947 0.30016750757533939 0 -0.26661761067819428 0.2958317928062858 0 -0.27326763327687947 0.30016750757533939 0 -0.26721257633701828 0.30790943684761429 0 -0.26721257633701828 0.30790943684761429 0 -0.27514776209796898 0.30785266251660498 0 -0.27123720609067609 0.3158529302113221 0 -0.26721257633701828 0.30790943684761429 0 -0.27348155140824082 0.30658246875079598 0 -0.27514776209796898 0.30785266251660498 0 -0.26721257633701828 0.30790943684761429 0 -0.27514776209796898 0.30785266251660498 0 -0.27326763327687947 0.30016750757533939 0 -0.26721257633701828 0.30790943684761429 0 -0.27348155140824082 0.30658246875079598 0 -0.27514776209796898 0.30785266251660498 0 -0.2851872012256097 0.31550597615259851 0 -0.27753065875984329 0.30327410754998058 0 -0.27348155140824082 0.30658246875079598 0 -0.27514776209796898 0.30785266251660498 0 -0.27348155140824082 0.30658246875079598 0 -0.27514776209796898 0.30785266251660498 0 -0.27514776209796898 0.30785266251660498 0 -0.2905575990275322 0.30774240886798532 0 -0.27514776209796898 0.30785266251660498 0 -0.2905575990275322 0.30774240886798532 0 -0.2851872012256097 0.31550597615259851 0 -0.2896026760048197 0.2969772506180926 0 -0.2905575990275322 0.30774240886798532 0 -0.30493521127791462 0.28695781074044469 0 -0.27514776209796898 0.30785266251660498 0 -0.28274061889410179 0.30278083970340541 0 -0.2905575990275322 0.30774240886798532 0 -0.2905575990275322 0.30774240886798532 0 -0.2851872012256097 0.31550597615259851 0 -0.28274061889410179 0.30278083970340541 0 -0.2896026760048197 0.2969772506180926 0 -0.2905575990275322 0.30774240886798532 0 -0.28086439858034518 0.29805776896436298 0 -0.28274061889410179 0.30278083970340541 0 -0.2896026760048197 0.2969772506180926 0 -0.28401529333418091 0.28255904946725641 0 -0.28313816676434478 0.29069510378855717 0 -0.29095683727235372 0.28753395384208091 0 -0.28086439858034518 0.29805776896436298 0 -0.2896026760048197 0.2969772506180926 0 -0.28313816676434478 0.29069510378855717 0 -0.2896026760048197 0.2969772506180926 0 -0.28313816676434478 0.29069510378855717 0 -0.29095683727235372 0.28753395384208091 0 -0.2896026760048197 0.2969772506180926 0 -0.29095683727235372 0.28753395384208091 0 -0.30493521127791462 0.28695781074044469 0 -0.29309283898050847 0.28048055459605348 0 -0.29095683727235372 0.28753395384208091 0 -0.30493521127791462 0.28695781074044469 0 -0.29309283898050847 0.28048055459605348 0 -0.28401529333418091 0.28255904946725641 0 -0.29095683727235372 0.28753395384208091 0 -0.31699951866320542 0.30755322334125379 0 -0.2905575990275322 0.30774240886798532 0 -0.30563014257680821 0.31779627416788381 0 -0.31699951866320542 0.30755322334125379 0 -0.2905575990275322 0.30774240886798532 0 -0.2905575990275322 0.30774240886798532 0 -0.30493521127791462 0.28695781074044469 0 -0.31699951866320542 0.30755322334125379 0 -0.2905575990275322 0.30774240886798532 0 -0.30493521127791462 0.28695781074044469 0 -0.30538608464820588 0.33090408634228141 0 -0.28942706780696309 0.31873813168532672 0 -0.30563014257680821 0.31779627416788381 0 -0.30538608464820588 0.33090408634228141 0 -0.31811651498789978 0.32488887006413791 0 -0.30563014257680821 0.31779627416788381 0 -0.30538608464820588 0.33090408634228141 0 -0.2937791937433501 0.31637108240395312 0 -0.30538608464820588 0.33090408634228141 0 -0.3017933608705089 0.344447887165377 0 -0.32134510148944728 0.34307004099923799 0 -0.30538608464820588 0.33090408634228141 0 -0.29093013722955491 0.33661105704622479 0 -0.3017933608705089 0.344447887165377 0 -0.30538608464820588 0.33090408634228141 0 -0.29093013722955491 0.33661105704622479 0 -0.2885751077852815 0.32830696870384862 0 -0.29093013722955491 0.33661105704622479 0 -0.28224162025157051 0.34582573333151501 0 -0.3017933608705089 0.344447887165377 0 -0.2885751077852815 0.32830696870384862 0 -0.28146834572906437 0.33465123959114113 0 -0.2790455690922089 0.3243844570517187 0 -0.29093013722955491 0.33661105704622479 0 -0.2885751077852815 0.32830696870384862 0 -0.28146834572906437 0.33465123959114113 0 -0.29093013722955491 0.33661105704622479 0 -0.28146834572906437 0.33465123959114113 0 -0.28224162025157051 0.34582573333151501 0 -0.30538608464820588 0.33090408634228141 0 -0.2885751077852815 0.32830696870384862 0 -0.28942706780696309 0.31873813168532672 0 -0.30538608464820588 0.33090408634228141 0 -0.28942706780696309 0.31873813168532672 0 -0.2937791937433501 0.31637108240395312 0 -0.28942706780696309 0.31873813168532672 0 -0.2937791937433501 0.31637108240395312 0 -0.2851872012256097 0.31550597615259851 0 -0.2905575990275322 0.30774240886798532 0 -0.30563014257680821 0.31779627416788381 0 -0.2937791937433501 0.31637108240395312 0 -0.2905575990275322 0.30774240886798532 0 -0.2937791937433501 0.31637108240395312 0 -0.2851872012256097 0.31550597615259851 0 -0.28942706780696309 0.31873813168532672 0 -0.2937791937433501 0.31637108240395312 0 -0.2885751077852815 0.32830696870384862 0 -0.28942706780696309 0.31873813168532672 0 -0.2790455690922089 0.3243844570517187 0 -0.28942706780696309 0.31873813168532672 0 -0.2790455690922089 0.3243844570517187 0 -0.2851872012256097 0.31550597615259851 0 -0.2790455690922089 0.3243844570517187 0 -0.28942706780696309 0.31873813168532672 0 -0.2851872012256097 0.31550597615259851 0 -0.2790455690922089 0.3243844570517187 0 -0.28942706780696309 0.31873813168532672 0 -0.2851872012256097 0.31550597615259851 0 -0.27514776209796898 0.30785266251660498 0 -0.2851872012256097 0.31550597615259851 0 -0.27699557949655113 0.31645322234696882 0 -0.2851872012256097 0.31550597615259851 0 -0.27699557949655113 0.31645322234696882 0 -0.2790455690922089 0.3243844570517187 0 -0.27514776209796898 0.30785266251660498 0 -0.27699557949655113 0.31645322234696882 0 -0.27123720609067609 0.3158529302113221 0 -0.27001263578126711 0.32263717043347712 0 -0.2790455690922089 0.3243844570517187 0 -0.25910260253645218 0.33523110656146687 0 -0.26721257633701828 0.30790943684761429 0 -0.27123720609067609 0.3158529302113221 0 -0.26528599585519008 0.31471464054907522 0 -0.27699557949655113 0.31645322234696882 0 -0.27123720609067609 0.3158529302113221 0 -0.27001263578126711 0.32263717043347712 0 -0.27123720609067609 0.3158529302113221 0 -0.26528599585519008 0.31471464054907522 0 -0.26368222169044719 0.32126413599590953 0 -0.27123720609067609 0.3158529302113221 0 -0.27001263578126711 0.32263717043347712 0 -0.26368222169044719 0.32126413599590953 0 -0.27699557949655113 0.31645322234696882 0 -0.27001263578126711 0.32263717043347712 0 -0.2790455690922089 0.3243844570517187 0 -0.2790455690922089 0.3243844570517187 0 -0.25910260253645218 0.33523110656146687 0 -0.2790455690922089 0.3243844570517187 0 -0.26824012707650141 0.34000504592112352 0 -0.28146834572906437 0.33465123959114113 0 -0.2790455690922089 0.3243844570517187 0 -0.26824012707650141 0.34000504592112352 0 -0.2790455690922089 0.3243844570517187 0 -0.26824012707650141 0.34000504592112352 0 -0.25910260253645218 0.33523110656146687 0 -0.28146834572906437 0.33465123959114113 0 -0.26824012707650141 0.34000504592112352 0 -0.28224162025157051 0.34582573333151501 0 -0.25910260253645218 0.33523110656146687 0 -0.25407523553642281 0.3497448278934856 0 -0.23915963598069589 0.34607775607121571 0 -0.25910260253645218 0.33523110656146687 0 -0.25407523553642281 0.3497448278934856 0 -0.26309588156361569 0.34576168367824162 0 -0.26824012707650141 0.34000504592112352 0 -0.25910260253645218 0.33523110656146687 0 -0.26309588156361569 0.34576168367824162 0 -0.25910260253645218 0.33523110656146687 0 -0.25451497659773847 0.32559442806853028 0 -0.24843663428782739 0.33758714710907461 0 -0.25451497659773847 0.32559442806853028 0 -0.25901197930261888 0.31383205914145501 0 -0.24885494741763489 0.31718848033418301 0 -0.25451497659773847 0.32559442806853028 0 -0.25901197930261888 0.31383205914145501 0 -0.26368222169044719 0.32126413599590953 0 -0.25901197930261888 0.31383205914145501 0 -0.26528599585519008 0.31471464054907522 0 -0.26368222169044719 0.32126413599590953 0 -0.27001263578126711 0.32263717043347712 0 -0.25910260253645218 0.33523110656146687 0 -0.26368222169044719 0.32126413599590953 0 -0.25910260253645218 0.33523110656146687 0 -0.25451497659773847 0.32559442806853028 0 -0.26368222169044719 0.32126413599590953 0 -0.26470209097228098 0.37140351159401941 0 -0.25562758441007077 0.36194187249828802 0 -0.266880351992417 0.3582272519812631 0 -0.26470209097228098 0.37140351159401941 0 -0.25213085833087667 0.37355178257669552 0 -0.25562758441007077 0.36194187249828802 0 -0.25213085833087667 0.37355178257669552 0 -0.25562758441007077 0.36194187249828802 0 -0.24329038266145239 0.36134909741814653 0 -0.25562758441007077 0.36194187249828802 0 -0.25407523553642281 0.3497448278934856 0 -0.24329038266145239 0.36134909741814653 0 -0.25407523553642281 0.3497448278934856 0 -0.26309588156361569 0.34576168367824162 0 -0.266880351992417 0.3582272519812631 0 -0.25562758441007077 0.36194187249828802 0 -0.25407523553642281 0.3497448278934856 0 -0.266880351992417 0.3582272519812631 0 -0.266880351992417 0.3582272519812631 0 -0.27640009279511962 0.35155878343443242 0 -0.28837447244510311 0.36628710188532532 0 -0.26309588156361569 0.34576168367824162 0 -0.266880351992417 0.3582272519812631 0 -0.27640009279511962 0.35155878343443242 0 -0.26824012707650141 0.34000504592112352 0 -0.26309588156361569 0.34576168367824162 0 -0.27640009279511962 0.35155878343443242 0 -0.26824012707650141 0.34000504592112352 0 -0.27640009279511962 0.35155878343443242 0 -0.28224162025157051 0.34582573333151501 0 -0.266880351992417 0.3582272519812631 0 -0.28837447244510311 0.36628710188532532 0 -0.266880351992417 0.3582272519812631 0 -0.28837447244510311 0.36628710188532532 0 -0.27747916353329311 0.37529003384729942 0 -0.26470209097228098 0.37140351159401941 0 -0.266880351992417 0.3582272519812631 0 -0.27747916353329311 0.37529003384729942 0 -0.28837447244510311 0.36628710188532532 0 -0.28714059247178902 0.37543321948423419 0 -0.27747916353329311 0.37529003384729942 0 -0.28837447244510311 0.36628710188532532 0 -0.28956810344150979 0.35324588380912608 0 -0.30292150033679799 0.36018321991941088 0 -0.28837447244510311 0.36628710188532532 0 -0.29874239202075642 0.37528196759933868 0 -0.28714059247178902 0.37543321948423419 0 -0.28224162025157051 0.34582573333151501 0 -0.3017933608705089 0.344447887165377 0 -0.28224162025157051 0.34582573333151501 0 -0.28956810344150979 0.35324588380912608 0 -0.3017933608705089 0.344447887165377 0 -0.27640009279511962 0.35155878343443242 0 -0.28224162025157051 0.34582573333151501 0 -0.28956810344150979 0.35324588380912608 0 -0.27640009279511962 0.35155878343443242 0 -0.28837447244510311 0.36628710188532532 0 -0.28956810344150979 0.35324588380912608 0 -0.3017933608705089 0.344447887165377 0 -0.31193410579265052 0.3536039280541286 0 -0.30292150033679799 0.36018321991941088 0 -0.28956810344150979 0.35324588380912608 0 -0.3017933608705089 0.344447887165377 0 -0.30292150033679799 0.36018321991941088 0 -0.3017933608705089 0.344447887165377 0 -0.32134510148944728 0.34307004099923799 0 -0.3017933608705089 0.344447887165377 0 -0.31193410579265052 0.3536039280541286 0 -0.32134510148944728 0.34307004099923799 0 -0.31193410579265052 0.3536039280541286 0 -0.30292150033679799 0.36018321991941088 0 -0.31340485972314069 0.36375751913665871 0 -0.28837447244510311 0.36628710188532532 0 -0.30292150033679799 0.36018321991941088 0 -0.30986859289778912 0.37434695178938759 0 -0.28837447244510311 0.36628710188532532 0 -0.30986859289778912 0.37434695178938759 0 -0.28837447244510311 0.36628710188532532 0 -0.30986859289778912 0.37434695178938759 0 -0.29874239202075642 0.37528196759933868 0 -0.30292150033679799 0.36018321991941088 0 -0.30986859289778912 0.37434695178938759 0 -0.31340485972314069 0.36375751913665871 0 -0.30986859289778912 0.37434695178938759 0 -0.31340485972314069 0.36375751913665871 0 -0.32167824364597858 0.36970754211250728 0 -0.31340485972314069 0.36375751913665871 0 -0.32243327870136801 0.35950699838777223 0 -0.32167824364597858 0.36970754211250728 0 -0.32243327870136801 0.35950699838777223 0 -0.32167824364597858 0.36970754211250728 0 -0.33132177355711989 0.36851943955526861 0 -0.32167824364597858 0.36970754211250728 0 -0.33132177355711989 0.36851943955526861 0 -0.33136271335047512 0.38240680169344993 0 -0.32243327870136801 0.35950699838777223 0 -0.33132177355711989 0.36851943955526861 0 -0.33989838930305449 0.35721367281084643 0 -0.33132177355711989 0.36851943955526861 0 -0.34304766554360439 0.37232322735168022 0 -0.33136271335047512 0.38240680169344993 0 -0.33132177355711989 0.36851943955526861 0 -0.34304766554360439 0.37232322735168022 0 -0.33989838930305449 0.35721367281084643 0 -0.33989838930305449 0.35721367281084643 0 -0.32134510148944728 0.34307004099923799 0 -0.33989838930305449 0.35721367281084643 0 -0.32134510148944728 0.34307004099923799 0 -0.3500233487104954 0.34104903357308669 0 -0.32243327870136801 0.35950699838777223 0 -0.33989838930305449 0.35721367281084643 0 -0.32134510148944728 0.34307004099923799 0 -0.31193410579265052 0.3536039280541286 0 -0.32243327870136801 0.35950699838777223 0 -0.32134510148944728 0.34307004099923799 0 -0.31193410579265052 0.3536039280541286 0 -0.31340485972314069 0.36375751913665871 0 -0.32243327870136801 0.35950699838777223 0 -0.30538608464820588 0.33090408634228141 0 -0.32134510148944728 0.34307004099923799 0 -0.30538608464820588 0.33090408634228141 0 -0.32134510148944728 0.34307004099923799 0 -0.31811651498789978 0.32488887006413791 0 -0.32134510148944728 0.34307004099923799 0 -0.31811651498789978 0.32488887006413791 0 -0.33459812393413729 0.32207732583041709 0 -0.31699951866320542 0.30755322334125379 0 -0.30563014257680821 0.31779627416788381 0 -0.31811651498789978 0.32488887006413791 0 -0.31699951866320542 0.30755322334125379 0 -0.31811651498789978 0.32488887006413791 0 -0.33459812393413729 0.32207732583041709 0 -0.32134510148944728 0.34307004099923799 0 -0.34342889555096417 0.33131534648734451 0 -0.3500233487104954 0.34104903357308669 0 -0.32134510148944728 0.34307004099923799 0 -0.33459812393413729 0.32207732583041709 0 -0.34342889555096417 0.33131534648734451 0 -0.32134510148944728 0.34307004099923799 0 -0.3500233487104954 0.34104903357308669 0 -0.3500233487104954 0.34104903357308669 0 -0.35650114511620551 0.33294276438790088 0 -0.36794029410566942 0.33226259727897972 0 -0.34342889555096417 0.33131534648734451 0 -0.3500233487104954 0.34104903357308669 0 -0.35650114511620551 0.33294276438790088 0 -0.33459812393413729 0.32207732583041709 0 -0.34342889555096417 0.33131534648734451 0 -0.35467675850453528 0.31743756764607989 0 -0.34344143829887858 0.30736403781452232 0 -0.33459812393413729 0.32207732583041709 0 -0.35467675850453528 0.31743756764607989 0 -0.35650114511620551 0.33294276438790088 0 -0.35467675850453528 0.31743756764607989 0 -0.36272901898995358 0.31473918551029578 0 -0.34342889555096417 0.33131534648734451 0 -0.35650114511620551 0.33294276438790088 0 -0.35467675850453528 0.31743756764607989 0 -0.35650114511620551 0.33294276438790088 0 -0.36272901898995358 0.31473918551029578 0 -0.37415321332832258 0.31386652142517069 0 -0.35650114511620551 0.33294276438790088 0 -0.37415321332832258 0.31386652142517069 0 -0.35650114511620551 0.33294276438790088 0 -0.37442838800096029 0.32044424157556423 0 -0.37415321332832258 0.31386652142517069 0 -0.37816355277066899 0.32985684687273281 0 -0.37442838800096029 0.32044424157556423 0 -0.36794029410566942 0.33226259727897972 0 -0.3787015959315434 0.33902802614693439 0 -0.3500233487104954 0.34104903357308669 0 -0.36794029410566942 0.33226259727897972 0 -0.35650114511620551 0.33294276438790088 0 -0.37442838800096029 0.32044424157556423 0 -0.36794029410566942 0.33226259727897972 0 -0.3787015959315434 0.33902802614693439 0 -0.3500233487104954 0.34104903357308669 0 -0.3787015959315434 0.33902802614693439 0 -0.37816355277066899 0.32985684687273281 0 -0.36794029410566942 0.33226259727897972 0 -0.3787015959315434 0.33902802614693439 0 -0.3500233487104954 0.34104903357308669 0 -0.36501658974902518 0.35367198233662939 0 -0.37823932191431281 0.35548757599615399 0 -0.3787015959315434 0.33902802614693439 0 -0.36501658974902518 0.35367198233662939 0 -0.37823932191431281 0.35548757599615399 0 -0.36501658974902518 0.35367198233662939 0 -0.37024808467873749 0.36543132639488701 0 -0.36501658974902518 0.35367198233662939 0 -0.37024808467873749 0.36543132639488701 0 -0.35845167711666143 0.37135730462245548 0 -0.37949655700884349 0.37153259571527891 0 -0.37024808467873749 0.36543132639488701 0 -0.36758280318953013 0.37627165255961892 0 -0.37024808467873749 0.36543132639488701 0 -0.35845167711666143 0.37135730462245548 0 -0.36758280318953013 0.37627165255961892 0 -0.36501658974902518 0.35367198233662939 0 -0.35845167711666143 0.37135730462245548 0 -0.35334750121980912 0.35582299833575448 0 -0.34304766554360439 0.37232322735168022 0 -0.33989838930305449 0.35721367281084643 0 -0.35845167711666143 0.37135730462245548 0 -0.33989838930305449 0.35721367281084643 0 -0.35845167711666143 0.37135730462245548 0 -0.35334750121980912 0.35582299833575448 0 -0.33989838930305449 0.35721367281084643 0 -0.35845167711666143 0.37135730462245548 0 -0.33989838930305449 0.35721367281084643 0 -0.3500233487104954 0.34104903357308669 0 -0.35334750121980912 0.35582299833575448 0 -0.3500233487104954 0.34104903357308669 0 -0.36501658974902518 0.35367198233662939 0 -0.35334750121980912 0.35582299833575448 0 -0.35285683380316007 0.39046665159751448 0 -0.36027192889352422 0.40897543894708011 0 -0.34270265381785459 0.40768080501023862 0 -0.34304766554360439 0.37232322735168022 0 -0.35845167711666143 0.37135730462245548 0 -0.35285683380316007 0.39046665159751448 0 -0.37686086334024771 0.38257038446795849 0 -0.35285683380316007 0.39046665159751448 0 -0.37686086334024771 0.38257038446795849 0 -0.35285683380316007 0.39046665159751448 0 -0.36758280318953013 0.37627165255961892 0 -0.35845167711666143 0.37135730462245548 0 -0.35285683380316007 0.39046665159751448 0 -0.36758280318953013 0.37627165255961892 0 -0.37686086334024771 0.38257038446795849 0 -0.37949655700884349 0.37153259571527891 0 -0.36758280318953013 0.37627165255961892 0 -0.37769092578324193 0.39977892163450779 0 -0.35285683380316007 0.39046665159751448 0 -0.37769092578324193 0.39977892163450779 0 -0.37686086334024771 0.38257038446795849 0 -0.35285683380316007 0.39046665159751448 0 -0.37769092578324193 0.39977892163450779 0 -0.35285683380316007 0.39046665159751448 0 -0.36027192889352422 0.40897543894708011 0 -0.37875820238401509 0.42613984176471847 0 -0.37769092578324193 0.39977892163450779 0 -0.36027192889352422 0.40897543894708011 0 -0.37875820238401509 0.42613984176471847 0 -0.36027192889352422 0.40897543894708011 0 -0.36048507512927641 0.42545129427310208 0 -0.37875820238401509 0.42613984176471847 0 -0.36048507512927641 0.42545129427310208 0 -0.35499138700470761 0.44318849185793469 0 -0.37875820238401509 0.42613984176471847 0 -0.35499138700470761 0.44318849185793469 0 -0.34691622899781399 0.42161541908905831 0 -0.33223168701086447 0.43660936806356893 0 -0.35499138700470761 0.44318849185793469 0 -0.36048507512927641 0.42545129427310208 0 -0.34691622899781399 0.42161541908905831 0 -0.35499138700470761 0.44318849185793469 0 -0.36027192889352422 0.40897543894708011 0 -0.34691622899781399 0.42161541908905831 0 -0.34270265381785459 0.40768080501023862 0 -0.36027192889352422 0.40897543894708011 0 -0.36048507512927641 0.42545129427310208 0 -0.34691622899781399 0.42161541908905831 0 -0.34270265381785459 0.40768080501023862 0 -0.32841174735063311 0.41773478988879181 0 -0.32505653004414181 0.39961172552874852 0 -0.34691622899781399 0.42161541908905831 0 -0.34270265381785459 0.40768080501023862 0 -0.32841174735063311 0.41773478988879181 0 -0.34691622899781399 0.42161541908905831 0 -0.32841174735063311 0.41773478988879181 0 -0.33223168701086447 0.43660936806356893 0 -0.32841174735063311 0.41773478988879181 0 -0.33223168701086447 0.43660936806356893 0 -0.31148998866141242 0.43181261152586448 0 -0.32841174735063311 0.41773478988879181 0 -0.31441363705571701 0.41408607272300291 0 -0.32505653004414181 0.39961172552874852 0 -0.32841174735063311 0.41773478988879181 0 -0.31441363705571701 0.41408607272300291 0 -0.31148998866141242 0.43181261152586448 0 -0.32505653004414181 0.39961172552874852 0 -0.31219235154091651 0.39185403334122892 0 -0.30619500853749271 0.39725637532293351 0 -0.32505653004414181 0.39961172552874852 0 -0.31778050989885959 0.38527433798844479 0 -0.31219235154091651 0.39185403334122892 0 -0.35285683380316007 0.39046665159751448 0 -0.32505653004414181 0.39961172552874852 0 -0.33136271335047512 0.38240680169344993 0 -0.35285683380316007 0.39046665159751448 0 -0.34270265381785459 0.40768080501023862 0 -0.32505653004414181 0.39961172552874852 0 -0.35285683380316007 0.39046665159751448 0 -0.32505653004414181 0.39961172552874852 0 -0.35285683380316007 0.39046665159751448 0 -0.33136271335047512 0.38240680169344993 0 -0.34304766554360439 0.37232322735168022 0 -0.35285683380316007 0.39046665159751448 0 -0.33136271335047512 0.38240680169344993 0 -0.30986859289778912 0.37434695178938759 0 -0.32167824364597858 0.36970754211250728 0 -0.33136271335047512 0.38240680169344993 0 -0.30986859289778912 0.37434695178938759 0 -0.33136271335047512 0.38240680169344993 0 -0.32505653004414181 0.39961172552874852 0 -0.33136271335047512 0.38240680169344993 0 -0.31778050989885959 0.38527433798844479 0 -0.30986859289778912 0.37434695178938759 0 -0.33136271335047512 0.38240680169344993 0 -0.31778050989885959 0.38527433798844479 0 -0.30986859289778912 0.37434695178938759 0 -0.31778050989885959 0.38527433798844479 0 -0.30574515252343709 0.38648905476423068 0 -0.30986859289778912 0.37434695178938759 0 -0.30574515252343709 0.38648905476423068 0 -0.29874239202075642 0.37528196759933868 0 -0.30574515252343709 0.38648905476423068 0 -0.29874239202075642 0.37528196759933868 0 -0.29146244090030071 0.40289140707507309 0 -0.31778050989885959 0.38527433798844479 0 -0.30574515252343709 0.38648905476423068 0 -0.31219235154091651 0.39185403334122892 0 -0.32505653004414181 0.39961172552874852 0 -0.30619500853749271 0.39725637532293351 0 -0.29725622628512233 0.40875679945997928 0 -0.32505653004414181 0.39961172552874852 0 -0.29725622628512233 0.40875679945997928 0 -0.30574515252343709 0.38648905476423068 0 -0.30619500853749271 0.39725637532293351 0 -0.29146244090030071 0.40289140707507309 0 -0.30574515252343709 0.38648905476423068 0 -0.31219235154091651 0.39185403334122892 0 -0.30619500853749271 0.39725637532293351 0 -0.30619500853749271 0.39725637532293351 0 -0.29146244090030071 0.40289140707507309 0 -0.29725622628512233 0.40875679945997928 0 -0.29146244090030071 0.40289140707507309 0 -0.2882496590958894 0.39023794275143442 0 -0.278827461574497 0.39790462172635238 0 -0.28396634188800352 0.38487377460497352 0 -0.2882496590958894 0.39023794275143442 0 -0.278827461574497 0.39790462172635238 0 -0.29146244090030071 0.40289140707507309 0 -0.278827461574497 0.39790462172635238 0 -0.27940045790464241 0.41220012044695847 0 -0.29874239202075642 0.37528196759933868 0 -0.29146244090030071 0.40289140707507309 0 -0.29874239202075642 0.37528196759933868 0 -0.29146244090030071 0.40289140707507309 0 -0.2882496590958894 0.39023794275143442 0 -0.29874239202075642 0.37528196759933868 0 -0.28396634188800352 0.38487377460497352 0 -0.28714059247178902 0.37543321948423419 0 -0.29874239202075642 0.37528196759933868 0 -0.28396634188800352 0.38487377460497352 0 -0.2882496590958894 0.39023794275143442 0 -0.28396634188800352 0.38487377460497352 0 -0.28714059247178902 0.37543321948423419 0 -0.27747916353329311 0.37529003384729942 0 -0.28396634188800352 0.38487377460497352 0 -0.27747916353329311 0.37529003384729942 0 -0.26775424033426293 0.38456849691175748 0 -0.28396634188800352 0.38487377460497352 0 -0.26775424033426293 0.38456849691175748 0 -0.278827461574497 0.39790462172635238 0 -0.26470209097228098 0.37140351159401941 0 -0.27747916353329311 0.37529003384729942 0 -0.26775424033426293 0.38456849691175748 0 -0.278827461574497 0.39790462172635238 0 -0.26298604578065232 0.3973558675440883 0 -0.2677584473194361 0.40899541659639099 0 -0.26775424033426293 0.38456849691175748 0 -0.278827461574497 0.39790462172635238 0 -0.26298604578065232 0.3973558675440883 0 -0.26298604578065232 0.3973558675440883 0 -0.25152819264859128 0.38883491631829081 0 -0.2490618870264745 0.40647588616764979 0 -0.26298604578065232 0.3973558675440883 0 -0.2677584473194361 0.40899541659639099 0 -0.2490618870264745 0.40647588616764979 0 -0.25213085833087667 0.37355178257669552 0 -0.26775424033426293 0.38456849691175748 0 -0.25152819264859128 0.38883491631829081 0 -0.26775424033426293 0.38456849691175748 0 -0.26298604578065232 0.3973558675440883 0 -0.25152819264859128 0.38883491631829081 0 -0.26470209097228098 0.37140351159401941 0 -0.25213085833087667 0.37355178257669552 0 -0.26775424033426293 0.38456849691175748 0 -0.2572482915111563 0.42152384209731297 0 -0.26330490497154813 0.43976041958731371 0 -0.24092688658692171 0.43286849171069308 0 -0.2572482915111563 0.42152384209731297 0 -0.27163392734069919 0.42205675226444578 0 -0.26330490497154813 0.43976041958731371 0 -0.2572482915111563 0.42152384209731297 0 -0.2677584473194361 0.40899541659639099 0 -0.2490618870264745 0.40647588616764979 0 -0.2572482915111563 0.42152384209731297 0 -0.2677584473194361 0.40899541659639099 0 -0.27163392734069919 0.42205675226444578 0 -0.27940045790464241 0.41220012044695847 0 -0.27163392734069919 0.42205675226444578 0 -0.28418248977984512 0.43050084655080739 0 -0.2677584473194361 0.40899541659639099 0 -0.27940045790464241 0.41220012044695847 0 -0.27163392734069919 0.42205675226444578 0 -0.278827461574497 0.39790462172635238 0 -0.2677584473194361 0.40899541659639099 0 -0.27940045790464241 0.41220012044695847 0 -0.27163392734069919 0.42205675226444578 0 -0.28418248977984512 0.43050084655080739 0 -0.26330490497154813 0.43976041958731371 0 -0.28418248977984512 0.43050084655080739 0 -0.29943060469912958 0.42576946359573847 0 -0.28981068171355151 0.44369098771903792 0 -0.29146244090030071 0.40289140707507309 0 -0.28418248977984512 0.43050084655080739 0 -0.29146244090030071 0.40289140707507309 0 -0.27940045790464241 0.41220012044695847 0 -0.28418248977984512 0.43050084655080739 0 -0.28418248977984512 0.43050084655080739 0 -0.29725622628512233 0.40875679945997928 0 -0.29943060469912958 0.42576946359573847 0 -0.29146244090030071 0.40289140707507309 0 -0.28418248977984512 0.43050084655080739 0 -0.29725622628512233 0.40875679945997928 0 -0.31441363705571701 0.41408607272300291 0 -0.32505653004414181 0.39961172552874852 0 -0.29725622628512233 0.40875679945997928 0 -0.31441363705571701 0.41408607272300291 0 -0.29725622628512233 0.40875679945997928 0 -0.29943060469912958 0.42576946359573847 0 -0.31441363705571701 0.41408607272300291 0 -0.29943060469912958 0.42576946359573847 0 -0.31148998866141242 0.43181261152586448 0 -0.29943060469912958 0.42576946359573847 0 -0.31148998866141242 0.43181261152586448 0 -0.28981068171355151 0.44369098771903792 0 -0.31148998866141242 0.43181261152586448 0 -0.30120616623050861 0.45239726712555162 0 -0.31718999816658727 0.45065056632578487 0 -0.31148998866141242 0.43181261152586448 0 -0.30120616623050861 0.45239726712555162 0 -0.31148998866141242 0.43181261152586448 0 -0.30120616623050861 0.45239726712555162 0 -0.28981068171355151 0.44369098771903792 0 -0.30120616623050861 0.45239726712555162 0 -0.29092234379960469 0.47298192272523881 0 -0.30745775624609217 0.47728579204436761 0 -0.30120616623050861 0.45239726712555162 0 -0.30745775624609217 0.47728579204436761 0 -0.31718999816658727 0.45065056632578487 0 -0.2852957606144535 0.45730244818253718 0 -0.28186649269177161 0.46567885888970018 0 -0.29092234379960469 0.47298192272523881 0 -0.30120616623050861 0.45239726712555162 0 -0.29092234379960469 0.47298192272523881 0 -0.30120616623050861 0.45239726712555162 0 -0.2852957606144535 0.45730244818253718 0 -0.29092234379960469 0.47298192272523881 0 -0.2852957606144535 0.45730244818253718 0 -0.28186649269177161 0.46567885888970018 0 -0.27690253865938408 0.45811028602654041 0 -0.28418248977984512 0.43050084655080739 0 -0.28981068171355151 0.44369098771903792 0 -0.27690253865938408 0.45811028602654041 0 -0.30120616623050861 0.45239726712555162 0 -0.2852957606144535 0.45730244818253718 0 -0.28981068171355151 0.44369098771903792 0 -0.2852957606144535 0.45730244818253718 0 -0.28981068171355151 0.44369098771903792 0 -0.27690253865938408 0.45811028602654041 0 -0.28418248977984512 0.43050084655080739 0 -0.27690253865938408 0.45811028602654041 0 -0.28418248977984512 0.43050084655080739 0 -0.27690253865938408 0.45811028602654041 0 -0.26330490497154813 0.43976041958731371 0 -0.2852957606144535 0.45730244818253718 0 -0.27690253865938408 0.45811028602654041 0 -0.28186649269177161 0.46567885888970018 0 -0.27690253865938408 0.45811028602654041 0 -0.27835780074514338 0.47366975871288508 0 -0.27690253865938408 0.45811028602654041 0 -0.25345677561811758 0.46036691342989022 0 -0.27690253865938408 0.45811028602654041 0 -0.25345677561811758 0.46036691342989022 0 -0.26590293397843329 0.47057525233348851 0 -0.25345677561811758 0.46036691342989022 0 -0.25315469521642581 0.4750486889203015 0 -0.26590293397843329 0.47057525233348851 0 -0.25345677561811758 0.46036691342989022 0 -0.26330490497154813 0.43976041958731371 0 -0.24129970279445639 0.44943490890582899 0 -0.27690253865938408 0.45811028602654041 0 -0.25345677561811758 0.46036691342989022 0 -0.26330490497154813 0.43976041958731371 0 -0.26169037092037989 0.4910190989046625 0 -0.25397816739109252 0.5 0 -0.27113802145370669 0.49283981386083792 0 -0.26169037092037989 0.4910190989046625 0 -0.25474868654415728 0.48692894813519849 0 -0.26689660829256312 0.48430763362261348 0 -0.26169037092037989 0.4910190989046625 0 -0.25397816739109252 0.5 0 -0.25474868654415728 0.48692894813519849 0 -0.25315469521642581 0.4750486889203015 0 -0.26689660829256312 0.48430763362261348 0 -0.25315469521642581 0.4750486889203015 0 -0.26689660829256312 0.48430763362261348 0 -0.26590293397843329 0.47057525233348851 0 -0.25474868654415728 0.48692894813519849 0 -0.25315469521642581 0.4750486889203015 0 -0.26689660829256312 0.48430763362261348 0 -0.27690253865938408 0.45811028602654041 0 -0.26590293397843329 0.47057525233348851 0 -0.26946370716205509 0.4860372782758946 0 -0.27690253865938408 0.45811028602654041 0 -0.26946370716205509 0.4860372782758946 0 -0.27690253865938408 0.45811028602654041 0 -0.27835780074514338 0.47366975871288508 0 -0.26946370716205509 0.4860372782758946 0 -0.26689660829256312 0.48430763362261348 0 -0.26590293397843329 0.47057525233348851 0 -0.26946370716205509 0.4860372782758946 0 -0.28186649269177161 0.46567885888970018 0 -0.27835780074514338 0.47366975871288508 0 -0.28298297564177088 0.4743823417855309 0 -0.27835780074514338 0.47366975871288508 0 -0.2798907507987049 0.48286402398659151 0 -0.28298297564177088 0.4743823417855309 0 -0.27835780074514338 0.47366975871288508 0 -0.2798907507987049 0.48286402398659151 0 -0.26946370716205509 0.4860372782758946 0 -0.26946370716205509 0.4860372782758946 0 -0.28063852136870049 0.49356657832492562 0 -0.26946370716205509 0.4860372782758946 0 -0.27113802145370669 0.49283981386083792 0 -0.28063852136870049 0.49356657832492562 0 -0.2798907507987049 0.48286402398659151 0 -0.26946370716205509 0.4860372782758946 0 -0.28063852136870049 0.49356657832492562 0 -0.25397816739109252 0.5 0 -0.27113802145370669 0.49283981386083792 0 -0.27742446875513049 0.50000000000000155 0 -0.26689660829256312 0.48430763362261348 0 -0.26946370716205509 0.4860372782758946 0 -0.27113802145370669 0.49283981386083792 0 -0.26169037092037989 0.4910190989046625 0 -0.26689660829256312 0.48430763362261348 0 -0.27113802145370669 0.49283981386083792 0 -0.26689660829256312 0.48430763362261348 0 -0.26946370716205509 0.4860372782758946 0 -0.27113802145370669 0.49283981386083792 0 -0.28063852136870049 0.49356657832492562 0 -0.27742446875513049 0.50000000000000155 0 -0.28063852136870049 0.49356657832492562 0 -0.27742446875513049 0.50000000000000155 0 -0.28063852136870049 0.49356657832492562 0 -0.27742446875513049 0.50000000000000155 0 -0.29018685806186229 0.50000000000000122 0 -0.28063852136870049 0.49356657832492562 0 -0.29018685806186229 0.50000000000000122 0 -0.29092234379960469 0.47298192272523881 0 -0.28063852136870049 0.49356657832492562 0 -0.29018685806186229 0.50000000000000122 0 -0.29018685806186229 0.50000000000000122 0 -0.29092234379960469 0.47298192272523881 0 -0.30745775624609217 0.47728579204436761 0 -0.28063852136870049 0.49356657832492562 0 -0.29092234379960469 0.47298192272523881 0 -0.2798907507987049 0.48286402398659151 0 -0.28063852136870049 0.49356657832492562 0 -0.29092234379960469 0.47298192272523881 0 -0.28186649269177161 0.46567885888970018 0 -0.28298297564177088 0.4743823417855309 0 -0.29092234379960469 0.47298192272523881 0 -0.2798907507987049 0.48286402398659151 0 -0.28298297564177088 0.4743823417855309 0 -0.29092234379960469 0.47298192272523881 0 -0.29018685806186229 0.50000000000000122 0 -0.30745775624609217 0.47728579204436761 0 -0.3640375775585698 0.5 0 -0.30745775624609217 0.47728579204436761 0 -0.33122457162539992 0.46023714195115112 0 -0.3640375775585698 0.5 0 -0.30745775624609217 0.47728579204436761 0 -0.33122457162539992 0.46023714195115112 0 -0.30745775624609217 0.47728579204436761 0 -0.31718999816658727 0.45065056632578487 0 -0.33122457162539992 0.46023714195115112 0 -0.33223168701086447 0.43660936806356893 0 -0.31148998866141242 0.43181261152586448 0 -0.31718999816658727 0.45065056632578487 0 -0.33223168701086447 0.43660936806356893 0 -0.31718999816658727 0.45065056632578487 0 -0.33122457162539992 0.46023714195115112 0 -0.33122457162539992 0.46023714195115112 0 -0.35499138700470761 0.44318849185793469 0 -0.33223168701086447 0.43660936806356893 0 -0.33122457162539992 0.46023714195115112 0 -0.35499138700470761 0.44318849185793469 0 -0.33122457162539992 0.46023714195115112 0 -0.35376164566254242 0.46494380824906301 0 -0.35499138700470761 0.44318849185793469 0 -0.38249991962136642 0.44345487931465249 0 -0.35499138700470761 0.44318849185793469 0 -0.37103467036260362 0.45695891695805302 0 -0.38249991962136642 0.44345487931465249 0 -0.37875820238401509 0.42613984176471847 0 -0.35499138700470761 0.44318849185793469 0 -0.35376164566254242 0.46494380824906301 0 -0.35499138700470761 0.44318849185793469 0 -0.37103467036260362 0.45695891695805302 0 -0.35376164566254242 0.46494380824906301 0 -0.37103467036260362 0.45695891695805302 0 -0.36943712044780219 0.47475959506207249 0 -0.33122457162539992 0.46023714195115112 0 -0.35376164566254242 0.46494380824906301 0 -0.3640375775585698 0.5 0 -0.38891458820749281 0.47713565504117422 0 -0.36943712044780219 0.47475959506207249 0 -0.3640375775585698 0.5 0 -0.35376164566254242 0.46494380824906301 0 -0.36943712044780219 0.47475959506207249 0 -0.3640375775585698 0.5 0 -0.1410608215807003 0.47118489318428192 0 -0.1506389915883973 0.47451242435581331 0 -0.15779819732271971 0.4695739402503486 0 -0.1410608215807003 0.47118489318428192 0 -0.15779819732271971 0.4695739402503486 0 -0.1455325599989582 0.47665965757352818 0 -0.14983465253105441 0.48099067897208148 0 -0.1405957742956809 0.47995063378193648 0 -0.14983465253105441 0.48099067897208148 0 -0.14427471349546869 0.48965289008050411 0 -0.1405957742956809 0.47995063378193648 0 -0.1455325599989582 0.47665965757352818 0 -0.1410608215807003 0.47118489318428192 0 -0.1506389915883973 0.47451242435581331 0 -0.1455325599989582 0.47665965757352818 0 -0.1410608215807003 0.47118489318428192 0 -0.1405957742956809 0.47995063378193648 0 -0.1506389915883973 0.47451242435581331 0 -0.15682389603308189 0.47748605108520858 0 -0.15779819732271971 0.4695739402503486 0 -0.1506389915883973 0.47451242435581331 0 -0.14983465253105441 0.48099067897208148 0 -0.15682389603308189 0.47748605108520858 0 -0.1455325599989582 0.47665965757352818 0 -0.1506389915883973 0.47451242435581331 0 -0.14983465253105441 0.48099067897208148 0 -0.14983465253105441 0.48099067897208148 0 -0.1558122254133027 0.48316327461493752 0 -0.15682389603308189 0.47748605108520858 0 -0.14983465253105441 0.48099067897208148 0 -0.1558122254133027 0.48316327461493752 0 -0.15140604362779489 0.486968875654338 0 -0.1558122254133027 0.48316327461493752 0 -0.15140604362779489 0.486968875654338 0 -0.15545271364459581 0.49281799385228547 0 -0.14983465253105441 0.48099067897208148 0 -0.15140604362779489 0.486968875654338 0 -0.14427471349546869 0.48965289008050411 0 -0.15140604362779489 0.486968875654338 0 -0.15545271364459581 0.49281799385228547 0 -0.14427471349546869 0.48965289008050411 0 -0.15453849507163009 0.5 0 -0.14427471349546869 0.48965289008050411 0 -0.12543772684428189 0.5 0 -0.15453849507163009 0.5 0 -0.15545271364459581 0.49281799385228547 0 -0.14427471349546869 0.48965289008050411 0 -0.14427471349546869 0.48965289008050411 0 -0.12543772684428189 0.5 0 -0.13178312884530541 0.48627570230508688 0 -0.14427471349546869 0.48965289008050411 0 -0.13178312884530541 0.48627570230508688 0 -0.1405957742956809 0.47995063378193648 0 -0.13178312884530541 0.48627570230508688 0 -0.1317912103042716 0.47600940211286807 0 -0.11642361318749669 0.48420448820259387 0 -0.1317912103042716 0.47600940211286807 0 -0.14083201439797821 0.46516349611765162 0 -0.12052644250191399 0.4682622397032008 0 -0.13178312884530541 0.48627570230508688 0 -0.1405957742956809 0.47995063378193648 0 -0.1317912103042716 0.47600940211286807 0 -0.1410608215807003 0.47118489318428192 0 -0.1405957742956809 0.47995063378193648 0 -0.1317912103042716 0.47600940211286807 0 -0.1410608215807003 0.47118489318428192 0 -0.1317912103042716 0.47600940211286807 0 -0.14083201439797821 0.46516349611765162 0 -0.12618187852634369 0.45882241462805679 0 -0.14083201439797821 0.46516349611765162 0 -0.12052644250191399 0.4682622397032008 0 -0.14083201439797821 0.46516349611765162 0 -0.12052644250191399 0.4682622397032008 0 -0.12618187852634369 0.45882241462805679 0 -0.13621980461969219 0.45775649261309698 0 -0.13482926781972801 0.45201676164804122 0 -0.13621980461969219 0.45775649261309698 0 -0.13482926781972801 0.45201676164804122 0 -0.1430360577347192 0.45502329805863873 0 -0.13621980461969219 0.45775649261309698 0 -0.14083201439797821 0.46516349611765162 0 -0.1430360577347192 0.45502329805863873 0 -0.12618187852634369 0.45882241462805679 0 -0.13621980461969219 0.45775649261309698 0 -0.14083201439797821 0.46516349611765162 0 -0.12618187852634369 0.45882241462805679 0 -0.13482926781972801 0.45201676164804122 0 -0.1248743097581413 0.44162978393037222 0 -0.13482926781972801 0.45201676164804122 0 -0.13973201497409549 0.44099892737807922 0 -0.1415241139788854 0.4488412036993919 0 -0.13482926781972801 0.45201676164804122 0 -0.1415241139788854 0.4488412036993919 0 -0.1430360577347192 0.45502329805863873 0 -0.13973201497409549 0.44099892737807922 0 -0.13491063247587859 0.43073185275000708 0 -0.1248743097581413 0.44162978393037222 0 -0.13482926781972801 0.45201676164804122 0 -0.13973201497409549 0.44099892737807922 0 -0.1248743097581413 0.44162978393037222 0 -0.13973201497409549 0.44099892737807922 0 -0.14849911538699881 0.44732582771280882 0 -0.14949031039727409 0.43903968606904947 0 -0.14849911538699881 0.44732582771280882 0 -0.1430360577347192 0.45502329805863873 0 -0.15230793746503779 0.45507497120342549 0 -0.13973201497409549 0.44099892737807922 0 -0.1415241139788854 0.4488412036993919 0 -0.14849911538699881 0.44732582771280882 0 -0.1415241139788854 0.4488412036993919 0 -0.14849911538699881 0.44732582771280882 0 -0.1430360577347192 0.45502329805863873 0 -0.14849911538699881 0.44732582771280882 0 -0.15230793746503779 0.45507497120342549 0 -0.15767924869329919 0.44641741059368378 0 -0.14949031039727409 0.43903968606904947 0 -0.15767924869329919 0.44641741059368378 0 -0.15912083936695831 0.4347249498771325 0 -0.14849911538699881 0.44732582771280882 0 -0.14949031039727409 0.43903968606904947 0 -0.15767924869329919 0.44641741059368378 0 -0.14083201439797821 0.46516349611765162 0 -0.16113758629404229 0.46206475253210239 0 -0.15779819732271971 0.4695739402503486 0 -0.1410608215807003 0.47118489318428192 0 -0.14083201439797821 0.46516349611765162 0 -0.15779819732271971 0.4695739402503486 0 -0.14083201439797821 0.46516349611765162 0 -0.16113758629404229 0.46206475253210239 0 -0.14083201439797821 0.46516349611765162 0 -0.15230793746503779 0.45507497120342549 0 -0.16113758629404229 0.46206475253210239 0 -0.14083201439797821 0.46516349611765162 0 -0.1430360577347192 0.45502329805863873 0 -0.15230793746503779 0.45507497120342549 0 -0.16113758629404229 0.46206475253210239 0 -0.16940388650370539 0.44815354093755089 0 -0.18144315819010631 0.45896600894655282 0 -0.16113758629404229 0.46206475253210239 0 -0.18144315819010631 0.45896600894655282 0 -0.16113758629404229 0.46206475253210239 0 -0.17453557306473899 0.46796298731641428 0 -0.15779819732271971 0.4695739402503486 0 -0.15230793746503779 0.45507497120342549 0 -0.16113758629404229 0.46206475253210239 0 -0.16013216473902109 0.45292766881669072 0 -0.16113758629404229 0.46206475253210239 0 -0.16013216473902109 0.45292766881669072 0 -0.16940388650370539 0.44815354093755089 0 -0.15767924869329919 0.44641741059368378 0 -0.16940388650370539 0.44815354093755089 0 -0.15912083936695831 0.4347249498771325 0 -0.15230793746503779 0.45507497120342549 0 -0.16013216473902109 0.45292766881669072 0 -0.15767924869329919 0.44641741059368378 0 -0.16013216473902109 0.45292766881669072 0 -0.15767924869329919 0.44641741059368378 0 -0.16940388650370539 0.44815354093755089 0 -0.1829590266345629 0.45699162349075462 0 -0.18255950863604661 0.43173185523385532 0 -0.1829590266345629 0.45699162349075462 0 -0.19557533522393281 0.44055915781337712 0 -0.18255950863604661 0.43173185523385532 0 -0.16940388650370539 0.44815354093755089 0 -0.1829590266345629 0.45699162349075462 0 -0.18255950863604661 0.43173185523385532 0 -0.16113758629404229 0.46206475253210239 0 -0.17453557306473899 0.46796298731641428 0 -0.18144315819010631 0.45896600894655282 0 -0.17453557306473899 0.46796298731641428 0 -0.18144315819010631 0.45896600894655282 0 -0.17453557306473899 0.46796298731641428 0 -0.18311948649431831 0.46713679563994498 0 -0.16940388650370539 0.44815354093755089 0 -0.18144315819010631 0.45896600894655282 0 -0.1829590266345629 0.45699162349075462 0 -0.18144315819010631 0.45896600894655282 0 -0.1829590266345629 0.45699162349075462 0 -0.18144315819010631 0.45896600894655282 0 -0.1829865290739871 0.45873048193697258 0 -0.1829590266345629 0.45699162349075462 0 -0.18144315819010631 0.45896600894655282 0 -0.1829865290739871 0.45873048193697258 0 -0.1829865290739871 0.45873048193697258 0 -0.1829590266345629 0.45699162349075462 0 -0.17453557306473899 0.46796298731641428 0 -0.18144315819010631 0.45896600894655282 0 -0.18311948649431831 0.46713679563994498 0 -0.1829865290739871 0.45873048193697258 0 -0.18311948649431831 0.46713679563994498 0 -0.18144315819010631 0.45896600894655282 0 -0.1829865290739871 0.45873048193697258 0 -0.18311948649431831 0.46713679563994498 0 -0.18311948649431831 0.46713679563994498 0 -0.18337937489664821 0.48356839781997168 0 -0.19511197543601369 0.47606725323690458 0 -0.18311948649431831 0.46713679563994498 0 -0.18337937489664821 0.48356839781997168 0 -0.18311948649431831 0.46713679563994498 0 -0.18337937489664821 0.48356839781997168 0 -0.17485937494801759 0.47808814193434568 0 -0.17453557306473899 0.46796298731641428 0 -0.18311948649431831 0.46713679563994498 0 -0.17485937494801759 0.47808814193434568 0 -0.17453557306473899 0.46796298731641428 0 -0.15779819732271971 0.4695739402503486 0 -0.17453557306473899 0.46796298731641428 0 -0.16499414335466689 0.48039049058434952 0 -0.17453557306473899 0.46796298731641428 0 -0.16499414335466689 0.48039049058434952 0 -0.15779819732271971 0.4695739402503486 0 -0.17453557306473899 0.46796298731641428 0 -0.17485937494801759 0.47808814193434568 0 -0.16499414335466689 0.48039049058434952 0 -0.17485937494801759 0.47808814193434568 0 -0.16499414335466689 0.48039049058434952 0 -0.1699453859209171 0.49288017845899518 0 -0.1558122254133027 0.48316327461493752 0 -0.16499414335466689 0.48039049058434952 0 -0.15682389603308189 0.47748605108520858 0 -0.16499414335466689 0.48039049058434952 0 -0.15682389603308189 0.47748605108520858 0 -0.15779819732271971 0.4695739402503486 0 -0.15453849507163009 0.5 0 -0.1699453859209171 0.49288017845899518 0 -0.18363926329897839 0.49999999999999828 0 -0.15453849507163009 0.5 0 -0.15545271364459581 0.49281799385228547 0 -0.1699453859209171 0.49288017845899518 0 -0.15545271364459581 0.49281799385228547 0 -0.16499414335466689 0.48039049058434952 0 -0.1699453859209171 0.49288017845899518 0 -0.15545271364459581 0.49281799385228547 0 -0.16499414335466689 0.48039049058434952 0 -0.1558122254133027 0.48316327461493752 0 -0.15545271364459581 0.49281799385228547 0 -0.16499414335466689 0.48039049058434952 0 -0.18337937489664821 0.48356839781997168 0 -0.18363926329897839 0.49999999999999828 0 -0.18337937489664821 0.48356839781997168 0 -0.1699453859209171 0.49288017845899518 0 -0.18363926329897839 0.49999999999999828 0 -0.18337937489664821 0.48356839781997168 0 -0.17485937494801759 0.47808814193434568 0 -0.1699453859209171 0.49288017845899518 0 -0.18337937489664821 0.48356839781997168 0 -0.18363926329897839 0.49999999999999828 0 -0.19848883175809501 0.48685236178056529 0 -0.18363926329897839 0.49999999999999828 0 -0.19848883175809501 0.48685236178056529 0 -0.20708556466301639 0.5 0 -0.18311948649431831 0.46713679563994498 0 -0.19511197543601369 0.47606725323690458 0 -0.20656524953558469 0.46488016823659339 0 -0.18337937489664821 0.48356839781997168 0 -0.19848883175809501 0.48685236178056529 0 -0.19511197543601369 0.47606725323690458 0 -0.19848883175809501 0.48685236178056529 0 -0.19511197543601369 0.47606725323690458 0 -0.206747867840962 0.47700509082497228 0 -0.19511197543601369 0.47606725323690458 0 -0.206747867840962 0.47700509082497228 0 -0.20656524953558469 0.46488016823659339 0 -0.19848883175809501 0.48685236178056529 0 -0.206747867840962 0.47700509082497228 0 -0.21585796601610141 0.48648558657266339 0 -0.206747867840962 0.47700509082497228 0 -0.21852396914967101 0.47285401242330122 0 -0.20656524953558469 0.46488016823659339 0 -0.206747867840962 0.47700509082497228 0 -0.21852396914967101 0.47285401242330122 0 -0.21585796601610141 0.48648558657266339 0 -0.20708556466301639 0.5 0 -0.21585796601610141 0.48648558657266339 0 -0.23053186602705439 0.5 0 -0.19848883175809501 0.48685236178056529 0 -0.20708556466301639 0.5 0 -0.21585796601610141 0.48648558657266339 0 -0.21585796601610141 0.48648558657266339 0 -0.23053186602705439 0.5 0 -0.2373192826940049 0.48342253064983348 0 -0.21852396914967101 0.47285401242330122 0 -0.2373192826940049 0.48342253064983348 0 -0.23001101257685119 0.46262354083324181 0 -0.21852396914967101 0.47285401242330122 0 -0.21585796601610141 0.48648558657266339 0 -0.2373192826940049 0.48342253064983348 0 -0.25474868654415728 0.48692894813519849 0 -0.25315469521642581 0.4750486889203015 0 -0.2373192826940049 0.48342253064983348 0 -0.25315469521642581 0.4750486889203015 0 -0.2373192826940049 0.48342253064983348 0 -0.23001101257685119 0.46262354083324181 0 -0.25397816739109252 0.5 0 -0.23053186602705439 0.5 0 -0.2373192826940049 0.48342253064983348 0 -0.25397816739109252 0.5 0 -0.25474868654415728 0.48692894813519849 0 -0.2373192826940049 0.48342253064983348 0 -0.26330490497154813 0.43976041958731371 0 -0.24129970279445639 0.44943490890582899 0 -0.24092688658692171 0.43286849171069308 0 -0.24129970279445639 0.44943490890582899 0 -0.2242493546558077 0.44235471361969553 0 -0.24092688658692171 0.43286849171069308 0 -0.25345677561811758 0.46036691342989022 0 -0.23001101257685119 0.46262354083324181 0 -0.25345677561811758 0.46036691342989022 0 -0.24129970279445639 0.44943490890582899 0 -0.23001101257685119 0.46262354083324181 0 -0.25345677561811758 0.46036691342989022 0 -0.25315469521642581 0.4750486889203015 0 -0.23001101257685119 0.46262354083324181 0 -0.24129970279445639 0.44943490890582899 0 -0.23001101257685119 0.46262354083324181 0 -0.2242493546558077 0.44235471361969553 0 -0.23001101257685119 0.46262354083324181 0 -0.2242493546558077 0.44235471361969553 0 -0.2144914677851314 0.45380351874251162 0 -0.2242493546558077 0.44235471361969553 0 -0.20880164963731279 0.443380440886459 0 -0.2144914677851314 0.45380351874251162 0 -0.20880164963731279 0.443380440886459 0 -0.2144914677851314 0.45380351874251162 0 -0.20415969833182021 0.45549933815243238 0 -0.23001101257685119 0.46262354083324181 0 -0.2144914677851314 0.45380351874251162 0 -0.20656524953558469 0.46488016823659339 0 -0.21852396914967101 0.47285401242330122 0 -0.23001101257685119 0.46262354083324181 0 -0.20656524953558469 0.46488016823659339 0 -0.23001101257685119 0.46262354083324181 0 -0.20656524953558469 0.46488016823659339 0 -0.2144914677851314 0.45380351874251162 0 -0.20415969833182021 0.45549933815243238 0 -0.20656524953558469 0.46488016823659339 0 -0.1829865290739871 0.45873048193697258 0 -0.1829590266345629 0.45699162349075462 0 -0.20415969833182021 0.45549933815243238 0 -0.1829865290739871 0.45873048193697258 0 -0.20415969833182021 0.45549933815243238 0 -0.18311948649431831 0.46713679563994498 0 -0.20415969833182021 0.45549933815243238 0 -0.20656524953558469 0.46488016823659339 0 -0.1829865290739871 0.45873048193697258 0 -0.18311948649431831 0.46713679563994498 0 -0.20415969833182021 0.45549933815243238 0 -0.18311948649431831 0.46713679563994498 0 -0.20656524953558469 0.46488016823659339 0 -0.1829590266345629 0.45699162349075462 0 -0.19557533522393281 0.44055915781337712 0 -0.1829590266345629 0.45699162349075462 0 -0.20415969833182021 0.45549933815243238 0 -0.19557533522393281 0.44055915781337712 0 -0.20880164963731279 0.443380440886459 0 -0.20415969833182021 0.45549933815243238 0 -0.19557533522393281 0.44055915781337712 0 -0.19557533522393281 0.44055915781337712 0 -0.20819164381331129 0.42412669213600601 0 -0.19557533522393281 0.44055915781337712 0 -0.19413142888046839 0.4217351031076268 0 -0.18255950863604661 0.43173185523385532 0 -0.19557533522393281 0.44055915781337712 0 -0.19413142888046839 0.4217351031076268 0 -0.20819164381331129 0.42412669213600601 0 -0.19413142888046839 0.4217351031076268 0 -0.20819164381331129 0.42412669213600601 0 -0.2021706660915297 0.40578572337793972 0 -0.19413142888046839 0.4217351031076268 0 -0.2021706660915297 0.40578572337793972 0 -0.18215999063752189 0.40647208697695608 0 -0.20819164381331129 0.42412669213600601 0 -0.22405449890785839 0.40643558214578251 0 -0.2021706660915297 0.40578572337793972 0 -0.20880164963731279 0.443380440886459 0 -0.19557533522393281 0.44055915781337712 0 -0.20819164381331129 0.42412669213600601 0 -0.2242493546558077 0.44235471361969553 0 -0.20880164963731279 0.443380440886459 0 -0.20819164381331129 0.42412669213600601 0 -0.2242493546558077 0.44235471361969553 0 -0.20819164381331129 0.42412669213600601 0 -0.22600929792909111 0.42518400498706249 0 -0.2242493546558077 0.44235471361969553 0 -0.22600929792909111 0.42518400498706249 0 -0.24092688658692171 0.43286849171069308 0 -0.20819164381331129 0.42412669213600601 0 -0.22600929792909111 0.42518400498706249 0 -0.22405449890785839 0.40643558214578251 0 -0.22600929792909111 0.42518400498706249 0 -0.22405449890785839 0.40643558214578251 0 -0.2382988550227183 0.41778448946306668 0 -0.2572482915111563 0.42152384209731297 0 -0.2382988550227183 0.41778448946306668 0 -0.2490618870264745 0.40647588616764979 0 -0.22405449890785839 0.40643558214578251 0 -0.2382988550227183 0.41778448946306668 0 -0.2490618870264745 0.40647588616764979 0 -0.2572482915111563 0.42152384209731297 0 -0.2382988550227183 0.41778448946306668 0 -0.24092688658692171 0.43286849171069308 0 -0.22600929792909111 0.42518400498706249 0 -0.2382988550227183 0.41778448946306668 0 -0.24092688658692171 0.43286849171069308 0 -0.24000210142933509 0.37809552861286783 0 -0.23801773827758249 0.39392053259368742 0 -0.22567210936962789 0.38582584627882549 0 -0.25152819264859128 0.38883491631829081 0 -0.24000210142933509 0.37809552861286783 0 -0.23801773827758249 0.39392053259368742 0 -0.25213085833087667 0.37355178257669552 0 -0.25152819264859128 0.38883491631829081 0 -0.24000210142933509 0.37809552861286783 0 -0.25152819264859128 0.38883491631829081 0 -0.2490618870264745 0.40647588616764979 0 -0.23801773827758249 0.39392053259368742 0 -0.22405449890785839 0.40643558214578251 0 -0.2490618870264745 0.40647588616764979 0 -0.23801773827758249 0.39392053259368742 0 -0.22405449890785839 0.40643558214578251 0 -0.22567210936962789 0.38582584627882549 0 -0.2099895612515065 0.38861519238670661 0 -0.22405449890785839 0.40643558214578251 0 -0.23801773827758249 0.39392053259368742 0 -0.22567210936962789 0.38582584627882549 0 -0.22567210936962789 0.38582584627882549 0 -0.21752164111765379 0.37637519474985792 0 -0.23054114355980421 0.3681661286558337 0 -0.24000210142933509 0.37809552861286783 0 -0.22567210936962789 0.38582584627882549 0 -0.23054114355980421 0.3681661286558337 0 -0.22567210936962789 0.38582584627882549 0 -0.21752164111765379 0.37637519474985792 0 -0.2099895612515065 0.38861519238670661 0 -0.21752164111765379 0.37637519474985792 0 -0.2099895612515065 0.38861519238670661 0 -0.20825127389149589 0.37038948781896619 0 -0.2099895612515065 0.38861519238670661 0 -0.1956253707180633 0.37355818799515828 0 -0.20825127389149589 0.37038948781896619 0 -0.22405449890785839 0.40643558214578251 0 -0.2099895612515065 0.38861519238670661 0 -0.2021706660915297 0.40578572337793972 0 -0.2021706660915297 0.40578572337793972 0 -0.19434121226752371 0.39112870189136351 0 -0.18215999063752189 0.40647208697695608 0 -0.2099895612515065 0.38861519238670661 0 -0.2021706660915297 0.40578572337793972 0 -0.19434121226752371 0.39112870189136351 0 -0.2099895612515065 0.38861519238670661 0 -0.19434121226752371 0.39112870189136351 0 -0.1956253707180633 0.37355818799515828 0 -0.19434121226752371 0.39112870189136351 0 -0.18176047263899719 0.38121231872005679 0 -0.1956253707180633 0.37355818799515828 0 -0.18176047263899719 0.38121231872005679 0 -0.16585623702428451 0.39107516703040651 0 -0.16689278400863089 0.37048631692620287 0 -0.16585623702428451 0.39107516703040651 0 -0.1532541744773912 0.375434017343177 0 -0.15169756500005979 0.38990146883471011 0 -0.16585623702428451 0.39107516703040651 0 -0.1532541744773912 0.375434017343177 0 -0.16689278400863089 0.37048631692620287 0 -0.16585623702428451 0.39107516703040651 0 -0.1665369108918931 0.40914444316194981 0 -0.1556916669008335 0.40278409093046019 0 -0.16585623702428451 0.39107516703040651 0 -0.18215999063752189 0.40647208697695608 0 -0.1665369108918931 0.40914444316194981 0 -0.16585623702428451 0.39107516703040651 0 -0.15169756500005979 0.38990146883471011 0 -0.1556916669008335 0.40278409093046019 0 -0.18176047263899719 0.38121231872005679 0 -0.16585623702428451 0.39107516703040651 0 -0.18215999063752189 0.40647208697695608 0 -0.18176047263899719 0.38121231872005679 0 -0.18215999063752189 0.40647208697695608 0 -0.19434121226752371 0.39112870189136351 0 -0.18176047263899719 0.38121231872005679 0 -0.18215999063752189 0.40647208697695608 0 -0.18215999063752189 0.40647208697695608 0 -0.18255950863604661 0.43173185523385532 0 -0.18215999063752189 0.40647208697695608 0 -0.16958367679162159 0.42493542776846188 0 -0.1665369108918931 0.40914444316194981 0 -0.19413142888046839 0.4217351031076268 0 -0.18215999063752189 0.40647208697695608 0 -0.18255950863604661 0.43173185523385532 0 -0.18215999063752189 0.40647208697695608 0 -0.18255950863604661 0.43173185523385532 0 -0.16958367679162159 0.42493542776846188 0 -0.16940388650370539 0.44815354093755089 0 -0.18255950863604661 0.43173185523385532 0 -0.16958367679162159 0.42493542776846188 0 -0.16940388650370539 0.44815354093755089 0 -0.16958367679162159 0.42493542776846188 0 -0.15912083936695831 0.4347249498771325 0 -0.16958367679162159 0.42493542776846188 0 -0.15912083936695831 0.4347249498771325 0 -0.15604886632200479 0.41831593774319042 0 -0.16958367679162159 0.42493542776846188 0 -0.1665369108918931 0.40914444316194981 0 -0.15604886632200479 0.41831593774319042 0 -0.1665369108918931 0.40914444316194981 0 -0.15604886632200479 0.41831593774319042 0 -0.1556916669008335 0.40278409093046019 0 -0.15604886632200479 0.41831593774319042 0 -0.14768726638806501 0.40958107086639878 0 -0.1556916669008335 0.40278409093046019 0 -0.15604886632200479 0.41831593774319042 0 -0.1455440964649429 0.41771164433310332 0 -0.14575226394851429 0.42876386523653243 0 -0.15604886632200479 0.41831593774319042 0 -0.1455440964649429 0.41771164433310332 0 -0.14768726638806501 0.40958107086639878 0 -0.1455440964649429 0.41771164433310332 0 -0.14768726638806501 0.40958107086639878 0 -0.13820848934052041 0.41088683445876423 0 -0.15912083936695831 0.4347249498771325 0 -0.15604886632200479 0.41831593774319042 0 -0.14575226394851429 0.42876386523653243 0 -0.14949031039727409 0.43903968606904947 0 -0.15912083936695831 0.4347249498771325 0 -0.14575226394851429 0.42876386523653243 0 -0.1455440964649429 0.41771164433310332 0 -0.14575226394851429 0.42876386523653243 0 -0.13557398954387551 0.42076075412316039 0 -0.13973201497409549 0.44099892737807922 0 -0.14949031039727409 0.43903968606904947 0 -0.14575226394851429 0.42876386523653243 0 -0.13491063247587859 0.43073185275000708 0 -0.1242188050129694 0.42501783294758849 0 -0.1248743097581413 0.44162978393037222 0 -0.13973201497409549 0.44099892737807922 0 -0.14575226394851429 0.42876386523653243 0 -0.13491063247587859 0.43073185275000708 0 -0.14575226394851429 0.42876386523653243 0 -0.13491063247587859 0.43073185275000708 0 -0.13557398954387551 0.42076075412316039 0 -0.13491063247587859 0.43073185275000708 0 -0.13557398954387551 0.42076075412316039 0 -0.1242188050129694 0.42501783294758849 0 -0.13820848934052041 0.41088683445876423 0 -0.13557398954387551 0.42076075412316039 0 -0.12623023605756489 0.41143854881348008 0 -0.1455440964649429 0.41771164433310332 0 -0.13820848934052041 0.41088683445876423 0 -0.13557398954387551 0.42076075412316039 0 -0.13557398954387551 0.42076075412316039 0 -0.12623023605756489 0.41143854881348008 0 -0.1242188050129694 0.42501783294758849 0 -0.13820848934052041 0.41088683445876423 0 -0.12623023605756489 0.41143854881348008 0 -0.13398515235888339 0.40371564514020769 0 -0.12997925716256209 0.39431640422262348 0 -0.14074253368576661 0.38200722200303072 0 -0.1429432129120235 0.39820684686647628 0 -0.12623023605756489 0.41143854881348008 0 -0.13398515235888339 0.40371564514020769 0 -0.12997925716256209 0.39431640422262348 0 -0.13398515235888339 0.40371564514020769 0 -0.12997925716256209 0.39431640422262348 0 -0.1429432129120235 0.39820684686647628 0 -0.13820848934052041 0.41088683445876423 0 -0.13398515235888339 0.40371564514020769 0 -0.1429432129120235 0.39820684686647628 0 -0.12997925716256209 0.39431640422262348 0 -0.14074253368576661 0.38200722200303072 0 -0.12523428666698541 0.37069662222368049 0 -0.12997925716256209 0.39431640422262348 0 -0.12523428666698541 0.37069662222368049 0 -0.12103247972044499 0.39311621374447298 0 -0.14074253368576661 0.38200722200303072 0 -0.15169756500005979 0.38990146883471011 0 -0.1429432129120235 0.39820684686647628 0 -0.14074253368576661 0.38200722200303072 0 -0.1532541744773912 0.375434017343177 0 -0.15169756500005979 0.38990146883471011 0 -0.15169756500005979 0.38990146883471011 0 -0.1556916669008335 0.40278409093046019 0 -0.1429432129120235 0.39820684686647628 0 -0.14768726638806501 0.40958107086639878 0 -0.1556916669008335 0.40278409093046019 0 -0.1429432129120235 0.39820684686647628 0 -0.14768726638806501 0.40958107086639878 0 -0.13820848934052041 0.41088683445876423 0 -0.1429432129120235 0.39820684686647628 0 -0.14407255521749979 0.34403263722221961 0 -0.15504053286571459 0.3545366000593369 0 -0.14129669608781389 0.36249735492572199 0 -0.14407255521749979 0.34403263722221961 0 -0.15504053286571459 0.3545366000593369 0 -0.1549481930100888 0.34056708499864929 0 -0.14074253368576661 0.38200722200303072 0 -0.1532541744773912 0.375434017343177 0 -0.14129669608781389 0.36249735492572199 0 -0.1532541744773912 0.375434017343177 0 -0.15504053286571459 0.3545366000593369 0 -0.14129669608781389 0.36249735492572199 0 -0.14129669608781389 0.36249735492572199 0 -0.12523428666698541 0.37069662222368049 0 -0.1294360936135257 0.3482770307028879 0 -0.12523428666698541 0.37069662222368049 0 -0.1294360936135257 0.3482770307028879 0 -0.14074253368576661 0.38200722200303072 0 -0.14129669608781389 0.36249735492572199 0 -0.12523428666698541 0.37069662222368049 0 -0.14407255521749979 0.34403263722221961 0 -0.14129669608781389 0.36249735492572199 0 -0.1294360936135257 0.3482770307028879 0 -0.1294360936135257 0.3482770307028879 0 -0.13363790056006589 0.32585743918209531 0 -0.14407255521749979 0.34403263722221961 0 -0.1294360936135257 0.3482770307028879 0 -0.13363790056006589 0.32585743918209531 0 -0.1294360936135257 0.3482770307028879 0 -0.13363790056006589 0.32585743918209531 0 -0.1154499742120704 0.34086754873962172 0 -0.12722248981549561 0.3181430308760943 0 -0.13363790056006589 0.32585743918209531 0 -0.1360408951285694 0.3130357752318072 0 -0.12722248981549561 0.3181430308760943 0 -0.1360408951285694 0.3130357752318072 0 -0.12136448477009221 0.30951812845445109 0 -0.12722248981549561 0.3181430308760943 0 -0.13363790056006589 0.32585743918209531 0 -0.12142985306419619 0.32461006626398298 0 -0.13363790056006589 0.32585743918209531 0 -0.12142985306419619 0.32461006626398298 0 -0.13363790056006589 0.32585743918209531 0 -0.1360408951285694 0.3130357752318072 0 -0.14290423209994971 0.32095809222069871 0 -0.13363790056006589 0.32585743918209531 0 -0.1360408951285694 0.3130357752318072 0 -0.14290423209994971 0.32095809222069871 0 -0.1532404752523272 0.32269894785805692 0 -0.1464174014568787 0.29836992735667278 0 -0.13363790056006589 0.32585743918209531 0 -0.14290423209994971 0.32095809222069871 0 -0.15729966860100811 0.32827511069417059 0 -0.13363790056006589 0.32585743918209531 0 -0.15729966860100811 0.32827511069417059 0 -0.14290423209994971 0.32095809222069871 0 -0.1532404752523272 0.32269894785805692 0 -0.15729966860100811 0.32827511069417059 0 -0.1532404752523272 0.32269894785805692 0 -0.15943794807189979 0.31595908059817063 0 -0.1547819877644892 0.3091453549012102 0 -0.14407255521749979 0.34403263722221961 0 -0.13363790056006589 0.32585743918209531 0 -0.14748957934716561 0.33468306802428371 0 -0.13363790056006589 0.32585743918209531 0 -0.14748957934716561 0.33468306802428371 0 -0.15729966860100811 0.32827511069417059 0 -0.14748957934716561 0.33468306802428371 0 -0.1549481930100888 0.34056708499864929 0 -0.15729966860100811 0.32827511069417059 0 -0.14407255521749979 0.34403263722221961 0 -0.14748957934716561 0.33468306802428371 0 -0.1549481930100888 0.34056708499864929 0 -0.15729966860100811 0.32827511069417059 0 -0.18096143664194889 0.33069278220625808 0 -0.1549481930100888 0.34056708499864929 0 -0.15729966860100811 0.32827511069417059 0 -0.16781010436956259 0.34240718275037813 0 -0.15729966860100811 0.32827511069417059 0 -0.16781010436956259 0.34240718275037813 0 -0.18096143664194889 0.33069278220625808 0 -0.15729966860100811 0.32827511069417059 0 -0.17028988351433311 0.32233995817617028 0 -0.18096143664194889 0.33069278220625808 0 -0.15943794807189979 0.31595908059817063 0 -0.16495134068588049 0.31685297469802859 0 -0.1638395481514221 0.30983277085387728 0 -0.1532404752523272 0.32269894785805692 0 -0.15943794807189979 0.31595908059817063 0 -0.16037638850537991 0.32126535467967993 0 -0.15943794807189979 0.31595908059817063 0 -0.16037638850537991 0.32126535467967993 0 -0.16495134068588049 0.31685297469802859 0 -0.15729966860100811 0.32827511069417059 0 -0.16037638850537991 0.32126535467967993 0 -0.17028988351433311 0.32233995817617028 0 -0.1532404752523272 0.32269894785805692 0 -0.15729966860100811 0.32827511069417059 0 -0.16037638850537991 0.32126535467967993 0 -0.16495134068588049 0.31685297469802859 0 -0.17285953122972289 0.31090601179704258 0 -0.1638395481514221 0.30983277085387728 0 -0.17028988351433311 0.32233995817617028 0 -0.16495134068588049 0.31685297469802859 0 -0.17285953122972289 0.31090601179704258 0 -0.16037638850537991 0.32126535467967993 0 -0.17028988351433311 0.32233995817617028 0 -0.16495134068588049 0.31685297469802859 0 -0.18077272512400111 0.31876138179813301 0 -0.17285953122972289 0.31090601179704258 0 -0.17028988351433311 0.32233995817617028 0 -0.18077272512400111 0.31876138179813301 0 -0.17285953122972289 0.31090601179704258 0 -0.17028988351433311 0.32233995817617028 0 -0.18077272512400111 0.31876138179813301 0 -0.18096143664194889 0.33069278220625808 0 -0.18077272512400111 0.31876138179813301 0 -0.19386790912735871 0.33176087567547108 0 -0.18077272512400111 0.31876138179813301 0 -0.18096143664194889 0.33069278220625808 0 -0.18077272512400111 0.31876138179813301 0 -0.18096143664194889 0.33069278220625808 0 -0.19386790912735871 0.33176087567547108 0 -0.18096143664194889 0.33069278220625808 0 -0.1813609546404725 0.35595255046315749 0 -0.18096143664194889 0.33069278220625808 0 -0.1813609546404725 0.35595255046315749 0 -0.19258948339875709 0.33633707034479371 0 -0.16781010436956259 0.34240718275037813 0 -0.18096143664194889 0.33069278220625808 0 -0.1813609546404725 0.35595255046315749 0 -0.18096143664194889 0.33069278220625808 0 -0.19386790912735871 0.33176087567547108 0 -0.15504053286571459 0.3545366000593369 0 -0.16781010436956259 0.34240718275037813 0 -0.1813609546404725 0.35595255046315749 0 -0.15504053286571459 0.3545366000593369 0 -0.1549481930100888 0.34056708499864929 0 -0.16781010436956259 0.34240718275037813 0 -0.1532541744773912 0.375434017343177 0 -0.15504053286571459 0.3545366000593369 0 -0.16689278400863089 0.37048631692620287 0 -0.15504053286571459 0.3545366000593369 0 -0.1813609546404725 0.35595255046315749 0 -0.16689278400863089 0.37048631692620287 0 -0.18176047263899719 0.38121231872005679 0 -0.1813609546404725 0.35595255046315749 0 -0.18176047263899719 0.38121231872005679 0 -0.1813609546404725 0.35595255046315749 0 -0.1956253707180633 0.37355818799515828 0 -0.18176047263899719 0.38121231872005679 0 -0.1813609546404725 0.35595255046315749 0 -0.16689278400863089 0.37048631692620287 0 -0.1813609546404725 0.35595255046315749 0 -0.1956253707180633 0.37355818799515828 0 -0.2000380028121157 0.35856944723279938 0 -0.1956253707180633 0.37355818799515828 0 -0.2000380028121157 0.35856944723279938 0 -0.20825127389149589 0.37038948781896619 0 -0.1813609546404725 0.35595255046315749 0 -0.1951678646333711 0.34883535218340811 0 -0.19258948339875709 0.33633707034479371 0 -0.1813609546404725 0.35595255046315749 0 -0.1951678646333711 0.34883535218340811 0 -0.2000380028121157 0.35856944723279938 0 -0.1951678646333711 0.34883535218340811 0 -0.2000380028121157 0.35856944723279938 0 -0.20668301768213909 0.34448234069288158 0 -0.20668301768213909 0.34448234069288158 0 -0.2120127789660084 0.36084248239747968 0 -0.21921666942493959 0.3569244055809645 0 -0.2000380028121157 0.35856944723279938 0 -0.20668301768213909 0.34448234069288158 0 -0.2120127789660084 0.36084248239747968 0 -0.2120127789660084 0.36084248239747968 0 -0.21921666942493959 0.3569244055809645 0 -0.20668301768213909 0.34448234069288158 0 -0.21921666942493959 0.3569244055809645 0 -0.22158808080033929 0.34557455345049992 0 -0.20668301768213909 0.34448234069288158 0 -0.21921666942493959 0.3569244055809645 0 -0.2000380028121157 0.35856944723279938 0 -0.20825127389149589 0.37038948781896619 0 -0.2120127789660084 0.36084248239747968 0 -0.2120127789660084 0.36084248239747968 0 -0.2199937556016836 0.36693485901855288 0 -0.21921666942493959 0.3569244055809645 0 -0.20825127389149589 0.37038948781896619 0 -0.2120127789660084 0.36084248239747968 0 -0.2199937556016836 0.36693485901855288 0 -0.21752164111765379 0.37637519474985792 0 -0.20825127389149589 0.37038948781896619 0 -0.2199937556016836 0.36693485901855288 0 -0.21752164111765379 0.37637519474985792 0 -0.23054114355980421 0.3681661286558337 0 -0.2199937556016836 0.36693485901855288 0 -0.23054114355980421 0.3681661286558337 0 -0.21921666942493959 0.3569244055809645 0 -0.23305195790672301 0.35812934693154008 0 -0.23054114355980421 0.3681661286558337 0 -0.2199937556016836 0.36693485901855288 0 -0.21921666942493959 0.3569244055809645 0 -0.23054114355980421 0.3681661286558337 0 -0.21921666942493959 0.3569244055809645 0 -0.21921666942493959 0.3569244055809645 0 -0.22158808080033929 0.34557455345049992 0 -0.23915963598069589 0.34607775607121571 0 -0.21921666942493959 0.3569244055809645 0 -0.23915963598069589 0.34607775607121571 0 -0.21921666942493959 0.3569244055809645 0 -0.23305195790672301 0.35812934693154008 0 -0.23915963598069589 0.34607775607121571 0 -0.23305195790672301 0.35812934693154008 0 -0.23915963598069589 0.34607775607121571 0 -0.24329038266145239 0.36134909741814653 0 -0.25407523553642281 0.3497448278934856 0 -0.23915963598069589 0.34607775607121571 0 -0.24329038266145239 0.36134909741814653 0 -0.25213085833087667 0.37355178257669552 0 -0.24000210142933509 0.37809552861286783 0 -0.24329038266145239 0.36134909741814653 0 -0.24000210142933509 0.37809552861286783 0 -0.23054114355980421 0.3681661286558337 0 -0.24329038266145239 0.36134909741814653 0 -0.23054114355980421 0.3681661286558337 0 -0.23305195790672301 0.35812934693154008 0 -0.24329038266145239 0.36134909741814653 0 -0.23582541811145999 0.32679902143390172 0 -0.24885494741763489 0.31718848033418301 0 -0.23189508169276829 0.30076725351495531 0 -0.23582541811145999 0.32679902143390172 0 -0.24885494741763489 0.31718848033418301 0 -0.24633099797708269 0.32737693631841108 0 -0.25451497659773847 0.32559442806853028 0 -0.24885494741763489 0.31718848033418301 0 -0.24633099797708269 0.32737693631841108 0 -0.24843663428782739 0.33758714710907461 0 -0.22129300011358269 0.33481371145693772 0 -0.25451497659773847 0.32559442806853028 0 -0.24633099797708269 0.32737693631841108 0 -0.24843663428782739 0.33758714710907461 0 -0.25910260253645218 0.33523110656146687 0 -0.23915963598069589 0.34607775607121571 0 -0.23582541811145999 0.32679902143390172 0 -0.24633099797708269 0.32737693631841108 0 -0.24843663428782739 0.33758714710907461 0 -0.25910260253645218 0.33523110656146687 0 -0.23915963598069589 0.34607775607121571 0 -0.24843663428782739 0.33758714710907461 0 -0.23582541811145999 0.32679902143390172 0 -0.24843663428782739 0.33758714710907461 0 -0.22129300011358269 0.33481371145693772 0 -0.23915963598069589 0.34607775607121571 0 -0.24843663428782739 0.33758714710907461 0 -0.22129300011358269 0.33481371145693772 0 -0.22158808080033929 0.34557455345049992 0 -0.23915963598069589 0.34607775607121571 0 -0.22129300011358269 0.33481371145693772 0 -0.23582541811145999 0.32679902143390172 0 -0.21954464392232159 0.31820766509236142 0 -0.23189508169276829 0.30076725351495531 0 -0.23582541811145999 0.32679902143390172 0 -0.22129300011358269 0.33481371145693772 0 -0.21954464392232159 0.31820766509236142 0 -0.21954464392232159 0.31820766509236142 0 -0.20492818889453221 0.32276220977772679 0 -0.20060783596013981 0.3076349397264902 0 -0.22129300011358269 0.33481371145693772 0 -0.21954464392232159 0.31820766509236142 0 -0.20492818889453221 0.32276220977772679 0 -0.22129300011358269 0.33481371145693772 0 -0.20492818889453221 0.32276220977772679 0 -0.19386790912735871 0.33176087567547108 0 -0.22129300011358269 0.33481371145693772 0 -0.19386790912735871 0.33176087567547108 0 -0.20668301768213909 0.34448234069288158 0 -0.22129300011358269 0.33481371145693772 0 -0.19386790912735871 0.33176087567547108 0 -0.20668301768213909 0.34448234069288158 0 -0.22158808080033929 0.34557455345049992 0 -0.22129300011358269 0.33481371145693772 0 -0.20668301768213909 0.34448234069288158 0 -0.19386790912735871 0.33176087567547108 0 -0.19258948339875709 0.33633707034479371 0 -0.20668301768213909 0.34448234069288158 0 -0.19386790912735871 0.33176087567547108 0 -0.1951678646333711 0.34883535218340811 0 -0.20668301768213909 0.34448234069288158 0 -0.19258948339875709 0.33633707034479371 0 -0.18096143664194889 0.33069278220625808 0 -0.19386790912735871 0.33176087567547108 0 -0.19258948339875709 0.33633707034479371 0 -0.19386790912735871 0.33176087567547108 0 -0.19258948339875709 0.33633707034479371 0 -0.18077272512400111 0.31876138179813301 0 -0.19386790912735871 0.33176087567547108 0 -0.20060783596013981 0.3076349397264902 0 -0.20492818889453221 0.32276220977772679 0 -0.19386790912735871 0.33176087567547108 0 -0.20060783596013981 0.3076349397264902 0 -0.19386790912735871 0.33176087567547108 0 -0.20060783596013981 0.3076349397264902 0 -0.20060783596013981 0.3076349397264902 0 -0.20734776279292019 0.28350900377750898 0 -0.23189508169276829 0.30076725351495531 0 -0.21954464392232159 0.31820766509236142 0 -0.20060783596013981 0.3076349397264902 0 -0.23189508169276829 0.30076725351495531 0 -0.20060783596013981 0.3076349397264902 0 -0.20734776279292019 0.28350900377750898 0 -0.18034630435624241 0.29180066960649809 0 -0.20734776279292019 0.28350900377750898 0 -0.19375927737912041 0.2730469699042487 0 -0.18034630435624241 0.29180066960649809 0 -0.20060783596013981 0.3076349397264902 0 -0.20734776279292019 0.28350900377750898 0 -0.20734776279292019 0.28350900377750898 0 -0.23189508169276829 0.30076725351495531 0 -0.22396762922540969 0.27514125130055722 0 -0.23189508169276829 0.30076725351495531 0 -0.2378434694439332 0.28391349183279069 0 -0.22396762922540969 0.27514125130055722 0 -0.25673188405007052 0.28646841290673969 0 -0.23189508169276829 0.30076725351495531 0 -0.2378434694439332 0.28391349183279069 0 -0.25673188405007052 0.28646841290673969 0 -0.23189508169276829 0.30076725351495531 0 -0.25505401324638421 0.30366623925853881 0 -0.25673188405007052 0.28646841290673969 0 -0.23189508169276829 0.30076725351495531 0 -0.25505401324638421 0.30366623925853881 0 -0.24885494741763489 0.31718848033418301 0 -0.23189508169276829 0.30076725351495531 0 -0.25265925142613249 0.26128234508680298 0 -0.23885305679183191 0.2684477152547543 0 -0.23951274761537589 0.2474853768326048 0 -0.23885305679183191 0.2684477152547543 0 -0.22811192938500721 0.25829645972706228 0 -0.23951274761537589 0.2474853768326048 0 -0.25621817608628389 0.2460965770837312 0 -0.25265925142613249 0.26128234508680298 0 -0.23951274761537589 0.2474853768326048 0 -0.25673188405007052 0.28646841290673969 0 -0.2378434694439332 0.28391349183279069 0 -0.23885305679183191 0.2684477152547543 0 -0.25265925142613249 0.26128234508680298 0 -0.25673188405007052 0.28646841290673969 0 -0.23885305679183191 0.2684477152547543 0 -0.23885305679183191 0.2684477152547543 0 -0.22396762922540969 0.27514125130055722 0 -0.22811192938500721 0.25829645972706228 0 -0.2378434694439332 0.28391349183279069 0 -0.23885305679183191 0.2684477152547543 0 -0.22396762922540969 0.27514125130055722 0 -0.22811192938500721 0.25829645972706228 0 -0.22371849106378741 0.2462845034026982 0 -0.23951274761537589 0.2474853768326048 0 -0.22396762922540969 0.27514125130055722 0 -0.22811192938500721 0.25829645972706228 0 -0.21408768962570049 0.25938306782852782 0 -0.22811192938500721 0.25829645972706228 0 -0.21408768962570049 0.25938306782852782 0 -0.22371849106378741 0.2462845034026982 0 -0.21408768962570049 0.25938306782852782 0 -0.19928355658839081 0.25766712263582692 0 -0.2066863838603582 0.24242880758937649 0 -0.21408768962570049 0.25938306782852782 0 -0.20163280817849061 0.26608937016207479 0 -0.19928355658839081 0.25766712263582692 0 -0.20734776279292019 0.28350900377750898 0 -0.21408768962570049 0.25938306782852782 0 -0.20734776279292019 0.28350900377750898 0 -0.22396762922540969 0.27514125130055722 0 -0.21408768962570049 0.25938306782852782 0 -0.20734776279292019 0.28350900377750898 0 -0.21408768962570049 0.25938306782852782 0 -0.20163280817849061 0.26608937016207479 0 -0.20734776279292019 0.28350900377750898 0 -0.20163280817849061 0.26608937016207479 0 -0.19375927737912041 0.2730469699042487 0 -0.20163280817849061 0.26608937016207479 0 -0.19375927737912041 0.2730469699042487 0 -0.19160269433399771 0.26436194023610149 0 -0.19375927737912041 0.2730469699042487 0 -0.19160269433399771 0.26436194023610149 0 -0.17991988358848049 0.26483995741486333 0 -0.19928355658839081 0.25766712263582692 0 -0.18259587964237009 0.2606558300825601 0 -0.2066863838603582 0.24242880758937649 0 -0.18259587964237009 0.2606558300825601 0 -0.19333963139412971 0.24385714112684301 0 -0.19928355658839081 0.25766712263582692 0 -0.19160269433399771 0.26436194023610149 0 -0.18259587964237009 0.2606558300825601 0 -0.18259587964237009 0.2606558300825601 0 -0.2066863838603582 0.24242880758937649 0 -0.20163280817849061 0.26608937016207479 0 -0.19928355658839081 0.25766712263582692 0 -0.19160269433399771 0.26436194023610149 0 -0.17991988358848049 0.26483995741486333 0 -0.17951502337729761 0.2392424245160312 0 -0.17991988358848049 0.26483995741486333 0 -0.17042143569771079 0.26099360542817968 0 -0.17951502337729761 0.2392424245160312 0 -0.18259587964237009 0.2606558300825601 0 -0.17991988358848049 0.26483995741486333 0 -0.17951502337729761 0.2392424245160312 0 -0.19160269433399771 0.26436194023610149 0 -0.18259587964237009 0.2606558300825601 0 -0.17991988358848049 0.26483995741486333 0 -0.18259587964237009 0.2606558300825601 0 -0.17991988358848049 0.26483995741486333 0 -0.17991988358848049 0.26483995741486333 0 -0.17042143569771079 0.26099360542817968 0 -0.17716480609589361 0.26914773470870201 0 -0.17042143569771079 0.26099360542817968 0 -0.1627301728603629 0.26968240911070368 0 -0.1532221513837192 0.25419418888983192 0 -0.17042143569771079 0.26099360542817968 0 -0.1532221513837192 0.25419418888983192 0 -0.17951502337729761 0.2392424245160312 0 -0.1627301728603629 0.26968240911070368 0 -0.1620479085915319 0.28265904931380531 0 -0.15271877240598841 0.27446820953958367 0 -0.17042143569771079 0.26099360542817968 0 -0.1627301728603629 0.26968240911070368 0 -0.1699765768805111 0.26885491792894611 0 -0.1627301728603629 0.26968240911070368 0 -0.1699765768805111 0.26885491792894611 0 -0.16860704672851359 0.27535934789532951 0 -0.1627301728603629 0.26968240911070368 0 -0.16860704672851359 0.27535934789532951 0 -0.1620479085915319 0.28265904931380531 0 -0.16860704672851359 0.27535934789532951 0 -0.17077339862397739 0.28423195702734899 0 -0.1620479085915319 0.28265904931380531 0 -0.17991988358848049 0.26483995741486333 0 -0.18034630435624241 0.29180066960649809 0 -0.17991988358848049 0.26483995741486333 0 -0.17716480609589361 0.26914773470870201 0 -0.18034630435624241 0.29180066960649809 0 -0.16860704672851359 0.27535934789532951 0 -0.17716480609589361 0.26914773470870201 0 -0.17077339862397739 0.28423195702734899 0 -0.19375927737912041 0.2730469699042487 0 -0.17991988358848049 0.26483995741486333 0 -0.18034630435624241 0.29180066960649809 0 -0.17042143569771079 0.26099360542817968 0 -0.1699765768805111 0.26885491792894611 0 -0.17716480609589361 0.26914773470870201 0 -0.1699765768805111 0.26885491792894611 0 -0.16860704672851359 0.27535934789532951 0 -0.17716480609589361 0.26914773470870201 0 -0.17991988358848049 0.26483995741486333 0 -0.17716480609589361 0.26914773470870201 0 -0.17716480609589361 0.26914773470870201 0 -0.18034630435624241 0.29180066960649809 0 -0.17077339862397739 0.28423195702734899 0 -0.18034630435624241 0.29180066960649809 0 -0.16501618616712291 0.29775164083812761 0 -0.17077339862397739 0.28423195702734899 0 -0.18077272512400111 0.31876138179813301 0 -0.18034630435624241 0.29180066960649809 0 -0.18077272512400111 0.31876138179813301 0 -0.18034630435624241 0.29180066960649809 0 -0.17285953122972289 0.31090601179704258 0 -0.18034630435624241 0.29180066960649809 0 -0.17285953122972289 0.31090601179704258 0 -0.16501618616712291 0.29775164083812761 0 -0.18077272512400111 0.31876138179813301 0 -0.20060783596013981 0.3076349397264902 0 -0.18034630435624241 0.29180066960649809 0 -0.16501618616712291 0.29775164083812761 0 -0.15329008091572741 0.28945008379417048 0 -0.1547819877644892 0.3091453549012102 0 -0.17285953122972289 0.31090601179704258 0 -0.16501618616712291 0.29775164083812761 0 -0.1638395481514221 0.30983277085387728 0 -0.16501618616712291 0.29775164083812761 0 -0.1638395481514221 0.30983277085387728 0 -0.1547819877644892 0.3091453549012102 0 -0.15943794807189979 0.31595908059817063 0 -0.1638395481514221 0.30983277085387728 0 -0.1547819877644892 0.3091453549012102 0 -0.16501618616712291 0.29775164083812761 0 -0.17077339862397739 0.28423195702734899 0 -0.1620479085915319 0.28265904931380531 0 -0.16501618616712291 0.29775164083812761 0 -0.1620479085915319 0.28265904931380531 0 -0.15329008091572741 0.28945008379417048 0 -0.1464174014568787 0.29836992735667278 0 -0.13959432766143021 0.2740409068552887 0 -0.1620479085915319 0.28265904931380531 0 -0.15329008091572741 0.28945008379417048 0 -0.15271877240598841 0.27446820953958367 0 -0.15329008091572741 0.28945008379417048 0 -0.1464174014568787 0.29836992735667278 0 -0.13959432766143021 0.2740409068552887 0 -0.15329008091572741 0.28945008379417048 0 -0.1464174014568787 0.29836992735667278 0 -0.1547819877644892 0.3091453549012102 0 -0.1532404752523272 0.32269894785805692 0 -0.1464174014568787 0.29836992735667278 0 -0.1360408951285694 0.3130357752318072 0 -0.14290423209994971 0.32095809222069871 0 -0.1464174014568787 0.29836992735667278 0 -0.1532404752523272 0.32269894785805692 0 -0.1464174014568787 0.29836992735667278 0 -0.1547819877644892 0.3091453549012102 0 -0.1360408951285694 0.3130357752318072 0 -0.1264253840414637 0.29528772621663357 0 -0.12136448477009221 0.30951812845445109 0 -0.1360408951285694 0.3130357752318072 0 -0.1464174014568787 0.29836992735667278 0 -0.1264253840414637 0.29528772621663357 0 -0.1464174014568787 0.29836992735667278 0 -0.1264253840414637 0.29528772621663357 0 -0.13959432766143021 0.2740409068552887 0 -0.1264253840414637 0.29528772621663357 0 -0.13959432766143021 0.2740409068552887 0 -0.1185373796182298 0.27837978510360878 0 -0.13959432766143021 0.2740409068552887 0 -0.1327712538659816 0.24971188635390451 0 -0.13959432766143021 0.2740409068552887 0 -0.116744543106582 0.25728181003509248 0 -0.1327712538659816 0.24971188635390451 0 -0.13959432766143021 0.2740409068552887 0 -0.1532221513837192 0.25419418888983192 0 -0.1327712538659816 0.24971188635390451 0 -0.1627301728603629 0.26968240911070368 0 -0.1532221513837192 0.25419418888983192 0 -0.15271877240598841 0.27446820953958367 0 -0.13959432766143021 0.2740409068552887 0 -0.1532221513837192 0.25419418888983192 0 -0.15271877240598841 0.27446820953958367 0 -0.15329008091572741 0.28945008379417048 0 -0.13959432766143021 0.2740409068552887 0 -0.15271877240598841 0.27446820953958367 0 -0.1061606963602142 0.26761343855331338 0 -0.1001789302111205 0.27974269320078388 0 -0.1185373796182298 0.27837978510360878 0 -0.1061606963602142 0.26761343855331338 0 -0.1001789302111205 0.27974269320078388 0 -0.092613028744971265 0.26767711662392979 0 -0.1061606963602142 0.26761343855331338 0 -0.10005120432924321 0.25626016583208688 0 -0.116744543106582 0.25728181003509248 0 -0.1061606963602142 0.26761343855331338 0 -0.10005120432924321 0.25626016583208688 0 -0.092613028744971265 0.26767711662392979 0 -0.10005120432924321 0.25626016583208688 0 -0.116744543106582 0.25728181003509248 0 -0.1045487088169635 0.24438495162540061 0 -0.13959432766143021 0.2740409068552887 0 -0.116744543106582 0.25728181003509248 0 -0.1185373796182298 0.27837978510360878 0 -0.1061606963602142 0.26761343855331338 0 -0.116744543106582 0.25728181003509248 0 -0.1185373796182298 0.27837978510360878 0 -0.1264253840414637 0.29528772621663357 0 -0.1127724140037699 0.30190213115774378 0 -0.1091517300735869 0.29135078386346752 0 -0.1264253840414637 0.29528772621663357 0 -0.1185373796182298 0.27837978510360878 0 -0.1091517300735869 0.29135078386346752 0 -0.1264253840414637 0.29528772621663357 0 -0.12136448477009221 0.30951812845445109 0 -0.1127724140037699 0.30190213115774378 0 -0.12136448477009221 0.30951812845445109 0 -0.1127724140037699 0.30190213115774378 0 -0.1061991548417472 0.31213959050036899 0 -0.1127724140037699 0.30190213115774378 0 -0.1061991548417472 0.31213959050036899 0 -0.1005146973405663 0.30141191014932889 0 -0.1127724140037699 0.30190213115774378 0 -0.1005146973405663 0.30141191014932889 0 -0.1091517300735869 0.29135078386346752 0 -0.1005146973405663 0.30141191014932889 0 -0.094430836728355921 0.29177030977787999 0 -0.089068024122243669 0.30112896568664949 0 -0.1061991548417472 0.31213959050036899 0 -0.1005146973405663 0.30141191014932889 0 -0.090928135519314904 0.31087631578889069 0 -0.1001789302111205 0.27974269320078388 0 -0.1185373796182298 0.27837978510360878 0 -0.1091517300735869 0.29135078386346752 0 -0.1005146973405663 0.30141191014932889 0 -0.1091517300735869 0.29135078386346752 0 -0.094430836728355921 0.29177030977787999 0 -0.1001789302111205 0.27974269320078388 0 -0.1091517300735869 0.29135078386346752 0 -0.094430836728355921 0.29177030977787999 0 -0.1001789302111205 0.27974269320078388 0 -0.094430836728355921 0.29177030977787999 0 -0.086145563619835275 0.2816538088019015 0 -0.094430836728355921 0.29177030977787999 0 -0.086145563619835275 0.2816538088019015 0 -0.081526075002782958 0.29533369696514911 0 -0.094430836728355921 0.29177030977787999 0 -0.081526075002782958 0.29533369696514911 0 -0.089068024122243669 0.30112896568664949 0 -0.086145563619835275 0.2816538088019015 0 -0.081526075002782958 0.29533369696514911 0 -0.070830210313899522 0.29195808219782299 0 -0.090928135519314904 0.31087631578889069 0 -0.079482369404140468 0.30560554845979909 0 -0.074915307566508993 0.31649039264194578 0 -0.090928135519314904 0.31087631578889069 0 -0.089068024122243669 0.30112896568664949 0 -0.079482369404140468 0.30560554845979909 0 -0.1005146973405663 0.30141191014932889 0 -0.090928135519314904 0.31087631578889069 0 -0.089068024122243669 0.30112896568664949 0 -0.081526075002782958 0.29533369696514911 0 -0.089068024122243669 0.30112896568664949 0 -0.079482369404140468 0.30560554845979909 0 -0.054647974243728172 0.30430181459310768 0 -0.074915307566508993 0.31649039264194578 0 -0.079482369404140468 0.30560554845979909 0 -0.068661557073843291 0.3005821027458685 0 -0.074915307566508993 0.31649039264194578 0 -0.068661557073843291 0.3005821027458685 0 -0.054647974243728172 0.30430181459310768 0 -0.074915307566508993 0.31649039264194578 0 -0.081526075002782958 0.29533369696514911 0 -0.079482369404140468 0.30560554845979909 0 -0.068661557073843291 0.3005821027458685 0 -0.070830210313899522 0.29195808219782299 0 -0.067453711470644842 0.27023673344429472 0 -0.052574645638654917 0.28480468584225688 0 -0.081526075002782958 0.29533369696514911 0 -0.068661557073843291 0.3005821027458685 0 -0.070830210313899522 0.29195808219782299 0 -0.068661557073843291 0.3005821027458685 0 -0.070830210313899522 0.29195808219782299 0 -0.068661557073843291 0.3005821027458685 0 -0.070830210313899522 0.29195808219782299 0 -0.059610011597539182 0.29372125904316332 0 -0.086145563619835275 0.2816538088019015 0 -0.070830210313899522 0.29195808219782299 0 -0.077256670317037021 0.26667642926106078 0 -0.070830210313899522 0.29195808219782299 0 -0.067453711470644842 0.27023673344429472 0 -0.070830210313899522 0.29195808219782299 0 -0.077256670317037021 0.26667642926106078 0 -0.070830210313899522 0.29195808219782299 0 -0.067453711470644842 0.27023673344429472 0 -0.077256670317037021 0.26667642926106078 0 -0.086145563619835275 0.2816538088019015 0 -0.077256670317037021 0.26667642926106078 0 -0.092613028744971265 0.26767711662392979 0 -0.1001789302111205 0.27974269320078388 0 -0.086145563619835275 0.2816538088019015 0 -0.092613028744971265 0.26767711662392979 0 -0.077256670317037021 0.26667642926106078 0 -0.086302411784292182 0.25447467192259482 0 -0.083666647235009842 0.24139059785004849 0 -0.077256670317037021 0.26667642926106078 0 -0.083666647235009842 0.24139059785004849 0 -0.10005120432924321 0.25626016583208688 0 -0.086302411784292182 0.25447467192259482 0 -0.094679029848152713 0.24609146959404629 0 -0.10005120432924321 0.25626016583208688 0 -0.092613028744971265 0.26767711662392979 0 -0.086302411784292182 0.25447467192259482 0 -0.077256670317037021 0.26667642926106078 0 -0.092613028744971265 0.26767711662392979 0 -0.086302411784292182 0.25447467192259482 0 -0.077256670317037021 0.26667642926106078 0 -0.064077212627390134 0.24851538469076631 0 -0.083666647235009842 0.24139059785004849 0 -0.067453711470644842 0.27023673344429472 0 -0.077256670317037021 0.26667642926106078 0 -0.064077212627390134 0.24851538469076631 0 -0.067453711470644842 0.27023673344429472 0 -0.064077212627390134 0.24851538469076631 0 -0.067453711470644842 0.27023673344429472 0 -0.04634179854296408 0.26632715615711849 0 -0.064077212627390134 0.24851538469076631 0 -0.04634179854296408 0.26632715615711849 0 -0.064077212627390134 0.24851538469076631 0 -0.046578861792199937 0.24361118962503389 0 -0.067453711470644842 0.27023673344429472 0 -0.04634179854296408 0.26632715615711849 0 -0.052574645638654917 0.28480468584225688 0 -0.04634179854296408 0.26632715615711849 0 -0.034380640920947357 0.29211323654426968 0 -0.052574645638654917 0.28480468584225688 0 -0.04634179854296408 0.26632715615711849 0 -0.022607631921228569 0.27169805167723737 0 -0.034380640920947357 0.29211323654426968 0 -0.04634179854296408 0.26632715615711849 0 -0.03068766995985707 0.25286978792993342 0 -0.022607631921228569 0.27169805167723737 0 -0.04634179854296408 0.26632715615711849 0 -0.03068766995985707 0.25286978792993342 0 -0.046578861792199937 0.24361118962503389 0 -0.03068766995985707 0.25286978792993342 0 -0.022607631921228569 0.27169805167723737 0 -0.0098044441781452579 0.25473951632571468 0 -0.022607631921228569 0.27169805167723737 0 -0.015153941911089409 0.29208252597919021 0 3.3590645499582607e-05 0.27236849017123349 0 -0.022607631921228569 0.27169805167723737 0 -0.0098044441781452579 0.25473951632571468 0 3.3590645499582607e-05 0.27236849017123349 0 -0.0098044441781452579 0.25473951632571468 0 0.0073806355134042019 0.25529449578482938 0 3.3590645499582607e-05 0.27236849017123349 0 -0.0088759444352828343 0.31092800175718183 0 -0.015153941911089409 0.29208252597919021 0 0.0083336089875100904 0.29343585490586271 0 -0.015153941911089409 0.29208252597919021 0 0.0083336089875100904 0.29343585490586271 0 3.3590645499582607e-05 0.27236849017123349 0 -0.022607631921228569 0.27169805167723737 0 -0.015153941911089409 0.29208252597919021 0 -0.034380640920947357 0.29211323654426968 0 -0.0088759444352828343 0.31092800175718183 0 -0.015153941911089409 0.29208252597919021 0 -0.03508050583840458 0.3127012881250415 0 -0.015153941911089409 0.29208252597919021 0 -0.034380640920947357 0.29211323654426968 0 -0.03508050583840458 0.3127012881250415 0 -0.034380640920947357 0.29211323654426968 0 -0.054647974243728172 0.30430181459310768 0 -0.034380640920947357 0.29211323654426968 0 -0.054647974243728172 0.30430181459310768 0 -0.03508050583840458 0.3127012881250415 0 -0.034380640920947357 0.29211323654426968 0 -0.052574645638654917 0.28480468584225688 0 -0.054647974243728172 0.30430181459310768 0 -0.052574645638654917 0.28480468584225688 0 -0.059610011597539182 0.29372125904316332 0 -0.054647974243728172 0.30430181459310768 0 -0.070830210313899522 0.29195808219782299 0 -0.052574645638654917 0.28480468584225688 0 -0.059610011597539182 0.29372125904316332 0 -0.068661557073843291 0.3005821027458685 0 -0.059610011597539182 0.29372125904316332 0 -0.054647974243728172 0.30430181459310768 0 -0.058679851530075752 0.32054224196392622 0 -0.045885169747561752 0.33132665820789581 0 -0.073191842414501496 0.33174208285196288 0 -0.054647974243728172 0.30430181459310768 0 -0.058679851530075752 0.32054224196392622 0 -0.03508050583840458 0.3127012881250415 0 -0.045885169747561752 0.33132665820789581 0 -0.067541502003893042 0.3482616942848048 0 -0.073191842414501496 0.33174208285196288 0 -0.045885169747561752 0.33132665820789581 0 -0.073191842414501496 0.33174208285196288 0 -0.045885169747561752 0.33132665820789581 0 -0.018578497080621779 0.33091123356382868 0 -0.045885169747561752 0.33132665820789581 0 -0.03508050583840458 0.3127012881250415 0 -0.018578497080621779 0.33091123356382868 0 -0.058679851530075752 0.32054224196392622 0 -0.045885169747561752 0.33132665820789581 0 -0.03508050583840458 0.3127012881250415 0 -0.0088759444352828343 0.31092800175718183 0 -0.03508050583840458 0.3127012881250415 0 -0.018578497080621779 0.33091123356382868 0 -0.018578497080621779 0.33091123356382868 0 -0.0050552824635438226 0.34569829691311771 0 -0.02749858990914332 0.35301881799134821 0 -0.045885169747561752 0.33132665820789581 0 -0.018578497080621779 0.33091123356382868 0 -0.02749858990914332 0.35301881799134821 0 -0.018578497080621779 0.33091123356382868 0 -0.0050552824635438226 0.34569829691311771 0 0.0064742168078369342 0.3347740657525386 0 -0.018578497080621779 0.33091123356382868 0 0.0087281755863181168 0.33049580891976171 0 -0.018578497080621779 0.33091123356382868 0 0.0064742168078369342 0.3347740657525386 0 0.0087281755863181168 0.33049580891976171 0 -0.018578497080621779 0.33091123356382868 0 -0.003280447873963227 0.32161399115684158 0 0.0087281755863181168 0.33049580891976171 0 -0.0088759444352828343 0.31092800175718183 0 -0.018578497080621779 0.33091123356382868 0 -0.003280447873963227 0.32161399115684158 0 -0.0088759444352828343 0.31092800175718183 0 -0.003280447873963227 0.32161399115684158 0 0.0056044744337335906 0.31412092038659428 0 -0.0052616759920083916 0.36132776784546622 0 -0.0045342830833226501 0.3863935686212247 0 -0.0052616759920083916 0.36132776784546622 0 -0.024169526760701381 0.37267007813580277 0 -0.0045342830833226501 0.3863935686212247 0 -0.0052616759920083916 0.36132776784546622 0 -0.0045342830833226501 0.3863935686212247 0 0.0079023355216259559 0.37348921158265391 0 -0.0052616759920083916 0.36132776784546622 0 -0.0050552824635438226 0.34569829691311771 0 0.0061318462344260851 0.35417601161121459 0 -0.0052616759920083916 0.36132776784546622 0 -0.0050552824635438226 0.34569829691311771 0 -0.02749858990914332 0.35301881799134821 0 -0.02749858990914332 0.35301881799134821 0 -0.024169526760701381 0.37267007813580277 0 -0.04149310004589906 0.37124785083274592 0 -0.0052616759920083916 0.36132776784546622 0 -0.02749858990914332 0.35301881799134821 0 -0.024169526760701381 0.37267007813580277 0 -0.02749858990914332 0.35301881799134821 0 -0.04149310004589906 0.37124785083274592 0 -0.051818441616049399 0.35735321764765782 0 -0.045885169747561752 0.33132665820789581 0 -0.02749858990914332 0.35301881799134821 0 -0.051818441616049399 0.35735321764765782 0 -0.045885169747561752 0.33132665820789581 0 -0.051818441616049399 0.35735321764765782 0 -0.067541502003893042 0.3482616942848048 0 -0.04149310004589906 0.37124785083274592 0 -0.051818441616049399 0.35735321764765782 0 -0.056875823715872062 0.37631267096962301 0 -0.051818441616049399 0.35735321764765782 0 -0.069616273344600341 0.3650636543096733 0 -0.056875823715872062 0.37631267096962301 0 -0.069616273344600341 0.3650636543096733 0 -0.085055645225370236 0.37193713089684588 0 -0.071788917171084016 0.3809272333041443 0 -0.069616273344600341 0.3650636543096733 0 -0.071788917171084016 0.3809272333041443 0 -0.056875823715872062 0.37631267096962301 0 -0.069616273344600341 0.3650636543096733 0 -0.085055645225370236 0.37193713089684588 0 -0.084100884505446297 0.3554636863979832 0 -0.085055645225370236 0.37193713089684588 0 -0.084100884505446297 0.3554636863979832 0 -0.1008292236537022 0.36036332390371462 0 -0.084100884505446297 0.3554636863979832 0 -0.067541502003893042 0.3482616942848048 0 -0.085709514220790303 0.34113927750747819 0 -0.084100884505446297 0.3554636863979832 0 -0.085709514220790303 0.34113927750747819 0 -0.099722393067727538 0.34687368244968458 0 -0.069616273344600341 0.3650636543096733 0 -0.084100884505446297 0.3554636863979832 0 -0.067541502003893042 0.3482616942848048 0 -0.051818441616049399 0.35735321764765782 0 -0.069616273344600341 0.3650636543096733 0 -0.067541502003893042 0.3482616942848048 0 -0.067541502003893042 0.3482616942848048 0 -0.073191842414501496 0.33174208285196288 0 -0.085709514220790303 0.34113927750747819 0 -0.058679851530075752 0.32054224196392622 0 -0.073191842414501496 0.33174208285196288 0 -0.074915307566508993 0.31649039264194578 0 -0.054647974243728172 0.30430181459310768 0 -0.058679851530075752 0.32054224196392622 0 -0.074915307566508993 0.31649039264194578 0 -0.073191842414501496 0.33174208285196288 0 -0.074915307566508993 0.31649039264194578 0 -0.095182640889289766 0.32867897069078372 0 -0.090928135519314904 0.31087631578889069 0 -0.074915307566508993 0.31649039264194578 0 -0.095182640889289766 0.32867897069078372 0 -0.074915307566508993 0.31649039264194578 0 -0.095182640889289766 0.32867897069078372 0 -0.073191842414501496 0.33174208285196288 0 -0.085709514220790303 0.34113927750747819 0 -0.095182640889289766 0.32867897069078372 0 -0.085709514220790303 0.34113927750747819 0 -0.095182640889289766 0.32867897069078372 0 -0.099722393067727538 0.34687368244968458 0 -0.095182640889289766 0.32867897069078372 0 -0.1154499742120704 0.34086754873962172 0 -0.095182640889289766 0.32867897069078372 0 -0.1098512680755149 0.32470257897991811 0 -0.1154499742120704 0.34086754873962172 0 -0.095182640889289766 0.32867897069078372 0 -0.1154499742120704 0.34086754873962172 0 -0.099722393067727538 0.34687368244968458 0 -0.1061991548417472 0.31213959050036899 0 -0.090928135519314904 0.31087631578889069 0 -0.095182640889289766 0.32867897069078372 0 -0.1061991548417472 0.31213959050036899 0 -0.095182640889289766 0.32867897069078372 0 -0.1098512680755149 0.32470257897991811 0 -0.1061991548417472 0.31213959050036899 0 -0.115330384384618 0.31728312261503783 0 -0.1098512680755149 0.32470257897991811 0 -0.12136448477009221 0.30951812845445109 0 -0.1061991548417472 0.31213959050036899 0 -0.115330384384618 0.31728312261503783 0 -0.115330384384618 0.31728312261503783 0 -0.1098512680755149 0.32470257897991811 0 -0.12142985306419619 0.32461006626398298 0 -0.12722248981549561 0.3181430308760943 0 -0.115330384384618 0.31728312261503783 0 -0.12142985306419619 0.32461006626398298 0 -0.12722248981549561 0.3181430308760943 0 -0.12136448477009221 0.30951812845445109 0 -0.115330384384618 0.31728312261503783 0 -0.1098512680755149 0.32470257897991811 0 -0.12142985306419619 0.32461006626398298 0 -0.1154499742120704 0.34086754873962172 0 -0.13363790056006589 0.32585743918209531 0 -0.12142985306419619 0.32461006626398298 0 -0.1154499742120704 0.34086754873962172 0 -0.12523428666698541 0.37069662222368049 0 -0.1294360936135257 0.3482770307028879 0 -0.1154159689866658 0.35521970897278921 0 -0.1154499742120704 0.34086754873962172 0 -0.1154159689866658 0.35521970897278921 0 -0.099722393067727538 0.34687368244968458 0 -0.1294360936135257 0.3482770307028879 0 -0.1154499742120704 0.34086754873962172 0 -0.1154159689866658 0.35521970897278921 0 -0.12523428666698541 0.37069662222368049 0 -0.1154159689866658 0.35521970897278921 0 -0.11117961403065831 0.36839673047223442 0 -0.12523428666698541 0.37069662222368049 0 -0.11117961403065831 0.36839673047223442 0 -0.1123930043347208 0.38073562172137532 0 -0.11117961403065831 0.36839673047223442 0 -0.1008292236537022 0.36036332390371462 0 -0.09970079949094271 0.37763208900548878 0 -0.1154159689866658 0.35521970897278921 0 -0.11117961403065831 0.36839673047223442 0 -0.1008292236537022 0.36036332390371462 0 -0.085055645225370236 0.37193713089684588 0 -0.1008292236537022 0.36036332390371462 0 -0.09970079949094271 0.37763208900548878 0 -0.084100884505446297 0.3554636863979832 0 -0.1008292236537022 0.36036332390371462 0 -0.099722393067727538 0.34687368244968458 0 -0.1154159689866658 0.35521970897278921 0 -0.1008292236537022 0.36036332390371462 0 -0.099722393067727538 0.34687368244968458 0 -0.1036554482544351 0.39516830989393792 0 -0.1102807352191843 0.41378788895710661 0 -0.09259379641793411 0.40948313349934218 0 -0.1036554482544351 0.39516830989393792 0 -0.09970079949094271 0.37763208900548878 0 -0.1123930043347208 0.38073562172137532 0 -0.1036554482544351 0.39516830989393792 0 -0.09970079949094271 0.37763208900548878 0 -0.084297773186445962 0.39217279846007119 0 -0.11117961403065831 0.36839673047223442 0 -0.09970079949094271 0.37763208900548878 0 -0.1123930043347208 0.38073562172137532 0 -0.12523428666698541 0.37069662222368049 0 -0.1123930043347208 0.38073562172137532 0 -0.12103247972044499 0.39311621374447298 0 -0.1036554482544351 0.39516830989393792 0 -0.1123930043347208 0.38073562172137532 0 -0.12103247972044499 0.39311621374447298 0 -0.12523428666698541 0.37069662222368049 0 -0.12103247972044499 0.39311621374447298 0 -0.1036554482544351 0.39516830989393792 0 -0.12103247972044499 0.39311621374447298 0 -0.1102807352191843 0.41378788895710661 0 -0.12997925716256209 0.39431640422262348 0 -0.1102807352191843 0.41378788895710661 0 -0.12997925716256209 0.39431640422262348 0 -0.12103247972044499 0.39311621374447298 0 -0.1102807352191843 0.41378788895710661 0 -0.12623023605756489 0.41143854881348008 0 -0.1102807352191843 0.41378788895710661 0 -0.1242188050129694 0.42501783294758849 0 -0.12623023605756489 0.41143854881348008 0 -0.12997925716256209 0.39431640422262348 0 -0.1102807352191843 0.41378788895710661 0 -0.1102807352191843 0.41378788895710661 0 -0.1104760497445479 0.43296770510105842 0 -0.1242188050129694 0.42501783294758849 0 -0.1104760497445479 0.43296770510105842 0 -0.1242188050129694 0.42501783294758849 0 -0.1248743097581413 0.44162978393037222 0 -0.1102807352191843 0.41378788895710661 0 -0.090582213275806372 0.43325937369158968 0 -0.1102807352191843 0.41378788895710661 0 -0.1104760497445479 0.43296770510105842 0 -0.090582213275806372 0.43325937369158968 0 -0.1102807352191843 0.41378788895710661 0 -0.09259379641793411 0.40948313349934218 0 -0.090582213275806372 0.43325937369158968 0 -0.09259379641793411 0.40948313349934218 0 -0.090582213275806372 0.43325937369158968 0 -0.074152812153798875 0.41302729649400538 0 -0.090582213275806372 0.43325937369158968 0 -0.066022972602334681 0.42956105407568013 0 -0.074152812153798875 0.41302729649400538 0 -0.066022972602334681 0.42956105407568013 0 -0.074152812153798875 0.41302729649400538 0 -0.049329429094603867 0.41198700835812702 0 -0.074152812153798875 0.41302729649400538 0 -0.063154715464804681 0.39516467689365731 0 -0.084297773186445962 0.39217279846007119 0 -0.09259379641793411 0.40948313349934218 0 -0.074152812153798875 0.41302729649400538 0 -0.084297773186445962 0.39217279846007119 0 -0.1036554482544351 0.39516830989393792 0 -0.09259379641793411 0.40948313349934218 0 -0.084297773186445962 0.39217279846007119 0 -0.085055645225370236 0.37193713089684588 0 -0.09970079949094271 0.37763208900548878 0 -0.084297773186445962 0.39217279846007119 0 -0.085055645225370236 0.37193713089684588 0 -0.084297773186445962 0.39217279846007119 0 -0.071788917171084016 0.3809272333041443 0 -0.063154715464804681 0.39516467689365731 0 -0.084297773186445962 0.39217279846007119 0 -0.071788917171084016 0.3809272333041443 0 -0.063154715464804681 0.39516467689365731 0 -0.071788917171084016 0.3809272333041443 0 -0.056875823715872062 0.37631267096962301 0 -0.04149310004589906 0.37124785083274592 0 -0.056875823715872062 0.37631267096962301 0 -0.04338349465279491 0.38811939282985902 0 -0.063154715464804681 0.39516467689365731 0 -0.056875823715872062 0.37631267096962301 0 -0.04338349465279491 0.38811939282985902 0 -0.063154715464804681 0.39516467689365731 0 -0.04338349465279491 0.38811939282985902 0 -0.049329429094603867 0.41198700835812702 0 -0.04338349465279491 0.38811939282985902 0 -0.024844401122877391 0.39948633252540261 0 -0.049329429094603867 0.41198700835812702 0 -0.024169526760701381 0.37267007813580277 0 -0.04149310004589906 0.37124785083274592 0 -0.04338349465279491 0.38811939282985902 0 -0.024169526760701381 0.37267007813580277 0 -0.04338349465279491 0.38811939282985902 0 -0.024844401122877391 0.39948633252540261 0 -0.024169526760701381 0.37267007813580277 0 -0.024844401122877391 0.39948633252540261 0 -0.0045342830833226501 0.3863935686212247 0 -0.024844401122877391 0.39948633252540261 0 -0.0045342830833226501 0.3863935686212247 0 -0.0038092142255275289 0.41137928311071797 0 -0.0045342830833226501 0.3863935686212247 0 -0.0038092142255275289 0.41137928311071797 0 -0.024169526760701381 0.37267007813580277 0 -0.0045342830833226501 0.3863935686212247 0 -0.0030841453677343121 0.43636499760021141 0 -0.0038092142255275289 0.41137928311071797 0 -0.026324668085478481 0.42779129271708288 0 -0.0030841453677343121 0.43636499760021141 0 -0.0038092142255275289 0.41137928311071797 0 -0.024844401122877391 0.39948633252540261 0 -0.0038092142255275289 0.41137928311071797 0 -0.026324668085478481 0.42779129271708288 0 -0.026324668085478481 0.42779129271708288 0 -0.049329429094603867 0.41198700835812702 0 -0.049413859365407042 0.43472239834070731 0 -0.024844401122877391 0.39948633252540261 0 -0.026324668085478481 0.42779129271708288 0 -0.049329429094603867 0.41198700835812702 0 -0.074152812153798875 0.41302729649400538 0 -0.063154715464804681 0.39516467689365731 0 -0.049329429094603867 0.41198700835812702 0 -0.066022972602334681 0.42956105407568013 0 -0.049329429094603867 0.41198700835812702 0 -0.049413859365407042 0.43472239834070731 0 -0.066022972602334681 0.42956105407568013 0 -0.049413859365407042 0.43472239834070731 0 -0.0708836913324285 0.45273085842607269 0 -0.0393713920190637 0.45112048084748302 0 -0.052402143273794041 0.47435943831340011 0 -0.0708836913324285 0.45273085842607269 0 -0.049413859365407042 0.43472239834070731 0 -0.0393713920190637 0.45112048084748302 0 -0.0708836913324285 0.45273085842607269 0 -0.0393713920190637 0.45112048084748302 0 -0.02876560419008364 0.47203163756026523 0 -0.052402143273794041 0.47435943831340011 0 -0.026324668085478481 0.42779129271708288 0 -0.049413859365407042 0.43472239834070731 0 -0.0393713920190637 0.45112048084748302 0 -0.0030841453677343121 0.43636499760021141 0 -0.026324668085478481 0.42779129271708288 0 -0.01888650882967766 0.45329231687868837 0 -0.026324668085478481 0.42779129271708288 0 -0.0393713920190637 0.45112048084748302 0 -0.01888650882967766 0.45329231687868837 0 -0.0393713920190637 0.45112048084748302 0 -0.01888650882967766 0.45329231687868837 0 -0.02876560419008364 0.47203163756026523 0 -0.01888650882967766 0.45329231687868837 0 -0.01341416680576474 0.47109478045738301 0 -0.02876560419008364 0.47203163756026523 0 -0.01888650882967766 0.45329231687868837 0 -0.002359076509941094 0.46135071208970457 0 -0.01341416680576474 0.47109478045738301 0 -0.0030841453677343121 0.43636499760021141 0 -0.01888650882967766 0.45329231687868837 0 -0.002359076509941094 0.46135071208970457 0 -0.0030841453677343121 0.43636499760021141 0 -0.002359076509941094 0.46135071208970457 0 -0.0090346539348886701 0.5 0 -0.0016340076521478781 0.48633642657919801 0 -0.017460482120078509 0.48648722646036041 0 -0.0016340076521478781 0.48633642657919801 0 -0.01341416680576474 0.47109478045738301 0 -0.017460482120078509 0.48648722646036041 0 -0.002359076509941094 0.46135071208970457 0 -0.0016340076521478781 0.48633642657919801 0 -0.01341416680576474 0.47109478045738301 0 -0.002359076509941094 0.46135071208970457 0 -0.0016340076521478781 0.48633642657919801 0 -0.002359076509941094 0.46135071208970457 0 -0.0016340076521478781 0.48633642657919801 0 0.0036787250480955699 0.47408322248379448 0 -0.01341416680576474 0.47109478045738301 0 -0.02876560419008364 0.47203163756026523 0 -0.017460482120078509 0.48648722646036041 0 -0.02876560419008364 0.47203163756026523 0 -0.017460482120078509 0.48648722646036041 0 -0.038135422162237087 0.5 0 -0.0090346539348886701 0.5 0 -0.017460482120078509 0.48648722646036041 0 -0.038135422162237087 0.5 0 -0.02876560419008364 0.47203163756026523 0 -0.038135422162237087 0.5 0 -0.052402143273794041 0.47435943831340011 0 -0.038135422162237087 0.5 0 -0.052402143273794041 0.47435943831340011 0 -0.067236190389585393 0.5 0 -0.052402143273794041 0.47435943831340011 0 -0.067236190389585393 0.5 0 -0.073349005429332273 0.47921852398434828 0 -0.067236190389585393 0.5 0 -0.073349005429332273 0.47921852398434828 0 -0.096336958616933588 0.5 0 -0.073349005429332273 0.47921852398434828 0 -0.096336958616933588 0.5 0 -0.093805091172543903 0.47224368257650851 0 -0.052402143273794041 0.47435943831340011 0 -0.073349005429332273 0.47921852398434828 0 -0.0708836913324285 0.45273085842607269 0 -0.0708836913324285 0.45273085842607269 0 -0.1043361340672995 0.45358667135048331 0 -0.093805091172543903 0.47224368257650851 0 -0.090582213275806372 0.43325937369158968 0 -0.0708836913324285 0.45273085842607269 0 -0.1043361340672995 0.45358667135048331 0 -0.090582213275806372 0.43325937369158968 0 -0.066022972602334681 0.42956105407568013 0 -0.0708836913324285 0.45273085842607269 0 -0.090582213275806372 0.43325937369158968 0 -0.0708836913324285 0.45273085842607269 0 -0.073349005429332273 0.47921852398434828 0 -0.0708836913324285 0.45273085842607269 0 -0.093805091172543903 0.47224368257650851 0 -0.1043361340672995 0.45358667135048331 0 -0.12052644250191399 0.4682622397032008 0 -0.093805091172543903 0.47224368257650851 0 -0.1104760497445479 0.43296770510105842 0 -0.090582213275806372 0.43325937369158968 0 -0.1043361340672995 0.45358667135048331 0 -0.12618187852634369 0.45882241462805679 0 -0.1043361340672995 0.45358667135048331 0 -0.1248743097581413 0.44162978393037222 0 -0.1104760497445479 0.43296770510105842 0 -0.1043361340672995 0.45358667135048331 0 -0.1248743097581413 0.44162978393037222 0 -0.12618187852634369 0.45882241462805679 0 -0.1043361340672995 0.45358667135048331 0 -0.12052644250191399 0.4682622397032008 0 -0.1317912103042716 0.47600940211286807 0 -0.12052644250191399 0.4682622397032008 0 -0.11642361318749669 0.48420448820259387 0 -0.12052644250191399 0.4682622397032008 0 -0.11642361318749669 0.48420448820259387 0 -0.093805091172543903 0.47224368257650851 0 -0.12543772684428189 0.5 0 -0.11642361318749669 0.48420448820259387 0 -0.096336958616933588 0.5 0 -0.12543772684428189 0.5 0 -0.13178312884530541 0.48627570230508688 0 -0.11642361318749669 0.48420448820259387 0 -0.11642361318749669 0.48420448820259387 0 -0.096336958616933588 0.5 0 -0.093805091172543903 0.47224368257650851 0 -0.1693268494853358 0.079538523923443544 0 -0.16945340910355561 0.089496265134995978 0 -0.1618062267740645 0.07958177760614682 0 -0.16945340910355561 0.089496265134995978 0 -0.1618062267740645 0.07958177760614682 0 -0.1616157516695074 0.095139316102685473 0 -0.1618062267740645 0.07958177760614682 0 -0.1616157516695074 0.095139316102685473 0 -0.14767322655010931 0.084806545451415583 0 -0.1618062267740645 0.07958177760614682 0 -0.16640070467345031 0.07104807823334372 0 -0.15517576509654349 0.068304766057398533 0 -0.16640070467345031 0.07104807823334372 0 -0.15517576509654349 0.068304766057398533 0 -0.16451238623864939 0.061110077383343737 0 -0.16640070467345031 0.07104807823334372 0 -0.17354141001077031 0.063798093567348918 0 -0.16451238623864939 0.061110077383343737 0 -0.17157411485926041 0.074087910936242465 0 -0.16640070467345031 0.07104807823334372 0 -0.17354141001077031 0.063798093567348918 0 -0.1693268494853358 0.079538523923443544 0 -0.17157411485926041 0.074087910936242465 0 -0.16640070467345031 0.07104807823334372 0 -0.1693268494853358 0.079538523923443544 0 -0.1618062267740645 0.07958177760614682 0 -0.16640070467345031 0.07104807823334372 0 -0.17354141001077031 0.063798093567348918 0 -0.17702749526748529 0.081966948020833708 0 -0.17656426821359539 0.052679136019797047 0 -0.18185637422210199 0.067243003367259677 0 -0.17702749526748529 0.081966948020833708 0 -0.17656426821359539 0.052679136019797047 0 -0.17702749526748529 0.081966948020833708 0 -0.17656426821359539 0.052679136019797047 0 -0.17157411485926041 0.074087910936242465 0 -0.17354141001077031 0.063798093567348918 0 -0.17702749526748529 0.081966948020833708 0 -0.18185637422210199 0.067243003367259677 0 -0.1853153676200878 0.058850167416455039 0 -0.18892740292417859 0.064703221589215376 0 -0.18185637422210199 0.067243003367259677 0 -0.19050021368002351 0.072419239531055349 0 -0.18892740292417859 0.064703221589215376 0 -0.18185637422210199 0.067243003367259677 0 -0.18141962227324601 0.075216957450553817 0 -0.17702749526748529 0.081966948020833708 0 -0.18185637422210199 0.067243003367259677 0 -0.18141962227324601 0.075216957450553817 0 -0.19050021368002351 0.072419239531055349 0 -0.18141962227324601 0.075216957450553817 0 -0.1867192510276118 0.077748512173410014 0 -0.19050021368002351 0.072419239531055349 0 -0.18141962227324601 0.075216957450553817 0 -0.1867192510276118 0.077748512173410014 0 -0.1819129998543452 0.079414551687582866 0 -0.18248563084903771 0.082725789105533951 0 -0.17702749526748529 0.081966948020833708 0 -0.17749072232138041 0.1112547600218704 0 -0.1867192510276118 0.077748512173410014 0 -0.18248563084903771 0.082725789105533951 0 -0.1819129998543452 0.079414551687582866 0 -0.18141962227324601 0.075216957450553817 0 -0.1819129998543452 0.079414551687582866 0 -0.17702749526748529 0.081966948020833708 0 -0.18248563084903771 0.082725789105533951 0 -0.1819129998543452 0.079414551687582866 0 -0.17702749526748529 0.081966948020833708 0 -0.1693268494853358 0.079538523923443544 0 -0.16945340910355561 0.089496265134995978 0 -0.17702749526748529 0.081966948020833708 0 -0.1693268494853358 0.079538523923443544 0 -0.17157411485926041 0.074087910936242465 0 -0.17702749526748529 0.081966948020833708 0 -0.17702749526748529 0.081966948020833708 0 -0.17749072232138041 0.1112547600218704 0 -0.16945340910355561 0.089496265134995978 0 -0.17702749526748529 0.081966948020833708 0 -0.17749072232138041 0.1112547600218704 0 -0.17749072232138041 0.1112547600218704 0 -0.1951643137470572 0.093770439387570487 0 -0.18248563084903771 0.082725789105533951 0 -0.17749072232138041 0.1112547600218704 0 -0.1951643137470572 0.093770439387570487 0 -0.17749072232138041 0.1112547600218704 0 -0.19150979458678249 0.1243728737611647 0 -0.17789558253256721 0.1368522929207025 0 -0.17749072232138041 0.1112547600218704 0 -0.17789558253256721 0.1368522929207025 0 -0.17749072232138041 0.1112547600218704 0 -0.16113979031376621 0.12743058591966341 0 -0.17749072232138041 0.1112547600218704 0 -0.15084139672814201 0.110160429760413 0 -0.16113979031376621 0.12743058591966341 0 -0.17749072232138041 0.1112547600218704 0 -0.1616157516695074 0.095139316102685473 0 -0.15084139672814201 0.110160429760413 0 -0.16945340910355561 0.089496265134995978 0 -0.17749072232138041 0.1112547600218704 0 -0.1616157516695074 0.095139316102685473 0 -0.1616157516695074 0.095139316102685473 0 -0.15084139672814201 0.110160429760413 0 -0.14767322655010931 0.084806545451415583 0 -0.15084139672814201 0.110160429760413 0 -0.1348328660863515 0.097215266237156234 0 -0.14767322655010931 0.084806545451415583 0 -0.15084139672814201 0.110160429760413 0 -0.13137241316615089 0.11357835761918721 0 -0.14300315410871919 0.1253406317882016 0 -0.15084139672814201 0.110160429760413 0 -0.16113979031376621 0.12743058591966341 0 -0.14300315410871919 0.1253406317882016 0 -0.13137241316615089 0.11357835761918721 0 -0.14300315410871919 0.1253406317882016 0 -0.12687331202938101 0.13192737382428379 0 -0.13137241316615089 0.11357835761918721 0 -0.1348328660863515 0.097215266237156234 0 -0.1198812247159142 0.095002477965890675 0 -0.15084139672814201 0.110160429760413 0 -0.13137241316615089 0.11357835761918721 0 -0.1348328660863515 0.097215266237156234 0 -0.1348328660863515 0.097215266237156234 0 -0.12533951967512769 0.078274991835817334 0 -0.1198812247159142 0.095002477965890675 0 -0.1348328660863515 0.097215266237156234 0 -0.12533951967512769 0.078274991835817334 0 -0.14767322655010931 0.084806545451415583 0 -0.1618062267740645 0.07958177760614682 0 -0.14767322655010931 0.084806545451415583 0 -0.15517576509654349 0.068304766057398533 0 -0.14767322655010931 0.084806545451415583 0 -0.15517576509654349 0.068304766057398533 0 -0.14001017723872511 0.063978020277280875 0 -0.12533951967512769 0.078274991835817334 0 -0.14767322655010931 0.084806545451415583 0 -0.14001017723872511 0.063978020277280875 0 -0.12533951967512769 0.078274991835817334 0 -0.14001017723872511 0.063978020277280875 0 -0.1248745965026067 0.059896082918310993 0 -0.14001017723872511 0.063978020277280875 0 -0.13626681081840961 0.042829268155062397 0 -0.1248745965026067 0.059896082918310993 0 -0.13626681081840961 0.042829268155062397 0 -0.1339340902388827 0.022300844741854581 0 -0.1180188049733784 0.030804183747700629 0 -0.13626681081840961 0.042829268155062397 0 -0.1339340902388827 0.022300844741854581 0 -0.15968783393996419 0.037567277286728401 0 -0.13626681081840961 0.042829268155062397 0 -0.15351002702878311 0.053877414325468623 0 -0.15968783393996419 0.037567277286728401 0 -0.13626681081840961 0.042829268155062397 0 -0.15968783393996419 0.037567277286728401 0 -0.14001017723872511 0.063978020277280875 0 -0.13626681081840961 0.042829268155062397 0 -0.15351002702878311 0.053877414325468623 0 -0.15517576509654349 0.068304766057398533 0 -0.14001017723872511 0.063978020277280875 0 -0.15351002702878311 0.053877414325468623 0 -0.12735709500343681 0.004015926865657337 0 -0.15177498865293759 0.016606981474429749 0 -0.12735709500343681 0.004015926865657337 0 -0.1339340902388827 0.022300844741854581 0 -0.15177498865293759 0.016606981474429749 0 -0.12735709500343681 0.004015926865657337 0 -0.1339340902388827 0.022300844741854581 0 -0.11835839359799651 0.016938700943610479 0 -0.1339340902388827 0.022300844741854581 0 -0.15177498865293759 0.016606981474429749 0 -0.15968783393996419 0.037567277286728401 0 -0.1339340902388827 0.022300844741854581 0 -0.15968783393996419 0.037567277286728401 0 -0.12735709500343681 0.004015926865657337 0 -0.15177498865293759 0.016606981474429749 0 -0.14801408494475049 0.0031182785745780331 0 -0.15177498865293759 0.016606981474429749 0 -0.14801408494475049 0.0031182785745780331 0 -0.1619193683370386 0.0066468078375689294 0 -0.15773416148281841 -0.0035868741371463562 0 -0.14801408494475049 0.0031182785745780331 0 -0.1619193683370386 0.0066468078375689294 0 -0.15177498865293759 0.016606981474429749 0 -0.1619193683370386 0.0066468078375689294 0 -0.16760309597538539 0.015861310899326669 0 -0.16716832075785379 -0.0032078365625175 0 -0.1619193683370386 0.0066468078375689294 0 -0.17584419881677341 0.0071523107965592754 0 -0.1619193683370386 0.0066468078375689294 0 -0.16760309597538539 0.015861310899326669 0 -0.17584419881677341 0.0071523107965592754 0 -0.15177498865293759 0.016606981474429749 0 -0.17619288230243149 0.029198036083215671 0 -0.15177498865293759 0.016606981474429749 0 -0.17619288230243149 0.029198036083215671 0 -0.15968783393996419 0.037567277286728401 0 -0.15177498865293759 0.016606981474429749 0 -0.16760309597538539 0.015861310899326669 0 -0.17619288230243149 0.029198036083215671 0 -0.17619288230243149 0.029198036083215671 0 -0.1852069371874478 0.015311100034367831 0 -0.17584419881677341 0.0071523107965592754 0 -0.17619288230243149 0.029198036083215671 0 -0.17584419881677341 0.0071523107965592754 0 -0.16760309597538539 0.015861310899326669 0 -0.17619288230243149 0.029198036083215671 0 -0.17584419881677341 0.0071523107965592754 0 -0.17619288230243149 0.029198036083215671 0 -0.19572946351785711 0.039272048382664133 0 -0.19029700863621521 0.024089069561314659 0 -0.17619288230243149 0.029198036083215671 0 -0.1852069371874478 0.015311100034367831 0 -0.19029700863621521 0.024089069561314659 0 -0.1852069371874478 0.015311100034367831 0 -0.18717715497560061 0.0062623078557712403 0 -0.17584419881677341 0.0071523107965592754 0 -0.18154179604087481 -0.0036104187285780349 0 -0.18717715497560061 0.0062623078557712403 0 -0.17584419881677341 0.0071523107965592754 0 -0.15351002702878311 0.053877414325468623 0 -0.1659033968134131 0.050269055427132232 0 -0.15968783393996419 0.037567277286728401 0 -0.1659033968134131 0.050269055427132232 0 -0.16451238623864939 0.061110077383343737 0 -0.17656426821359539 0.052679136019797047 0 -0.17354141001077031 0.063798093567348918 0 -0.16451238623864939 0.061110077383343737 0 -0.17656426821359539 0.052679136019797047 0 -0.16451238623864939 0.061110077383343737 0 -0.17656426821359539 0.052679136019797047 0 -0.15351002702878311 0.053877414325468623 0 -0.1659033968134131 0.050269055427132232 0 -0.16451238623864939 0.061110077383343737 0 -0.15517576509654349 0.068304766057398533 0 -0.15351002702878311 0.053877414325468623 0 -0.16451238623864939 0.061110077383343737 0 -0.15968783393996419 0.037567277286728401 0 -0.1762663423330757 0.033842591165095401 0 -0.1659033968134131 0.050269055427132232 0 -0.15968783393996419 0.037567277286728401 0 -0.1764827173319595 0.047523031967639129 0 -0.17619288230243149 0.029198036083215671 0 -0.15968783393996419 0.037567277286728401 0 -0.1762663423330757 0.033842591165095401 0 -0.15968783393996419 0.037567277286728401 0 -0.1764827173319595 0.047523031967639129 0 -0.15968783393996419 0.037567277286728401 0 -0.1762663423330757 0.033842591165095401 0 -0.1764827173319595 0.047523031967639129 0 -0.17619288230243149 0.029198036083215671 0 -0.19572946351785711 0.039272048382664133 0 -0.181281627628781 0.040827380692469641 0 -0.18051660755046151 0.049914261515807259 0 -0.1764827173319595 0.047523031967639129 0 -0.17619288230243149 0.029198036083215671 0 -0.1762663423330757 0.033842591165095401 0 -0.19572946351785711 0.039272048382664133 0 -0.1762663423330757 0.033842591165095401 0 -0.181281627628781 0.040827380692469641 0 -0.19572946351785711 0.039272048382664133 0 -0.1762663423330757 0.033842591165095401 0 -0.181281627628781 0.040827380692469641 0 -0.1764827173319595 0.047523031967639129 0 -0.1762663423330757 0.033842591165095401 0 -0.1764827173319595 0.047523031967639129 0 -0.17619288230243149 0.029198036083215671 0 -0.1762663423330757 0.033842591165095401 0 -0.181281627628781 0.040827380692469641 0 -0.18051660755046151 0.049914261515807259 0 -0.19572946351785711 0.039272048382664133 0 -0.18051660755046151 0.049914261515807259 0 -0.17656426821359539 0.052679136019797047 0 -0.1853153676200878 0.058850167416455039 0 -0.18051660755046151 0.049914261515807259 0 -0.1764827173319595 0.047523031967639129 0 -0.1764827173319595 0.047523031967639129 0 -0.17656426821359539 0.052679136019797047 0 -0.1659033968134131 0.050269055427132232 0 -0.1764827173319595 0.047523031967639129 0 -0.17656426821359539 0.052679136019797047 0 -0.18051660755046151 0.049914261515807259 0 -0.1764827173319595 0.047523031967639129 0 -0.17656426821359539 0.052679136019797047 0 -0.18051660755046151 0.049914261515807259 0 -0.17656426821359539 0.052679136019797047 0 -0.18185637422210199 0.067243003367259677 0 -0.17656426821359539 0.052679136019797047 0 -0.1853153676200878 0.058850167416455039 0 -0.1853153676200878 0.058850167416455039 0 -0.19803765617450109 0.060300476042091433 0 -0.18892740292417859 0.064703221589215376 0 -0.18051660755046151 0.049914261515807259 0 -0.19803765617450109 0.060300476042091433 0 -0.1977866825790292 0.05007637869738242 0 -0.18051660755046151 0.049914261515807259 0 -0.1853153676200878 0.058850167416455039 0 -0.19803765617450109 0.060300476042091433 0 -0.18051660755046151 0.049914261515807259 0 -0.19803765617450109 0.060300476042091433 0 -0.19803765617450109 0.060300476042091433 0 -0.1977866825790292 0.05007637869738242 0 -0.2066297839190599 0.054855205218219752 0 -0.18051660755046151 0.049914261515807259 0 -0.1977866825790292 0.05007637869738242 0 -0.19572946351785711 0.039272048382664133 0 -0.18051660755046151 0.049914261515807259 0 -0.19572946351785711 0.039272048382664133 0 -0.19572946351785711 0.039272048382664133 0 -0.2098237389609823 0.029412342647955388 0 -0.1977866825790292 0.05007637869738242 0 -0.19572946351785711 0.039272048382664133 0 -0.2073344650466164 0.045256152092875389 0 -0.19572946351785711 0.039272048382664133 0 -0.2073344650466164 0.045256152092875389 0 -0.2073344650466164 0.045256152092875389 0 -0.21702036639386221 0.038769314305699548 0 -0.2098237389609823 0.029412342647955388 0 -0.19572946351785711 0.039272048382664133 0 -0.2073344650466164 0.045256152092875389 0 -0.2098237389609823 0.029412342647955388 0 -0.21702036639386221 0.038769314305699548 0 -0.2098237389609823 0.029412342647955388 0 -0.2284051488343061 0.035137669629428533 0 -0.2073344650466164 0.045256152092875389 0 -0.21702036639386221 0.038769314305699548 0 -0.22251811273354419 0.045271092852538893 0 -0.2073344650466164 0.045256152092875389 0 -0.21769334509658461 0.055951218203848879 0 -0.22251811273354419 0.045271092852538893 0 -0.21769334509658461 0.055951218203848879 0 -0.20947987249717179 0.060448397508133619 0 -0.2066297839190599 0.054855205218219752 0 -0.21769334509658461 0.055951218203848879 0 -0.20947987249717179 0.060448397508133619 0 -0.2155587047985415 0.070686690568374386 0 -0.19803765617450109 0.060300476042091433 0 -0.20947987249717179 0.060448397508133619 0 -0.2066297839190599 0.054855205218219752 0 -0.1977866825790292 0.05007637869738242 0 -0.2073344650466164 0.045256152092875389 0 -0.2066297839190599 0.054855205218219752 0 -0.2073344650466164 0.045256152092875389 0 -0.21769334509658461 0.055951218203848879 0 -0.2066297839190599 0.054855205218219752 0 -0.1989264366345522 -0.0080023544535597537 0 -0.1965234412062255 0.0098537758749781944 0 -0.20713549204565579 6.5395444916274768e-05 0 -0.19066530249761049 -0.0041303576494283751 0 -0.18717715497560061 0.0062623078557712403 0 -0.1965234412062255 0.0098537758749781944 0 -0.1852069371874478 0.015311100034367831 0 -0.18717715497560061 0.0062623078557712403 0 -0.1965234412062255 0.0098537758749781944 0 -0.1965234412062255 0.0098537758749781944 0 -0.20113962024173071 0.02227838771243261 0 -0.2107847094499361 0.011405203725301251 0 -0.19572946351785711 0.039272048382664133 0 -0.20113962024173071 0.02227838771243261 0 -0.2098237389609823 0.029412342647955388 0 -0.19572946351785711 0.039272048382664133 0 -0.20113962024173071 0.02227838771243261 0 -0.19029700863621521 0.024089069561314659 0 -0.1965234412062255 0.0098537758749781944 0 -0.20113962024173071 0.02227838771243261 0 -0.19029700863621521 0.024089069561314659 0 -0.1852069371874478 0.015311100034367831 0 -0.1965234412062255 0.0098537758749781944 0 -0.19029700863621521 0.024089069561314659 0 -0.2098237389609823 0.029412342647955388 0 -0.2107847094499361 0.011405203725301251 0 -0.22391801440410891 0.019552636913248388 0 -0.20113962024173071 0.02227838771243261 0 -0.2098237389609823 0.029412342647955388 0 -0.2107847094499361 0.011405203725301251 0 -0.2098237389609823 0.029412342647955388 0 -0.22391801440410891 0.019552636913248388 0 -0.21702438745170211 -0.0043907958627755336 0 -0.2107847094499361 0.011405203725301251 0 -0.20713549204565579 6.5395444916274768e-05 0 -0.21702438745170211 -0.0043907958627755336 0 -0.2107847094499361 0.011405203725301251 0 -0.22391801440410891 0.019552636913248388 0 -0.1965234412062255 0.0098537758749781944 0 -0.2107847094499361 0.011405203725301251 0 -0.20713549204565579 6.5395444916274768e-05 0 -0.22867745033346079 0.0038692188645070222 0 -0.22391801440410891 0.019552636913248388 0 -0.2344599051246074 0.012178015861532989 0 -0.21702438745170211 -0.0043907958627755336 0 -0.22391801440410891 0.019552636913248388 0 -0.21702438745170211 -0.0043907958627755336 0 -0.22867745033346079 0.0038692188645070222 0 -0.22391801440410891 0.019552636913248388 0 -0.22391801440410891 0.019552636913248388 0 -0.2403792472176362 0.02548084658656756 0 -0.2344599051246074 0.012178015861532989 0 -0.2098237389609823 0.029412342647955388 0 -0.22391801440410891 0.019552636913248388 0 -0.2284051488343061 0.035137669629428533 0 -0.22391801440410891 0.019552636913248388 0 -0.2403792472176362 0.02548084658656756 0 -0.2284051488343061 0.035137669629428533 0 -0.22391801440410891 0.019552636913248388 0 -0.2344599051246074 0.012178015861532989 0 -0.22391801440410891 0.019552636913248388 0 -0.2284051488343061 0.035137669629428533 0 -0.2522816967992324 0.037264740289820159 0 -0.25157722050270093 0.012682655753942951 0 -0.2403792472176362 0.02548084658656756 0 -0.25157722050270093 0.012682655753942951 0 -0.2403792472176362 0.02548084658656756 0 -0.2344599051246074 0.012178015861532989 0 -0.25267499080189931 -0.0034516002120552492 0 -0.25157722050270093 0.012682655753942951 0 -0.2401015516947359 0.00075261550232862703 0 -0.25157722050270093 0.012682655753942951 0 -0.2344599051246074 0.012178015861532989 0 -0.2401015516947359 0.00075261550232862703 0 -0.22867745033346079 0.0038692188645070222 0 -0.2344599051246074 0.012178015861532989 0 -0.2401015516947359 0.00075261550232862703 0 -0.21769334509658461 0.055951218203848879 0 -0.23255980098598539 0.056775429521547523 0 -0.2155587047985415 0.070686690568374386 0 -0.23289228326450309 0.050722702345608793 0 -0.22641588552015429 0.052180110730886013 0 -0.22251811273354419 0.045271092852538893 0 -0.23289228326450309 0.050722702345608793 0 -0.23255980098598539 0.056775429521547523 0 -0.22641588552015429 0.052180110730886013 0 -0.21769334509658461 0.055951218203848879 0 -0.23255980098598539 0.056775429521547523 0 -0.22641588552015429 0.052180110730886013 0 -0.21769334509658461 0.055951218203848879 0 -0.22641588552015429 0.052180110730886013 0 -0.22251811273354419 0.045271092852538893 0 -0.21702036639386221 0.038769314305699548 0 -0.22251811273354419 0.045271092852538893 0 -0.2284051488343061 0.035137669629428533 0 -0.23289228326450309 0.050722702345608793 0 -0.22251811273354419 0.045271092852538893 0 -0.2284051488343061 0.035137669629428533 0 -0.23289228326450309 0.050722702345608793 0 -0.2284051488343061 0.035137669629428533 0 -0.2522816967992324 0.037264740289820159 0 -0.2403792472176362 0.02548084658656756 0 -0.2284051488343061 0.035137669629428533 0 -0.2522816967992324 0.037264740289820159 0 -0.23289228326450309 0.050722702345608793 0 -0.2284051488343061 0.035137669629428533 0 -0.2522816967992324 0.037264740289820159 0 -0.23289228326450309 0.050722702345608793 0 -0.23255980098598539 0.056775429521547523 0 -0.2522816967992324 0.037264740289820159 0 -0.23255980098598539 0.056775429521547523 0 -0.2522816967992324 0.037264740289820159 0 -0.23255980098598539 0.056775429521547523 0 -0.24906194248509719 0.058488871325365822 0 -0.23255980098598539 0.056775429521547523 0 -0.24906194248509719 0.058488871325365822 0 -0.23770452364983391 0.071010308971772351 0 -0.26257114212692878 0.06573449919026883 0 -0.24906194248509719 0.058488871325365822 0 -0.23770452364983391 0.071010308971772351 0 -0.25261226255175379 0.080423606239198905 0 -0.23770452364983391 0.071010308971772351 0 -0.23158356521460469 0.085326977986282804 0 -0.25261226255175379 0.080423606239198905 0 -0.23158356521460469 0.085326977986282804 0 -0.24377998071086901 0.096378574065869249 0 -0.23158356521460469 0.085326977986282804 0 -0.21283790517273879 0.076286118753275345 0 -0.22135706029896429 0.097751395037259853 0 -0.23158356521460469 0.085326977986282804 0 -0.22135706029896429 0.097751395037259853 0 -0.24377998071086901 0.096378574065869249 0 -0.23255980098598539 0.056775429521547523 0 -0.21283790517273879 0.076286118753275345 0 -0.23770452364983391 0.071010308971772351 0 -0.23158356521460469 0.085326977986282804 0 -0.21283790517273879 0.076286118753275345 0 -0.23255980098598539 0.056775429521547523 0 -0.23770452364983391 0.071010308971772351 0 -0.21283790517273879 0.076286118753275345 0 -0.23255980098598539 0.056775429521547523 0 -0.21283790517273879 0.076286118753275345 0 -0.2155587047985415 0.070686690568374386 0 -0.23770452364983391 0.071010308971772351 0 -0.21283790517273879 0.076286118753275345 0 -0.19803765617450109 0.060300476042091433 0 -0.20947987249717179 0.060448397508133619 0 -0.2155587047985415 0.070686690568374386 0 -0.19803765617450109 0.060300476042091433 0 -0.20333782300263301 0.070680183335342567 0 -0.2155587047985415 0.070686690568374386 0 -0.19803765617450109 0.060300476042091433 0 -0.2155587047985415 0.070686690568374386 0 -0.21283790517273879 0.076286118753275345 0 -0.19766176801088831 0.079505953929404904 0 -0.20333782300263301 0.070680183335342567 0 -0.21283790517273879 0.076286118753275345 0 -0.19766176801088831 0.079505953929404904 0 -0.20333782300263301 0.070680183335342567 0 -0.21283790517273879 0.076286118753275345 0 -0.2155587047985415 0.070686690568374386 0 -0.21283790517273879 0.076286118753275345 0 -0.1951643137470572 0.093770439387570487 0 -0.22135706029896429 0.097751395037259853 0 -0.21283790517273879 0.076286118753275345 0 -0.1951643137470572 0.093770439387570487 0 -0.21283790517273879 0.076286118753275345 0 -0.19766176801088831 0.079505953929404904 0 -0.1951643137470572 0.093770439387570487 0 -0.18248563084903771 0.082725789105533951 0 -0.19766176801088831 0.079505953929404904 0 -0.1951643137470572 0.093770439387570487 0 -0.1867192510276118 0.077748512173410014 0 -0.18248563084903771 0.082725789105533951 0 -0.19766176801088831 0.079505953929404904 0 -0.18248563084903771 0.082725789105533951 0 -0.19766176801088831 0.079505953929404904 0 -0.1867192510276118 0.077748512173410014 0 -0.19766176801088831 0.079505953929404904 0 -0.19050021368002351 0.072419239531055349 0 -0.19803765617450109 0.060300476042091433 0 -0.19050021368002351 0.072419239531055349 0 -0.18892740292417859 0.064703221589215376 0 -0.19803765617450109 0.060300476042091433 0 -0.20333782300263301 0.070680183335342567 0 -0.19050021368002351 0.072419239531055349 0 -0.20333782300263301 0.070680183335342567 0 -0.19766176801088831 0.079505953929404904 0 -0.19050021368002351 0.072419239531055349 0 -0.17749072232138041 0.1112547600218704 0 -0.19150979458678249 0.1243728737611647 0 -0.1951643137470572 0.093770439387570487 0 -0.19150979458678249 0.1243728737611647 0 -0.1951643137470572 0.093770439387570487 0 -0.20994497012605751 0.11823125198409511 0 -0.1951643137470572 0.093770439387570487 0 -0.20994497012605751 0.11823125198409511 0 -0.22135706029896429 0.097751395037259853 0 -0.20994497012605751 0.11823125198409511 0 -0.2348316268224595 0.11651500804646669 0 -0.2235388627286797 0.12965651036182041 0 -0.20994497012605751 0.11823125198409511 0 -0.22135706029896429 0.097751395037259853 0 -0.2348316268224595 0.11651500804646669 0 -0.22135706029896429 0.097751395037259853 0 -0.24377998071086901 0.096378574065869249 0 -0.2348316268224595 0.11651500804646669 0 -0.25136603029008331 0.1103208693098497 0 -0.24377998071086901 0.096378574065869249 0 -0.2348316268224595 0.11651500804646669 0 -0.25922316449870308 0.12628093809151891 0 -0.25136603029008331 0.1103208693098497 0 -0.2348316268224595 0.11651500804646669 0 -0.25922316449870308 0.12628093809151891 0 -0.2348316268224595 0.11651500804646669 0 -0.2369615480924761 0.1404602413506009 0 -0.2369615480924761 0.1404602413506009 0 -0.2235388627286797 0.12965651036182041 0 -0.2124173058737257 0.14341954006611901 0 -0.2348316268224595 0.11651500804646669 0 -0.2369615480924761 0.1404602413506009 0 -0.2235388627286797 0.12965651036182041 0 -0.2369615480924761 0.1404602413506009 0 -0.22679867445049531 0.16064067306310431 0 -0.2124173058737257 0.14341954006611901 0 -0.2369615480924761 0.1404602413506009 0 -0.247018622616726 0.15992587597476091 0 -0.22679867445049531 0.16064067306310431 0 -0.25846103874104392 0.14702121199507179 0 -0.2369615480924761 0.1404602413506009 0 -0.247018622616726 0.15992587597476091 0 -0.247018622616726 0.15992587597476091 0 -0.23359887481107691 0.1809086922627815 0 -0.247018622616726 0.15992587597476091 0 -0.23359887481107691 0.1809086922627815 0 -0.22679867445049531 0.16064067306310431 0 -0.26439180367967152 0.18225540552070321 0 -0.247018622616726 0.15992587597476091 0 -0.23359887481107691 0.1809086922627815 0 -0.23359887481107691 0.1809086922627815 0 -0.20517995294037331 0.17379218369948349 0 -0.2201791270054278 0.2018915085508021 0 -0.23359887481107691 0.1809086922627815 0 -0.22679867445049531 0.16064067306310431 0 -0.20517995294037331 0.17379218369948349 0 -0.22679867445049531 0.16064067306310431 0 -0.20517995294037331 0.17379218369948349 0 -0.2124173058737257 0.14341954006611901 0 -0.20517995294037331 0.17379218369948349 0 -0.19274338499996449 0.14807478539393409 0 -0.17830044274374979 0.16244982581953471 0 -0.19150979458678249 0.1243728737611647 0 -0.19274338499996449 0.14807478539393409 0 -0.2124173058737257 0.14341954006611901 0 -0.20994497012605751 0.11823125198409511 0 -0.2235388627286797 0.12965651036182041 0 -0.2124173058737257 0.14341954006611901 0 -0.19150979458678249 0.1243728737611647 0 -0.20994497012605751 0.11823125198409511 0 -0.2124173058737257 0.14341954006611901 0 -0.20517995294037331 0.17379218369948349 0 -0.19274338499996449 0.14807478539393409 0 -0.2124173058737257 0.14341954006611901 0 -0.22371849106378741 0.2462845034026982 0 -0.23019370483249479 0.22382880503591951 0 -0.2066863838603582 0.24242880758937649 0 -0.22371849106378741 0.2462845034026982 0 -0.23951274761537589 0.2474853768326048 0 -0.23019370483249479 0.22382880503591951 0 -0.25272375818517617 0.22994970808158929 0 -0.25621817608628389 0.2460965770837312 0 -0.23951274761537589 0.2474853768326048 0 -0.25370102580463139 0.2052288024824625 0 -0.25272375818517617 0.22994970808158929 0 -0.23019370483249479 0.22382880503591951 0 -0.25272375818517617 0.22994970808158929 0 -0.23951274761537589 0.2474853768326048 0 -0.23019370483249479 0.22382880503591951 0 -0.25370102580463139 0.2052288024824625 0 -0.23359887481107691 0.1809086922627815 0 -0.2201791270054278 0.2018915085508021 0 -0.25370102580463139 0.2052288024824625 0 -0.23019370483249479 0.22382880503591951 0 -0.2201791270054278 0.2018915085508021 0 -0.23019370483249479 0.22382880503591951 0 -0.2201791270054278 0.2018915085508021 0 -0.20675937919977869 0.22287432483882261 0 -0.25370102580463139 0.2052288024824625 0 -0.23019370483249479 0.22382880503591951 0 -0.23359887481107691 0.1809086922627815 0 -0.2201791270054278 0.2018915085508021 0 -0.20517995294037331 0.17379218369948349 0 -0.2201791270054278 0.2018915085508021 0 -0.19686056424972551 0.20437535499954981 0 -0.20517995294037331 0.17379218369948349 0 -0.19686056424972551 0.20437535499954981 0 -0.17870530295493239 0.18804735871836689 0 -0.19686056424972551 0.20437535499954981 0 -0.20675937919977869 0.22287432483882261 0 -0.19122946023172571 0.22600186257262461 0 -0.19686056424972551 0.20437535499954981 0 -0.19122946023172571 0.22600186257262461 0 -0.179110163166115 0.21364489161719899 0 -0.2201791270054278 0.2018915085508021 0 -0.19686056424972551 0.20437535499954981 0 -0.20675937919977869 0.22287432483882261 0 -0.2201791270054278 0.2018915085508021 0 -0.20675937919977869 0.22287432483882261 0 -0.23019370483249479 0.22382880503591951 0 -0.2066863838603582 0.24242880758937649 0 -0.23019370483249479 0.22382880503591951 0 -0.20675937919977869 0.22287432483882261 0 -0.2066863838603582 0.24242880758937649 0 -0.20675937919977869 0.22287432483882261 0 -0.19333963139412971 0.24385714112684301 0 -0.20675937919977869 0.22287432483882261 0 -0.19122946023172571 0.22600186257262461 0 -0.19333963139412971 0.24385714112684301 0 -0.19122946023172571 0.22600186257262461 0 -0.19333963139412971 0.24385714112684301 0 -0.17951502337729761 0.2392424245160312 0 -0.20675937919977869 0.22287432483882261 0 -0.19333963139412971 0.24385714112684301 0 -0.2066863838603582 0.24242880758937649 0 -0.18259587964237009 0.2606558300825601 0 -0.19333963139412971 0.24385714112684301 0 -0.2066863838603582 0.24242880758937649 0 -0.21408768962570049 0.25938306782852782 0 -0.22371849106378741 0.2462845034026982 0 -0.2066863838603582 0.24242880758937649 0 -0.1532221513837192 0.25419418888983192 0 -0.17951502337729761 0.2392424245160312 0 -0.15110003921584569 0.22881829817408891 0 -0.18259587964237009 0.2606558300825601 0 -0.19333963139412971 0.24385714112684301 0 -0.17951502337729761 0.2392424245160312 0 -0.17951502337729761 0.2392424245160312 0 -0.1619547442009632 0.2162214427956837 0 -0.179110163166115 0.21364489161719899 0 -0.19122946023172571 0.22600186257262461 0 -0.17951502337729761 0.2392424245160312 0 -0.179110163166115 0.21364489161719899 0 -0.17951502337729761 0.2392424245160312 0 -0.179110163166115 0.21364489161719899 0 -0.17951502337729761 0.2392424245160312 0 -0.1619547442009632 0.2162214427956837 0 -0.15110003921584569 0.22881829817408891 0 -0.1619547442009632 0.2162214427956837 0 -0.179110163166115 0.21364489161719899 0 -0.17870530295493239 0.18804735871836689 0 -0.19686056424972551 0.20437535499954981 0 -0.179110163166115 0.21364489161719899 0 -0.17870530295493239 0.18804735871836689 0 -0.179110163166115 0.21364489161719899 0 -0.17870530295493239 0.18804735871836689 0 -0.1619547442009632 0.2162214427956837 0 -0.17870530295493239 0.18804735871836689 0 -0.15775407484820861 0.18727827749961631 0 -0.14804225966403101 0.20585853828705919 0 -0.15775407484820861 0.18727827749961631 0 -0.13876353146598761 0.18223131465273959 0 -0.1619547442009632 0.2162214427956837 0 -0.14804225966403101 0.20585853828705919 0 -0.15775407484820861 0.18727827749961631 0 -0.13876353146598761 0.18223131465273959 0 -0.1245765098090509 0.17966052017845999 0 -0.1190175871807343 0.20067046473278771 0 -0.14804225966403101 0.20585853828705919 0 -0.13876353146598761 0.18223131465273959 0 -0.1190175871807343 0.20067046473278771 0 -0.14804225966403101 0.20585853828705919 0 -0.13479108425045189 0.2189379304695287 0 -0.1190175871807343 0.20067046473278771 0 -0.13479108425045189 0.2189379304695287 0 -0.12594818007053379 0.2253828658525201 0 -0.1190175871807343 0.20067046473278771 0 -0.1619547442009632 0.2162214427956837 0 -0.14804225966403101 0.20585853828705919 0 -0.15110003921584569 0.22881829817408891 0 -0.14804225966403101 0.20585853828705919 0 -0.15110003921584569 0.22881829817408891 0 -0.13479108425045189 0.2189379304695287 0 -0.15110003921584569 0.22881829817408891 0 -0.13479108425045189 0.2189379304695287 0 -0.1378537507735782 0.22769286600650679 0 -0.15110003921584569 0.22881829817408891 0 -0.1378537507735782 0.22769286600650679 0 -0.13827307027013019 0.2362506378269415 0 -0.13479108425045189 0.2189379304695287 0 -0.12594818007053379 0.2253828658525201 0 -0.1378537507735782 0.22769286600650679 0 -0.12594818007053379 0.2253828658525201 0 -0.1378537507735782 0.22769286600650679 0 -0.13827307027013019 0.2362506378269415 0 -0.12594818007053379 0.2253828658525201 0 -0.13827307027013019 0.2362506378269415 0 -0.1327712538659816 0.24971188635390451 0 -0.12594818007053379 0.2253828658525201 0 -0.1327712538659816 0.24971188635390451 0 -0.1532221513837192 0.25419418888983192 0 -0.15110003921584569 0.22881829817408891 0 -0.13827307027013019 0.2362506378269415 0 -0.1532221513837192 0.25419418888983192 0 -0.13827307027013019 0.2362506378269415 0 -0.1327712538659816 0.24971188635390451 0 -0.16317411874061041 0.14897554401654969 0 -0.16113979031376621 0.12743058591966341 0 -0.1447888583061562 0.1436064118174607 0 -0.16317411874061041 0.14897554401654969 0 -0.16113979031376621 0.12743058591966341 0 -0.17789558253256721 0.1368522929207025 0 -0.17749072232138041 0.1112547600218704 0 -0.16113979031376621 0.12743058591966341 0 -0.17789558253256721 0.1368522929207025 0 -0.19150979458678249 0.1243728737611647 0 -0.19274338499996449 0.14807478539393409 0 -0.17789558253256721 0.1368522929207025 0 -0.16317411874061041 0.14897554401654969 0 -0.17789558253256721 0.1368522929207025 0 -0.17830044274374979 0.16244982581953471 0 -0.17789558253256721 0.1368522929207025 0 -0.17830044274374979 0.16244982581953471 0 -0.19274338499996449 0.14807478539393409 0 -0.17789558253256721 0.1368522929207025 0 -0.17830044274374979 0.16244982581953471 0 -0.20517995294037331 0.17379218369948349 0 -0.17870530295493239 0.18804735871836689 0 -0.17830044274374979 0.16244982581953471 0 -0.17870530295493239 0.18804735871836689 0 -0.17830044274374979 0.16244982581953471 0 -0.17870530295493239 0.18804735871836689 0 -0.17830044274374979 0.16244982581953471 0 -0.15775407484820861 0.18727827749961631 0 -0.17830044274374979 0.16244982581953471 0 -0.15775407484820861 0.18727827749961631 0 -0.15245232938168229 0.1648839185887534 0 -0.16317411874061041 0.14897554401654969 0 -0.17830044274374979 0.16244982581953471 0 -0.15245232938168229 0.1648839185887534 0 -0.15775407484820861 0.18727827749961631 0 -0.15245232938168229 0.1648839185887534 0 -0.13876353146598761 0.18223131465273959 0 -0.13876353146598761 0.18223131465273959 0 -0.12843792629854631 0.15978223771525801 0 -0.1245765098090509 0.17966052017845999 0 -0.15245232938168229 0.1648839185887534 0 -0.13876353146598761 0.18223131465273959 0 -0.12843792629854631 0.15978223771525801 0 -0.12843792629854631 0.15978223771525801 0 -0.1447888583061562 0.1436064118174607 0 -0.12843792629854631 0.15978223771525801 0 -0.1447888583061562 0.1436064118174607 0 -0.1204435081575875 0.14623213693654391 0 -0.16317411874061041 0.14897554401654969 0 -0.15245232938168229 0.1648839185887534 0 -0.1447888583061562 0.1436064118174607 0 -0.15245232938168229 0.1648839185887534 0 -0.12843792629854631 0.15978223771525801 0 -0.1447888583061562 0.1436064118174607 0 -0.16113979031376621 0.12743058591966341 0 -0.1447888583061562 0.1436064118174607 0 -0.14300315410871919 0.1253406317882016 0 -0.16113979031376621 0.12743058591966341 0 -0.1447888583061562 0.1436064118174607 0 -0.1447888583061562 0.1436064118174607 0 -0.12687331202938101 0.13192737382428379 0 -0.1204435081575875 0.14623213693654391 0 -0.1447888583061562 0.1436064118174607 0 -0.14300315410871919 0.1253406317882016 0 -0.12687331202938101 0.13192737382428379 0 -0.12687331202938101 0.13192737382428379 0 -0.1130049083687871 0.13722853083192951 0 -0.10667563132183119 0.1260080396076822 0 -0.12687331202938101 0.13192737382428379 0 -0.1130049083687871 0.13722853083192951 0 -0.1204435081575875 0.14623213693654391 0 -0.10667563132183119 0.1260080396076822 0 -0.081978849477511453 0.1384377215961772 0 -0.096577670607123245 0.1239972751083621 0 -0.10667563132183119 0.1260080396076822 0 -0.1008242758955458 0.1385116675773613 0 -0.081978849477511453 0.1384377215961772 0 -0.10667563132183119 0.1260080396076822 0 -0.081978849477511453 0.1384377215961772 0 -0.1130049083687871 0.13722853083192951 0 -0.10667563132183119 0.1260080396076822 0 -0.1008242758955458 0.1385116675773613 0 -0.1130049083687871 0.13722853083192951 0 -0.1008242758955458 0.1385116675773613 0 -0.1078791741402548 0.14587794917826699 0 -0.094422293866394627 0.1556947047027778 0 -0.094582816169344081 0.14500609667275041 0 -0.1078791741402548 0.14587794917826699 0 -0.1008242758955458 0.1385116675773613 0 -0.094582816169344081 0.14500609667275041 0 -0.1078791741402548 0.14587794917826699 0 -0.12843792629854631 0.15978223771525801 0 -0.1204435081575875 0.14623213693654391 0 -0.1073217141416921 0.15896651377475199 0 -0.1078791741402548 0.14587794917826699 0 -0.1204435081575875 0.14623213693654391 0 -0.1073217141416921 0.15896651377475199 0 -0.1130049083687871 0.13722853083192951 0 -0.1078791741402548 0.14587794917826699 0 -0.1204435081575875 0.14623213693654391 0 -0.12843792629854631 0.15978223771525801 0 -0.1245765098090509 0.17966052017845999 0 -0.1120869942909358 0.17595806361305491 0 -0.1120869942909358 0.17595806361305491 0 -0.1073217141416921 0.15896651377475199 0 -0.12843792629854631 0.15978223771525801 0 -0.1120869942909358 0.17595806361305491 0 -0.12843792629854631 0.15978223771525801 0 -0.1120869942909358 0.17595806361305491 0 -0.1073217141416921 0.15896651377475199 0 -0.1245765098090509 0.17966052017845999 0 -0.1120869942909358 0.17595806361305491 0 -0.1190175871807343 0.20067046473278771 0 -0.1120869942909358 0.17595806361305491 0 -0.1020860412129876 0.1687304780430319 0 -0.095149617161195271 0.19271405424946009 0 -0.1020860412129876 0.1687304780430319 0 -0.095149617161195271 0.19271405424946009 0 -0.1120869942909358 0.17595806361305491 0 -0.095149617161195271 0.19271405424946009 0 -0.1020860412129876 0.1687304780430319 0 -0.093279947424905002 0.17994671451597891 0 -0.095149617161195271 0.19271405424946009 0 -0.1020860412129876 0.1687304780430319 0 -0.089956478385260899 0.16811851343374709 0 -0.093279947424905002 0.17994671451597891 0 -0.094422293866394627 0.1556947047027778 0 -0.1078791741402548 0.14587794917826699 0 -0.1020860412129876 0.1687304780430319 0 -0.1078791741402548 0.14587794917826699 0 -0.1073217141416921 0.15896651377475199 0 -0.1020860412129876 0.1687304780430319 0 -0.1120869942909358 0.17595806361305491 0 -0.1073217141416921 0.15896651377475199 0 -0.1020860412129876 0.1687304780430319 0 -0.1078791741402548 0.14587794917826699 0 -0.1020860412129876 0.1687304780430319 0 -0.094422293866394627 0.1556947047027778 0 -0.1020860412129876 0.1687304780430319 0 -0.089956478385260899 0.16811851343374709 0 -0.094422293866394627 0.1556947047027778 0 -0.089956478385260899 0.16811851343374709 0 -0.084742563178951485 0.15922574422532609 0 -0.089956478385260899 0.16811851343374709 0 -0.080023232193096983 0.1657260639694961 0 -0.084742563178951485 0.15922574422532609 0 -0.089956478385260899 0.16811851343374709 0 -0.080023232193096983 0.1657260639694961 0 -0.081293191825158789 0.17801619480298669 0 -0.080023232193096983 0.1657260639694961 0 -0.084742563178951485 0.15922574422532609 0 -0.074930767296401246 0.15918989644816289 0 -0.081293191825158789 0.17801619480298669 0 -0.095149617161195271 0.19271405424946009 0 -0.073474196407973841 0.19079473501472519 0 -0.081293191825158789 0.17801619480298669 0 -0.095149617161195271 0.19271405424946009 0 -0.093279947424905002 0.17994671451597891 0 -0.081293191825158789 0.17801619480298669 0 -0.095149617161195271 0.19271405424946009 0 -0.089956478385260899 0.16811851343374709 0 -0.093279947424905002 0.17994671451597891 0 -0.081293191825158789 0.17801619480298669 0 -0.064604308801312821 0.18244611143699499 0 -0.069549912031587807 0.17131438064227461 0 -0.073474196407973841 0.19079473501472519 0 -0.081293191825158789 0.17801619480298669 0 -0.069549912031587807 0.17131438064227461 0 -0.073474196407973841 0.19079473501472519 0 -0.069549912031587807 0.17131438064227461 0 -0.073474196407973841 0.19079473501472519 0 -0.064604308801312821 0.18244611143699499 0 -0.069549912031587807 0.17131438064227461 0 -0.062041409668937363 0.1723934095439342 0 -0.084742563178951485 0.15922574422532609 0 -0.074930767296401246 0.15918989644816289 0 -0.074588176879671189 0.15080810715310269 0 -0.080023232193096983 0.1657260639694961 0 -0.074930767296401246 0.15918989644816289 0 -0.06743676648912228 0.16331833535651319 0 -0.081293191825158789 0.17801619480298669 0 -0.069549912031587807 0.17131438064227461 0 -0.06743676648912228 0.16331833535651319 0 -0.080023232193096983 0.1657260639694961 0 -0.081293191825158789 0.17801619480298669 0 -0.06743676648912228 0.16331833535651319 0 -0.081293191825158789 0.17801619480298669 0 -0.06743676648912228 0.16331833535651319 0 -0.069549912031587807 0.17131438064227461 0 -0.062031688412593149 0.16441565219234799 0 -0.062041409668937363 0.1723934095439342 0 -0.069549912031587807 0.17131438064227461 0 -0.06743676648912228 0.16331833535651319 0 -0.062031688412593149 0.16441565219234799 0 -0.06743676648912228 0.16331833535651319 0 -0.06725389334219653 0.15771987894696021 0 -0.062031688412593149 0.16441565219234799 0 -0.074930767296401246 0.15918989644816289 0 -0.06743676648912228 0.16331833535651319 0 -0.06725389334219653 0.15771987894696021 0 -0.081978849477511453 0.1384377215961772 0 -0.05728206763319247 0.1508674035846734 0 -0.06725389334219653 0.15771987894696021 0 -0.074588176879671189 0.15080810715310269 0 -0.05728206763319247 0.1508674035846734 0 -0.074588176879671189 0.15080810715310269 0 -0.081978849477511453 0.1384377215961772 0 -0.05728206763319247 0.1508674035846734 0 -0.081978849477511453 0.1384377215961772 0 -0.06070043620975589 0.134524720015781 0 -0.05728206763319247 0.1508674035846734 0 -0.074930767296401246 0.15918989644816289 0 -0.06725389334219653 0.15771987894696021 0 -0.074588176879671189 0.15080810715310269 0 -0.071786582042575819 0.1280585334591178 0 -0.081978849477511453 0.1384377215961772 0 -0.08034823769671974 0.121089655777625 0 -0.071786582042575819 0.1280585334591178 0 -0.081978849477511453 0.1384377215961772 0 -0.06070043620975589 0.134524720015781 0 -0.071786582042575819 0.1280585334591178 0 -0.06070043620975589 0.134524720015781 0 -0.06411880478631618 0.11818203644688791 0 -0.081978849477511453 0.1384377215961772 0 -0.08034823769671974 0.121089655777625 0 -0.096577670607123245 0.1239972751083621 0 -0.1008242758955458 0.1385116675773613 0 -0.094582816169344081 0.14500609667275041 0 -0.081978849477511453 0.1384377215961772 0 -0.094582816169344081 0.14500609667275041 0 -0.081978849477511453 0.1384377215961772 0 -0.0854808471676783 0.14892295327365951 0 -0.094422293866394627 0.1556947047027778 0 -0.084742563178951485 0.15922574422532609 0 -0.0854808471676783 0.14892295327365951 0 -0.094422293866394627 0.1556947047027778 0 -0.094582816169344081 0.14500609667275041 0 -0.0854808471676783 0.14892295327365951 0 -0.084742563178951485 0.15922574422532609 0 -0.074588176879671189 0.15080810715310269 0 -0.0854808471676783 0.14892295327365951 0 -0.074588176879671189 0.15080810715310269 0 -0.081978849477511453 0.1384377215961772 0 -0.0854808471676783 0.14892295327365951 0 -0.1045487088169635 0.24438495162540061 0 -0.11455994162881621 0.23631135170566109 0 -0.098826177075254387 0.23394696074010041 0 -0.10005120432924321 0.25626016583208688 0 -0.094679029848152713 0.24609146959404629 0 -0.1045487088169635 0.24438495162540061 0 -0.094679029848152713 0.24609146959404629 0 -0.1045487088169635 0.24438495162540061 0 -0.098826177075254387 0.23394696074010041 0 -0.116744543106582 0.25728181003509248 0 -0.1045487088169635 0.24438495162540061 0 -0.11455994162881621 0.23631135170566109 0 -0.116744543106582 0.25728181003509248 0 -0.1327712538659816 0.24971188635390451 0 -0.11455994162881621 0.23631135170566109 0 -0.12594818007053379 0.2253828658525201 0 -0.1327712538659816 0.24971188635390451 0 -0.11455994162881621 0.23631135170566109 0 -0.11455994162881621 0.23631135170566109 0 -0.1144435087069731 0.2232582902708152 0 -0.1063794885369051 0.22193246116811141 0 -0.12594818007053379 0.2253828658525201 0 -0.1144435087069731 0.2232582902708152 0 -0.1108864245916369 0.20940648235696879 0 -0.12594818007053379 0.2253828658525201 0 -0.11455994162881621 0.23631135170566109 0 -0.1144435087069731 0.2232582902708152 0 -0.11455994162881621 0.23631135170566109 0 -0.1063794885369051 0.22193246116811141 0 -0.098826177075254387 0.23394696074010041 0 -0.1063794885369051 0.22193246116811141 0 -0.098826177075254387 0.23394696074010041 0 -0.089950704149474564 0.21660149084549701 0 -0.1063794885369051 0.22193246116811141 0 -0.089950704149474564 0.21660149084549701 0 -0.10053720550511509 0.21148400771379949 0 -0.095149617161195271 0.19271405424946009 0 -0.089950704149474564 0.21660149084549701 0 -0.1063794885369051 0.22193246116811141 0 -0.10053720550511509 0.21148400771379949 0 -0.089950704149474564 0.21660149084549701 0 -0.10053720550511509 0.21148400771379949 0 -0.1108864245916369 0.20940648235696879 0 -0.095149617161195271 0.19271405424946009 0 -0.1063794885369051 0.22193246116811141 0 -0.10053720550511509 0.21148400771379949 0 -0.1108864245916369 0.20940648235696879 0 -0.12594818007053379 0.2253828658525201 0 -0.1190175871807343 0.20067046473278771 0 -0.12594818007053379 0.2253828658525201 0 -0.1108864245916369 0.20940648235696879 0 -0.1190175871807343 0.20067046473278771 0 -0.12594818007053379 0.2253828658525201 0 -0.1108864245916369 0.20940648235696879 0 -0.1144435087069731 0.2232582902708152 0 -0.1063794885369051 0.22193246116811141 0 -0.1108864245916369 0.20940648235696879 0 -0.1120869942909358 0.17595806361305491 0 -0.1190175871807343 0.20067046473278771 0 -0.1108864245916369 0.20940648235696879 0 -0.1190175871807343 0.20067046473278771 0 -0.10682171669235439 0.1942096232944058 0 -0.1120869942909358 0.17595806361305491 0 -0.1190175871807343 0.20067046473278771 0 -0.10682171669235439 0.1942096232944058 0 -0.1108864245916369 0.20940648235696879 0 -0.095149617161195271 0.19271405424946009 0 -0.1108864245916369 0.20940648235696879 0 -0.10682171669235439 0.1942096232944058 0 -0.095149617161195271 0.19271405424946009 0 -0.1120869942909358 0.17595806361305491 0 -0.10682171669235439 0.1942096232944058 0 -0.095149617161195271 0.19271405424946009 0 -0.095149617161195271 0.19271405424946009 0 -0.077398480784349299 0.2102750893871779 0 -0.095149617161195271 0.19271405424946009 0 -0.073474196407973841 0.19079473501472519 0 -0.077398480784349299 0.2102750893871779 0 -0.095149617161195271 0.19271405424946009 0 -0.077398480784349299 0.2102750893871779 0 -0.087241526055590657 0.20514135106535239 0 -0.073474196407973841 0.19079473501472519 0 -0.077398480784349299 0.2102750893871779 0 -0.073474196407973841 0.19079473501472519 0 -0.077398480784349299 0.2102750893871779 0 -0.068984895145132993 0.20348567813270921 0 -0.064604308801312821 0.18244611143699499 0 -0.073474196407973841 0.19079473501472519 0 -0.062951628171730722 0.19451437844324071 0 -0.073474196407973841 0.19079473501472519 0 -0.062951628171730722 0.19451437844324071 0 -0.068984895145132993 0.20348567813270921 0 -0.062951628171730722 0.19451437844324071 0 -0.068984895145132993 0.20348567813270921 0 -0.057478398324341332 0.20606456403591589 0 -0.068984895145132993 0.20348567813270921 0 -0.075683327299925024 0.21197187487555791 0 -0.057478398324341332 0.20606456403591589 0 -0.075683327299925024 0.21197187487555791 0 -0.060700713784132942 0.2267940359372384 0 -0.057478398324341332 0.20606456403591589 0 -0.075683327299925024 0.21197187487555791 0 -0.057478398324341332 0.20606456403591589 0 -0.077398480784349299 0.2102750893871779 0 -0.068984895145132993 0.20348567813270921 0 -0.075683327299925024 0.21197187487555791 0 -0.075683327299925024 0.21197187487555791 0 -0.077884159070199604 0.2126860219832131 0 -0.060700713784132942 0.2267940359372384 0 -0.075683327299925024 0.21197187487555791 0 -0.077884159070199604 0.2126860219832131 0 -0.077398480784349299 0.2102750893871779 0 -0.075683327299925024 0.21197187487555791 0 -0.077884159070199604 0.2126860219832131 0 -0.077398480784349299 0.2102750893871779 0 -0.077884159070199604 0.2126860219832131 0 -0.077398480784349299 0.2102750893871779 0 -0.075683327299925024 0.21197187487555791 0 -0.077884159070199604 0.2126860219832131 0 -0.089950704149474564 0.21660149084549701 0 -0.077884159070199604 0.2126860219832131 0 -0.087241526055590657 0.20514135106535239 0 -0.089950704149474564 0.21660149084549701 0 -0.095149617161195271 0.19271405424946009 0 -0.087241526055590657 0.20514135106535239 0 -0.089950704149474564 0.21660149084549701 0 -0.095149617161195271 0.19271405424946009 0 -0.089950704149474564 0.21660149084549701 0 -0.077398480784349299 0.2102750893871779 0 -0.077884159070199604 0.2126860219832131 0 -0.087241526055590657 0.20514135106535239 0 -0.077884159070199604 0.2126860219832131 0 -0.083666647235009842 0.24139059785004849 0 -0.089950704149474564 0.21660149084549701 0 -0.083666647235009842 0.24139059785004849 0 -0.077884159070199604 0.2126860219832131 0 -0.089950704149474564 0.21660149084549701 0 -0.083666647235009842 0.24139059785004849 0 -0.098826177075254387 0.23394696074010041 0 -0.089950704149474564 0.21660149084549701 0 -0.083666647235009842 0.24139059785004849 0 -0.077884159070199604 0.2126860219832131 0 -0.083666647235009842 0.24139059785004849 0 -0.060700713784132942 0.2267940359372384 0 -0.075683327299925024 0.21197187487555791 0 -0.060700713784132942 0.2267940359372384 0 -0.064077212627390134 0.24851538469076631 0 -0.083666647235009842 0.24139059785004849 0 -0.060700713784132942 0.2267940359372384 0 -0.086302411784292182 0.25447467192259482 0 -0.083666647235009842 0.24139059785004849 0 -0.094679029848152713 0.24609146959404629 0 -0.098826177075254387 0.23394696074010041 0 -0.083666647235009842 0.24139059785004849 0 -0.086302411784292182 0.25447467192259482 0 -0.094679029848152713 0.24609146959404629 0 -0.083666647235009842 0.24139059785004849 0 -0.03068766995985707 0.25286978792993342 0 -0.034335222642673788 0.23481172099035691 0 -0.046578861792199937 0.24361118962503389 0 -0.034335222642673788 0.23481172099035691 0 -0.046578861792199937 0.24361118962503389 0 -0.045510089746351297 0.2289623102588538 0 -0.064077212627390134 0.24851538469076631 0 -0.046578861792199937 0.24361118962503389 0 -0.055802081643016588 0.23164020743468811 0 -0.064077212627390134 0.24851538469076631 0 -0.055802081643016588 0.23164020743468811 0 -0.060700713784132942 0.2267940359372384 0 -0.064077212627390134 0.24851538469076631 0 -0.060700713784132942 0.2267940359372384 0 -0.046578861792199937 0.24361118962503389 0 -0.055802081643016588 0.23164020743468811 0 -0.045510089746351297 0.2289623102588538 0 -0.055802081643016588 0.23164020743468811 0 -0.053252725762674542 0.2222055350902031 0 -0.045510089746351297 0.2289623102588538 0 -0.055802081643016588 0.23164020743468811 0 -0.060700713784132942 0.2267940359372384 0 -0.053252725762674542 0.2222055350902031 0 -0.055802081643016588 0.23164020743468811 0 -0.060700713784132942 0.2267940359372384 0 -0.053252725762674542 0.2222055350902031 0 -0.045510089746351297 0.2289623102588538 0 -0.046772345315528908 0.21756655778431969 0 -0.045510089746351297 0.2289623102588538 0 -0.036443083940353373 0.22210497005765251 0 -0.046772345315528908 0.21756655778431969 0 -0.034335222642673788 0.23481172099035691 0 -0.045510089746351297 0.2289623102588538 0 -0.036443083940353373 0.22210497005765251 0 -0.034335222642673788 0.23481172099035691 0 -0.036443083940353373 0.22210497005765251 0 -0.024866254401544021 0.22078734426404351 0 -0.036443083940353373 0.22210497005765251 0 -0.046772345315528908 0.21756655778431969 0 -0.031637039445344017 0.19767931081015269 0 -0.046772345315528908 0.21756655778431969 0 -0.057478398324341332 0.20606456403591589 0 -0.031637039445344017 0.19767931081015269 0 -0.060700713784132942 0.2267940359372384 0 -0.053252725762674542 0.2222055350902031 0 -0.057478398324341332 0.20606456403591589 0 -0.060700713784132942 0.2267940359372384 0 -0.057478398324341332 0.20606456403591589 0 -0.053252725762674542 0.2222055350902031 0 -0.046772345315528908 0.21756655778431969 0 -0.057478398324341332 0.20606456403591589 0 -0.062951628171730722 0.19451437844324071 0 -0.057478398324341332 0.20606456403591589 0 -0.054948738746262903 0.1897910154656581 0 -0.057478398324341332 0.20606456403591589 0 -0.054948738746262903 0.1897910154656581 0 -0.031637039445344017 0.19767931081015269 0 -0.057478398324341332 0.20606456403591589 0 -0.054948738746262903 0.1897910154656581 0 -0.054948738746262903 0.1897910154656581 0 -0.031637039445344017 0.19767931081015269 0 -0.039999697082172873 0.18418677263352329 0 -0.057478398324341332 0.20606456403591589 0 -0.031637039445344017 0.19767931081015269 0 -0.031637039445344017 0.19767931081015269 0 -0.0057956805663459468 0.1892940575843915 0 -0.031637039445344017 0.19767931081015269 0 -0.0057956805663459468 0.1892940575843915 0 -0.024775833668462071 0.17590936267321361 0 -0.031637039445344017 0.19767931081015269 0 -0.0057956805663459468 0.1892940575843915 0 -0.01019634689217482 0.20814994011246479 0 -0.0057956805663459468 0.1892940575843915 0 -0.01019634689217482 0.20814994011246479 0 0.0090806704795409685 0.20996839310177981 0 -0.01019634689217482 0.20814994011246479 0 0.00014186162909880781 0.2338185852574263 0 0.0090806704795409685 0.20996839310177981 0 -0.036443083940353373 0.22210497005765251 0 -0.031637039445344017 0.19767931081015269 0 -0.024866254401544021 0.22078734426404351 0 -0.031637039445344017 0.19767931081015269 0 -0.01019634689217482 0.20814994011246479 0 -0.024866254401544021 0.22078734426404351 0 -0.034335222642673788 0.23481172099035691 0 -0.024866254401544021 0.22078734426404351 0 -0.01991034591062427 0.239405390953495 0 -0.024866254401544021 0.22078734426404351 0 0.00014186162909880781 0.2338185852574263 0 -0.024866254401544021 0.22078734426404351 0 -0.01991034591062427 0.239405390953495 0 0.00014186162909880781 0.2338185852574263 0 -0.01019634689217482 0.20814994011246479 0 -0.024866254401544021 0.22078734426404351 0 0.00014186162909880781 0.2338185852574263 0 -0.0098044441781452579 0.25473951632571468 0 0.00014186162909880781 0.2338185852574263 0 0.0073806355134042019 0.25529449578482938 0 -0.0098044441781452579 0.25473951632571468 0 -0.01991034591062427 0.239405390953495 0 0.00014186162909880781 0.2338185852574263 0 -0.03068766995985707 0.25286978792993342 0 -0.034335222642673788 0.23481172099035691 0 -0.01991034591062427 0.239405390953495 0 -0.03068766995985707 0.25286978792993342 0 -0.0098044441781452579 0.25473951632571468 0 -0.01991034591062427 0.239405390953495 0 -0.045513089216113363 0.1481501368583191 0 -0.039963318838929777 0.1583549670989208 0 -0.028048700007850699 0.14601834090005769 0 -0.045513089216113363 0.1481501368583191 0 -0.037584816749385713 0.12707105787504261 0 -0.028048700007850699 0.14601834090005769 0 -0.037584816749385713 0.12707105787504261 0 -0.028048700007850699 0.14601834090005769 0 -0.045513089216113363 0.1481501368583191 0 -0.037584816749385713 0.12707105787504261 0 -0.045513089216113363 0.1481501368583191 0 -0.037584816749385713 0.12707105787504261 0 -0.049753839012929922 0.13582205838018921 0 -0.037584816749385713 0.12707105787504261 0 -0.049753839012929922 0.13582205838018921 0 -0.051208231868337763 0.1260313133231428 0 -0.049753839012929922 0.13582205838018921 0 -0.06070043620975589 0.134524720015781 0 -0.052276118599972977 0.1457036522838337 0 -0.051208231868337763 0.1260313133231428 0 -0.06070043620975589 0.134524720015781 0 -0.06411880478631618 0.11818203644688791 0 -0.06070043620975589 0.134524720015781 0 -0.06411880478631618 0.11818203644688791 0 -0.049753839012929922 0.13582205838018921 0 -0.051208231868337763 0.1260313133231428 0 -0.06070043620975589 0.134524720015781 0 -0.06070043620975589 0.134524720015781 0 -0.052276118599972977 0.1457036522838337 0 -0.05728206763319247 0.1508674035846734 0 -0.06070043620975589 0.134524720015781 0 -0.05728206763319247 0.1508674035846734 0 -0.045513089216113363 0.1481501368583191 0 -0.049753839012929922 0.13582205838018921 0 -0.052276118599972977 0.1457036522838337 0 -0.045513089216113363 0.1481501368583191 0 -0.052276118599972977 0.1457036522838337 0 -0.053440893212920608 0.15280063427064891 0 -0.052276118599972977 0.1457036522838337 0 -0.053440893212920608 0.15280063427064891 0 -0.05728206763319247 0.1508674035846734 0 -0.053440893212920608 0.15280063427064891 0 -0.05728206763319247 0.1508674035846734 0 -0.05728206763319247 0.1508674035846734 0 -0.062031688412593149 0.16441565219234799 0 -0.053441361682841117 0.16922921584159559 0 -0.053440893212920608 0.15280063427064891 0 -0.05728206763319247 0.1508674035846734 0 -0.053441361682841117 0.16922921584159559 0 -0.045513089216113363 0.1481501368583191 0 -0.053440893212920608 0.15280063427064891 0 -0.053441361682841117 0.16922921584159559 0 -0.045513089216113363 0.1481501368583191 0 -0.053441361682841117 0.16922921584159559 0 -0.05728206763319247 0.1508674035846734 0 -0.053441361682841117 0.16922921584159559 0 -0.06725389334219653 0.15771987894696021 0 -0.05728206763319247 0.1508674035846734 0 -0.062031688412593149 0.16441565219234799 0 -0.062031688412593149 0.16441565219234799 0 -0.053441361682841117 0.16922921584159559 0 -0.062041409668937363 0.1723934095439342 0 -0.053441361682841117 0.16922921584159559 0 -0.047633738945979477 0.17108968717192211 0 -0.039963318838929777 0.1583549670989208 0 -0.052991971448818453 0.17137768000779441 0 -0.053441361682841117 0.16922921584159559 0 -0.047633738945979477 0.17108968717192211 0 -0.052991971448818453 0.17137768000779441 0 -0.053441361682841117 0.16922921584159559 0 -0.054948738746262903 0.1897910154656581 0 -0.052419079168185397 0.17351746689540021 0 -0.046888846475854867 0.17837904804597579 0 -0.062951628171730722 0.19451437844324071 0 -0.054948738746262903 0.1897910154656581 0 -0.052419079168185397 0.17351746689540021 0 -0.062951628171730722 0.19451437844324071 0 -0.052991971448818453 0.17137768000779441 0 -0.052419079168185397 0.17351746689540021 0 -0.064604308801312821 0.18244611143699499 0 -0.062951628171730722 0.19451437844324071 0 -0.053441361682841117 0.16922921584159559 0 -0.062951628171730722 0.19451437844324071 0 -0.052991971448818453 0.17137768000779441 0 -0.053441361682841117 0.16922921584159559 0 -0.054948738746262903 0.1897910154656581 0 -0.052419079168185397 0.17351746689540021 0 -0.062951628171730722 0.19451437844324071 0 -0.053441361682841117 0.16922921584159559 0 -0.064604308801312821 0.18244611143699499 0 -0.053441361682841117 0.16922921584159559 0 -0.062041409668937363 0.1723934095439342 0 -0.052991971448818453 0.17137768000779441 0 -0.047633738945979477 0.17108968717192211 0 -0.052419079168185397 0.17351746689540021 0 -0.047633738945979477 0.17108968717192211 0 -0.052419079168185397 0.17351746689540021 0 -0.046888846475854867 0.17837904804597579 0 -0.054948738746262903 0.1897910154656581 0 -0.046888846475854867 0.17837904804597579 0 -0.039999697082172873 0.18418677263352329 0 -0.031637039445344017 0.19767931081015269 0 -0.039999697082172873 0.18418677263352329 0 -0.024775833668462071 0.17590936267321361 0 -0.046888846475854867 0.17837904804597579 0 -0.039999697082172873 0.18418677263352329 0 -0.039442978436673673 0.17331029806337539 0 -0.047633738945979477 0.17108968717192211 0 -0.046888846475854867 0.17837904804597579 0 -0.039442978436673673 0.17331029806337539 0 -0.039442978436673673 0.17331029806337539 0 -0.032139483942643897 0.16694135859911591 0 -0.024775833668462071 0.17590936267321361 0 -0.039999697082172873 0.18418677263352329 0 -0.039442978436673673 0.17331029806337539 0 -0.024775833668462071 0.17590936267321361 0 -0.045513089216113363 0.1481501368583191 0 -0.053441361682841117 0.16922921584159559 0 -0.039963318838929777 0.1583549670989208 0 -0.039963318838929777 0.1583549670989208 0 -0.032139483942643897 0.16694135859911591 0 -0.02343924065842673 0.15869802647678349 0 -0.047633738945979477 0.17108968717192211 0 -0.039442978436673673 0.17331029806337539 0 -0.039963318838929777 0.1583549670989208 0 -0.039442978436673673 0.17331029806337539 0 -0.039963318838929777 0.1583549670989208 0 -0.032139483942643897 0.16694135859911591 0 -0.032139483942643897 0.16694135859911591 0 -0.02343924065842673 0.15869802647678349 0 -0.024775833668462071 0.17590936267321361 0 -0.02343924065842673 0.15869802647678349 0 -0.024775833668462071 0.17590936267321361 0 -0.0048034666842798916 0.1614245706846468 0 -0.0057956805663459468 0.1892940575843915 0 -0.024775833668462071 0.17590936267321361 0 -0.0048034666842798916 0.1614245706846468 0 -0.0048034666842798916 0.1614245706846468 0 -0.01090464080839405 0.14353955890474629 0 0.011098566836083609 0.13484946890849181 0 -0.02343924065842673 0.15869802647678349 0 -0.0048034666842798916 0.1614245706846468 0 -0.01090464080839405 0.14353955890474629 0 -0.039963318838929777 0.1583549670989208 0 -0.02343924065842673 0.15869802647678349 0 -0.028048700007850699 0.14601834090005769 0 -0.02343924065842673 0.15869802647678349 0 -0.01090464080839405 0.14353955890474629 0 -0.028048700007850699 0.14601834090005769 0 -0.037584816749385713 0.12707105787504261 0 -0.0187932077553963 0.1304023687453105 0 -0.02482114599867602 0.1199028763409456 0 -0.01090464080839405 0.14353955890474629 0 -0.028048700007850699 0.14601834090005769 0 -0.0187932077553963 0.1304023687453105 0 -0.037584816749385713 0.12707105787504261 0 -0.028048700007850699 0.14601834090005769 0 -0.0187932077553963 0.1304023687453105 0 -0.0064436606074630637 0.13109611639504981 0 -0.007175360702145514 0.1155930690216506 0 0.011098566836083609 0.13484946890849181 0 -0.01090464080839405 0.14353955890474629 0 -0.0064436606074630637 0.13109611639504981 0 0.011098566836083609 0.13484946890849181 0 -0.0187932077553963 0.1304023687453105 0 -0.0064436606074630637 0.13109611639504981 0 -0.007175360702145514 0.1155930690216506 0 -0.01090464080839405 0.14353955890474629 0 -0.0187932077553963 0.1304023687453105 0 -0.0064436606074630637 0.13109611639504981 0 -0.007175360702145514 0.1155930690216506 0 -0.0040088977147468936 0.097024336429998151 0 -0.013655752966245171 0.094180689311720855 0 -0.007175360702145514 0.1155930690216506 0 -0.0040088977147468936 0.097024336429998151 0 0.0025937760044158291 0.1064596481343341 0 -0.007175360702145514 0.1155930690216506 0 -0.013655752966245171 0.094180689311720855 0 -0.02544928824037461 0.096336669134809427 0 -0.029459919491476121 0.1011230655410132 0 -0.021580178673492881 0.1105609364200745 0 -0.037915498494119543 0.10215930426450601 0 -0.007175360702145514 0.1155930690216506 0 -0.02544928824037461 0.096336669134809427 0 -0.007175360702145514 0.1155930690216506 0 -0.02544928824037461 0.096336669134809427 0 -0.0241566231860777 0.1021061234229471 0 -0.02544928824037461 0.096336669134809427 0 -0.029459919491476121 0.1011230655410132 0 -0.035034026511796899 0.0954599165668297 0 -0.02544928824037461 0.096336669134809427 0 -0.029459919491476121 0.1011230655410132 0 -0.0241566231860777 0.1021061234229471 0 -0.02544928824037461 0.096336669134809427 0 -0.0241566231860777 0.1021061234229471 0 -0.029459919491476121 0.1011230655410132 0 -0.0241566231860777 0.1021061234229471 0 -0.021580178673492881 0.1105609364200745 0 -0.02482114599867602 0.1199028763409456 0 -0.021580178673492881 0.1105609364200745 0 -0.032585978911933711 0.11378053360982859 0 -0.007175360702145514 0.1155930690216506 0 -0.0241566231860777 0.1021061234229471 0 -0.021580178673492881 0.1105609364200745 0 -0.0187932077553963 0.1304023687453105 0 -0.007175360702145514 0.1155930690216506 0 -0.02482114599867602 0.1199028763409456 0 -0.007175360702145514 0.1155930690216506 0 -0.02482114599867602 0.1199028763409456 0 -0.021580178673492881 0.1105609364200745 0 -0.01109578586274463 0.07592966442077155 0 -0.01963881101933795 0.057650575484614511 0 -0.0089029190745683329 0.062319161291970238 0 -0.0031702267477386531 0.067180855403790804 0 -0.01109578586274463 0.07592966442077155 0 0.0065236609159091173 0.071671444604676282 0 -0.0031702267477386531 0.067180855403790804 0 -0.0089029190745683329 0.062319161291970238 0 0.00079413703044923156 0.058803151297745167 0 -0.0031702267477386531 0.067180855403790804 0 -0.01109578586274463 0.07592966442077155 0 -0.0089029190745683329 0.062319161291970238 0 -0.0040088977147468936 0.097024336429998151 0 -0.01109578586274463 0.07592966442077155 0 0.011643404763696401 0.092949868607662828 0 -0.0040088977147468936 0.097024336429998151 0 -0.013655752966245171 0.094180689311720855 0 -0.01109578586274463 0.07592966442077155 0 -0.013655752966245171 0.094180689311720855 0 -0.01109578586274463 0.07592966442077155 0 -0.02054943231121421 0.086019707551374502 0 -0.02544928824037461 0.096336669134809427 0 -0.02054943231121421 0.086019707551374502 0 -0.029642132364781061 0.077623064684345475 0 -0.02544928824037461 0.096336669134809427 0 -0.029642132364781061 0.077623064684345475 0 -0.036673455980692451 0.084509049595857907 0 -0.01109578586274463 0.07592966442077155 0 -0.02054943231121421 0.086019707551374502 0 -0.029642132364781061 0.077623064684345475 0 -0.02544928824037461 0.096336669134809427 0 -0.029642132364781061 0.077623064684345475 0 -0.013655752966245171 0.094180689311720855 0 -0.02544928824037461 0.096336669134809427 0 -0.02054943231121421 0.086019707551374502 0 -0.02544928824037461 0.096336669134809427 0 -0.036673455980692451 0.084509049595857907 0 -0.01109578586274463 0.07592966442077155 0 -0.033834976489186493 0.058909460233881362 0 -0.01109578586274463 0.07592966442077155 0 -0.029642132364781061 0.077623064684345475 0 -0.033834976489186493 0.058909460233881362 0 -0.01109578586274463 0.07592966442077155 0 -0.033834976489186493 0.058909460233881362 0 -0.01963881101933795 0.057650575484614511 0 -0.029642132364781061 0.077623064684345475 0 -0.033834976489186493 0.058909460233881362 0 -0.029642132364781061 0.077623064684345475 0 -0.036732086871232597 0.066761861307427367 0 -0.033834976489186493 0.058909460233881362 0 -0.042969512877196837 0.063698159366550891 0 -0.036732086871232597 0.066761861307427367 0 -0.038306240480512441 0.072768089837317376 0 -0.042969512877196837 0.063698159366550891 0 -0.038306240480512441 0.072768089837317376 0 -0.046136221960229658 0.070392563092827029 0 -0.042969512877196837 0.063698159366550891 0 -0.036732086871232597 0.066761861307427367 0 -0.038907572144486188 0.060810532415041758 0 -0.029642132364781061 0.077623064684345475 0 -0.036732086871232597 0.066761861307427367 0 -0.038306240480512441 0.072768089837317376 0 -0.038306240480512441 0.072768089837317376 0 -0.046136221960229658 0.070392563092827029 0 -0.043586306971417507 0.077534071189344175 0 -0.038306240480512441 0.072768089837317376 0 -0.043586306971417507 0.077534071189344175 0 -0.036673455980692451 0.084509049595857907 0 -0.043586306971417507 0.077534071189344175 0 -0.036673455980692451 0.084509049595857907 0 -0.046978765451358998 0.084182386091036676 0 -0.029642132364781061 0.077623064684345475 0 -0.038306240480512441 0.072768089837317376 0 -0.036673455980692451 0.084509049595857907 0 -0.02544928824037461 0.096336669134809427 0 -0.036673455980692451 0.084509049595857907 0 -0.035034026511796899 0.0954599165668297 0 -0.036673455980692451 0.084509049595857907 0 -0.044089979176562301 0.093675305350012283 0 -0.035034026511796899 0.0954599165668297 0 -0.036673455980692451 0.084509049595857907 0 -0.044089979176562301 0.093675305350012283 0 -0.046978765451358998 0.084182386091036676 0 -0.044089979176562301 0.093675305350012283 0 -0.057144835734191893 0.088207312209507505 0 -0.046978765451358998 0.084182386091036676 0 -0.057144835734191893 0.088207312209507505 0 -0.046978765451358998 0.084182386091036676 0 -0.053399249393930842 0.076986192110461482 0 -0.043586306971417507 0.077534071189344175 0 -0.046978765451358998 0.084182386091036676 0 -0.053399249393930842 0.076986192110461482 0 -0.053399249393930842 0.076986192110461482 0 -0.070406408885084593 0.061857930521202607 0 -0.059815066152941319 0.061788281472960463 0 -0.057144835734191893 0.088207312209507505 0 -0.053399249393930842 0.076986192110461482 0 -0.070406408885084593 0.061857930521202607 0 -0.046136221960229658 0.070392563092827029 0 -0.043586306971417507 0.077534071189344175 0 -0.053399249393930842 0.076986192110461482 0 -0.046136221960229658 0.070392563092827029 0 -0.053399249393930842 0.076986192110461482 0 -0.05257832837313995 0.068950164376806455 0 -0.053399249393930842 0.076986192110461482 0 -0.05257832837313995 0.068950164376806455 0 -0.059815066152941319 0.061788281472960463 0 -0.05257832837313995 0.068950164376806455 0 -0.052166049838275927 0.062310195238599278 0 -0.059815066152941319 0.061788281472960463 0 -0.046136221960229658 0.070392563092827029 0 -0.05257832837313995 0.068950164376806455 0 -0.052166049838275927 0.062310195238599278 0 -0.042969512877196837 0.063698159366550891 0 -0.046136221960229658 0.070392563092827029 0 -0.052166049838275927 0.062310195238599278 0 -0.021580178673492881 0.1105609364200745 0 -0.043883262583300407 0.11455669389781301 0 -0.021580178673492881 0.1105609364200745 0 -0.043883262583300407 0.11455669389781301 0 -0.032585978911933711 0.11378053360982859 0 -0.037584816749385713 0.12707105787504261 0 -0.051208231868337763 0.1260313133231428 0 -0.043883262583300407 0.11455669389781301 0 -0.037584816749385713 0.12707105787504261 0 -0.043883262583300407 0.11455669389781301 0 -0.037584816749385713 0.12707105787504261 0 -0.032585978911933711 0.11378053360982859 0 -0.037584816749385713 0.12707105787504261 0 -0.043883262583300407 0.11455669389781301 0 -0.032585978911933711 0.11378053360982859 0 -0.037584816749385713 0.12707105787504261 0 -0.02482114599867602 0.1199028763409456 0 -0.032585978911933711 0.11378053360982859 0 -0.021580178673492881 0.1105609364200745 0 -0.043883262583300407 0.11455669389781301 0 -0.037915498494119543 0.10215930426450601 0 -0.044089979176562301 0.093675305350012283 0 -0.043883262583300407 0.11455669389781301 0 -0.037915498494119543 0.10215930426450601 0 -0.044089979176562301 0.093675305350012283 0 -0.037915498494119543 0.10215930426450601 0 -0.035034026511796899 0.0954599165668297 0 -0.029459919491476121 0.1011230655410132 0 -0.037915498494119543 0.10215930426450601 0 -0.035034026511796899 0.0954599165668297 0 -0.044089979176562301 0.093675305350012283 0 -0.057144835734191893 0.088207312209507505 0 -0.043883262583300407 0.11455669389781301 0 -0.057144835734191893 0.088207312209507505 0 -0.043883262583300407 0.11455669389781301 0 -0.057144835734191893 0.088207312209507505 0 -0.043883262583300407 0.11455669389781301 0 -0.056175626513735713 0.104231459755559 0 -0.056175626513735713 0.104231459755559 0 -0.061770267295803899 0.1005995653590098 0 -0.06411880478631618 0.11818203644688791 0 -0.057144835734191893 0.088207312209507505 0 -0.056175626513735713 0.104231459755559 0 -0.061770267295803899 0.1005995653590098 0 -0.043883262583300407 0.11455669389781301 0 -0.06411880478631618 0.11818203644688791 0 -0.051208231868337763 0.1260313133231428 0 -0.043883262583300407 0.11455669389781301 0 -0.06411880478631618 0.11818203644688791 0 -0.043883262583300407 0.11455669389781301 0 -0.056175626513735713 0.104231459755559 0 -0.06411880478631618 0.11818203644688791 0 -0.071786582042575819 0.1280585334591178 0 -0.06411880478631618 0.11818203644688791 0 -0.08034823769671974 0.121089655777625 0 -0.06411880478631618 0.11818203644688791 0 -0.08034823769671974 0.121089655777625 0 -0.075381325115152609 0.106019298300689 0 -0.06411880478631618 0.11818203644688791 0 -0.08034823769671974 0.121089655777625 0 -0.08034823769671974 0.121089655777625 0 -0.096577670607123245 0.1239972751083621 0 -0.08034823769671974 0.121089655777625 0 -0.092569001324263961 0.1124699312803344 0 -0.096577670607123245 0.1239972751083621 0 -0.08034823769671974 0.121089655777625 0 -0.083967771981719092 0.1102844810624737 0 -0.092569001324263961 0.1124699312803344 0 -0.08034823769671974 0.121089655777625 0 -0.083967771981719092 0.1102844810624737 0 -0.075381325115152609 0.106019298300689 0 -0.087572523790740042 0.10155903889124659 0 -0.082071947835387321 0.094412947715560025 0 -0.09233625647768956 0.091651488650119919 0 -0.083967771981719092 0.1102844810624737 0 -0.092569001324263961 0.1124699312803344 0 -0.087572523790740042 0.10155903889124659 0 -0.083967771981719092 0.1102844810624737 0 -0.087572523790740042 0.10155903889124659 0 -0.075381325115152609 0.106019298300689 0 -0.087572523790740042 0.10155903889124659 0 -0.082071947835387321 0.094412947715560025 0 -0.075381325115152609 0.106019298300689 0 -0.06411880478631618 0.11818203644688791 0 -0.06964180214897181 0.091777453024084701 0 -0.082071947835387321 0.094412947715560025 0 -0.075381325115152609 0.106019298300689 0 -0.06964180214897181 0.091777453024084701 0 -0.06411880478631618 0.11818203644688791 0 -0.075381325115152609 0.106019298300689 0 -0.06964180214897181 0.091777453024084701 0 -0.061770267295803899 0.1005995653590098 0 -0.06411880478631618 0.11818203644688791 0 -0.06964180214897181 0.091777453024084701 0 -0.057144835734191893 0.088207312209507505 0 -0.061770267295803899 0.1005995653590098 0 -0.06964180214897181 0.091777453024084701 0 -0.06964180214897181 0.091777453024084701 0 -0.075164799511626648 0.065372869601281192 0 -0.057144835734191893 0.088207312209507505 0 -0.06964180214897181 0.091777453024084701 0 -0.068089461569968729 0.076803891339018993 0 -0.06964180214897181 0.091777453024084701 0 -0.068089461569968729 0.076803891339018993 0 -0.075164799511626648 0.065372869601281192 0 -0.057144835734191893 0.088207312209507505 0 -0.068089461569968729 0.076803891339018993 0 -0.070406408885084593 0.061857930521202607 0 -0.06964180214897181 0.091777453024084701 0 -0.075164799511626648 0.065372869601281192 0 -0.08073347634316104 0.073575546631144614 0 -0.057144835734191893 0.088207312209507505 0 -0.070406408885084593 0.061857930521202607 0 -0.068089461569968729 0.076803891339018993 0 -0.075164799511626648 0.065372869601281192 0 -0.070406408885084593 0.061857930521202607 0 -0.089923560922876636 0.068178037636278263 0 -0.08578586832533959 0.082170087930996366 0 -0.103675070998617 0.083967309240415983 0 -0.08073347634316104 0.073575546631144614 0 -0.089923560922876636 0.068178037636278263 0 -0.083186879645449088 0.059889597987781727 0 -0.075164799511626648 0.065372869601281192 0 -0.08073347634316104 0.073575546631144614 0 -0.083186879645449088 0.059889597987781727 0 -0.08073347634316104 0.073575546631144614 0 -0.089923560922876636 0.068178037636278263 0 -0.08578586832533959 0.082170087930996366 0 -0.06964180214897181 0.091777453024084701 0 -0.08073347634316104 0.073575546631144614 0 -0.08578586832533959 0.082170087930996366 0 -0.082071947835387321 0.094412947715560025 0 -0.06964180214897181 0.091777453024084701 0 -0.08578586832533959 0.082170087930996366 0 -0.082071947835387321 0.094412947715560025 0 -0.08578586832533959 0.082170087930996366 0 -0.09233625647768956 0.091651488650119919 0 -0.09233625647768956 0.091651488650119919 0 -0.103675070998617 0.083967309240415983 0 -0.10429444750695741 0.1014886749251958 0 -0.08578586832533959 0.082170087930996366 0 -0.09233625647768956 0.091651488650119919 0 -0.103675070998617 0.083967309240415983 0 -0.103675070998617 0.083967309240415983 0 -0.1198812247159142 0.095002477965890675 0 -0.10429444750695741 0.1014886749251958 0 -0.089923560922876636 0.068178037636278263 0 -0.103675070998617 0.083967309240415983 0 -0.10785209906359081 0.065371441260914459 0 -0.12533951967512769 0.078274991835817334 0 -0.103675070998617 0.083967309240415983 0 -0.10785209906359081 0.065371441260914459 0 -0.12533951967512769 0.078274991835817334 0 -0.10785209906359081 0.065371441260914459 0 -0.1248745965026067 0.059896082918310993 0 -0.12533951967512769 0.078274991835817334 0 -0.103675070998617 0.083967309240415983 0 -0.1198812247159142 0.095002477965890675 0 -0.13137241316615089 0.11357835761918721 0 -0.1198812247159142 0.095002477965890675 0 -0.10429444750695741 0.1014886749251958 0 -0.13137241316615089 0.11357835761918721 0 -0.12687331202938101 0.13192737382428379 0 -0.10667563132183119 0.1260080396076822 0 -0.13137241316615089 0.11357835761918721 0 -0.10667563132183119 0.1260080396076822 0 -0.1062978327852654 0.11550845570815239 0 -0.13137241316615089 0.11357835761918721 0 -0.1062978327852654 0.11550845570815239 0 -0.10429444750695741 0.1014886749251958 0 -0.13137241316615089 0.11357835761918721 0 -0.10667563132183119 0.1260080396076822 0 -0.10667563132183119 0.1260080396076822 0 -0.1062978327852654 0.11550845570815239 0 -0.096577670607123245 0.1239972751083621 0 -0.092569001324263961 0.1124699312803344 0 -0.1062978327852654 0.11550845570815239 0 -0.096577670607123245 0.1239972751083621 0 -0.092569001324263961 0.1124699312803344 0 -0.1062978327852654 0.11550845570815239 0 -0.10429444750695741 0.1014886749251958 0 -0.092569001324263961 0.1124699312803344 0 -0.087572523790740042 0.10155903889124659 0 -0.10429444750695741 0.1014886749251958 0 -0.087572523790740042 0.10155903889124659 0 -0.09233625647768956 0.091651488650119919 0 -0.10429444750695741 0.1014886749251958 0 -0.10370969952600501 0.019997694726909911 0 -0.098524362227562057 0.035744340183224317 0 -0.08645931971955316 0.02325136753113614 0 -0.10370969952600501 0.019997694726909911 0 -0.08645931971955316 0.02325136753113614 0 -0.091682611010439896 0.0063963380850077774 0 -0.10370969952600501 0.019997694726909911 0 -0.1180188049733784 0.030804183747700629 0 -0.098524362227562057 0.035744340183224317 0 -0.10370969952600501 0.019997694726909911 0 -0.10877227824827949 0.0075748546359299482 0 -0.091682611010439896 0.0063963380850077774 0 -0.1029392013539359 -0.0085751277431150782 0 -0.10877227824827949 0.0075748546359299482 0 -0.091682611010439896 0.0063963380850077774 0 -0.10370969952600501 0.019997694726909911 0 -0.10877227824827949 0.0075748546359299482 0 -0.11835839359799651 0.016938700943610479 0 -0.1029392013539359 -0.0085751277431150782 0 -0.12735709500343681 0.004015926865657337 0 -0.10877227824827949 0.0075748546359299482 0 -0.12735709500343681 0.004015926865657337 0 -0.10877227824827949 0.0075748546359299482 0 -0.11835839359799651 0.016938700943610479 0 -0.1339340902388827 0.022300844741854581 0 -0.11835839359799651 0.016938700943610479 0 -0.1180188049733784 0.030804183747700629 0 -0.10370969952600501 0.019997694726909911 0 -0.11835839359799651 0.016938700943610479 0 -0.1180188049733784 0.030804183747700629 0 -0.1180188049733784 0.030804183747700629 0 -0.1128457876968547 0.048091259023394652 0 -0.098524362227562057 0.035744340183224317 0 -0.13626681081840961 0.042829268155062397 0 -0.1128457876968547 0.048091259023394652 0 -0.13626681081840961 0.042829268155062397 0 -0.1180188049733784 0.030804183747700629 0 -0.1128457876968547 0.048091259023394652 0 -0.13626681081840961 0.042829268155062397 0 -0.1128457876968547 0.048091259023394652 0 -0.1248745965026067 0.059896082918310993 0 -0.10785209906359081 0.065371441260914459 0 -0.1128457876968547 0.048091259023394652 0 -0.1248745965026067 0.059896082918310993 0 -0.1128457876968547 0.048091259023394652 0 -0.089424764575299687 0.053353249891726941 0 -0.089923560922876636 0.068178037636278263 0 -0.10785209906359081 0.065371441260914459 0 -0.089424764575299687 0.053353249891726941 0 -0.10785209906359081 0.065371441260914459 0 -0.1128457876968547 0.048091259023394652 0 -0.089424764575299687 0.053353249891726941 0 -0.1128457876968547 0.048091259023394652 0 -0.098524362227562057 0.035744340183224317 0 -0.089424764575299687 0.053353249891726941 0 -0.098524362227562057 0.035744340183224317 0 -0.080687796874281473 0.038968286178477703 0 -0.08645931971955316 0.02325136753113614 0 -0.098524362227562057 0.035744340183224317 0 -0.080687796874281473 0.038968286178477703 0 -0.089424764575299687 0.053353249891726941 0 -0.080687796874281473 0.038968286178477703 0 -0.089424764575299687 0.053353249891726941 0 -0.083186879645449088 0.059889597987781727 0 -0.075164799511626648 0.065372869601281192 0 -0.080687796874281473 0.038968286178477703 0 -0.083186879645449088 0.059889597987781727 0 -0.089923560922876636 0.068178037636278263 0 -0.089424764575299687 0.053353249891726941 0 -0.083186879645449088 0.059889597987781727 0 -0.075164799511626648 0.065372869601281192 0 -0.080687796874281473 0.038968286178477703 0 -0.071303082845968715 0.053347503409362687 0 -0.075164799511626648 0.065372869601281192 0 -0.080687796874281473 0.038968286178477703 0 -0.075164799511626648 0.065372869601281192 0 -0.070406408885084593 0.061857930521202607 0 -0.071303082845968715 0.053347503409362687 0 -0.071303082845968715 0.053347503409362687 0 -0.064856269609628314 0.055117702274744398 0 -0.065400139349222536 0.045420728471107522 0 -0.070406408885084593 0.061857930521202607 0 -0.071303082845968715 0.053347503409362687 0 -0.064856269609628314 0.055117702274744398 0 -0.070406408885084593 0.061857930521202607 0 -0.064856269609628314 0.055117702274744398 0 -0.059815066152941319 0.061788281472960463 0 -0.080687796874281473 0.038968286178477703 0 -0.065400139349222536 0.045420728471107522 0 -0.063264057366842208 0.031259222641012697 0 -0.080687796874281473 0.038968286178477703 0 -0.063264057366842208 0.031259222641012697 0 -0.073460039823911166 0.024685388153665749 0 -0.080687796874281473 0.038968286178477703 0 -0.071303082845968715 0.053347503409362687 0 -0.065400139349222536 0.045420728471107522 0 -0.063264057366842208 0.031259222641012697 0 -0.073460039823911166 0.024685388153665749 0 -0.061440697951084179 0.017621877449499421 0 -0.073460039823911166 0.024685388153665749 0 -0.076769634387976737 0.01135693610240161 0 -0.061440697951084179 0.017621877449499421 0 -0.080687796874281473 0.038968286178477703 0 -0.073460039823911166 0.024685388153665749 0 -0.08645931971955316 0.02325136753113614 0 -0.073460039823911166 0.024685388153665749 0 -0.08645931971955316 0.02325136753113614 0 -0.076769634387976737 0.01135693610240161 0 -0.08645931971955316 0.02325136753113614 0 -0.091682611010439896 0.0063963380850077774 0 -0.076769634387976737 0.01135693610240161 0 -0.091682611010439896 0.0063963380850077774 0 -0.078933949510919491 0.00072378658541613432 0 -0.076769634387976737 0.01135693610240161 0 -0.086097875964997059 -0.0058870606910941042 0 -0.091682611010439896 0.0063963380850077774 0 -0.078933949510919491 0.00072378658541613432 0 -0.078933949510919491 0.00072378658541613432 0 -0.076769634387976737 0.01135693610240161 0 -0.068462160169621672 0.0025537029525893409 0 -0.068462160169621672 0.0025537029525893409 0 -0.057836245250817257 0.0062936453779614283 0 -0.061440697951084179 0.017621877449499421 0 -0.076769634387976737 0.01135693610240161 0 -0.068462160169621672 0.0025537029525893409 0 -0.061440697951084179 0.017621877449499421 0 -0.057836245250817257 0.0062936453779614283 0 -0.061440697951084179 0.017621877449499421 0 -0.042678209040760022 0.019440128409622049 0 -0.057836245250817257 0.0062936453779614283 0 -0.042678209040760022 0.019440128409622049 0 -0.044352522143416888 0.0050416822031405977 0 -0.063264057366842208 0.031259222641012697 0 -0.042678209040760022 0.019440128409622049 0 -0.05195897498334151 0.039592758420259042 0 -0.063264057366842208 0.031259222641012697 0 -0.061440697951084179 0.017621877449499421 0 -0.042678209040760022 0.019440128409622049 0 -0.042678209040760022 0.019440128409622049 0 -0.038256592764973757 0.039174794321751791 0 -0.042678209040760022 0.019440128409622049 0 -0.038256592764973757 0.039174794321751791 0 -0.027511467414372541 0.03001296694831072 0 -0.042678209040760022 0.019440128409622049 0 -0.028180513839983729 0.018098474401369 0 -0.027511467414372541 0.03001296694831072 0 -0.042678209040760022 0.019440128409622049 0 -0.032770024037711037 0.0084985419153508525 0 -0.028180513839983729 0.018098474401369 0 -0.032770024037711037 0.0084985419153508525 0 -0.03614709390981162 0.0015378833132510439 0 -0.044352522143416888 0.0050416822031405977 0 -0.029539197120254941 -0.00051038393964639519 0 -0.032770024037711037 0.0084985419153508525 0 -0.03614709390981162 0.0015378833132510439 0 -0.042678209040760022 0.019440128409622049 0 -0.032770024037711037 0.0084985419153508525 0 -0.044352522143416888 0.0050416822031405977 0 -0.042969512877196837 0.063698159366550891 0 -0.047980875447113908 0.056604040506729722 0 -0.052166049838275927 0.062310195238599278 0 -0.047980875447113908 0.056604040506729722 0 -0.052166049838275927 0.062310195238599278 0 -0.055804220694704088 0.051985500715961808 0 -0.064856269609628314 0.055117702274744398 0 -0.059815066152941319 0.061788281472960463 0 -0.055804220694704088 0.051985500715961808 0 -0.052166049838275927 0.062310195238599278 0 -0.059815066152941319 0.061788281472960463 0 -0.055804220694704088 0.051985500715961808 0 -0.064856269609628314 0.055117702274744398 0 -0.065400139349222536 0.045420728471107522 0 -0.055804220694704088 0.051985500715961808 0 -0.047980875447113908 0.056604040506729722 0 -0.055804220694704088 0.051985500715961808 0 -0.046350630683546529 0.050276175962098407 0 -0.055804220694704088 0.051985500715961808 0 -0.05195897498334151 0.039592758420259042 0 -0.046350630683546529 0.050276175962098407 0 -0.065400139349222536 0.045420728471107522 0 -0.055804220694704088 0.051985500715961808 0 -0.05195897498334151 0.039592758420259042 0 -0.065400139349222536 0.045420728471107522 0 -0.063264057366842208 0.031259222641012697 0 -0.05195897498334151 0.039592758420259042 0 -0.042678209040760022 0.019440128409622049 0 -0.05195897498334151 0.039592758420259042 0 -0.038256592764973757 0.039174794321751791 0 -0.05195897498334151 0.039592758420259042 0 -0.038256592764973757 0.039174794321751791 0 -0.046350630683546529 0.050276175962098407 0 -0.038256592764973757 0.039174794321751791 0 -0.033834976489186493 0.058909460233881362 0 -0.038256592764973757 0.039174794321751791 0 -0.038513274033404883 0.055407770980391423 0 -0.033834976489186493 0.058909460233881362 0 -0.038256592764973757 0.039174794321751791 0 -0.046350630683546529 0.050276175962098407 0 -0.038513274033404883 0.055407770980391423 0 -0.038256592764973757 0.039174794321751791 0 -0.033834976489186493 0.058909460233881362 0 -0.02879531395286377 0.050132256585483953 0 -0.046350630683546529 0.050276175962098407 0 -0.038513274033404883 0.055407770980391423 0 -0.042914570065583427 0.057802329486214707 0 -0.036732086871232597 0.066761861307427367 0 -0.033834976489186493 0.058909460233881362 0 -0.038907572144486188 0.060810532415041758 0 -0.038513274033404883 0.055407770980391423 0 -0.033834976489186493 0.058909460233881362 0 -0.038513274033404883 0.055407770980391423 0 -0.033834976489186493 0.058909460233881362 0 -0.038907572144486188 0.060810532415041758 0 -0.042969512877196837 0.063698159366550891 0 -0.038907572144486188 0.060810532415041758 0 -0.042914570065583427 0.057802329486214707 0 -0.038513274033404883 0.055407770980391423 0 -0.038907572144486188 0.060810532415041758 0 -0.042914570065583427 0.057802329486214707 0 -0.047980875447113908 0.056604040506729722 0 -0.046350630683546529 0.050276175962098407 0 -0.042914570065583427 0.057802329486214707 0 -0.042969512877196837 0.063698159366550891 0 -0.047980875447113908 0.056604040506729722 0 -0.042914570065583427 0.057802329486214707 0 -0.033834976489186493 0.058909460233881362 0 -0.01963881101933795 0.057650575484614511 0 -0.02879531395286377 0.050132256585483953 0 -0.01963881101933795 0.057650575484614511 0 -0.02879531395286377 0.050132256585483953 0 -0.02345087553795689 0.044794196301688183 0 -0.01963881101933795 0.057650575484614511 0 -0.02345087553795689 0.044794196301688183 0 -0.012175026131353321 0.050402421608982242 0 -0.02345087553795689 0.044794196301688183 0 -0.014695186475719159 0.0359408453649432 0 -0.012175026131353321 0.050402421608982242 0 -0.038256592764973757 0.039174794321751791 0 -0.02879531395286377 0.050132256585483953 0 -0.02345087553795689 0.044794196301688183 0 -0.038256592764973757 0.039174794321751791 0 -0.02345087553795689 0.044794196301688183 0 -0.027511467414372541 0.03001296694831072 0 -0.02345087553795689 0.044794196301688183 0 -0.014695186475719159 0.0359408453649432 0 -0.027511467414372541 0.03001296694831072 0 -0.014695186475719159 0.0359408453649432 0 -0.0023331541944977092 0.045311556235899067 0 0.00074240361007229996 0.028778475488121531 0 -0.014695186475719159 0.0359408453649432 0 -0.0023331541944977092 0.045311556235899067 0 -0.012175026131353321 0.050402421608982242 0 -0.0023331541944977092 0.045311556235899067 0 -0.012175026131353321 0.050402421608982242 0 0.00079413703044923156 0.058803151297745167 0 -0.012175026131353321 0.050402421608982242 0 -0.0089029190745683329 0.062319161291970238 0 0.00079413703044923156 0.058803151297745167 0 -0.01963881101933795 0.057650575484614511 0 -0.012175026131353321 0.050402421608982242 0 -0.0089029190745683329 0.062319161291970238 0 -0.021996997598287969 0.010981086364913869 0 -0.02112675760807068 0.0030512678310729521 0 -0.0083058662928979787 0.012079608812324741 0 -0.021996997598287969 0.010981086364913869 0 -0.01661374249992489 0.02103319015209278 0 -0.0083058662928979787 0.012079608812324741 0 -0.021996997598287969 0.010981086364913869 0 -0.02112675760807068 0.0030512678310729521 0 -0.02631380729169577 0.0053104208567875946 0 -0.029539197120254941 -0.00051038393964639519 0 -0.02112675760807068 0.0030512678310729521 0 -0.02631380729169577 0.0053104208567875946 0 -0.029539197120254941 -0.00051038393964639519 0 -0.032770024037711037 0.0084985419153508525 0 -0.02631380729169577 0.0053104208567875946 0 -0.032770024037711037 0.0084985419153508525 0 -0.021996997598287969 0.010981086364913869 0 -0.02631380729169577 0.0053104208567875946 0 -0.032770024037711037 0.0084985419153508525 0 -0.021996997598287969 0.010981086364913869 0 -0.028180513839983729 0.018098474401369 0 -0.028180513839983729 0.018098474401369 0 -0.027511467414372541 0.03001296694831072 0 -0.01661374249992489 0.02103319015209278 0 -0.014695186475719159 0.0359408453649432 0 -0.027511467414372541 0.03001296694831072 0 -0.01661374249992489 0.02103319015209278 0 -0.021996997598287969 0.010981086364913869 0 -0.028180513839983729 0.018098474401369 0 -0.01661374249992489 0.02103319015209278 0 -0.01661374249992489 0.02103319015209278 0 0.00074240361007229996 0.028778475488121531 0 -0.0083058662928979787 0.012079608812324741 0 0.0060294939382754481 0.01286563290641534 0 0.00074240361007229996 0.028778475488121531 0 -0.014695186475719159 0.0359408453649432 0 -0.01661374249992489 0.02103319015209278 0 0.00074240361007229996 0.028778475488121531 0 -0.0083058662928979787 0.012079608812324741 0 0.00074240361007229996 0.028778475488121531 0 -0.01661374249992489 0.02103319015209278 0 -0.0083058662928979787 0.012079608812324741 0 0.00074240361007229996 0.028778475488121531 0 -0.0072764121498596901 -0.0036325873431357339 0 -0.0083058662928979787 0.012079608812324741 0 0.0012074066645448821 -0.00065723147797176382 0 -0.0072764121498596901 -0.0036325873431357339 0 -0.013607688627124061 -0.00178224205395049 0 -0.0083058662928979787 0.012079608812324741 0 -0.017354136195868258 -0.0046192578634720229 0 -0.0083058662928979787 0.012079608812324741 0 -0.017354136195868258 -0.0046192578634720229 0 -0.013607688627124061 -0.00178224205395049 0 -0.0083058662928979787 0.012079608812324741 0 -0.0083058662928979787 0.012079608812324741 0 0.0060294939382754481 0.01286563290641534 0 0.0012074066645448821 -0.00065723147797176382 0 -0.017354136195868258 -0.0046192578634720229 0 -0.02112675760807068 0.0030512678310729521 0 -0.0083058662928979787 0.012079608812324741 0 0.0060294939382754481 0.01286563290641534 0 0.0012074066645448821 -0.00065723147797176382 0 0.01265631079038235 -0.01012693536007268 0 0.0060294939382754481 0.01286563290641534 0 0.020311547060899309 0.014329649790385431 0 0.01265631079038235 -0.01012693536007268 0 0.00074240361007229996 0.028778475488121531 0 0.015746539320639769 0.024046632949657649 0 0.022626785018342459 0.038544513255683338 0 0.0060294939382754481 0.01286563290641534 0 0.00074240361007229996 0.028778475488121531 0 0.015746539320639769 0.024046632949657649 0 0.0060294939382754481 0.01286563290641534 0 0.015746539320639769 0.024046632949657649 0 0.020311547060899309 0.014329649790385431 0 0.015746539320639769 0.024046632949657649 0 0.029022466975609298 0.02571489330768258 0 0.020311547060899309 0.014329649790385431 0 0.015746539320639769 0.024046632949657649 0 0.029022466975609298 0.02571489330768258 0 0.022626785018342459 0.038544513255683338 0 0.020311547060899309 0.014329649790385431 0 0.034885408484197772 0.0062912350017927032 0 0.01265631079038235 -0.01012693536007268 0 0.029022466975609298 0.02571489330768258 0 0.020311547060899309 0.014329649790385431 0 0.034885408484197772 0.0062912350017927032 0 0.00079413703044923156 0.058803151297745167 0 0.01366790099406239 0.052632887419703241 0 0.0065236609159091173 0.071671444604676282 0 -0.0023331541944977092 0.045311556235899067 0 0.00079413703044923156 0.058803151297745167 0 0.01366790099406239 0.052632887419703241 0 0.00074240361007229996 0.028778475488121531 0 0.01366790099406239 0.052632887419703241 0 0.022626785018342459 0.038544513255683338 0 0.00074240361007229996 0.028778475488121531 0 0.022626785018342459 0.038544513255683338 0 -0.0023331541944977092 0.045311556235899067 0 0.00074240361007229996 0.028778475488121531 0 0.01366790099406239 0.052632887419703241 0 0.00074240361007229996 0.028778475488121531 0 0.01366790099406239 0.052632887419703241 0 0.029022466975609298 0.02571489330768258 0 0.022626785018342459 0.038544513255683338 0 0.037630953216902623 0.033668105561091018 0 0.01366790099406239 0.052632887419703241 0 0.022626785018342459 0.038544513255683338 0 0.025434983742737761 0.055249644843112657 0 0.022626785018342459 0.038544513255683338 0 0.025434983742737761 0.055249644843112657 0 0.034616451435572633 0.051242168749322393 0 0.025434983742737761 0.055249644843112657 0 0.034062632092931817 0.061255223706808547 0 0.02703491536905472 0.067401080742933134 0 0.01366790099406239 0.052632887419703241 0 0.025434983742737761 0.055249644843112657 0 0.02703491536905472 0.067401080742933134 0 0.034616451435572633 0.051242168749322393 0 0.044511166426612833 0.04831055102324476 0 0.060132464308973767 0.062986029428160187 0 0.034616451435572633 0.051242168749322393 0 0.060132464308973767 0.062986029428160187 0 0.044258496001147778 0.063884183083345675 0 0.034062632092931817 0.061255223706808547 0 0.034616451435572633 0.051242168749322393 0 0.044258496001147778 0.063884183083345675 0 0.025434983742737761 0.055249644843112657 0 0.034062632092931817 0.061255223706808547 0 0.034616451435572633 0.051242168749322393 0 0.022626785018342459 0.038544513255683338 0 0.044511166426612833 0.04831055102324476 0 0.022626785018342459 0.038544513255683338 0 0.034616451435572633 0.051242168749322393 0 0.044511166426612833 0.04831055102324476 0 0.022626785018342459 0.038544513255683338 0 0.044511166426612833 0.04831055102324476 0 0.037630953216902623 0.033668105561091018 0 0.044511166426612833 0.04831055102324476 0 0.037630953216902623 0.033668105561091018 0 0.0484135161167236 0.034205204957136963 0 0.0484135161167236 0.034205204957136963 0 0.060669767880595721 0.038134724015348051 0 0.0518117103670514 0.042737821036878322 0 0.0484135161167236 0.034205204957136963 0 0.060669767880595721 0.038134724015348051 0 0.057623658326613529 0.02352368721002385 0 0.060669767880595721 0.038134724015348051 0 0.0518117103670514 0.042737821036878322 0 0.059559274975242667 0.047504887075434543 0 0.044511166426612833 0.04831055102324476 0 0.0518117103670514 0.042737821036878322 0 0.059559274975242667 0.047504887075434543 0 0.044511166426612833 0.04831055102324476 0 0.0484135161167236 0.034205204957136963 0 0.0518117103670514 0.042737821036878322 0 0.044511166426612833 0.04831055102324476 0 0.066395547834883203 0.05807658879080619 0 0.060132464308973767 0.062986029428160187 0 0.034616451435572633 0.051242168749322393 0 0.060132464308973767 0.062986029428160187 0 0.044511166426612833 0.04831055102324476 0 0.066395547834883203 0.05807658879080619 0 0.044511166426612833 0.04831055102324476 0 0.059559274975242667 0.047504887075434543 0 0.066395547834883203 0.05807658879080619 0 0.034885408484197772 0.0062912350017927032 0 0.052968053050369737 0.0090809173488315582 0 0.042517259973231587 -0.011683923625132649 0 0.034885408484197772 0.0062912350017927032 0 0.043580831547224863 0.021565365261707499 0 0.052968053050369737 0.0090809173488315582 0 0.029022466975609298 0.02571489330768258 0 0.034885408484197772 0.0062912350017927032 0 0.043580831547224863 0.021565365261707499 0 0.029022466975609298 0.02571489330768258 0 0.037630953216902623 0.033668105561091018 0 0.043580831547224863 0.021565365261707499 0 0.037630953216902623 0.033668105561091018 0 0.0484135161167236 0.034205204957136963 0 0.043580831547224863 0.021565365261707499 0 0.057623658326613529 0.02352368721002385 0 0.052968053050369737 0.0090809173488315582 0 0.071708216805815503 0.016768608491387289 0 0.043580831547224863 0.021565365261707499 0 0.057623658326613529 0.02352368721002385 0 0.052968053050369737 0.0090809173488315582 0 0.0484135161167236 0.034205204957136963 0 0.043580831547224863 0.021565365261707499 0 0.057623658326613529 0.02352368721002385 0 0.052968053050369737 0.0090809173488315582 0 0.071708216805815503 0.016768608491387289 0 0.067492943165135169 -0.0019794682467893379 0 0.083930998993742512 0.0059737405228527038 0 0.071708216805815503 0.016768608491387289 0 0.067492943165135169 -0.0019794682467893379 0 0.083930998993742512 0.0059737405228527038 0 0.098495163759696414 0.0029673617968291321 0 0.094917995650245529 0.021722354499223519 0 0.083930998993742512 0.0059737405228527038 0 0.071708216805815503 0.016768608491387289 0 0.094917995650245529 0.021722354499223519 0 0.071708216805815503 0.016768608491387289 0 0.07449934060461412 0.03258063005354956 0 0.094917995650245529 0.021722354499223519 0 0.07449934060461412 0.03258063005354956 0 0.087237150257314613 0.037926204838731957 0 0.094917995650245529 0.021722354499223519 0 0.057623658326613529 0.02352368721002385 0 0.071708216805815503 0.016768608491387289 0 0.07449934060461412 0.03258063005354956 0 0.060669767880595721 0.038134724015348051 0 0.057623658326613529 0.02352368721002385 0 0.07449934060461412 0.03258063005354956 0 0.060669767880595721 0.038134724015348051 0 0.069155187538762042 0.045022305850501279 0 0.07449934060461412 0.03258063005354956 0 0.060669767880595721 0.038134724015348051 0 0.059559274975242667 0.047504887075434543 0 0.069155187538762042 0.045022305850501279 0 0.069155187538762042 0.045022305850501279 0 0.07449934060461412 0.03258063005354956 0 0.079692196512252927 0.044953406994506007 0 0.059559274975242667 0.047504887075434543 0 0.069155187538762042 0.045022305850501279 0 0.067326156772233525 0.050603546620565112 0 0.059559274975242667 0.047504887075434543 0 0.066395547834883203 0.05807658879080619 0 0.067326156772233525 0.050603546620565112 0 0.066395547834883203 0.05807658879080619 0 0.067326156772233525 0.050603546620565112 0 0.074194616740046182 0.051810404765518438 0 0.069155187538762042 0.045022305850501279 0 0.067326156772233525 0.050603546620565112 0 0.074194616740046182 0.051810404765518438 0 0.069155187538762042 0.045022305850501279 0 0.074194616740046182 0.051810404765518438 0 0.079692196512252927 0.044953406994506007 0 0.066395547834883203 0.05807658879080619 0 0.074194616740046182 0.051810404765518438 0 0.080343143758095259 0.058335218209008277 0 0.066395547834883203 0.05807658879080619 0 0.080343143758095259 0.058335218209008277 0 0.08827992924315356 0.067842626558367619 0 0.080343143758095259 0.058335218209008277 0 0.083306510346727383 0.05351440315152866 0 0.090416084875221875 0.058235299142909973 0 0.074194616740046182 0.051810404765518438 0 0.083306510346727383 0.05351440315152866 0 0.079692196512252927 0.044953406994506007 0 0.083306510346727383 0.05351440315152866 0 0.089760373586053266 0.048866493307206167 0 0.079692196512252927 0.044953406994506007 0 0.074194616740046182 0.051810404765518438 0 0.080343143758095259 0.058335218209008277 0 0.083306510346727383 0.05351440315152866 0 0.083306510346727383 0.05351440315152866 0 0.089760373586053266 0.048866493307206167 0 0.090416084875221875 0.058235299142909973 0 0.089760373586053266 0.048866493307206167 0 0.090416084875221875 0.058235299142909973 0 0.099395501669828634 0.055681054702382278 0 0.080343143758095259 0.058335218209008277 0 0.090416084875221875 0.058235299142909973 0 0.08827992924315356 0.067842626558367619 0 0.087237150257314613 0.037926204838731957 0 0.098930039005792711 0.04227996871225087 0 0.094917995650245529 0.021722354499223519 0 0.07449934060461412 0.03258063005354956 0 0.079692196512252927 0.044953406994506007 0 0.087237150257314613 0.037926204838731957 0 0.089760373586053266 0.048866493307206167 0 0.079692196512252927 0.044953406994506007 0 0.087237150257314613 0.037926204838731957 0 0.089760373586053266 0.048866493307206167 0 0.087237150257314613 0.037926204838731957 0 0.098930039005792711 0.04227996871225087 0 0.10894092886672049 0.033503019923715648 0 0.098930039005792711 0.04227996871225087 0 0.11550376979223601 0.054551475820320147 0 0.10894092886672049 0.033503019923715648 0 0.098930039005792711 0.04227996871225087 0 0.094917995650245529 0.021722354499223519 0 0.098930039005792711 0.04227996871225087 0 0.099395501669828634 0.055681054702382278 0 0.11550376979223601 0.054551475820320147 0 0.099395501669828634 0.055681054702382278 0 0.11550376979223601 0.054551475820320147 0 0.10561354398445311 0.069921878226714862 0 0.090416084875221875 0.058235299142909973 0 0.099395501669828634 0.055681054702382278 0 0.095618088847860577 0.065038419849084594 0 0.089760373586053266 0.048866493307206167 0 0.098930039005792711 0.04227996871225087 0 0.099395501669828634 0.055681054702382278 0 0.10894092886672049 0.033503019923715648 0 0.11961069471150609 0.02296590295220987 0 0.12977361784467401 0.039215218793308727 0 0.10894092886672049 0.033503019923715648 0 0.11550376979223601 0.054551475820320147 0 0.12977361784467401 0.039215218793308727 0 0.11961069471150609 0.02296590295220987 0 0.1158546052028349 0.0064685721448778594 0 0.094917995650245529 0.021722354499223519 0 0.11961069471150609 0.02296590295220987 0 0.1158546052028349 0.0064685721448778594 0 0.13894824890776639 0.02136224913872127 0 0.1158546052028349 0.0064685721448778594 0 0.098495163759696414 0.0029673617968291321 0 0.094917995650245529 0.021722354499223519 0 0.10894092886672049 0.033503019923715648 0 0.11961069471150609 0.02296590295220987 0 0.094917995650245529 0.021722354499223519 0 0.097728221435088053 0.099184528615223033 0 0.110275064223293 0.10236359857942121 0 0.11116449005577619 0.086473750785835857 0 0.099894961061174667 0.1104201015940532 0 0.11150799601301251 0.1117412241471519 0 0.110275064223293 0.10236359857942121 0 0.097728221435088053 0.099184528615223033 0 0.099894961061174667 0.1104201015940532 0 0.110275064223293 0.10236359857942121 0 0.097728221435088053 0.099184528615223033 0 0.099894961061174667 0.1104201015940532 0 0.084925795867796111 0.1103515185161017 0 0.099894961061174667 0.1104201015940532 0 0.096984900528893664 0.1212489081817222 0 0.084925795867796111 0.1103515185161017 0 0.099894961061174667 0.1104201015940532 0 0.096984900528893664 0.1212489081817222 0 0.10712684862241641 0.1210429748963526 0 0.096984900528893664 0.1212489081817222 0 0.10712684862241641 0.1210429748963526 0 0.10589272808503949 0.13156516273042271 0 0.099894961061174667 0.1104201015940532 0 0.10712684862241641 0.1210429748963526 0 0.11150799601301251 0.1117412241471519 0 0.10712684862241641 0.1210429748963526 0 0.11150799601301251 0.1117412241471519 0 0.1187293914863337 0.1182846474287873 0 0.11150799601301251 0.1117412241471519 0 0.1187293914863337 0.1182846474287873 0 0.1197878353292403 0.1092484053650479 0 0.10712684862241641 0.1210429748963526 0 0.1187293914863337 0.1182846474287873 0 0.114987521205969 0.1268010028982309 0 0.1187293914863337 0.1182846474287873 0 0.12813823657366311 0.12049833089676459 0 0.12624189261331301 0.1140678077034443 0 0.1187293914863337 0.1182846474287873 0 0.12212988809696081 0.1249307776834532 0 0.12813823657366311 0.12049833089676459 0 0.1187293914863337 0.1182846474287873 0 0.12212988809696081 0.1249307776834532 0 0.114987521205969 0.1268010028982309 0 0.1187293914863337 0.1182846474287873 0 0.1197878353292403 0.1092484053650479 0 0.12624189261331301 0.1140678077034443 0 0.1216961693062274 0.1020981758197984 0 0.110275064223293 0.10236359857942121 0 0.11116449005577619 0.086473750785835857 0 0.1197878353292403 0.1092484053650479 0 0.1216961693062274 0.1020981758197984 0 0.1302764983332621 0.10693497851168419 0 0.1216961693062274 0.1020981758197984 0 0.11116449005577619 0.086473750785835857 0 0.13668050292917741 0.098217611464673699 0 0.1197878353292403 0.1092484053650479 0 0.1216961693062274 0.1020981758197984 0 0.110275064223293 0.10236359857942121 0 0.11150799601301251 0.1117412241471519 0 0.1197878353292403 0.1092484053650479 0 0.110275064223293 0.10236359857942121 0 0.11116449005577619 0.086473750785835857 0 0.1207366242219714 0.074251990558816788 0 0.1300820653953097 0.084166932106396392 0 0.11116449005577619 0.086473750785835857 0 0.13668050292917741 0.098217611464673699 0 0.11116449005577619 0.086473750785835857 0 0.1207366242219714 0.074251990558816788 0 0.10561354398445311 0.069921878226714862 0 0.11550376979223601 0.054551475820320147 0 0.1207366242219714 0.074251990558816788 0 0.13255022158949201 0.068763676371196639 0 0.11550376979223601 0.054551475820320147 0 0.1207366242219714 0.074251990558816788 0 0.10561354398445311 0.069921878226714862 0 0.11116449005577619 0.086473750785835857 0 0.10561354398445311 0.069921878226714862 0 0.085648477182374977 0.074729890106998029 0 0.10561354398445311 0.069921878226714862 0 0.095618088847860577 0.065038419849084594 0 0.085648477182374977 0.074729890106998029 0 0.099395501669828634 0.055681054702382278 0 0.10561354398445311 0.069921878226714862 0 0.095618088847860577 0.065038419849084594 0 0.11116449005577619 0.086473750785835857 0 0.085648477182374977 0.074729890106998029 0 0.11116449005577619 0.086473750785835857 0 0.090808031879269946 0.087622927320568048 0 0.085648477182374977 0.074729890106998029 0 0.097728221435088053 0.099184528615223033 0 0.11116449005577619 0.086473750785835857 0 0.090808031879269946 0.087622927320568048 0 0.097728221435088053 0.099184528615223033 0 0.090808031879269946 0.087622927320568048 0 0.080235742217082393 0.093435287859391092 0 0.090808031879269946 0.087622927320568048 0 0.078675001300488379 0.083882301042573534 0 0.085648477182374977 0.074729890106998029 0 0.090808031879269946 0.087622927320568048 0 0.078675001300488379 0.083882301042573534 0 0.080235742217082393 0.093435287859391092 0 0.066395547834883203 0.05807658879080619 0 0.08827992924315356 0.067842626558367619 0 0.085648477182374977 0.074729890106998029 0 0.095618088847860577 0.065038419849084594 0 0.08827992924315356 0.067842626558367619 0 0.085648477182374977 0.074729890106998029 0 0.090416084875221875 0.058235299142909973 0 0.095618088847860577 0.065038419849084594 0 0.08827992924315356 0.067842626558367619 0 0.066395547834883203 0.05807658879080619 0 0.085648477182374977 0.074729890106998029 0 0.060132464308973767 0.062986029428160187 0 0.066395547834883203 0.05807658879080619 0 0.08827992924315356 0.067842626558367619 0 0.085648477182374977 0.074729890106998029 0 0.068637102026180674 0.07792917868559901 0 0.060132464308973767 0.062986029428160187 0 0.085648477182374977 0.074729890106998029 0 0.060132464308973767 0.062986029428160187 0 0.078675001300488379 0.083882301042573534 0 0.085648477182374977 0.074729890106998029 0 0.068637102026180674 0.07792917868559901 0 0.080235742217082393 0.093435287859391092 0 0.069503799956795384 0.087722797055870286 0 0.068523875558259784 0.095111972458496966 0 0.078675001300488379 0.083882301042573534 0 0.080235742217082393 0.093435287859391092 0 0.069503799956795384 0.087722797055870286 0 0.078675001300488379 0.083882301042573534 0 0.068637102026180674 0.07792917868559901 0 0.069503799956795384 0.087722797055870286 0 0.068637102026180674 0.07792917868559901 0 0.069503799956795384 0.087722797055870286 0 0.060111091978902922 0.083782113849914977 0 0.069503799956795384 0.087722797055870286 0 0.06135777996986308 0.093915161513068182 0 0.060111091978902922 0.083782113849914977 0 0.069503799956795384 0.087722797055870286 0 0.068523875558259784 0.095111972458496966 0 0.06135777996986308 0.093915161513068182 0 0.068523875558259784 0.095111972458496966 0 0.071520258741129425 0.10189571548122769 0 0.062413973273008162 0.1018934272394761 0 0.068523875558259784 0.095111972458496966 0 0.062413973273008162 0.1018934272394761 0 0.06135777996986308 0.093915161513068182 0 0.071520258741129425 0.10189571548122769 0 0.072821304814728441 0.1108529925529516 0 0.063718101814298073 0.11016590081819259 0 0.071520258741129425 0.10189571548122769 0 0.063718101814298073 0.11016590081819259 0 0.062413973273008162 0.1018934272394761 0 0.071520258741129425 0.10189571548122769 0 0.084925795867796111 0.1103515185161017 0 0.072821304814728441 0.1108529925529516 0 0.080235742217082393 0.093435287859391092 0 0.068523875558259784 0.095111972458496966 0 0.071520258741129425 0.10189571548122769 0 0.097728221435088053 0.099184528615223033 0 0.080235742217082393 0.093435287859391092 0 0.084925795867796111 0.1103515185161017 0 0.080235742217082393 0.093435287859391092 0 0.071520258741129425 0.10189571548122769 0 0.084925795867796111 0.1103515185161017 0 0.084925795867796111 0.1103515185161017 0 0.074154959480044275 0.1204842858357125 0 0.087075880893963842 0.12621803440601359 0 0.096984900528893664 0.1212489081817222 0 0.084925795867796111 0.1103515185161017 0 0.087075880893963842 0.12621803440601359 0 0.084925795867796111 0.1103515185161017 0 0.074154959480044275 0.1204842858357125 0 0.072821304814728441 0.1108529925529516 0 0.074154959480044275 0.1204842858357125 0 0.072821304814728441 0.1108529925529516 0 0.063718101814298073 0.11016590081819259 0 0.074154959480044275 0.1204842858357125 0 0.063718101814298073 0.11016590081819259 0 0.060124536552058239 0.11864948812996751 0 0.074154959480044275 0.1204842858357125 0 0.060124536552058239 0.11864948812996751 0 0.061109117960118017 0.12720913792676911 0 0.060124536552058239 0.11864948812996751 0 0.052595679859244633 0.1236025024456274 0 0.054913207086597561 0.11271600588853189 0 0.060124536552058239 0.11864948812996751 0 0.052595679859244633 0.1236025024456274 0 0.061109117960118017 0.12720913792676911 0 0.052595679859244633 0.1236025024456274 0 0.054913207086597561 0.11271600588853189 0 0.046771683079868627 0.1089772416004138 0 0.063718101814298073 0.11016590081819259 0 0.060124536552058239 0.11864948812996751 0 0.054913207086597561 0.11271600588853189 0 0.063718101814298073 0.11016590081819259 0 0.062413973273008162 0.1018934272394761 0 0.053620768430252298 0.1031656988462608 0 0.063718101814298073 0.11016590081819259 0 0.054913207086597561 0.11271600588853189 0 0.053620768430252298 0.1031656988462608 0 0.06135777996986308 0.093915161513068182 0 0.053620768430252298 0.1031656988462608 0 0.051535176025136201 0.090416251810209708 0 0.062413973273008162 0.1018934272394761 0 0.06135777996986308 0.093915161513068182 0 0.053620768430252298 0.1031656988462608 0 0.053620768430252298 0.1031656988462608 0 0.042875633238578528 0.09739353282270094 0 0.051535176025136201 0.090416251810209708 0 0.053620768430252298 0.1031656988462608 0 0.046771683079868627 0.1089772416004138 0 0.042875633238578528 0.09739353282270094 0 0.054913207086597561 0.11271600588853189 0 0.053620768430252298 0.1031656988462608 0 0.046771683079868627 0.1089772416004138 0 0.046771683079868627 0.1089772416004138 0 0.042875633238578528 0.09739353282270094 0 0.034382595390138257 0.1099700727945534 0 0.042875633238578528 0.09739353282270094 0 0.034382595390138257 0.1099700727945534 0 0.030708755379597181 0.088685576768743155 0 0.034382595390138257 0.1099700727945534 0 0.030708755379597181 0.088685576768743155 0 0.052595679859244633 0.1236025024456274 0 0.046771683079868627 0.1089772416004138 0 0.034382595390138257 0.1099700727945534 0 0.034382595390138257 0.1099700727945534 0 0.02520709702204247 0.1232263280856261 0 0.037354296692750887 0.12718670835402709 0 0.052595679859244633 0.1236025024456274 0 0.034382595390138257 0.1099700727945534 0 0.037354296692750887 0.12718670835402709 0 0.034382595390138257 0.1099700727945534 0 0.037354296692750887 0.12718670835402709 0 0.052595679859244633 0.1236025024456274 0 0.034382595390138257 0.1099700727945534 0 0.060132464308973767 0.062986029428160187 0 0.051537231586459821 0.0703604747810012 0 0.044258496001147778 0.063884183083345675 0 0.051537231586459821 0.0703604747810012 0 0.045053238281461433 0.071665999821029613 0 0.044258496001147778 0.063884183083345675 0 0.060132464308973767 0.062986029428160187 0 0.058160070023191839 0.074213970699792686 0 0.051537231586459821 0.0703604747810012 0 0.068637102026180674 0.07792917868559901 0 0.060132464308973767 0.062986029428160187 0 0.058160070023191839 0.074213970699792686 0 0.051537231586459821 0.0703604747810012 0 0.049495561811348857 0.078896267932753172 0 0.045053238281461433 0.071665999821029613 0 0.058160070023191839 0.074213970699792686 0 0.051537231586459821 0.0703604747810012 0 0.049495561811348857 0.078896267932753172 0 0.049495561811348857 0.078896267932753172 0 0.051535176025136201 0.090416251810209708 0 0.041750220721871581 0.085344735896560275 0 0.049495561811348857 0.078896267932753172 0 0.060111091978902922 0.083782113849914977 0 0.051535176025136201 0.090416251810209708 0 0.068637102026180674 0.07792917868559901 0 0.058160070023191839 0.074213970699792686 0 0.060111091978902922 0.083782113849914977 0 0.058160070023191839 0.074213970699792686 0 0.049495561811348857 0.078896267932753172 0 0.060111091978902922 0.083782113849914977 0 0.06135777996986308 0.093915161513068182 0 0.060111091978902922 0.083782113849914977 0 0.051535176025136201 0.090416251810209708 0 0.042875633238578528 0.09739353282270094 0 0.051535176025136201 0.090416251810209708 0 0.041750220721871581 0.085344735896560275 0 0.042875633238578528 0.09739353282270094 0 0.041750220721871581 0.085344735896560275 0 0.030708755379597181 0.088685576768743155 0 0.041750220721871581 0.085344735896560275 0 0.037489048909448763 0.07466528487264068 0 0.030708755379597181 0.088685576768743155 0 0.049495561811348857 0.078896267932753172 0 0.041750220721871581 0.085344735896560275 0 0.037489048909448763 0.07466528487264068 0 0.037489048909448763 0.07466528487264068 0 0.02703491536905472 0.067401080742933134 0 0.030708755379597181 0.088685576768743155 0 0.049495561811348857 0.078896267932753172 0 0.045053238281461433 0.071665999821029613 0 0.037489048909448763 0.07466528487264068 0 0.045053238281461433 0.071665999821029613 0 0.037489048909448763 0.07466528487264068 0 0.037579666130808903 0.067774354445351542 0 0.034062632092931817 0.061255223706808547 0 0.037579666130808903 0.067774354445351542 0 0.02703491536905472 0.067401080742933134 0 0.037489048909448763 0.07466528487264068 0 0.037579666130808903 0.067774354445351542 0 0.02703491536905472 0.067401080742933134 0 0.034062632092931817 0.061255223706808547 0 0.037579666130808903 0.067774354445351542 0 0.044258496001147778 0.063884183083345675 0 0.045053238281461433 0.071665999821029613 0 0.037579666130808903 0.067774354445351542 0 0.044258496001147778 0.063884183083345675 0 0.02703491536905472 0.067401080742933134 0 0.030708755379597181 0.088685576768743155 0 0.01366790099406239 0.052632887419703241 0 0.026593398378051959 0.076487299351285121 0 0.01366790099406239 0.052632887419703241 0 0.02703491536905472 0.067401080742933134 0 0.026593398378051959 0.076487299351285121 0 0.02703491536905472 0.067401080742933134 0 0.026593398378051959 0.076487299351285121 0 0.030708755379597181 0.088685576768743155 0 0.01366790099406239 0.052632887419703241 0 0.026593398378051959 0.076487299351285121 0 0.01611389888654503 0.070322973248010373 0 0.026593398378051959 0.076487299351285121 0 0.01611389888654503 0.070322973248010373 0 0.01767063525815666 0.080500261616376856 0 0.01767063525815666 0.080500261616376856 0 0.030708755379597181 0.088685576768743155 0 0.011643404763696401 0.092949868607662828 0 0.026593398378051959 0.076487299351285121 0 0.01767063525815666 0.080500261616376856 0 0.030708755379597181 0.088685576768743155 0 0.01767063525815666 0.080500261616376856 0 0.011643404763696401 0.092949868607662828 0 0.0065236609159091173 0.071671444604676282 0 -0.01109578586274463 0.07592966442077155 0 0.011643404763696401 0.092949868607662828 0 0.0065236609159091173 0.071671444604676282 0 -0.01109578586274463 0.07592966442077155 0 0.011643404763696401 0.092949868607662828 0 0.01366790099406239 0.052632887419703241 0 0.01611389888654503 0.070322973248010373 0 0.0065236609159091173 0.071671444604676282 0 0.01611389888654503 0.070322973248010373 0 0.01767063525815666 0.080500261616376856 0 0.0065236609159091173 0.071671444604676282 0 -0.0031702267477386531 0.067180855403790804 0 0.00079413703044923156 0.058803151297745167 0 0.0065236609159091173 0.071671444604676282 0 0.034382595390138257 0.1099700727945534 0 0.02520709702204247 0.1232263280856261 0 0.01356063639681436 0.11371506303709419 0 0.02520709702204247 0.1232263280856261 0 0.01356063639681436 0.11371506303709419 0 0.011098566836083609 0.13484946890849181 0 0.034382595390138257 0.1099700727945534 0 0.011643404763696401 0.092949868607662828 0 0.01356063639681436 0.11371506303709419 0 0.034382595390138257 0.1099700727945534 0 0.011643404763696401 0.092949868607662828 0 0.034382595390138257 0.1099700727945534 0 0.030708755379597181 0.088685576768743155 0 0.011643404763696401 0.092949868607662828 0 -0.0040088977147468936 0.097024336429998151 0 0.011643404763696401 0.092949868607662828 0 0.0025937760044158291 0.1064596481343341 0 0.011643404763696401 0.092949868607662828 0 0.0025937760044158291 0.1064596481343341 0 0.01356063639681436 0.11371506303709419 0 -0.007175360702145514 0.1155930690216506 0 0.0025937760044158291 0.1064596481343341 0 0.01356063639681436 0.11371506303709419 0 -0.007175360702145514 0.1155930690216506 0 0.01356063639681436 0.11371506303709419 0 0.011098566836083609 0.13484946890849181 0 -0.007175360702145514 0.1155930690216506 0 0.011098566836083609 0.13484946890849181 0 0.02520709702204247 0.1232263280856261 0 0.011098566836083609 0.13484946890849181 0 0.028759663239593541 0.13617761485890201 0 0.02520709702204247 0.1232263280856261 0 0.028759663239593541 0.13617761485890201 0 0.037354296692750887 0.12718670835402709 0 0.011098566836083609 0.13484946890849181 0 0.029372494374312729 0.15410586879533311 0 0.013538337341477229 0.1636201682865295 0 0.011098566836083609 0.13484946890849181 0 0.028759663239593541 0.13617761485890201 0 0.029372494374312729 0.15410586879533311 0 0.011098566836083609 0.13484946890849181 0 0.029372494374312729 0.15410586879533311 0 -0.0048034666842798916 0.1614245706846468 0 0.011098566836083609 0.13484946890849181 0 0.013538337341477229 0.1636201682865295 0 -0.0057956805663459468 0.1892940575843915 0 -0.0048034666842798916 0.1614245706846468 0 0.013538337341477229 0.1636201682865295 0 -0.0057956805663459468 0.1892940575843915 0 0.013538337341477229 0.1636201682865295 0 0.020045678312652242 0.18090880435863019 0 -0.0057956805663459468 0.1892940575843915 0 0.020045678312652242 0.18090880435863019 0 0.029372494374312729 0.15410586879533311 0 0.013538337341477229 0.1636201682865295 0 0.020045678312652242 0.18090880435863019 0 0.029372494374312729 0.15410586879533311 0 0.045887037191650451 0.17252355113286891 0 0.04813315871709322 0.1541455757588851 0 0.029372494374312729 0.15410586879533311 0 0.020045678312652242 0.18090880435863019 0 0.045887037191650451 0.17252355113286891 0 0.020045678312652242 0.18090880435863019 0 0.045887037191650451 0.17252355113286891 0 0.020045678312652242 0.18090880435863019 0 0.045887037191650451 0.17252355113286891 0 0.041991232206495782 0.1919910870650737 0 0.045887037191650451 0.17252355113286891 0 0.060802696405823108 0.1787365445376432 0 0.041991232206495782 0.1919910870650737 0 0.045887037191650451 0.17252355113286891 0 0.071728396070648653 0.1641382979071076 0 0.045887037191650451 0.17252355113286891 0 0.060802696405823108 0.1787365445376432 0 0.071728396070648653 0.1641382979071076 0 0.045887037191650451 0.17252355113286891 0 0.059657673584757237 0.15824269734654939 0 0.04813315871709322 0.1541455757588851 0 0.045887037191650451 0.17252355113286891 0 0.059657673584757237 0.15824269734654939 0 0.071728396070648653 0.1641382979071076 0 0.059657673584757237 0.15824269734654939 0 0.04813315871709322 0.1541455757588851 0 0.060329678829100349 0.1474246815113264 0 0.04813315871709322 0.1541455757588851 0 0.050215372913412007 0.1458935282758238 0 0.060329678829100349 0.1474246815113264 0 0.050215372913412007 0.1458935282758238 0 0.060329678829100349 0.1474246815113264 0 0.052072656112092337 0.13760051191958289 0 0.050215372913412007 0.1458935282758238 0 0.052072656112092337 0.13760051191958289 0 0.040325997995362128 0.14440334391350099 0 0.060329678829100349 0.1474246815113264 0 0.062159468211553673 0.13737243366585769 0 0.052072656112092337 0.13760051191958289 0 0.062159468211553673 0.13737243366585769 0 0.054733357378362921 0.13083888414419281 0 0.052072656112092337 0.13760051191958289 0 0.052595679859244633 0.1236025024456274 0 0.054733357378362921 0.13083888414419281 0 0.061109117960118017 0.12720913792676911 0 0.062159468211553673 0.13737243366585769 0 0.054733357378362921 0.13083888414419281 0 0.061109117960118017 0.12720913792676911 0 0.052595679859244633 0.1236025024456274 0 0.054733357378362921 0.13083888414419281 0 0.046346625143134958 0.1312929959830558 0 0.054733357378362921 0.13083888414419281 0 0.052072656112092337 0.13760051191958289 0 0.046346625143134958 0.1312929959830558 0 0.037354296692750887 0.12718670835402709 0 0.040325997995362128 0.14440334391350099 0 0.046346625143134958 0.1312929959830558 0 0.037354296692750887 0.12718670835402709 0 0.040325997995362128 0.14440334391350099 0 0.028759663239593541 0.13617761485890201 0 0.037354296692750887 0.12718670835402709 0 0.040325997995362128 0.14440334391350099 0 0.052072656112092337 0.13760051191958289 0 0.046346625143134958 0.1312929959830558 0 0.040325997995362128 0.14440334391350099 0 0.052595679859244633 0.1236025024456274 0 0.046346625143134958 0.1312929959830558 0 0.037354296692750887 0.12718670835402709 0 0.028759663239593541 0.13617761485890201 0 0.029372494374312729 0.15410586879533311 0 0.040325997995362128 0.14440334391350099 0 0.029372494374312729 0.15410586879533311 0 0.04813315871709322 0.1541455757588851 0 0.040325997995362128 0.14440334391350099 0 0.04813315871709322 0.1541455757588851 0 0.050215372913412007 0.1458935282758238 0 0.040325997995362128 0.14440334391350099 0 0.025149977659741599 0.24684982625080901 0 0.00014186162909880781 0.2338185852574263 0 0.02177620002751179 0.22559840920251981 0 0.025149977659741599 0.24684982625080901 0 0.00014186162909880781 0.2338185852574263 0 0.025149977659741599 0.24684982625080901 0 0.00014186162909880781 0.2338185852574263 0 0.0073806355134042019 0.25529449578482938 0 0.00014186162909880781 0.2338185852574263 0 0.02177620002751179 0.22559840920251981 0 0.0090806704795409685 0.20996839310177981 0 0.025149977659741599 0.24684982625080901 0 0.02177620002751179 0.22559840920251981 0 0.039960986899899173 0.22780444499479169 0 0.02177620002751179 0.22559840920251981 0 0.0090806704795409685 0.20996839310177981 0 0.034547503469278373 0.20955079640779209 0 0.0090806704795409685 0.20996839310177981 0 0.02162293693503077 0.1981024475624624 0 0.034547503469278373 0.20955079640779209 0 -0.0057956805663459468 0.1892940575843915 0 0.0090806704795409685 0.20996839310177981 0 0.02162293693503077 0.1981024475624624 0 -0.0057956805663459468 0.1892940575843915 0 0.020045678312652242 0.18090880435863019 0 0.02162293693503077 0.1981024475624624 0 0.020045678312652242 0.18090880435863019 0 0.02162293693503077 0.1981024475624624 0 0.041991232206495782 0.1919910870650737 0 0.02162293693503077 0.1981024475624624 0 0.041991232206495782 0.1919910870650737 0 0.034547503469278373 0.20955079640779209 0 0.041991232206495782 0.1919910870650737 0 0.05849467095877426 0.1965416733816682 0 0.050764695011206777 0.20916964222725651 0 0.060802696405823108 0.1787365445376432 0 0.041991232206495782 0.1919910870650737 0 0.05849467095877426 0.1965416733816682 0 0.050764695011206777 0.20916964222725651 0 0.066981886553135278 0.20878848804672309 0 0.05849467095877426 0.1965416733816682 0 0.050764695011206777 0.20916964222725651 0 0.066981886553135278 0.20878848804672309 0 0.050764695011206777 0.20916964222725651 0 0.061514006406540499 0.23071042489022231 0 0.066981886553135278 0.20878848804672309 0 0.050764695011206777 0.20916964222725651 0 0.034547503469278373 0.20955079640779209 0 0.039960986899899173 0.22780444499479169 0 0.050764695011206777 0.20916964222725651 0 0.034547503469278373 0.20955079640779209 0 0.041991232206495782 0.1919910870650737 0 0.050764695011206777 0.20916964222725651 0 0.034547503469278373 0.20955079640779209 0 0.02177620002751179 0.22559840920251981 0 0.034547503469278373 0.20955079640779209 0 0.039960986899899173 0.22780444499479169 0 0.039960986899899173 0.22780444499479169 0 0.061514006406540499 0.23071042489022231 0 0.045472231705318063 0.24424317023843681 0 0.050764695011206777 0.20916964222725651 0 0.039960986899899173 0.22780444499479169 0 0.061514006406540499 0.23071042489022231 0 0.061514006406540499 0.23071042489022231 0 0.056046126259945157 0.25263236173372139 0 0.061514006406540499 0.23071042489022231 0 0.056046126259945157 0.25263236173372139 0 0.067905867336300579 0.25358800162702 0 0.061514006406540499 0.23071042489022231 0 0.045472231705318063 0.24424317023843681 0 0.056046126259945157 0.25263236173372139 0 0.025149977659741599 0.24684982625080901 0 0.039960986899899173 0.22780444499479169 0 0.045472231705318063 0.24424317023843681 0 0.092857250133516089 0.24175825718487831 0 0.078525547080241467 0.2465942846531784 0 0.093798877441032588 0.2579700649065903 0 0.092857250133516089 0.24175825718487831 0 0.078525547080241467 0.2465942846531784 0 0.081986142109724491 0.22560265144644431 0 0.061514006406540499 0.23071042489022231 0 0.078525547080241467 0.2465942846531784 0 0.067905867336300579 0.25358800162702 0 0.061514006406540499 0.23071042489022231 0 0.078525547080241467 0.2465942846531784 0 0.081986142109724491 0.22560265144644431 0 0.061514006406540499 0.23071042489022231 0 0.081986142109724491 0.22560265144644431 0 0.066981886553135278 0.20878848804672309 0 0.061514006406540499 0.23071042489022231 0 0.066981886553135278 0.20878848804672309 0 0.081986142109724491 0.22560265144644431 0 0.09236794217301933 0.20819183719001669 0 0.066981886553135278 0.20878848804672309 0 0.09236794217301933 0.20819183719001669 0 0.066981886553135278 0.20878848804672309 0 0.09236794217301933 0.20819183719001669 0 0.066981886553135278 0.20878848804672309 0 0.071445073857882777 0.19089458628000441 0 0.060802696405823108 0.1787365445376432 0 0.05849467095877426 0.1965416733816682 0 0.071445073857882777 0.19089458628000441 0 0.066981886553135278 0.20878848804672309 0 0.071445073857882777 0.19089458628000441 0 0.05849467095877426 0.1965416733816682 0 0.066981886553135278 0.20878848804672309 0 0.071445073857882777 0.19089458628000441 0 0.09236794217301933 0.20819183719001669 0 0.071445073857882777 0.19089458628000441 0 0.086464584236575506 0.1862285865309723 0 0.09236794217301933 0.20819183719001669 0 0.086464584236575506 0.1862285865309723 0 0.1023855527362314 0.18749689463882899 0 0.09236794217301933 0.20819183719001669 0 0.11775399779290339 0.20759518633331239 0 0.1023855527362314 0.18749689463882899 0 0.11775399779290339 0.20759518633331239 0 0.1023855527362314 0.18749689463882899 0 0.12550986450034471 0.186594373040398 0 0.09236794217301933 0.20819183719001669 0 0.11775399779290339 0.20759518633331239 0 0.09236794217301933 0.20819183719001669 0 0.11775399779290339 0.20759518633331239 0 0.10906069526472741 0.22998953009969161 0 0.092857250133516089 0.24175825718487831 0 0.081986142109724491 0.22560265144644431 0 0.10906069526472741 0.22998953009969161 0 0.081986142109724491 0.22560265144644431 0 0.09236794217301933 0.20819183719001669 0 0.10906069526472741 0.22998953009969161 0 0.11775399779290339 0.20759518633331239 0 0.10906069526472741 0.22998953009969161 0 0.1382648444377183 0.22719855966067881 0 0.10906069526472741 0.22998953009969161 0 0.12787711237058769 0.24521089126939841 0 0.1100607559553454 0.25396994184181759 0 0.092857250133516089 0.24175825718487831 0 0.10906069526472741 0.22998953009969161 0 0.1100607559553454 0.25396994184181759 0 0.081151633673542972 0.15313158297098389 0 0.083920606388658545 0.14050817004821939 0 0.0975697549496468 0.15575304468134629 0 0.081151633673542972 0.15313158297098389 0 0.083920606388658545 0.14050817004821939 0 0.071387777285217918 0.15212681924726251 0 0.074154959480044275 0.1204842858357125 0 0.087075880893963842 0.12621803440601359 0 0.083920606388658545 0.14050817004821939 0 0.087075880893963842 0.12621803440601359 0 0.083920606388658545 0.14050817004821939 0 0.097906888154765004 0.1362305538396491 0 0.062159468211553673 0.13737243366585769 0 0.061109117960118017 0.12720913792676911 0 0.083920606388658545 0.14050817004821939 0 0.074154959480044275 0.1204842858357125 0 0.061109117960118017 0.12720913792676911 0 0.083920606388658545 0.14050817004821939 0 0.061109117960118017 0.12720913792676911 0 0.083920606388658545 0.14050817004821939 0 0.062159468211553673 0.13737243366585769 0 0.083920606388658545 0.14050817004821939 0 0.069449382678632612 0.1443580261181665 0 0.060329678829100349 0.1474246815113264 0 0.062159468211553673 0.13737243366585769 0 0.069449382678632612 0.1443580261181665 0 0.060329678829100349 0.1474246815113264 0 0.069449382678632612 0.1443580261181665 0 0.071387777285217918 0.15212681924726251 0 0.083920606388658545 0.14050817004821939 0 0.069449382678632612 0.1443580261181665 0 0.071387777285217918 0.15212681924726251 0 0.059657673584757237 0.15824269734654939 0 0.060329678829100349 0.1474246815113264 0 0.071387777285217918 0.15212681924726251 0 0.059657673584757237 0.15824269734654939 0 0.071387777285217918 0.15212681924726251 0 0.071728396070648653 0.1641382979071076 0 0.081151633673542972 0.15313158297098389 0 0.071387777285217918 0.15212681924726251 0 0.071728396070648653 0.1641382979071076 0 0.071445073857882777 0.19089458628000441 0 0.075908261162629706 0.17300068451328551 0 0.086464584236575506 0.1862285865309723 0 0.060802696405823108 0.1787365445376432 0 0.071445073857882777 0.19089458628000441 0 0.075908261162629706 0.17300068451328551 0 0.071445073857882777 0.19089458628000441 0 0.075908261162629706 0.17300068451328551 0 0.060802696405823108 0.1787365445376432 0 0.071728396070648653 0.1641382979071076 0 0.075908261162629706 0.17300068451328551 0 0.086464584236575506 0.1862285865309723 0 0.090216091253114361 0.17155893003272579 0 0.1023855527362314 0.18749689463882899 0 0.075908261162629706 0.17300068451328551 0 0.086464584236575506 0.1862285865309723 0 0.090216091253114361 0.17155893003272579 0 0.081151633673542972 0.15313158297098389 0 0.071728396070648653 0.1641382979071076 0 0.0975697549496468 0.15575304468134629 0 0.071728396070648653 0.1641382979071076 0 0.090216091253114361 0.17155893003272579 0 0.0975697549496468 0.15575304468134629 0 0.071728396070648653 0.1641382979071076 0 0.075908261162629706 0.17300068451328551 0 0.090216091253114361 0.17155893003272579 0 0.071728396070648653 0.1641382979071076 0 0.0975697549496468 0.15575304468134629 0 0.090216091253114361 0.17155893003272579 0 0.1064810698159025 0.16893633516972181 0 0.0975697549496468 0.15575304468134629 0 0.1064810698159025 0.16893633516972181 0 0.1067320948171991 0.1538072021696697 0 0.0975697549496468 0.15575304468134629 0 0.090216091253114361 0.17155893003272579 0 0.1064810698159025 0.16893633516972181 0 0.1023855527362314 0.18749689463882899 0 0.1064810698159025 0.16893633516972181 0 0.12954358324573961 0.16710623429112001 0 0.12550986450034471 0.186594373040398 0 0.1064810698159025 0.16893633516972181 0 0.1023855527362314 0.18749689463882899 0 0.12550986450034471 0.186594373040398 0 0.1064810698159025 0.16893633516972181 0 0.1067320948171991 0.1538072021696697 0 0.12954358324573961 0.16710623429112001 0 0.1067320948171991 0.1538072021696697 0 0.1262856736452258 0.1537478882528979 0 0.12954358324573961 0.16710623429112001 0 0.1067320948171991 0.1538072021696697 0 0.12954358324573961 0.16710623429112001 0 0.1148569119608701 0.14824987142416859 0 0.1067320948171991 0.1538072021696697 0 0.1262856736452258 0.1537478882528979 0 0.118317888191051 0.14254191757659121 0 0.1148569119608701 0.14824987142416859 0 0.1262856736452258 0.1537478882528979 0 0.118317888191051 0.14254191757659121 0 0.12756241452120801 0.13893694775055651 0 0.1262856736452258 0.1537478882528979 0 0.1148569119608701 0.14824987142416859 0 0.1067320948171991 0.1538072021696697 0 0.1080919911900045 0.14290247769751591 0 0.118317888191051 0.14254191757659121 0 0.1148569119608701 0.14824987142416859 0 0.1080919911900045 0.14290247769751591 0 0.083920606388658545 0.14050817004821939 0 0.1067320948171991 0.1538072021696697 0 0.1067320948171991 0.1538072021696697 0 0.1080919911900045 0.14290247769751591 0 0.097906888154765004 0.1362305538396491 0 0.083920606388658545 0.14050817004821939 0 0.1067320948171991 0.1538072021696697 0 0.097906888154765004 0.1362305538396491 0 0.083920606388658545 0.14050817004821939 0 0.1067320948171991 0.1538072021696697 0 0.0975697549496468 0.15575304468134629 0 0.096984900528893664 0.1212489081817222 0 0.097906888154765004 0.1362305538396491 0 0.10589272808503949 0.13156516273042271 0 0.096984900528893664 0.1212489081817222 0 0.087075880893963842 0.12621803440601359 0 0.097906888154765004 0.1362305538396491 0 0.1080919911900045 0.14290247769751591 0 0.097906888154765004 0.1362305538396491 0 0.10589272808503949 0.13156516273042271 0 0.1080919911900045 0.14290247769751591 0 0.10589272808503949 0.13156516273042271 0 0.11327312463209829 0.13597294690712769 0 0.10712684862241641 0.1210429748963526 0 0.10589272808503949 0.13156516273042271 0 0.114987521205969 0.1268010028982309 0 0.10589272808503949 0.13156516273042271 0 0.114987521205969 0.1268010028982309 0 0.11327312463209829 0.13597294690712769 0 0.114987521205969 0.1268010028982309 0 0.11327312463209829 0.13597294690712769 0 0.1203000125167645 0.13336293759413789 0 0.118317888191051 0.14254191757659121 0 0.1080919911900045 0.14290247769751591 0 0.11327312463209829 0.13597294690712769 0 0.118317888191051 0.14254191757659121 0 0.1203000125167645 0.13336293759413789 0 0.12756241452120801 0.13893694775055651 0 0.118317888191051 0.14254191757659121 0 0.11327312463209829 0.13597294690712769 0 0.1203000125167645 0.13336293759413789 0 0.12212988809696081 0.1249307776834532 0 0.114987521205969 0.1268010028982309 0 0.1203000125167645 0.13336293759413789 0 0.12212988809696081 0.1249307776834532 0 0.1203000125167645 0.13336293759413789 0 0.12788127083107459 0.1291064789800366 0 0.12788127083107459 0.1291064789800366 0 0.13409394305489639 0.1257339851238449 0 0.12813823657366311 0.12049833089676459 0 0.12788127083107459 0.1291064789800366 0 0.13410827310584911 0.13282331674432049 0 0.13409394305489639 0.1257339851238449 0 0.12788127083107459 0.1291064789800366 0 0.12756241452120801 0.13893694775055651 0 0.13410827310584911 0.13282331674432049 0 0.1203000125167645 0.13336293759413789 0 0.12788127083107459 0.1291064789800366 0 0.12756241452120801 0.13893694775055651 0 0.13410827310584911 0.13282331674432049 0 0.14295710802469111 0.12768772724150559 0 0.13848136883728299 0.14203914735535511 0 0.12756241452120801 0.13893694775055651 0 0.13410827310584911 0.13282331674432049 0 0.13848136883728299 0.14203914735535511 0 0.13410827310584911 0.13282331674432049 0 0.13409394305489639 0.1257339851238449 0 0.14295710802469111 0.12768772724150559 0 0.14295710802469111 0.12768772724150559 0 0.15698787762036359 0.14007723406829989 0 0.15364605026385231 0.1227496740475859 0 0.14295710802469111 0.12768772724150559 0 0.13848136883728299 0.14203914735535511 0 0.15698787762036359 0.14007723406829989 0 0.13848136883728299 0.14203914735535511 0 0.1441447949138806 0.1573716891147208 0 0.15698787762036359 0.14007723406829989 0 0.1441447949138806 0.1573716891147208 0 0.1598153361361678 0.15982657838785511 0 0.15698787762036359 0.14007723406829989 0 0.13848136883728299 0.14203914735535511 0 0.1262856736452258 0.1537478882528979 0 0.1441447949138806 0.1573716891147208 0 0.12756241452120801 0.13893694775055651 0 0.13848136883728299 0.14203914735535511 0 0.1262856736452258 0.1537478882528979 0 0.1262856736452258 0.1537478882528979 0 0.12954358324573961 0.16710623429112001 0 0.1441447949138806 0.1573716891147208 0 0.12954358324573961 0.16710623429112001 0 0.12550986450034471 0.186594373040398 0 0.15375492999850379 0.1814330523327968 0 0.12954358324573961 0.16710623429112001 0 0.15375492999850379 0.1814330523327968 0 0.1441447949138806 0.1573716891147208 0 0.15375492999850379 0.1814330523327968 0 0.1441447949138806 0.1573716891147208 0 0.1598153361361678 0.15982657838785511 0 0.1598153361361678 0.15982657838785511 0 0.17205847002769489 0.1711246398383999 0 0.17247097746626519 0.1464629757798975 0 0.15375492999850379 0.1814330523327968 0 0.1598153361361678 0.15982657838785511 0 0.17205847002769489 0.1711246398383999 0 0.15375492999850379 0.1814330523327968 0 0.17205847002769489 0.1711246398383999 0 0.18411838942066619 0.18828130780555291 0 0.17205847002769489 0.1711246398383999 0 0.18411838942066619 0.18828130780555291 0 0.19050902449260759 0.164433536692701 0 0.17205847002769489 0.1711246398383999 0 0.17247097746626519 0.1464629757798975 0 0.19050902449260759 0.164433536692701 0 0.17247097746626519 0.1464629757798975 0 0.1903693880120208 0.14015559280000461 0 0.19050902449260759 0.164433536692701 0 0.17247097746626519 0.1464629757798975 0 0.18002451345814399 0.12716596121819479 0 0.1903693880120208 0.14015559280000461 0 0.17247097746626519 0.1464629757798975 0 0.18002451345814399 0.12716596121819479 0 0.16417220099380411 0.12505127510387981 0 0.15698787762036359 0.14007723406829989 0 0.16417220099380411 0.12505127510387981 0 0.15364605026385231 0.1227496740475859 0 0.17247097746626519 0.1464629757798975 0 0.15698787762036359 0.14007723406829989 0 0.16417220099380411 0.12505127510387981 0 0.1598153361361678 0.15982657838785511 0 0.17247097746626519 0.1464629757798975 0 0.15698787762036359 0.14007723406829989 0 0.14702044576598061 0.2478904659134552 0 0.1382648444377183 0.22719855966067881 0 0.15828943790025421 0.22969507774947781 0 0.14702044576598061 0.2478904659134552 0 0.12787711237058769 0.24521089126939841 0 0.1382648444377183 0.22719855966067881 0 0.10906069526472741 0.22998953009969161 0 0.12787711237058769 0.24521089126939841 0 0.1382648444377183 0.22719855966067881 0 0.1382648444377183 0.22719855966067881 0 0.14314005341278749 0.20699853547660821 0 0.15828943790025421 0.22969507774947781 0 0.14314005341278749 0.20699853547660821 0 0.16852610903267151 0.206401884619904 0 0.11775399779290339 0.20759518633331239 0 0.1382648444377183 0.22719855966067881 0 0.14314005341278749 0.20699853547660821 0 0.11775399779290339 0.20759518633331239 0 0.14314005341278749 0.20699853547660821 0 0.11775399779290339 0.20759518633331239 0 0.12550986450034471 0.186594373040398 0 0.14314005341278749 0.20699853547660821 0 0.15375492999850379 0.1814330523327968 0 0.14314005341278749 0.20699853547660821 0 0.16852610903267151 0.206401884619904 0 0.12550986450034471 0.186594373040398 0 0.15375492999850379 0.1814330523327968 0 0.14314005341278749 0.20699853547660821 0 0.15375492999850379 0.1814330523327968 0 0.18411838942066619 0.18828130780555291 0 0.16852610903267151 0.206401884619904 0 0.18411838942066619 0.18828130780555291 0 0.16852610903267151 0.206401884619904 0 0.1878214256448299 0.20672411698152671 0 0.16852610903267151 0.206401884619904 0 0.17766068788986381 0.23020170431202469 0 0.1878214256448299 0.20672411698152671 0 0.14314005341278749 0.20699853547660821 0 0.16852610903267151 0.206401884619904 0 0.15828943790025421 0.22969507774947781 0 0.16852610903267151 0.206401884619904 0 0.15828943790025421 0.22969507774947781 0 0.17766068788986381 0.23020170431202469 0 0.17766068788986381 0.23020170431202469 0 0.19353513124668931 0.22246748781277501 0 0.1878214256448299 0.20672411698152671 0 0.17766068788986381 0.23020170431202469 0 0.18692125413578081 0.24552837502103991 0 0.19379669244916639 0.23440003217329089 0 0.17766068788986381 0.23020170431202469 0 0.18692125413578081 0.24552837502103991 0 0.16774616909827719 0.2460930353984315 0 0.15828943790025421 0.22969507774947781 0 0.17766068788986381 0.23020170431202469 0 0.16774616909827719 0.2460930353984315 0 0.14702044576598061 0.2478904659134552 0 0.15828943790025421 0.22969507774947781 0 0.16774616909827719 0.2460930353984315 0 0.21557305570370441 0.24515722135805329 0 0.2029257889591993 0.24295866219667439 0 0.23007231546290949 0.2334513308517342 0 0.2029257889591993 0.24295866219667439 0 0.23007231546290949 0.2334513308517342 0 0.21557305570370441 0.24515722135805329 0 0.2029257889591993 0.24295866219667439 0 0.20107379594449931 0.25686311186437227 0 0.18692125413578081 0.24552837502103991 0 0.2029257889591993 0.24295866219667439 0 0.20107379594449931 0.25686311186437227 0 0.18692125413578081 0.24552837502103991 0 0.19379669244916639 0.23440003217329089 0 0.2029257889591993 0.24295866219667439 0 0.17766068788986381 0.23020170431202469 0 0.19379669244916639 0.23440003217329089 0 0.19353513124668931 0.22246748781277501 0 0.19379669244916639 0.23440003217329089 0 0.2029257889591993 0.24295866219667439 0 0.20920449219815451 0.22515354045629349 0 0.19379669244916639 0.23440003217329089 0 0.19353513124668931 0.22246748781277501 0 0.20920449219815451 0.22515354045629349 0 0.2029257889591993 0.24295866219667439 0 0.20920449219815451 0.22515354045629349 0 0.23007231546290949 0.2334513308517342 0 0.19353513124668931 0.22246748781277501 0 0.20920449219815451 0.22515354045629349 0 0.20732414099141369 0.20672295990195361 0 0.20920449219815451 0.22515354045629349 0 0.20732414099141369 0.20672295990195361 0 0.22783619495118521 0.20973527166224001 0 0.19353513124668931 0.22246748781277501 0 0.20732414099141369 0.20672295990195361 0 0.1878214256448299 0.20672411698152671 0 0.18411838942066619 0.18828130780555291 0 0.1878214256448299 0.20672411698152671 0 0.20343121377691101 0.18825927067945539 0 0.20732414099141369 0.20672295990195361 0 0.1878214256448299 0.20672411698152671 0 0.20343121377691101 0.18825927067945539 0 0.20732414099141369 0.20672295990195361 0 0.20343121377691101 0.18825927067945539 0 0.2219787971027708 0.18678942035429349 0 0.20732414099141369 0.20672295990195361 0 0.22783619495118521 0.20973527166224001 0 0.2219787971027708 0.18678942035429349 0 0.24528107816237801 0.1907036486386274 0 0.22783619495118521 0.20973527166224001 0 0.2219787971027708 0.18678942035429349 0 0.24528107816237801 0.1907036486386274 0 0.25242827713160498 0.21540237912569379 0 0.24528107816237801 0.1907036486386274 0 0.22783619495118521 0.20973527166224001 0 0.25242827713160498 0.21540237912569379 0 0.20920449219815451 0.22515354045629349 0 0.22783619495118521 0.20973527166224001 0 0.23007231546290949 0.2334513308517342 0 0.23007231546290949 0.2334513308517342 0 0.25242827713160498 0.21540237912569379 0 0.23007231546290949 0.2334513308517342 0 0.25511338863332461 0.22468137717712711 0 0.25242827713160498 0.21540237912569379 0 0.23007231546290949 0.2334513308517342 0 0.25511338863332461 0.22468137717712711 0 0.23007231546290949 0.2334513308517342 0 0.2457442494512444 0.24022391879071339 0 0.25511338863332461 0.22468137717712711 0 0.22783619495118521 0.20973527166224001 0 0.23007231546290949 0.2334513308517342 0 0.25242827713160498 0.21540237912569379 0 0.2457442494512444 0.24022391879071339 0 0.23628031136540401 0.25597328662156199 0 0.26221447651104962 0.2479993693513689 0 0.23007231546290949 0.2334513308517342 0 0.2457442494512444 0.24022391879071339 0 0.23628031136540401 0.25597328662156199 0 0.21557305570370441 0.24515722135805329 0 0.23007231546290949 0.2334513308517342 0 0.23628031136540401 0.25597328662156199 0 0.21557305570370441 0.24515722135805329 0 0.23007231546290949 0.2334513308517342 0 0.21023583046185859 0.14706018503428281 0 0.22521494488481819 0.12557893006429149 0 0.2001236667938262 0.1180422718546187 0 0.18002451345814399 0.12716596121819479 0 0.1903693880120208 0.14015559280000461 0 0.2001236667938262 0.1180422718546187 0 0.21023583046185859 0.14706018503428281 0 0.1903693880120208 0.14015559280000461 0 0.2001236667938262 0.1180422718546187 0 0.21023583046185859 0.14706018503428281 0 0.1903693880120208 0.14015559280000461 0 0.19050902449260759 0.164433536692701 0 0.18411838942066619 0.18828130780555291 0 0.20343121377691101 0.18825927067945539 0 0.19050902449260759 0.164433536692701 0 0.20343121377691101 0.18825927067945539 0 0.19050902449260759 0.164433536692701 0 0.20962662881846919 0.1707346457134423 0 0.20343121377691101 0.18825927067945539 0 0.20962662881846919 0.1707346457134423 0 0.2219787971027708 0.18678942035429349 0 0.21023583046185859 0.14706018503428281 0 0.20962662881846919 0.1707346457134423 0 0.2254160648188453 0.164078398330023 0 0.21023583046185859 0.14706018503428281 0 0.19050902449260759 0.164433536692701 0 0.20962662881846919 0.1707346457134423 0 0.20962662881846919 0.1707346457134423 0 0.2254160648188453 0.164078398330023 0 0.2219787971027708 0.18678942035429349 0 0.2254160648188453 0.164078398330023 0 0.2219787971027708 0.18678942035429349 0 0.23714843650665229 0.1758398884969993 0 0.24528107816237801 0.1907036486386274 0 0.2219787971027708 0.18678942035429349 0 0.23714843650665229 0.1758398884969993 0 0.24528107816237801 0.1907036486386274 0 0.23714843650665229 0.1758398884969993 0 0.25292738168467233 0.17649485219682931 0 0.2254160648188453 0.164078398330023 0 0.24653130607993951 0.16237692388552691 0 0.23688534306575301 0.1458043597726891 0 0.23714843650665229 0.1758398884969993 0 0.24653130607993951 0.16237692388552691 0 0.25292738168467233 0.17649485219682931 0 0.2254160648188453 0.164078398330023 0 0.23714843650665229 0.1758398884969993 0 0.24653130607993951 0.16237692388552691 0 0.24653130607993951 0.16237692388552691 0 0.2496536413094039 0.15044712256699261 0 0.23688534306575301 0.1458043597726891 0 0.2496536413094039 0.15044712256699261 0 0.23688534306575301 0.1458043597726891 0 0.25004344172447263 0.14019424959050239 0 0.21023583046185859 0.14706018503428281 0 0.2254160648188453 0.164078398330023 0 0.23688534306575301 0.1458043597726891 0 0.21023583046185859 0.14706018503428281 0 0.23688534306575301 0.1458043597726891 0 0.22521494488481819 0.12557893006429149 0 0.22521494488481819 0.12557893006429149 0 0.25030622297580962 0.13311558827396619 0 0.23688534306575301 0.1458043597726891 0 0.22521494488481819 0.12557893006429149 0 0.25030622297580962 0.13311558827396619 0 0.23688534306575301 0.1458043597726891 0 0.25004344172447263 0.14019424959050239 0 0.25030622297580962 0.13311558827396619 0 0.22521494488481819 0.12557893006429149 0 0.2369469616243938 0.1144798656387125 0 0.25030622297580962 0.13311558827396619 0 0.2369469616243938 0.1144798656387125 0 0.25094552198087999 0.11589449234768209 0 0.25030622297580962 0.13311558827396619 0 0.2369469616243938 0.1144798656387125 0 0.25158482098595109 0.098673396421397969 0 0.25094552198087999 0.11589449234768209 0 0.2369469616243938 0.1144798656387125 0 0.2308580048349978 0.09939168424622695 0 0.25158482098595109 0.098673396421397969 0 0.2308580048349978 0.09939168424622695 0 0.2177667053289645 0.10879872465146249 0 0.21723881235993189 0.092441087960636145 0 0.2369469616243938 0.1144798656387125 0 0.2308580048349978 0.09939168424622695 0 0.2177667053289645 0.10879872465146249 0 0.22521494488481819 0.12557893006429149 0 0.2369469616243938 0.1144798656387125 0 0.2177667053289645 0.10879872465146249 0 0.2177667053289645 0.10879872465146249 0 0.1970849337058638 0.1019164286603922 0 0.2001236667938262 0.1180422718546187 0 0.22521494488481819 0.12557893006429149 0 0.2177667053289645 0.10879872465146249 0 0.2001236667938262 0.1180422718546187 0 0.22521494488481819 0.12557893006429149 0 0.2001236667938262 0.1180422718546187 0 0.1970849337058638 0.1019164286603922 0 0.20420713705815571 0.090978010823124941 0 0.21723881235993189 0.092441087960636145 0 0.1970849337058638 0.1019164286603922 0 0.21723881235993189 0.092441087960636145 0 0.2177667053289645 0.10879872465146249 0 0.1970849337058638 0.1019164286603922 0 0.21723881235993189 0.092441087960636145 0 0.1970849337058638 0.1019164286603922 0 0.1916307843626972 0.08827444688259839 0 0.17503238870283441 0.11050561364494491 0 0.2001236667938262 0.1180422718546187 0 0.17503238870283441 0.11050561364494491 0 0.1970849337058638 0.1019164286603922 0 0.2001236667938262 0.1180422718546187 0 0.17503238870283441 0.11050561364494491 0 0.1916307843626972 0.08827444688259839 0 0.2082291800225603 0.066043280120252124 0 0.19067723801237901 0.065525043857756982 0 0.1916307843626972 0.08827444688259839 0 0.2082291800225603 0.066043280120252124 0 0.1916307843626972 0.08827444688259839 0 0.21087401780412959 0.081280079788873041 0 0.20420713705815571 0.090978010823124941 0 0.1970849337058638 0.1019164286603922 0 0.1916307843626972 0.08827444688259839 0 0.20420713705815571 0.090978010823124941 0 0.1916307843626972 0.08827444688259839 0 0.21087401780412959 0.081280079788873041 0 0.2082291800225603 0.066043280120252124 0 0.21087401780412959 0.081280079788873041 0 0.20420713705815571 0.090978010823124941 0 0.21723881235993189 0.092441087960636145 0 0.21087401780412959 0.081280079788873041 0 0.21723881235993189 0.092441087960636145 0 0.22613356481757629 0.0775902723280468 0 0.21087401780412959 0.081280079788873041 0 0.2082291800225603 0.066043280120252124 0 0.22613356481757629 0.0775902723280468 0 0.2082291800225603 0.066043280120252124 0 0.22613356481757629 0.0775902723280468 0 0.2082291800225603 0.066043280120252124 0 0.2259496113806885 0.070300708218039992 0 0.21450653174737461 0.057635669175196122 0 0.2259496113806885 0.070300708218039992 0 0.21450653174737461 0.057635669175196122 0 0.2082291800225603 0.066043280120252124 0 0.2259496113806885 0.070300708218039992 0 0.22613356481757629 0.0775902723280468 0 0.2259496113806885 0.070300708218039992 0 0.2248665156508784 0.061611733455129589 0 0.21450653174737461 0.057635669175196122 0 0.2259496113806885 0.070300708218039992 0 0.22613356481757629 0.0775902723280468 0 0.23739269101400209 0.082965747260884265 0 0.2259496113806885 0.070300708218039992 0 0.23739269101400209 0.082965747260884265 0 0.237967452106535 0.070105640596903412 0 0.2259496113806885 0.070300708218039992 0 0.23739269101400209 0.082965747260884265 0 0.2259496113806885 0.070300708218039992 0 0.2330718446673557 0.064441819436705627 0 0.2248665156508784 0.061611733455129589 0 0.2259496113806885 0.070300708218039992 0 0.2330718446673557 0.064441819436705627 0 0.237967452106535 0.070105640596903412 0 0.2308580048349978 0.09939168424622695 0 0.21723881235993189 0.092441087960636145 0 0.23739269101400209 0.082965747260884265 0 0.21723881235993189 0.092441087960636145 0 0.22613356481757629 0.0775902723280468 0 0.23739269101400209 0.082965747260884265 0 0.21723881235993189 0.092441087960636145 0 0.23739269101400209 0.082965747260884265 0 0.23739269101400209 0.082965747260884265 0 0.25158482098595109 0.098673396421397969 0 0.23739269101400209 0.082965747260884265 0 0.25243039498113262 0.075895774732197205 0 0.25158482098595109 0.098673396421397969 0 0.2308580048349978 0.09939168424622695 0 0.23739269101400209 0.082965747260884265 0 0.25158482098595109 0.098673396421397969 0 0.23739269101400209 0.082965747260884265 0 0.25243039498113262 0.075895774732197205 0 0.23934469018649959 0.064583282500140851 0 0.237967452106535 0.070105640596903412 0 0.24496427956833819 0.066036472520138348 0 0.2330718446673557 0.064441819436705627 0 0.23934469018649959 0.064583282500140851 0 0.2376257901407148 0.059976102198904507 0 0.2330718446673557 0.064441819436705627 0 0.23934469018649959 0.064583282500140851 0 0.237967452106535 0.070105640596903412 0 0.23739269101400209 0.082965747260884265 0 0.237967452106535 0.070105640596903412 0 0.24429048066179679 0.072622021298478806 0 0.24429048066179679 0.072622021298478806 0 0.24842415088314279 0.069033451464499671 0 0.25243039498113262 0.075895774732197205 0 0.23739269101400209 0.082965747260884265 0 0.24429048066179679 0.072622021298478806 0 0.25243039498113262 0.075895774732197205 0 0.24842415088314279 0.069033451464499671 0 0.24853219730195361 0.063845178725116872 0 0.25274476311700622 0.067427493409812952 0 0.237967452106535 0.070105640596903412 0 0.24429048066179679 0.072622021298478806 0 0.24496427956833819 0.066036472520138348 0 0.24429048066179679 0.072622021298478806 0 0.24842415088314279 0.069033451464499671 0 0.24496427956833819 0.066036472520138348 0 0.23934469018649959 0.064583282500140851 0 0.24496427956833819 0.066036472520138348 0 0.24309408444955441 0.062356377748052388 0 0.24496427956833819 0.066036472520138348 0 0.24602681454492631 0.062964227281045088 0 0.24309408444955441 0.062356377748052388 0 0.24496427956833819 0.066036472520138348 0 0.24602681454492631 0.062964227281045088 0 0.24853219730195361 0.063845178725116872 0 0.24842415088314279 0.069033451464499671 0 0.24496427956833819 0.066036472520138348 0 0.24853219730195361 0.063845178725116872 0 0.24751669685985911 0.059618880130872708 0 0.24309408444955441 0.062356377748052388 0 0.2376257901407148 0.059976102198904507 0 0.24751669685985911 0.059618880130872708 0 0.24426241142214139 0.049994713685017962 0 0.2310385276818335 0.053106641608170198 0 0.24751669685985911 0.059618880130872708 0 0.2376257901407148 0.059976102198904507 0 0.2310385276818335 0.053106641608170198 0 0.24751669685985911 0.059618880130872708 0 0.2310385276818335 0.053106641608170198 0 0.24853219730195361 0.063845178725116872 0 0.24751669685985911 0.059618880130872708 0 0.2530174900015254 0.0600809219264858 0 0.24602681454492631 0.062964227281045088 0 0.24853219730195361 0.063845178725116872 0 0.24751669685985911 0.059618880130872708 0 0.24602681454492631 0.062964227281045088 0 0.24751669685985911 0.059618880130872708 0 0.24309408444955441 0.062356377748052388 0 0.23934469018649959 0.064583282500140851 0 0.24309408444955441 0.062356377748052388 0 0.2376257901407148 0.059976102198904507 0 0.24426241142214139 0.049994713685017962 0 0.23928634064401511 0.040096757013566242 0 0.2310385276818335 0.053106641608170198 0 0.24751669685985911 0.059618880130872708 0 0.24426241142214139 0.049994713685017962 0 0.25102243244437311 0.053297338652025752 0 0.24426241142214139 0.049994713685017962 0 0.25174039047255609 0.044464402284776217 0 0.25102243244437311 0.053297338652025752 0 0.23928634064401511 0.040096757013566242 0 0.2320502206633881 0.021165953515508481 0 0.25044211127373811 0.032849993626191502 0 0.23928634064401511 0.040096757013566242 0 0.25044211127373811 0.032849993626191502 0 0.25174039047255609 0.044464402284776217 0 0.24426241142214139 0.049994713685017962 0 0.23928634064401511 0.040096757013566242 0 0.25174039047255609 0.044464402284776217 0 0.22618438235043381 0.038998837361733103 0 0.2320502206633881 0.021165953515508481 0 0.20963369093729961 0.03941564640516447 0 0.23928634064401511 0.040096757013566242 0 0.22618438235043381 0.038998837361733103 0 0.2320502206633881 0.021165953515508481 0 0.22618438235043381 0.038998837361733103 0 0.2310385276818335 0.053106641608170198 0 0.21456035850380811 0.046594403085467223 0 0.23928634064401511 0.040096757013566242 0 0.22618438235043381 0.038998837361733103 0 0.2310385276818335 0.053106641608170198 0 0.2310385276818335 0.053106641608170198 0 0.21456035850380811 0.046594403085467223 0 0.2248665156508784 0.061611733455129589 0 0.2310385276818335 0.053106641608170198 0 0.21456035850380811 0.046594403085467223 0 0.2248665156508784 0.061611733455129589 0 0.21456035850380811 0.046594403085467223 0 0.2330718446673557 0.064441819436705627 0 0.2248665156508784 0.061611733455129589 0 0.23150027442910881 0.059501590197602497 0 0.2248665156508784 0.061611733455129589 0 0.23150027442910881 0.059501590197602497 0 0.2310385276818335 0.053106641608170198 0 0.2330718446673557 0.064441819436705627 0 0.2376257901407148 0.059976102198904507 0 0.23150027442910881 0.059501590197602497 0 0.2376257901407148 0.059976102198904507 0 0.23150027442910881 0.059501590197602497 0 0.2310385276818335 0.053106641608170198 0 0.2320502206633881 0.021165953515508481 0 0.22999165343287109 0.0038227322559807589 0 0.25446675038947358 0.0029162606258486688 0 0.2320502206633881 0.021165953515508481 0 0.2600935707136679 0.019574361616358959 0 0.25446675038947358 0.0029162606258486688 0 0.22999165343287109 0.0038227322559807589 0 0.25446675038947358 0.0029162606258486688 0 0.24138147174972829 -0.0061427828714447699 0 0.2320502206633881 0.021165953515508481 0 0.25446675038947358 0.0029162606258486688 0 0.2320502206633881 0.021165953515508481 0 0.2600935707136679 0.019574361616358959 0 0.25044211127373811 0.032849993626191502 0 0.2320502206633881 0.021165953515508481 0 0.20963369093729961 0.03941564640516447 0 0.22999165343287109 0.0038227322559807589 0 0.21340461703840111 0.0096506044731711187 0 0.21351355446813719 -0.0021103410187178909 0 0.2320502206633881 0.021165953515508481 0 0.22999165343287109 0.0038227322559807589 0 0.21340461703840111 0.0096506044731711187 0 0.21340461703840111 0.0096506044731711187 0 0.1998105265397013 0.00335350757378736 0 0.21351355446813719 -0.0021103410187178909 0 0.21340461703840111 0.0096506044731711187 0 0.20371525389429951 0.01279949030761077 0 0.2082588668535221 0.02245160931237615 0 0.21340461703840111 0.0096506044731711187 0 0.20371525389429951 0.01279949030761077 0 0.1998105265397013 0.00335350757378736 0 0.2320502206633881 0.021165953515508481 0 0.2082588668535221 0.02245160931237615 0 0.20963369093729961 0.03941564640516447 0 0.2320502206633881 0.021165953515508481 0 0.21340461703840111 0.0096506044731711187 0 0.2082588668535221 0.02245160931237615 0 0.2082588668535221 0.02245160931237615 0 0.19338700514557339 0.015742239871108451 0 0.20963369093729961 0.03941564640516447 0 0.19338700514557339 0.015742239871108451 0 0.1989601287501698 0.040429129743079398 0 0.18048502430789731 0.01998114488410483 0 0.1989601287501698 0.040429129743079398 0 0.18048502430789731 0.01998114488410483 0 0.19338700514557339 0.015742239871108451 0 0.20963369093729961 0.03941564640516447 0 0.20371525389429951 0.01279949030761077 0 0.2082588668535221 0.02245160931237615 0 0.19338700514557339 0.015742239871108451 0 0.19338700514557339 0.015742239871108451 0 0.1998105265397013 0.00335350757378736 0 0.17714031935384769 -0.0079311666629475405 0 0.20371525389429951 0.01279949030761077 0 0.19338700514557339 0.015742239871108451 0 0.1998105265397013 0.00335350757378736 0 0.21450653174737461 0.057635669175196122 0 0.2029561920580818 0.044851916216142339 0 0.21450653174737461 0.057635669175196122 0 0.2029561920580818 0.044851916216142339 0 0.2021088015620611 0.053433964061651712 0 0.21450653174737461 0.057635669175196122 0 0.21456035850380811 0.046594403085467223 0 0.2029561920580818 0.044851916216142339 0 0.2082291800225603 0.066043280120252124 0 0.21450653174737461 0.057635669175196122 0 0.2021088015620611 0.053433964061651712 0 0.2248665156508784 0.061611733455129589 0 0.21450653174737461 0.057635669175196122 0 0.21456035850380811 0.046594403085467223 0 0.2082291800225603 0.066043280120252124 0 0.21450653174737461 0.057635669175196122 0 0.22618438235043381 0.038998837361733103 0 0.21456035850380811 0.046594403085467223 0 0.20963369093729961 0.03941564640516447 0 0.21456035850380811 0.046594403085467223 0 0.20963369093729961 0.03941564640516447 0 0.21456035850380811 0.046594403085467223 0 0.20530753189452691 0.042937648913457381 0 0.2029561920580818 0.044851916216142339 0 0.20963369093729961 0.03941564640516447 0 0.20530753189452691 0.042937648913457381 0 0.1989601287501698 0.040429129743079398 0 0.21456035850380811 0.046594403085467223 0 0.20530753189452691 0.042937648913457381 0 0.21456035850380811 0.046594403085467223 0 0.20963369093729961 0.03941564640516447 0 0.20530753189452691 0.042937648913457381 0 0.20963369093729961 0.03941564640516447 0 0.20530753189452691 0.042937648913457381 0 0.20530753189452691 0.042937648913457381 0 0.2029561920580818 0.044851916216142339 0 0.1989601287501698 0.040429129743079398 0 0.1774654858828027 0.031934360706524292 0 0.2029561920580818 0.044851916216142339 0 0.1989601287501698 0.040429129743079398 0 0.19971656766465989 0.047489351670260083 0 0.1989601287501698 0.040429129743079398 0 0.19133087755196571 0.045131483978966998 0 0.19971656766465989 0.047489351670260083 0 0.2029561920580818 0.044851916216142339 0 0.19971656766465989 0.047489351670260083 0 0.19338700514557339 0.015742239871108451 0 0.20963369093729961 0.03941564640516447 0 0.1989601287501698 0.040429129743079398 0 0.1989601287501698 0.040429129743079398 0 0.19133087755196571 0.045131483978966998 0 0.18298678422305309 0.040980100737508622 0 0.20530753189452691 0.042937648913457381 0 0.2029561920580818 0.044851916216142339 0 0.1989601287501698 0.040429129743079398 0 0.20530753189452691 0.042937648913457381 0 0.1989601287501698 0.040429129743079398 0 0.2029561920580818 0.044851916216142339 0 0.1989601287501698 0.040429129743079398 0 0.2082291800225603 0.066043280120252124 0 0.18513553631762919 0.051149603126408108 0 0.2021088015620611 0.053433964061651712 0 0.19971656766465989 0.047489351670260083 0 0.18513553631762919 0.051149603126408108 0 0.2082291800225603 0.066043280120252124 0 0.2021088015620611 0.053433964061651712 0 0.18513553631762919 0.051149603126408108 0 0.19067723801237901 0.065525043857756982 0 0.2082291800225603 0.066043280120252124 0 0.18513553631762919 0.051149603126408108 0 0.19133087755196571 0.045131483978966998 0 0.19971656766465989 0.047489351670260083 0 0.18513553631762919 0.051149603126408108 0 0.2029561920580818 0.044851916216142339 0 0.2021088015620611 0.053433964061651712 0 0.19971656766465989 0.047489351670260083 0 0.17734631865053521 0.060730067185729229 0 0.18513553631762919 0.051149603126408108 0 0.16725106424272049 0.052894846580172288 0 0.19067723801237901 0.065525043857756982 0 0.17734631865053521 0.060730067185729229 0 0.18513553631762919 0.051149603126408108 0 0.18298678422305309 0.040980100737508622 0 0.1774654858828027 0.031934360706524292 0 0.1620418926126978 0.036255926132564682 0 0.19133087755196571 0.045131483978966998 0 0.18513553631762919 0.051149603126408108 0 0.18298678422305309 0.040980100737508622 0 0.18513553631762919 0.051149603126408108 0 0.18298678422305309 0.040980100737508622 0 0.1620418926126978 0.036255926132564682 0 0.1989601287501698 0.040429129743079398 0 0.18298678422305309 0.040980100737508622 0 0.1774654858828027 0.031934360706524292 0 0.18513553631762919 0.051149603126408108 0 0.1620418926126978 0.036255926132564682 0 0.1620418926126978 0.036255926132564682 0 0.16725106424272049 0.052894846580172288 0 0.15541952745182569 0.04677658384696623 0 0.18513553631762919 0.051149603126408108 0 0.1620418926126978 0.036255926132564682 0 0.16725106424272049 0.052894846580172288 0 0.16725106424272049 0.052894846580172288 0 0.15507694825043991 0.057889849327421902 0 0.15541952745182569 0.04677658384696623 0 0.16725106424272049 0.052894846580172288 0 0.15507694825043991 0.057889849327421902 0 0.1653937448538241 0.067538194789913991 0 0.17734631865053521 0.060730067185729229 0 0.16725106424272049 0.052894846580172288 0 0.1653937448538241 0.067538194789913991 0 0.18048502430789731 0.01998114488410483 0 0.1657030786406338 0.0084270166623369204 0 0.17714031935384769 -0.0079311666629475405 0 0.19338700514557339 0.015742239871108451 0 0.17714031935384769 -0.0079311666629475405 0 0.19338700514557339 0.015742239871108451 0 0.18048502430789731 0.01998114488410483 0 0.17714031935384769 -0.0079311666629475405 0 0.1989601287501698 0.040429129743079398 0 0.1774654858828027 0.031934360706524292 0 0.18048502430789731 0.01998114488410483 0 0.1774654858828027 0.031934360706524292 0 0.18048502430789731 0.01998114488410483 0 0.16935520337559401 0.020657770454092759 0 0.1774654858828027 0.031934360706524292 0 0.15597084301543529 0.02343959166996953 0 0.1774654858828027 0.031934360706524292 0 0.1620418926126978 0.036255926132564682 0 0.15597084301543529 0.02343959166996953 0 0.1774654858828027 0.031934360706524292 0 0.16935520337559401 0.020657770454092759 0 0.15597084301543529 0.02343959166996953 0 0.16935520337559401 0.020657770454092759 0 0.1657030786406338 0.0084270166623369204 0 0.15597084301543529 0.02343959166996953 0 0.18048502430789731 0.01998114488410483 0 0.16935520337559401 0.020657770454092759 0 0.1657030786406338 0.0084270166623369204 0 0.1657030786406338 0.0084270166623369204 0 0.14883794818754281 0.01110572894874149 0 0.15480995508657039 -0.001084596553268768 0 0.1657030786406338 0.0084270166623369204 0 0.14883794818754281 0.01110572894874149 0 0.15597084301543529 0.02343959166996953 0 0.14883794818754281 0.01110572894874149 0 0.13464870039648349 0.00080453217212592717 0 0.15480995508657039 -0.001084596553268768 0 0.14883794818754281 0.01110572894874149 0 0.13894824890776639 0.02136224913872127 0 0.13464870039648349 0.00080453217212592717 0 0.1620418926126978 0.036255926132564682 0 0.13894824890776639 0.02136224913872127 0 0.14883794818754281 0.01110572894874149 0 0.15597084301543529 0.02343959166996953 0 0.13894824890776639 0.02136224913872127 0 0.1620418926126978 0.036255926132564682 0 0.15597084301543529 0.02343959166996953 0 0.13894824890776639 0.02136224913872127 0 0.11961069471150609 0.02296590295220987 0 0.13894824890776639 0.02136224913872127 0 0.12977361784467401 0.039215218793308727 0 0.1158546052028349 0.0064685721448778594 0 0.13894824890776639 0.02136224913872127 0 0.1158546052028349 0.0064685721448778594 0 0.13894824890776639 0.02136224913872127 0 0.13464870039648349 0.00080453217212592717 0 0.14278372382386809 0.048416123664777412 0 0.1428601767931531 0.062084067640591357 0 0.15507694825043991 0.057889849327421902 0 0.14278372382386809 0.048416123664777412 0 0.15507694825043991 0.057889849327421902 0 0.15541952745182569 0.04677658384696623 0 0.1620418926126978 0.036255926132564682 0 0.13894824890776639 0.02136224913872127 0 0.14579340212816641 0.038405220315267663 0 0.1620418926126978 0.036255926132564682 0 0.15541952745182569 0.04677658384696623 0 0.14579340212816641 0.038405220315267663 0 0.14278372382386809 0.048416123664777412 0 0.15541952745182569 0.04677658384696623 0 0.14579340212816641 0.038405220315267663 0 0.14278372382386809 0.048416123664777412 0 0.14579340212816641 0.038405220315267663 0 0.12977361784467401 0.039215218793308727 0 0.13894824890776639 0.02136224913872127 0 0.14579340212816641 0.038405220315267663 0 0.12977361784467401 0.039215218793308727 0 0.11550376979223601 0.054551475820320147 0 0.12977361784467401 0.039215218793308727 0 0.1326943019686847 0.054606112458038862 0 0.11550376979223601 0.054551475820320147 0 0.1326943019686847 0.054606112458038862 0 0.13255022158949201 0.068763676371196639 0 0.14278372382386809 0.048416123664777412 0 0.12977361784467401 0.039215218793308727 0 0.1326943019686847 0.054606112458038862 0 0.14278372382386809 0.048416123664777412 0 0.1428601767931531 0.062084067640591357 0 0.1326943019686847 0.054606112458038862 0 0.1428601767931531 0.062084067640591357 0 0.1326943019686847 0.054606112458038862 0 0.13255022158949201 0.068763676371196639 0 0.1207366242219714 0.074251990558816788 0 0.13255022158949201 0.068763676371196639 0 0.13578085374332971 0.077614708003019631 0 0.13255022158949201 0.068763676371196639 0 0.13578085374332971 0.077614708003019631 0 0.1430759120552613 0.073085192731263071 0 0.1428601767931531 0.062084067640591357 0 0.13255022158949201 0.068763676371196639 0 0.1430759120552613 0.073085192731263071 0 0.1428601767931531 0.062084067640591357 0 0.1430759120552613 0.073085192731263071 0 0.15260580868734391 0.069203578475014266 0 0.1430759120552613 0.073085192731263071 0 0.14969883640752091 0.076610515579137797 0 0.14563192422462459 0.083183778073064013 0 0.13578085374332971 0.077614708003019631 0 0.1430759120552613 0.073085192731263071 0 0.14563192422462459 0.083183778073064013 0 0.1430759120552613 0.073085192731263071 0 0.14969883640752091 0.076610515579137797 0 0.15260580868734391 0.069203578475014266 0 0.14969883640752091 0.076610515579137797 0 0.15260580868734391 0.069203578475014266 0 0.15677919641446331 0.080277826610221981 0 0.1428601767931531 0.062084067640591357 0 0.15507694825043991 0.057889849327421902 0 0.15260580868734391 0.069203578475014266 0 0.1506819444987289 0.088437751930635633 0 0.14868901735932749 0.09586058707093438 0 0.157853861938485 0.092527754269896317 0 0.1506819444987289 0.088437751930635633 0 0.15677919641446331 0.080277826610221981 0 0.157853861938485 0.092527754269896317 0 0.14969883640752091 0.076610515579137797 0 0.14563192422462459 0.083183778073064013 0 0.15677919641446331 0.080277826610221981 0 0.1506819444987289 0.088437751930635633 0 0.14563192422462459 0.083183778073064013 0 0.15677919641446331 0.080277826610221981 0 0.14563192422462459 0.083183778073064013 0 0.1444557225567443 0.090338813629061501 0 0.13888671887288589 0.088270852986767859 0 0.1506819444987289 0.088437751930635633 0 0.14563192422462459 0.083183778073064013 0 0.1444557225567443 0.090338813629061501 0 0.1444557225567443 0.090338813629061501 0 0.14209274384079601 0.094639397504520467 0 0.14868901735932749 0.09586058707093438 0 0.1506819444987289 0.088437751930635633 0 0.1444557225567443 0.090338813629061501 0 0.14868901735932749 0.09586058707093438 0 0.1444557225567443 0.090338813629061501 0 0.13888671887288589 0.088270852986767859 0 0.14209274384079601 0.094639397504520467 0 0.13888671887288589 0.088270852986767859 0 0.13668050292917741 0.098217611464673699 0 0.14209274384079601 0.094639397504520467 0 0.13888671887288589 0.088270852986767859 0 0.1300820653953097 0.084166932106396392 0 0.13668050292917741 0.098217611464673699 0 0.11116449005577619 0.086473750785835857 0 0.1300820653953097 0.084166932106396392 0 0.13668050292917741 0.098217611464673699 0 0.13578085374332971 0.077614708003019631 0 0.13888671887288589 0.088270852986767859 0 0.1300820653953097 0.084166932106396392 0 0.13578085374332971 0.077614708003019631 0 0.14563192422462459 0.083183778073064013 0 0.13888671887288589 0.088270852986767859 0 0.1207366242219714 0.074251990558816788 0 0.13578085374332971 0.077614708003019631 0 0.1300820653953097 0.084166932106396392 0 0.1216961693062274 0.1020981758197984 0 0.1302764983332621 0.10693497851168419 0 0.13668050292917741 0.098217611464673699 0 0.1302764983332621 0.10693497851168419 0 0.13758713408363871 0.1043360441680015 0 0.13668050292917741 0.098217611464673699 0 0.1302764983332621 0.10693497851168419 0 0.1360833458267342 0.1084620534226548 0 0.13758713408363871 0.1043360441680015 0 0.1360833458267342 0.1084620534226548 0 0.13758713408363871 0.1043360441680015 0 0.14314356584317489 0.10755645506983 0 0.13758713408363871 0.1043360441680015 0 0.13668050292917741 0.098217611464673699 0 0.14175175748584509 0.1005091223711649 0 0.13668050292917741 0.098217611464673699 0 0.14209274384079601 0.094639397504520467 0 0.14175175748584509 0.1005091223711649 0 0.12813823657366311 0.12049833089676459 0 0.13246275659848361 0.1130811342378658 0 0.13708322035591489 0.118794437000363 0 0.12212988809696081 0.1249307776834532 0 0.12788127083107459 0.1291064789800366 0 0.12813823657366311 0.12049833089676459 0 0.1197878353292403 0.1092484053650479 0 0.1302764983332621 0.10693497851168419 0 0.12624189261331301 0.1140678077034443 0 0.12813823657366311 0.12049833089676459 0 0.12624189261331301 0.1140678077034443 0 0.13246275659848361 0.1130811342378658 0 0.1302764983332621 0.10693497851168419 0 0.12624189261331301 0.1140678077034443 0 0.13246275659848361 0.1130811342378658 0 0.138866780176991 0.11235807520418389 0 0.13708322035591489 0.118794437000363 0 0.14572099158606311 0.1154247658161887 0 0.1360833458267342 0.1084620534226548 0 0.13246275659848361 0.1130811342378658 0 0.138866780176991 0.11235807520418389 0 0.1302764983332621 0.10693497851168419 0 0.1360833458267342 0.1084620534226548 0 0.13246275659848361 0.1130811342378658 0 0.1360833458267342 0.1084620534226548 0 0.138866780176991 0.11235807520418389 0 0.14314356584317489 0.10755645506983 0 0.13246275659848361 0.1130811342378658 0 0.138866780176991 0.11235807520418389 0 0.13708322035591489 0.118794437000363 0 0.13409394305489639 0.1257339851238449 0 0.14295710802469111 0.12768772724150559 0 0.13708322035591489 0.118794437000363 0 0.13409394305489639 0.1257339851238449 0 0.12813823657366311 0.12049833089676459 0 0.13708322035591489 0.118794437000363 0 0.14572099158606311 0.1154247658161887 0 0.15364605026385231 0.1227496740475859 0 0.15839207309433961 0.10550736800805539 0 0.14295710802469111 0.12768772724150559 0 0.13708322035591489 0.118794437000363 0 0.14572099158606311 0.1154247658161887 0 0.14295710802469111 0.12768772724150559 0 0.14572099158606311 0.1154247658161887 0 0.15364605026385231 0.1227496740475859 0 0.138866780176991 0.11235807520418389 0 0.14572099158606311 0.1154247658161887 0 0.14314356584317489 0.10755645506983 0 0.14572099158606311 0.1154247658161887 0 0.14314356584317489 0.10755645506983 0 0.15839207309433961 0.10550736800805539 0 0.14175175748584509 0.1005091223711649 0 0.15839207309433961 0.10550736800805539 0 0.14175175748584509 0.1005091223711649 0 0.14314356584317489 0.10755645506983 0 0.15839207309433961 0.10550736800805539 0 0.14175175748584509 0.1005091223711649 0 0.14868901735932749 0.09586058707093438 0 0.15839207309433961 0.10550736800805539 0 0.14209274384079601 0.094639397504520467 0 0.14175175748584509 0.1005091223711649 0 0.14868901735932749 0.09586058707093438 0 0.13758713408363871 0.1043360441680015 0 0.14175175748584509 0.1005091223711649 0 0.14314356584317489 0.10755645506983 0 0.14868901735932749 0.09586058707093438 0 0.15839207309433961 0.10550736800805539 0 0.157853861938485 0.092527754269896317 0 0.15839207309433961 0.10550736800805539 0 0.17503238870283441 0.11050561364494491 0 0.15839207309433961 0.10550736800805539 0 0.1705578526620479 0.095927182961129481 0 0.157853861938485 0.092527754269896317 0 0.15839207309433961 0.10550736800805539 0 0.1705578526620479 0.095927182961129481 0 0.17503238870283441 0.11050561364494491 0 0.16417220099380411 0.12505127510387981 0 0.15839207309433961 0.10550736800805539 0 0.17503238870283441 0.11050561364494491 0 0.16417220099380411 0.12505127510387981 0 0.15364605026385231 0.1227496740475859 0 0.15839207309433961 0.10550736800805539 0 0.16417220099380411 0.12505127510387981 0 0.17503238870283441 0.11050561364494491 0 0.18002451345814399 0.12716596121819479 0 0.16417220099380411 0.12505127510387981 0 0.17503238870283441 0.11050561364494491 0 0.18002451345814399 0.12716596121819479 0 0.2001236667938262 0.1180422718546187 0 0.17503238870283441 0.11050561364494491 0 0.1916307843626972 0.08827444688259839 0 0.1705578526620479 0.095927182961129481 0 0.17503238870283441 0.11050561364494491 0 0.1916307843626972 0.08827444688259839 0 0.17503238870283441 0.11050561364494491 0 0.1916307843626972 0.08827444688259839 0 0.17935943521264269 0.07135827912697662 0 0.16988015521188329 0.08282073200015258 0 0.1916307843626972 0.08827444688259839 0 0.1705578526620479 0.095927182961129481 0 0.16988015521188329 0.08282073200015258 0 0.19067723801237901 0.065525043857756982 0 0.1916307843626972 0.08827444688259839 0 0.17935943521264269 0.07135827912697662 0 0.19067723801237901 0.065525043857756982 0 0.17734631865053521 0.060730067185729229 0 0.17935943521264269 0.07135827912697662 0 0.17734631865053521 0.060730067185729229 0 0.17935943521264269 0.07135827912697662 0 0.1653937448538241 0.067538194789913991 0 0.17935943521264269 0.07135827912697662 0 0.1653937448538241 0.067538194789913991 0 0.16988015521188329 0.08282073200015258 0 0.15507694825043991 0.057889849327421902 0 0.15260580868734391 0.069203578475014266 0 0.1653937448538241 0.067538194789913991 0 0.15260580868734391 0.069203578475014266 0 0.1653937448538241 0.067538194789913991 0 0.15677919641446331 0.080277826610221981 0 0.1653937448538241 0.067538194789913991 0 0.15677919641446331 0.080277826610221981 0 0.16988015521188329 0.08282073200015258 0 0.15677919641446331 0.080277826610221981 0 0.157853861938485 0.092527754269896317 0 0.16988015521188329 0.08282073200015258 0 0.1705578526620479 0.095927182961129481 0 0.157853861938485 0.092527754269896317 0 0.16988015521188329 0.08282073200015258 0 0.099456207782380623 0.4822659283708195 0 0.1141892196830592 0.48396198267476093 0 0.11304725129434449 0.46767028325629811 0 0.099456207782380623 0.4822659283708195 0 0.11304725129434449 0.46767028325629811 0 0.096803680563272876 0.46646214520586099 0 0.099456207782380623 0.4822659283708195 0 0.10782601469385079 0.5 0 0.078267650747156567 0.50000000000000133 0 0.099456207782380623 0.4822659283708195 0 0.10782601469385079 0.5 0 0.1141892196830592 0.48396198267476093 0 0.10782601469385079 0.5 0 0.1249193769550877 0.49369376296818718 0 0.1141892196830592 0.48396198267476093 0 0.1249193769550877 0.49369376296818718 0 0.1141892196830592 0.48396198267476093 0 0.12569724768963239 0.47617993877849962 0 0.10782601469385079 0.5 0 0.1249193769550877 0.49369376296818718 0 0.13738437864054501 0.5 0 0.1141892196830592 0.48396198267476093 0 0.11304725129434449 0.46767028325629811 0 0.12569724768963239 0.47617993877849962 0 0.11304725129434449 0.46767028325629811 0 0.1267882431275838 0.46370707134437261 0 0.12569724768963239 0.47617993877849962 0 0.11304725129434449 0.46767028325629811 0 0.1221607865463437 0.4507156547582637 0 0.1004821270038239 0.44949914822431608 0 0.11304725129434449 0.46767028325629811 0 0.1221607865463437 0.4507156547582637 0 0.1267882431275838 0.46370707134437261 0 0.1221607865463437 0.4507156547582637 0 0.1004821270038239 0.44949914822431608 0 0.12259086230274099 0.42947812748907283 0 0.1004821270038239 0.44949914822431608 0 0.096803680563272876 0.46646214520586099 0 0.084307548883437972 0.45862843933572522 0 0.11304725129434449 0.46767028325629811 0 0.1004821270038239 0.44949914822431608 0 0.096803680563272876 0.46646214520586099 0 0.084307548883437972 0.45862843933572522 0 0.070120974899159305 0.46867166915081548 0 0.08254081050968877 0.47642281665818748 0 0.096803680563272876 0.46646214520586099 0 0.084307548883437972 0.45862843933572522 0 0.08254081050968877 0.47642281665818748 0 0.084307548883437972 0.45862843933572522 0 0.083205653112744402 0.44008551456546158 0 0.070599818540594342 0.45171728711773013 0 0.1004821270038239 0.44949914822431608 0 0.084307548883437972 0.45862843933572522 0 0.083205653112744402 0.44008551456546158 0 0.1004821270038239 0.44949914822431608 0 0.083205653112744402 0.44008551456546158 0 0.095892719888732866 0.42453745382262881 0 0.070599818540594342 0.45171728711773013 0 0.057347956450285731 0.44480695268810438 0 0.068330088192809502 0.43602814955066621 0 0.083205653112744402 0.44008551456546158 0 0.070599818540594342 0.45171728711773013 0 0.068330088192809502 0.43602814955066621 0 0.070599818540594342 0.45171728711773013 0 0.070120974899159305 0.46867166915081548 0 0.05832870883015126 0.45973880463956351 0 0.084307548883437972 0.45862843933572522 0 0.070599818540594342 0.45171728711773013 0 0.070120974899159305 0.46867166915081548 0 0.070120974899159305 0.46867166915081548 0 0.08254081050968877 0.47642281665818748 0 0.061557047466102868 0.48310025102256282 0 0.070120974899159305 0.46867166915081548 0 0.061557047466102868 0.48310025102256282 0 0.05832870883015126 0.45973880463956351 0 0.099456207782380623 0.4822659283708195 0 0.096803680563272876 0.46646214520586099 0 0.08254081050968877 0.47642281665818748 0 0.099456207782380623 0.4822659283708195 0 0.08254081050968877 0.47642281665818748 0 0.078267650747156567 0.50000000000000133 0 0.078267650747156567 0.50000000000000133 0 0.049166882519808157 0.5 0 0.061557047466102868 0.48310025102256282 0 0.08254081050968877 0.47642281665818748 0 0.078267650747156567 0.50000000000000133 0 0.061557047466102868 0.48310025102256282 0 0.078267650747156567 0.50000000000000133 0 0.061557047466102868 0.48310025102256282 0 0.049166882519808157 0.5 0 0.061557047466102868 0.48310025102256282 0 0.038208171894904559 0.48286056860770488 0 0.061557047466102868 0.48310025102256282 0 0.044846444185049857 0.46620050204512359 0 0.05832870883015126 0.45973880463956351 0 0.061557047466102868 0.48310025102256282 0 0.044846444185049857 0.46620050204512359 0 0.061557047466102868 0.48310025102256282 0 0.038208171894904559 0.48286056860770488 0 0.044846444185049857 0.46620050204512359 0 0.038208171894904559 0.48286056860770488 0 0.029572045059576241 0.469060477695939 0 0.044846444185049857 0.46620050204512359 0 0.049166882519808157 0.5 0 0.038208171894904559 0.48286056860770488 0 0.020066114292459799 0.5 0 0.038208171894904559 0.48286056860770488 0 0.020066114292459799 0.5 0 0.021055159894441029 0.48095839664786189 0 0.038208171894904559 0.48286056860770488 0 0.029572045059576241 0.469060477695939 0 0.021055159894441029 0.48095839664786189 0 0.029572045059576241 0.469060477695939 0 0.021055159894441029 0.48095839664786189 0 0.01561460841948897 0.46598216811131982 0 0.021055159894441029 0.48095839664786189 0 0.0030933759349822849 0.48266358315495572 0 0.01561460841948897 0.46598216811131982 0 0.0030933759349822849 0.48266358315495572 0 0.01561460841948897 0.46598216811131982 0 0.0036787250480955699 0.47408322248379448 0 0.0030933759349822849 0.48266358315495572 0 0.01561460841948897 0.46598216811131982 0 -0.0016340076521478781 0.48633642657919801 0 0.0036787250480955699 0.47408322248379448 0 0.0030933759349822849 0.48266358315495572 0 0.020066114292459799 0.5 0 0.021055159894441029 0.48095839664786189 0 0.0030933759349822849 0.48266358315495572 0 -0.0090346539348886701 0.5 0 -0.0016340076521478781 0.48633642657919801 0 0.020066114292459799 0.5 0 -0.0016340076521478781 0.48633642657919801 0 0.020066114292459799 0.5 0 0.0030933759349822849 0.48266358315495572 0 -0.0030841453677343121 0.43636499760021141 0 -0.002359076509941094 0.46135071208970457 0 0.010470448459028871 0.45111158928184719 0 -0.0030841453677343121 0.43636499760021141 0 0.010470448459028871 0.45111158928184719 0 0.017893296784651399 0.43894227458572882 0 -0.002359076509941094 0.46135071208970457 0 0.010470448459028871 0.45111158928184719 0 0.01561460841948897 0.46598216811131982 0 -0.002359076509941094 0.46135071208970457 0 0.0036787250480955699 0.47408322248379448 0 0.01561460841948897 0.46598216811131982 0 0.010470448459028871 0.45111158928184719 0 0.01561460841948897 0.46598216811131982 0 0.0281358409039968 0.44930075306768458 0 0.029572045059576241 0.469060477695939 0 0.01561460841948897 0.46598216811131982 0 0.0281358409039968 0.44930075306768458 0 0.01561460841948897 0.46598216811131982 0 0.0281358409039968 0.44930075306768458 0 0.010470448459028871 0.45111158928184719 0 0.0281358409039968 0.44930075306768458 0 0.017893296784651399 0.43894227458572882 0 0.0281358409039968 0.44930075306768458 0 0.017893296784651399 0.43894227458572882 0 0.03800042812263172 0.43615865433005307 0 0.0281358409039968 0.44930075306768458 0 0.017893296784651399 0.43894227458572882 0 0.0281358409039968 0.44930075306768458 0 0.04587361322417214 0.448769157871174 0 0.03800042812263172 0.43615865433005307 0 0.0281358409039968 0.44930075306768458 0 0.03800042812263172 0.43615865433005307 0 0.04587361322417214 0.448769157871174 0 0.049411209704934803 0.43621283219101809 0 0.03800042812263172 0.43615865433005307 0 0.029572045059576241 0.469060477695939 0 0.0281358409039968 0.44930075306768458 0 0.044846444185049857 0.46620050204512359 0 0.0281358409039968 0.44930075306768458 0 0.04587361322417214 0.448769157871174 0 0.044846444185049857 0.46620050204512359 0 0.0281358409039968 0.44930075306768458 0 0.044846444185049857 0.46620050204512359 0 0.04587361322417214 0.448769157871174 0 0.044846444185049857 0.46620050204512359 0 0.05832870883015126 0.45973880463956351 0 0.04587361322417214 0.448769157871174 0 0.057347956450285731 0.44480695268810438 0 0.049411209704934803 0.43621283219101809 0 0.04587361322417214 0.448769157871174 0 0.05832870883015126 0.45973880463956351 0 0.057347956450285731 0.44480695268810438 0 0.070599818540594342 0.45171728711773013 0 0.05832870883015126 0.45973880463956351 0 0.057347956450285731 0.44480695268810438 0 0.057347956450285731 0.44480695268810438 0 0.058238482531349368 0.43512174465279091 0 0.068330088192809502 0.43602814955066621 0 0.057347956450285731 0.44480695268810438 0 0.058238482531349368 0.43512174465279091 0 0.049411209704934803 0.43621283219101809 0 0.058238482531349368 0.43512174465279091 0 0.05412352915042095 0.42739076434297479 0 0.063786863135573219 0.4234822836218442 0 0.05412352915042095 0.42739076434297479 0 0.047865015341267358 0.42301655559242213 0 0.049411209704934803 0.43621283219101809 0 0.05412352915042095 0.42739076434297479 0 0.047865015341267358 0.42301655559242213 0 0.058238482531349368 0.43512174465279091 0 0.05412352915042095 0.42739076434297479 0 0.049411209704934803 0.43621283219101809 0 0.047865015341267358 0.42301655559242213 0 0.055388731832649349 0.41299308245440008 0 0.044385004541519633 0.40583709082877739 0 0.055388731832649349 0.41299308245440008 0 0.057103340742871267 0.4006394318358022 0 0.0691327228978319 0.40699071288372829 0 0.05412352915042095 0.42739076434297479 0 0.055388731832649349 0.41299308245440008 0 0.063786863135573219 0.4234822836218442 0 0.047865015341267358 0.42301655559242213 0 0.055388731832649349 0.41299308245440008 0 0.05412352915042095 0.42739076434297479 0 0.047865015341267358 0.42301655559242213 0 0.055388731832649349 0.41299308245440008 0 0.055388731832649349 0.41299308245440008 0 0.044385004541519633 0.40583709082877739 0 0.057103340742871267 0.4006394318358022 0 0.047865015341267358 0.42301655559242213 0 0.030398582533070099 0.41080889326869052 0 0.044385004541519633 0.40583709082877739 0 0.047865015341267358 0.42301655559242213 0 0.035686717363660143 0.42423985257235269 0 0.030398582533070099 0.41080889326869052 0 0.047865015341267358 0.42301655559242213 0 0.030398582533070099 0.41080889326869052 0 0.047865015341267358 0.42301655559242213 0 0.049411209704934803 0.43621283219101809 0 0.03800042812263172 0.43615865433005307 0 0.047865015341267358 0.42301655559242213 0 0.03800042812263172 0.43615865433005307 0 0.047865015341267358 0.42301655559242213 0 0.035686717363660143 0.42423985257235269 0 0.03800042812263172 0.43615865433005307 0 0.035686717363660143 0.42423985257235269 0 0.03800042812263172 0.43615865433005307 0 0.0264828434576714 0.42697530709824522 0 0.017893296784651399 0.43894227458572882 0 0.0264828434576714 0.42697530709824522 0 0.013451351612083251 0.42022136891186163 0 0.017893296784651399 0.43894227458572882 0 0.03800042812263172 0.43615865433005307 0 0.0264828434576714 0.42697530709824522 0 0.030398582533070099 0.41080889326869052 0 0.013451351612083251 0.42022136891186163 0 0.012932149724872831 0.39860123094495892 0 0.0264828434576714 0.42697530709824522 0 0.030398582533070099 0.41080889326869052 0 0.013451351612083251 0.42022136891186163 0 0.035686717363660143 0.42423985257235269 0 0.0264828434576714 0.42697530709824522 0 0.030398582533070099 0.41080889326869052 0 -0.0038092142255275289 0.41137928311071797 0 0.013451351612083251 0.42022136891186163 0 0.012932149724872831 0.39860123094495892 0 -0.0030841453677343121 0.43636499760021141 0 0.017893296784651399 0.43894227458572882 0 0.013451351612083251 0.42022136891186163 0 -0.0030841453677343121 0.43636499760021141 0 -0.0038092142255275289 0.41137928311071797 0 0.013451351612083251 0.42022136891186163 0 -0.0045342830833226501 0.3863935686212247 0 0.012932149724872831 0.39860123094495892 0 0.0079023355216259559 0.37348921158265391 0 0.012932149724872831 0.39860123094495892 0 0.025375843575522711 0.38021681034322929 0 0.0079023355216259559 0.37348921158265391 0 -0.0045342830833226501 0.3863935686212247 0 0.012932149724872831 0.39860123094495892 0 -0.0045342830833226501 0.3863935686212247 0 -0.0038092142255275289 0.41137928311071797 0 0.012932149724872831 0.39860123094495892 0 0.030398582533070099 0.41080889326869052 0 0.012932149724872831 0.39860123094495892 0 0.030398582533070099 0.41080889326869052 0 0.012932149724872831 0.39860123094495892 0 0.030218872497922818 0.39559608178221078 0 0.012932149724872831 0.39860123094495892 0 0.030218872497922818 0.39559608178221078 0 0.025375843575522711 0.38021681034322929 0 0.025375843575522711 0.38021681034322929 0 0.045236422390978262 0.39339421550307069 0 0.045418656597819553 0.37354288132317159 0 0.030218872497922818 0.39559608178221078 0 0.025375843575522711 0.38021681034322929 0 0.045236422390978262 0.39339421550307069 0 0.030398582533070099 0.41080889326869052 0 0.030218872497922818 0.39559608178221078 0 0.044385004541519633 0.40583709082877739 0 0.030218872497922818 0.39559608178221078 0 0.045236422390978262 0.39339421550307069 0 0.044385004541519633 0.40583709082877739 0 0.045236422390978262 0.39339421550307069 0 0.057103340742871267 0.4006394318358022 0 0.06607043693335328 0.38973814947632979 0 0.045236422390978262 0.39339421550307069 0 0.044385004541519633 0.40583709082877739 0 0.057103340742871267 0.4006394318358022 0 0.045236422390978262 0.39339421550307069 0 0.06607043693335328 0.38973814947632979 0 0.045418656597819553 0.37354288132317159 0 0.06607043693335328 0.38973814947632979 0 0.066778362586220691 0.36264744131756171 0 0.045418656597819553 0.37354288132317159 0 0.06607043693335328 0.38973814947632979 0 0.086713905658550791 0.37461406501925459 0 0.066778362586220691 0.36264744131756171 0 0.091303312773641829 0.3995757594209417 0 0.1025776524751303 0.38486691706586951 0 0.086713905658550791 0.37461406501925459 0 0.06607043693335328 0.38973814947632979 0 0.091303312773641829 0.3995757594209417 0 0.086713905658550791 0.37461406501925459 0 0.091303312773641829 0.3995757594209417 0 0.086713905658550791 0.37461406501925459 0 0.06607043693335328 0.38973814947632979 0 0.091303312773641829 0.3995757594209417 0 0.0691327228978319 0.40699071288372829 0 0.057103340742871267 0.4006394318358022 0 0.06607043693335328 0.38973814947632979 0 0.0691327228978319 0.40699071288372829 0 0.055388731832649349 0.41299308245440008 0 0.0691327228978319 0.40699071288372829 0 0.063786863135573219 0.4234822836218442 0 0.0691327228978319 0.40699071288372829 0 0.077714875811277062 0.4214876261871765 0 0.063786863135573219 0.4234822836218442 0 0.083205653112744402 0.44008551456546158 0 0.077714875811277062 0.4214876261871765 0 0.068330088192809502 0.43602814955066621 0 0.058238482531349368 0.43512174465279091 0 0.068330088192809502 0.43602814955066621 0 0.063786863135573219 0.4234822836218442 0 0.077714875811277062 0.4214876261871765 0 0.068330088192809502 0.43602814955066621 0 0.063786863135573219 0.4234822836218442 0 0.083205653112744402 0.44008551456546158 0 0.077714875811277062 0.4214876261871765 0 0.095892719888732866 0.42453745382262881 0 0.091303312773641829 0.3995757594209417 0 0.0691327228978319 0.40699071288372829 0 0.077714875811277062 0.4214876261871765 0 0.091303312773641829 0.3995757594209417 0 0.095892719888732866 0.42453745382262881 0 0.091303312773641829 0.3995757594209417 0 0.077714875811277062 0.4214876261871765 0 0.095892719888732866 0.42453745382262881 0 0.091303312773641829 0.3995757594209417 0 0.095892719888732866 0.42453745382262881 0 0.115428724103706 0.40267530492779557 0 0.1004821270038239 0.44949914822431608 0 0.095892719888732866 0.42453745382262881 0 0.12259086230274099 0.42947812748907283 0 0.1004821270038239 0.44949914822431608 0 0.095892719888732866 0.42453745382262881 0 0.095892719888732866 0.42453745382262881 0 0.12259086230274099 0.42947812748907283 0 0.115428724103706 0.40267530492779557 0 0.115428724103706 0.40267530492779557 0 0.119448870245615 0.38256434187866972 0 0.13692284990477191 0.38930777957628943 0 0.119448870245615 0.38256434187866972 0 0.1025776524751303 0.38486691706586951 0 0.1087205780393706 0.3656269003386084 0 0.115428724103706 0.40267530492779557 0 0.119448870245615 0.38256434187866972 0 0.1025776524751303 0.38486691706586951 0 0.1025776524751303 0.38486691706586951 0 0.1087205780393706 0.3656269003386084 0 0.086713905658550791 0.37461406501925459 0 0.091303312773641829 0.3995757594209417 0 0.115428724103706 0.40267530492779557 0 0.1025776524751303 0.38486691706586951 0 0.1087205780393706 0.3656269003386084 0 0.1202868522871179 0.34060046584014031 0 0.0915497208986496 0.34709204532757532 0 0.1087205780393706 0.3656269003386084 0 0.0915497208986496 0.34709204532757532 0 0.086713905658550791 0.37461406501925459 0 0.119448870245615 0.38256434187866972 0 0.1087205780393706 0.3656269003386084 0 0.13274728415341139 0.36410634055334368 0 0.1087205780393706 0.3656269003386084 0 0.1202868522871179 0.34060046584014031 0 0.13274728415341139 0.36410634055334368 0 0.1202868522871179 0.34060046584014031 0 0.1104734498024164 0.31171603628350752 0 0.14183880654046921 0.32250528078568202 0 0.1202868522871179 0.34060046584014031 0 0.1016552612267161 0.33013161519950079 0 0.1104734498024164 0.31171603628350752 0 0.1016552612267161 0.33013161519950079 0 0.081254576285268804 0.3210829637434266 0 0.1104734498024164 0.31171603628350752 0 0.1202868522871179 0.34060046584014031 0 0.1016552612267161 0.33013161519950079 0 0.0915497208986496 0.34709204532757532 0 0.081254576285268804 0.3210829637434266 0 0.072654821413094289 0.33942743407960763 0 0.0915497208986496 0.34709204532757532 0 0.1016552612267161 0.33013161519950079 0 0.081254576285268804 0.3210829637434266 0 0.0915497208986496 0.34709204532757532 0 0.081254576285268804 0.3210829637434266 0 0.06358813508901956 0.32234581427363851 0 0.071244474661197085 0.3036312559279935 0 0.081254576285268804 0.3210829637434266 0 0.06358813508901956 0.32234581427363851 0 0.072654821413094289 0.33942743407960763 0 0.06358813508901956 0.32234581427363851 0 0.072654821413094289 0.33942743407960763 0 0.055199983679349987 0.34246375673151652 0 0.072654821413094289 0.33942743407960763 0 0.066778362586220691 0.36264744131756171 0 0.055199983679349987 0.34246375673151652 0 0.072654821413094289 0.33942743407960763 0 0.0915497208986496 0.34709204532757532 0 0.066778362586220691 0.36264744131756171 0 0.0915497208986496 0.34709204532757532 0 0.086713905658550791 0.37461406501925459 0 0.066778362586220691 0.36264744131756171 0 0.066778362586220691 0.36264744131756171 0 0.044951457965310811 0.3555124197003488 0 0.045418656597819553 0.37354288132317159 0 0.066778362586220691 0.36264744131756171 0 0.044951457965310811 0.3555124197003488 0 0.055199983679349987 0.34246375673151652 0 0.044951457965310811 0.3555124197003488 0 0.021903196078839001 0.35746348141110651 0 0.035457090884324839 0.34144453771838768 0 0.044951457965310811 0.3555124197003488 0 0.035457090884324839 0.34144453771838768 0 0.055199983679349987 0.34246375673151652 0 0.044951457965310811 0.3555124197003488 0 0.045418656597819553 0.37354288132317159 0 0.021903196078839001 0.35746348141110651 0 0.025375843575522711 0.38021681034322929 0 0.021903196078839001 0.35746348141110651 0 0.0079023355216259559 0.37348921158265391 0 0.025375843575522711 0.38021681034322929 0 0.045418656597819553 0.37354288132317159 0 0.021903196078839001 0.35746348141110651 0 0.021903196078839001 0.35746348141110651 0 0.017151683724365509 0.3376665205351736 0 0.035457090884324839 0.34144453771838768 0 0.021903196078839001 0.35746348141110651 0 0.0095650341834115256 0.34490192427506011 0 0.017151683724365509 0.3376665205351736 0 0.021903196078839001 0.35746348141110651 0 0.0095650341834115256 0.34490192427506011 0 0.0061318462344260851 0.35417601161121459 0 -0.0050552824635438226 0.34569829691311771 0 0.0095650341834115256 0.34490192427506011 0 0.0061318462344260851 0.35417601161121459 0 0.021903196078839001 0.35746348141110651 0 0.0061318462344260851 0.35417601161121459 0 0.0079023355216259559 0.37348921158265391 0 -0.0052616759920083916 0.36132776784546622 0 0.0061318462344260851 0.35417601161121459 0 0.0079023355216259559 0.37348921158265391 0 0.0087281755863181168 0.33049580891976171 0 0.020410497070949891 0.30832150289807031 0 0.0056044744337335906 0.31412092038659428 0 0.0087281755863181168 0.33049580891976171 0 0.020410497070949891 0.30832150289807031 0 -0.003280447873963227 0.32161399115684158 0 0.0056044744337335906 0.31412092038659428 0 0.0087281755863181168 0.33049580891976171 0 0.0064742168078369342 0.3347740657525386 0 0.0087281755863181168 0.33049580891976171 0 -0.0050552824635438226 0.34569829691311771 0 0.0095650341834115256 0.34490192427506011 0 0.0064742168078369342 0.3347740657525386 0 0.0095650341834115256 0.34490192427506011 0 0.0064742168078369342 0.3347740657525386 0 0.017151683724365509 0.3376665205351736 0 0.0064742168078369342 0.3347740657525386 0 0.0087281755863181168 0.33049580891976171 0 0.017151683724365509 0.3376665205351736 0 0.0087281755863181168 0.33049580891976171 0 0.025353163704189718 0.33024288796319817 0 0.017151683724365509 0.3376665205351736 0 0.0087281755863181168 0.33049580891976171 0 0.025353163704189718 0.33024288796319817 0 0.025353163704189718 0.33024288796319817 0 0.017151683724365509 0.3376665205351736 0 0.035457090884324839 0.34144453771838768 0 0.0087281755863181168 0.33049580891976171 0 0.025353163704189718 0.33024288796319817 0 0.020410497070949891 0.30832150289807031 0 0.025353163704189718 0.33024288796319817 0 0.038017806832533571 0.30672300381527179 0 0.020410497070949891 0.30832150289807031 0 0.025353163704189718 0.33024288796319817 0 0.045812945845809312 0.32351293560108041 0 0.038017806832533571 0.30672300381527179 0 0.025353163704189718 0.33024288796319817 0 0.045812945845809312 0.32351293560108041 0 0.035457090884324839 0.34144453771838768 0 0.045812945845809312 0.32351293560108041 0 0.035457090884324839 0.34144453771838768 0 0.055199983679349987 0.34246375673151652 0 0.06358813508901956 0.32234581427363851 0 0.045812945845809312 0.32351293560108041 0 0.055199983679349987 0.34246375673151652 0 0.06358813508901956 0.32234581427363851 0 0.045812945845809312 0.32351293560108041 0 0.055148108477292443 0.3057593846019967 0 0.055148108477292443 0.3057593846019967 0 0.047586914097201803 0.29032131063477928 0 0.038017806832533571 0.30672300381527179 0 0.055148108477292443 0.3057593846019967 0 0.047586914097201803 0.29032131063477928 0 0.066935962560195753 0.28615893812798288 0 0.047586914097201803 0.29032131063477928 0 0.050578246113349837 0.27455429857722041 0 0.066935962560195753 0.28615893812798288 0 0.047586914097201803 0.29032131063477928 0 0.032092818555581597 0.28614719687637868 0 0.038017806832533571 0.30672300381527179 0 0.047586914097201803 0.29032131063477928 0 0.032092818555581597 0.28614719687637868 0 0.050578246113349837 0.27455429857722041 0 0.045812945845809312 0.32351293560108041 0 0.055148108477292443 0.3057593846019967 0 0.038017806832533571 0.30672300381527179 0 0.032092818555581597 0.28614719687637868 0 0.038017806832533571 0.30672300381527179 0 0.020410497070949891 0.30832150289807031 0 0.032092818555581597 0.28614719687637868 0 0.020410497070949891 0.30832150289807031 0 0.032092818555581597 0.28614719687637868 0 0.020410497070949891 0.30832150289807031 0 0.0083336089875100904 0.29343585490586271 0 0.032092818555581597 0.28614719687637868 0 0.0083336089875100904 0.29343585490586271 0 0.021382191810826279 0.2686960609189637 0 -0.0088759444352828343 0.31092800175718183 0 0.0056044744337335906 0.31412092038659428 0 0.0083336089875100904 0.29343585490586271 0 0.0056044744337335906 0.31412092038659428 0 0.020410497070949891 0.30832150289807031 0 0.0083336089875100904 0.29343585490586271 0 0.0073806355134042019 0.25529449578482938 0 3.3590645499582607e-05 0.27236849017123349 0 0.021382191810826279 0.2686960609189637 0 0.0083336089875100904 0.29343585490586271 0 3.3590645499582607e-05 0.27236849017123349 0 0.021382191810826279 0.2686960609189637 0 0.025149977659741599 0.24684982625080901 0 0.0073806355134042019 0.25529449578482938 0 0.021382191810826279 0.2686960609189637 0 0.025149977659741599 0.24684982625080901 0 0.021382191810826279 0.2686960609189637 0 0.043775140040213267 0.26397289085468728 0 0.025149977659741599 0.24684982625080901 0 0.045472231705318063 0.24424317023843681 0 0.050158093690384618 0.2598810672441918 0 0.025149977659741599 0.24684982625080901 0 0.050158093690384618 0.2598810672441918 0 0.025149977659741599 0.24684982625080901 0 0.043775140040213267 0.26397289085468728 0 0.050158093690384618 0.2598810672441918 0 0.032092818555581597 0.28614719687637868 0 0.043775140040213267 0.26397289085468728 0 0.032092818555581597 0.28614719687637868 0 0.021382191810826279 0.2686960609189637 0 0.043775140040213267 0.26397289085468728 0 0.032092818555581597 0.28614719687637868 0 0.043775140040213267 0.26397289085468728 0 0.050578246113349837 0.27455429857722041 0 0.050578246113349837 0.27455429857722041 0 0.063875668081316214 0.2678607518654692 0 0.066935962560195753 0.28615893812798288 0 0.043775140040213267 0.26397289085468728 0 0.050578246113349837 0.27455429857722041 0 0.050158093690384618 0.2598810672441918 0 0.050578246113349837 0.27455429857722041 0 0.056046126259945157 0.25263236173372139 0 0.063875668081316214 0.2678607518654692 0 0.050578246113349837 0.27455429857722041 0 0.050158093690384618 0.2598810672441918 0 0.056046126259945157 0.25263236173372139 0 0.045472231705318063 0.24424317023843681 0 0.050158093690384618 0.2598810672441918 0 0.056046126259945157 0.25263236173372139 0 0.050578246113349837 0.27455429857722041 0 0.056046126259945157 0.25263236173372139 0 0.078525547080241467 0.2465942846531784 0 0.067905867336300579 0.25358800162702 0 0.079567988853459573 0.27014218499250892 0 0.067905867336300579 0.25358800162702 0 0.079567988853459573 0.27014218499250892 0 0.063875668081316214 0.2678607518654692 0 0.056046126259945157 0.25263236173372139 0 0.067905867336300579 0.25358800162702 0 0.063875668081316214 0.2678607518654692 0 0.078525547080241467 0.2465942846531784 0 0.079567988853459573 0.27014218499250892 0 0.093798877441032588 0.2579700649065903 0 0.079567988853459573 0.27014218499250892 0 0.063875668081316214 0.2678607518654692 0 0.066935962560195753 0.28615893812798288 0 0.079567988853459573 0.27014218499250892 0 0.066935962560195753 0.28615893812798288 0 0.087430381393448858 0.29852998767476718 0 0.066935962560195753 0.28615893812798288 0 0.071244474661197085 0.3036312559279935 0 0.087430381393448858 0.29852998767476718 0 0.055148108477292443 0.3057593846019967 0 0.066935962560195753 0.28615893812798288 0 0.071244474661197085 0.3036312559279935 0 0.06358813508901956 0.32234581427363851 0 0.055148108477292443 0.3057593846019967 0 0.071244474661197085 0.3036312559279935 0 0.081254576285268804 0.3210829637434266 0 0.087430381393448858 0.29852998767476718 0 0.1104734498024164 0.31171603628350752 0 0.081254576285268804 0.3210829637434266 0 0.071244474661197085 0.3036312559279935 0 0.087430381393448858 0.29852998767476718 0 0.079567988853459573 0.27014218499250892 0 0.087430381393448858 0.29852998767476718 0 0.1079828451826004 0.27738565586056829 0 0.087430381393448858 0.29852998767476718 0 0.1104734498024164 0.31171603628350752 0 0.1079828451826004 0.27738565586056829 0 0.1104734498024164 0.31171603628350752 0 0.1079828451826004 0.27738565586056829 0 0.13401849175413849 0.29214957311260448 0 0.1079828451826004 0.27738565586056829 0 0.13401849175413849 0.29214957311260448 0 0.1100607559553454 0.25396994184181759 0 0.1079828451826004 0.27738565586056829 0 0.13366986361514199 0.26692500362740812 0 0.12787711237058769 0.24521089126939841 0 0.1100607559553454 0.25396994184181759 0 0.13366986361514199 0.26692500362740812 0 0.092857250133516089 0.24175825718487831 0 0.1100607559553454 0.25396994184181759 0 0.093798877441032588 0.2579700649065903 0 0.1100607559553454 0.25396994184181759 0 0.093798877441032588 0.2579700649065903 0 0.1079828451826004 0.27738565586056829 0 0.079567988853459573 0.27014218499250892 0 0.093798877441032588 0.2579700649065903 0 0.1079828451826004 0.27738565586056829 0 0.13366986361514199 0.26692500362740812 0 0.1558685034792309 0.28595093384994291 0 0.15959452244756481 0.26367036214955358 0 0.14702044576598061 0.2478904659134552 0 0.13366986361514199 0.26692500362740812 0 0.15959452244756481 0.26367036214955358 0 0.14702044576598061 0.2478904659134552 0 0.12787711237058769 0.24521089126939841 0 0.13366986361514199 0.26692500362740812 0 0.1079828451826004 0.27738565586056829 0 0.13366986361514199 0.26692500362740812 0 0.13401849175413849 0.29214957311260448 0 0.1104734498024164 0.31171603628350752 0 0.13401849175413849 0.29214957311260448 0 0.14183880654046921 0.32250528078568202 0 0.13401849175413849 0.29214957311260448 0 0.16005413832567669 0.30691349036464077 0 0.14183880654046921 0.32250528078568202 0 0.13401849175413849 0.29214957311260448 0 0.16005413832567669 0.30691349036464077 0 0.13401849175413849 0.29214957311260448 0 0.1558685034792309 0.28595093384994291 0 0.16005413832567669 0.30691349036464077 0 0.13366986361514199 0.26692500362740812 0 0.13401849175413849 0.29214957311260448 0 0.1558685034792309 0.28595093384994291 0 0.1558685034792309 0.28595093384994291 0 0.1700220001876428 0.28782965529906401 0 0.16005413832567669 0.30691349036464077 0 0.1558685034792309 0.28595093384994291 0 0.1700220001876428 0.28782965529906401 0 0.17370236977615991 0.27502287964280692 0 0.1700220001876428 0.28782965529906401 0 0.16005413832567669 0.30691349036464077 0 0.1764196225356903 0.29880027385689728 0 0.16005413832567669 0.30691349036464077 0 0.1764196225356903 0.29880027385689728 0 0.18686192329242929 0.31378732528256248 0 0.1764196225356903 0.29880027385689728 0 0.18674031124236579 0.30201460306836742 0 0.19086383386244751 0.2907864273273883 0 0.1764196225356903 0.29880027385689728 0 0.18674031124236579 0.30201460306836742 0 0.18686192329242929 0.31378732528256248 0 0.1700220001876428 0.28782965529906401 0 0.18013512871176271 0.28566990799825959 0 0.17370236977615991 0.27502287964280692 0 0.1700220001876428 0.28782965529906401 0 0.1764196225356903 0.29880027385689728 0 0.18013512871176271 0.28566990799825959 0 0.1764196225356903 0.29880027385689728 0 0.18013512871176271 0.28566990799825959 0 0.19086383386244751 0.2907864273273883 0 0.18013512871176271 0.28566990799825959 0 0.1896678171968729 0.27591030386514148 0 0.19086383386244751 0.2907864273273883 0 0.18251379545819379 0.26835647973838378 0 0.17370236977615991 0.27502287964280692 0 0.1896678171968729 0.27591030386514148 0 0.18013512871176271 0.28566990799825959 0 0.17370236977615991 0.27502287964280692 0 0.1896678171968729 0.27591030386514148 0 0.18251379545819379 0.26835647973838378 0 0.17370236977615991 0.27502287964280692 0 0.17699066645021869 0.2595722272450377 0 0.17370236977615991 0.27502287964280692 0 0.15959452244756481 0.26367036214955358 0 0.17699066645021869 0.2595722272450377 0 0.1558685034792309 0.28595093384994291 0 0.17370236977615991 0.27502287964280692 0 0.15959452244756481 0.26367036214955358 0 0.16774616909827719 0.2460930353984315 0 0.15959452244756481 0.26367036214955358 0 0.17699066645021869 0.2595722272450377 0 0.14702044576598061 0.2478904659134552 0 0.16774616909827719 0.2460930353984315 0 0.15959452244756481 0.26367036214955358 0 0.18692125413578081 0.24552837502103991 0 0.16774616909827719 0.2460930353984315 0 0.17699066645021869 0.2595722272450377 0 0.18692125413578081 0.24552837502103991 0 0.17699066645021869 0.2595722272450377 0 0.19242781921148469 0.26384338938458129 0 0.18251379545819379 0.26835647973838378 0 0.17699066645021869 0.2595722272450377 0 0.19242781921148469 0.26384338938458129 0 0.18692125413578081 0.24552837502103991 0 0.19242781921148469 0.26384338938458129 0 0.20107379594449931 0.25686311186437227 0 0.18692125413578081 0.24552837502103991 0 0.20107379594449931 0.25686311186437227 0 0.19242781921148469 0.26384338938458129 0 0.20107379594449931 0.25686311186437227 0 0.2008998280478862 0.26959186196165702 0 0.19242781921148469 0.26384338938458129 0 0.20107379594449931 0.25686311186437227 0 0.19242781921148469 0.26384338938458129 0 0.1896678171968729 0.27591030386514148 0 0.2008998280478862 0.26959186196165702 0 0.18251379545819379 0.26835647973838378 0 0.19242781921148469 0.26384338938458129 0 0.1896678171968729 0.27591030386514148 0 0.1896678171968729 0.27591030386514148 0 0.2008998280478862 0.26959186196165702 0 0.20354188417430641 0.281093168015905 0 0.2008998280478862 0.26959186196165702 0 0.2177878237122676 0.27024933667828532 0 0.20354188417430641 0.281093168015905 0 0.2177878237122676 0.27024933667828532 0 0.20354188417430641 0.281093168015905 0 0.2166033006779626 0.28924568688104418 0 0.21557305570370441 0.24515722135805329 0 0.20107379594449931 0.25686311186437227 0 0.2177878237122676 0.27024933667828532 0 0.20107379594449931 0.25686311186437227 0 0.2177878237122676 0.27024933667828532 0 0.20107379594449931 0.25686311186437227 0 0.2008998280478862 0.26959186196165702 0 0.2177878237122676 0.27024933667828532 0 0.21557305570370441 0.24515722135805329 0 0.20107379594449931 0.25686311186437227 0 0.21557305570370441 0.24515722135805329 0 0.2177878237122676 0.27024933667828532 0 0.23628031136540401 0.25597328662156199 0 0.2177878237122676 0.27024933667828532 0 0.23628031136540401 0.25597328662156199 0 0.23450185148003599 0.28363556149219821 0 0.2177878237122676 0.27024933667828532 0 0.23450185148003599 0.28363556149219821 0 0.2166033006779626 0.28924568688104418 0 0.2177878237122676 0.27024933667828532 0 0.23450185148003599 0.28363556149219821 0 0.23628031136540401 0.25597328662156199 0 0.23450185148003599 0.28363556149219821 0 0.25102838231212438 0.26850893423506528 0 0.23450185148003599 0.28363556149219821 0 0.25953152444998728 0.28294166139542631 0 0.25102838231212438 0.26850893423506528 0 0.23628031136540401 0.25597328662156199 0 0.25102838231212438 0.26850893423506528 0 0.26221447651104962 0.2479993693513689 0 0.2297645605960125 0.30261029929826411 0 0.25121587924780342 0.29702178630611242 0 0.2484846271056145 0.31037308609574782 0 0.2297645605960125 0.30261029929826411 0 0.23798581837376781 0.31938142953188831 0 0.2484846271056145 0.31037308609574782 0 0.2297645605960125 0.30261029929826411 0 0.25121587924780342 0.29702178630611242 0 0.23450185148003599 0.28363556149219821 0 0.2297645605960125 0.30261029929826411 0 0.25121587924780342 0.29702178630611242 0 0.23450185148003599 0.28363556149219821 0 0.25121587924780342 0.29702178630611242 0 0.23450185148003599 0.28363556149219821 0 0.25953152444998728 0.28294166139542631 0 0.25121587924780342 0.29702178630611242 0 0.23450185148003599 0.28363556149219821 0 0.2297645605960125 0.30261029929826411 0 0.2166033006779626 0.28924568688104418 0 0.2297645605960125 0.30261029929826411 0 0.20831324194422091 0.30819881229041318 0 0.2297645605960125 0.30261029929826411 0 0.20831324194422091 0.30819881229041318 0 0.21977364325038071 0.31928170538083578 0 0.20831324194422091 0.30819881229041318 0 0.2166033006779626 0.28924568688104418 0 0.20288664267638859 0.29424953150154581 0 0.2297645605960125 0.30261029929826411 0 0.20831324194422091 0.30819881229041318 0 0.2166033006779626 0.28924568688104418 0 0.20354188417430641 0.281093168015905 0 0.2166033006779626 0.28924568688104418 0 0.20288664267638859 0.29424953150154581 0 0.20354188417430641 0.281093168015905 0 0.20288664267638859 0.29424953150154581 0 0.19086383386244751 0.2907864273273883 0 0.20288664267638859 0.29424953150154581 0 0.19086383386244751 0.2907864273273883 0 0.19511095272300569 0.3019235629929784 0 0.1896678171968729 0.27591030386514148 0 0.20354188417430641 0.281093168015905 0 0.19086383386244751 0.2907864273273883 0 0.20831324194422091 0.30819881229041318 0 0.18686192329242929 0.31378732528256248 0 0.20831324194422091 0.30819881229041318 0 0.19511095272300569 0.3019235629929784 0 0.18686192329242929 0.31378732528256248 0 0.20831324194422091 0.30819881229041318 0 0.20288664267638859 0.29424953150154581 0 0.19511095272300569 0.3019235629929784 0 0.18674031124236579 0.30201460306836742 0 0.19086383386244751 0.2907864273273883 0 0.19511095272300569 0.3019235629929784 0 0.18674031124236579 0.30201460306836742 0 0.19511095272300569 0.3019235629929784 0 0.18686192329242929 0.31378732528256248 0 0.20141288137377081 0.31920030670374799 0 0.18686192329242929 0.31378732528256248 0 0.18608978489721489 0.32167740761667712 0 0.20831324194422091 0.30819881229041318 0 0.20141288137377081 0.31920030670374799 0 0.18686192329242929 0.31378732528256248 0 0.20141288137377081 0.31920030670374799 0 0.21212543146875301 0.33644132486871342 0 0.18608978489721489 0.32167740761667712 0 0.21212543146875301 0.33644132486871342 0 0.18608978489721489 0.32167740761667712 0 0.19231113454718349 0.34165597013868199 0 0.21212543146875301 0.33644132486871342 0 0.18608978489721489 0.32167740761667712 0 0.20831324194422091 0.30819881229041318 0 0.20141288137377081 0.31920030670374799 0 0.21977364325038071 0.31928170538083578 0 0.20141288137377081 0.31920030670374799 0 0.21212543146875301 0.33644132486871342 0 0.21977364325038071 0.31928170538083578 0 0.21977364325038071 0.31928170538083578 0 0.2290399257457596 0.32985805959198788 0 0.23798581837376781 0.31938142953188831 0 0.2297645605960125 0.30261029929826411 0 0.21977364325038071 0.31928170538083578 0 0.23798581837376781 0.31938142953188831 0 0.21212543146875301 0.33644132486871342 0 0.21977364325038071 0.31928170538083578 0 0.2290399257457596 0.32985805959198788 0 0.21212543146875301 0.33644132486871342 0 0.23060518033342339 0.33807106122714048 0 0.2290399257457596 0.32985805959198788 0 0.21212543146875301 0.33644132486871342 0 0.23060518033342339 0.33807106122714048 0 0.23816107804029091 0.35120524212074949 0 0.23060518033342339 0.33807106122714048 0 0.2290399257457596 0.32985805959198788 0 0.2430942860788903 0.33477961832711151 0 0.23060518033342339 0.33807106122714048 0 0.2430942860788903 0.33477961832711151 0 0.23816107804029091 0.35120524212074949 0 0.2484846271056145 0.31037308609574782 0 0.23798581837376781 0.31938142953188831 0 0.25508783524565293 0.32209220201309929 0 0.2430942860788903 0.33477961832711151 0 0.23798581837376781 0.31938142953188831 0 0.25508783524565293 0.32209220201309929 0 0.2290399257457596 0.32985805959198788 0 0.2430942860788903 0.33477961832711151 0 0.23798581837376781 0.31938142953188831 0 0.23439037865920059 0.35560025357312369 0 0.2386764282036242 0.37725286527910618 0 0.24311907173897271 0.36013203008567057 0 0.23439037865920059 0.35560025357312369 0 0.2386764282036242 0.37725286527910618 0 0.2492643002430574 0.365916522193315 0 0.24311907173897271 0.36013203008567057 0 0.2386764282036242 0.37725286527910618 0 0.2492643002430574 0.365916522193315 0 0.2386764282036242 0.37725286527910618 0 0.25383912625151372 0.37755129754335942 0 0.24311907173897271 0.36013203008567057 0 0.23816107804029091 0.35120524212074949 0 0.2641967246118288 0.36596915937278562 0 0.2430942860788903 0.33477961832711151 0 0.23816107804029091 0.35120524212074949 0 0.26173146881309822 0.35734024057335978 0 0.24311907173897271 0.36013203008567057 0 0.23816107804029091 0.35120524212074949 0 0.23439037865920059 0.35560025357312369 0 0.21212543146875301 0.33644132486871342 0 0.23816107804029091 0.35120524212074949 0 0.21848510057545151 0.35453686872473111 0 0.23816107804029091 0.35120524212074949 0 0.23439037865920059 0.35560025357312369 0 0.21848510057545151 0.35453686872473111 0 0.21212543146875301 0.33644132486871342 0 0.23816107804029091 0.35120524212074949 0 0.23439037865920059 0.35560025357312369 0 0.22513916990612379 0.36868200325308897 0 0.2386764282036242 0.37725286527910618 0 0.23439037865920059 0.35560025357312369 0 0.22513916990612379 0.36868200325308897 0 0.21848510057545151 0.35453686872473111 0 0.22513916990612379 0.36868200325308897 0 0.20931495008602691 0.36890180222237801 0 0.21961872799640589 0.38146559318592133 0 0.22513916990612379 0.36868200325308897 0 0.20931495008602691 0.36890180222237801 0 0.21848510057545151 0.35453686872473111 0 0.20931495008602691 0.36890180222237801 0 0.21848510057545151 0.35453686872473111 0 0.2018014651714847 0.35413555731190122 0 0.21212543146875301 0.33644132486871342 0 0.21848510057545151 0.35453686872473111 0 0.2018014651714847 0.35413555731190122 0 0.19231113454718349 0.34165597013868199 0 0.2018014651714847 0.35413555731190122 0 0.1832131523033072 0.3569188224833833 0 0.19231113454718349 0.34165597013868199 0 0.21212543146875301 0.33644132486871342 0 0.2018014651714847 0.35413555731190122 0 0.20931495008602691 0.36890180222237801 0 0.2018014651714847 0.35413555731190122 0 0.19217836357317111 0.36996972767433872 0 0.20931495008602691 0.36890180222237801 0 0.19217836357317111 0.36996972767433872 0 0.20289108470775991 0.38370682355227331 0 0.2018014651714847 0.35413555731190122 0 0.19217836357317111 0.36996972767433872 0 0.1832131523033072 0.3569188224833833 0 0.19217836357317111 0.36996972767433872 0 0.17197644233242751 0.37002706837148541 0 0.1832131523033072 0.3569188224833833 0 0.17197644233242751 0.37002706837148541 0 0.16866852787741549 0.35230522619665788 0 0.1832131523033072 0.3569188224833833 0 0.17197644233242751 0.37002706837148541 0 0.16866852787741549 0.35230522619665788 0 0.15186920095361911 0.35620033980905319 0 0.17197644233242751 0.37002706837148541 0 0.15186920095361911 0.35620033980905319 0 0.15185568245476189 0.37707061606136422 0 0.16866852787741549 0.35230522619665788 0 0.1579580049025659 0.33927316190663209 0 0.15186920095361911 0.35620033980905319 0 0.16866852787741549 0.35230522619665788 0 0.1832131523033072 0.3569188224833833 0 0.17832583889515771 0.33910673841273542 0 0.19231113454718349 0.34165597013868199 0 0.1832131523033072 0.3569188224833833 0 0.17832583889515771 0.33910673841273542 0 0.17832583889515771 0.33910673841273542 0 0.18608978489721489 0.32167740761667712 0 0.16647560889869609 0.32578562508456149 0 0.19231113454718349 0.34165597013868199 0 0.17832583889515771 0.33910673841273542 0 0.18608978489721489 0.32167740761667712 0 0.16005413832567669 0.30691349036464077 0 0.18608978489721489 0.32167740761667712 0 0.16005413832567669 0.30691349036464077 0 0.18686192329242929 0.31378732528256248 0 0.18608978489721489 0.32167740761667712 0 0.16005413832567669 0.30691349036464077 0 0.18608978489721489 0.32167740761667712 0 0.16647560889869609 0.32578562508456149 0 0.17832583889515771 0.33910673841273542 0 0.16647560889869609 0.32578562508456149 0 0.1579580049025659 0.33927316190663209 0 0.16866852787741549 0.35230522619665788 0 0.17832583889515771 0.33910673841273542 0 0.1579580049025659 0.33927316190663209 0 0.16647560889869609 0.32578562508456149 0 0.1579580049025659 0.33927316190663209 0 0.14183880654046921 0.32250528078568202 0 0.1579580049025659 0.33927316190663209 0 0.14183880654046921 0.32250528078568202 0 0.14054269679001921 0.34363296691054102 0 0.16005413832567669 0.30691349036464077 0 0.16647560889869609 0.32578562508456149 0 0.14183880654046921 0.32250528078568202 0 0.1202868522871179 0.34060046584014031 0 0.14183880654046921 0.32250528078568202 0 0.14054269679001921 0.34363296691054102 0 0.1202868522871179 0.34060046584014031 0 0.14054269679001921 0.34363296691054102 0 0.13274728415341139 0.36410634055334368 0 0.13274728415341139 0.36410634055334368 0 0.15186920095361911 0.35620033980905319 0 0.15185568245476189 0.37707061606136422 0 0.14054269679001921 0.34363296691054102 0 0.13274728415341139 0.36410634055334368 0 0.15186920095361911 0.35620033980905319 0 0.1579580049025659 0.33927316190663209 0 0.14054269679001921 0.34363296691054102 0 0.15186920095361911 0.35620033980905319 0 0.15352992747694119 0.40026604784697911 0 0.13692284990477191 0.38930777957628943 0 0.1397509022148696 0.40843688002483958 0 0.15352992747694119 0.40026604784697911 0 0.15185568245476189 0.37707061606136422 0 0.13692284990477191 0.38930777957628943 0 0.13274728415341139 0.36410634055334368 0 0.15185568245476189 0.37707061606136422 0 0.13692284990477191 0.38930777957628943 0 0.119448870245615 0.38256434187866972 0 0.13274728415341139 0.36410634055334368 0 0.13692284990477191 0.38930777957628943 0 0.115428724103706 0.40267530492779557 0 0.13692284990477191 0.38930777957628943 0 0.1397509022148696 0.40843688002483958 0 0.12259086230274099 0.42947812748907283 0 0.1397509022148696 0.40843688002483958 0 0.14363603346764281 0.42707530835579988 0 0.12259086230274099 0.42947812748907283 0 0.115428724103706 0.40267530492779557 0 0.1397509022148696 0.40843688002483958 0 0.12259086230274099 0.42947812748907283 0 0.14363603346764281 0.42707530835579988 0 0.13510526379757609 0.44116740875256688 0 0.14363603346764281 0.42707530835579988 0 0.16526304614212209 0.42908608809292892 0 0.1507341445198021 0.44370602134863157 0 0.14363603346764281 0.42707530835579988 0 0.15527295380072001 0.4153931176925994 0 0.16526304614212209 0.42908608809292892 0 0.14363603346764281 0.42707530835579988 0 0.1507341445198021 0.44370602134863157 0 0.13510526379757609 0.44116740875256688 0 0.1397509022148696 0.40843688002483958 0 0.14363603346764281 0.42707530835579988 0 0.15527295380072001 0.4153931176925994 0 0.15352992747694119 0.40026604784697911 0 0.1397509022148696 0.40843688002483958 0 0.15527295380072001 0.4153931176925994 0 0.15527295380072001 0.4153931176925994 0 0.1711416470664554 0.41062619466687539 0 0.16526304614212209 0.42908608809292892 0 0.15352992747694119 0.40026604784697911 0 0.15527295380072001 0.4153931176925994 0 0.1711416470664554 0.41062619466687539 0 0.16526304614212209 0.42908608809292892 0 0.1809560021812836 0.43814832633623357 0 0.16598328874466911 0.44273574664910909 0 0.16526304614212209 0.42908608809292892 0 0.18469425222239219 0.42125941149134333 0 0.1809560021812836 0.43814832633623357 0 0.1711416470664554 0.41062619466687539 0 0.16526304614212209 0.42908608809292892 0 0.18469425222239219 0.42125941149134333 0 0.1711416470664554 0.41062619466687539 0 0.18469425222239219 0.42125941149134333 0 0.1843100454414533 0.40126956181167389 0 0.1711416470664554 0.41062619466687539 0 0.1843100454414533 0.40126956181167389 0 0.16952276405911931 0.3912061138884545 0 0.1843100454414533 0.40126956181167389 0 0.16952276405911931 0.3912061138884545 0 0.18589276442329861 0.38606835492789338 0 0.15352992747694119 0.40026604784697911 0 0.1711416470664554 0.41062619466687539 0 0.16952276405911931 0.3912061138884545 0 0.15352992747694119 0.40026604784697911 0 0.15185568245476189 0.37707061606136422 0 0.16952276405911931 0.3912061138884545 0 0.17197644233242751 0.37002706837148541 0 0.15185568245476189 0.37707061606136422 0 0.16952276405911931 0.3912061138884545 0 0.17197644233242751 0.37002706837148541 0 0.16952276405911931 0.3912061138884545 0 0.18589276442329861 0.38606835492789338 0 0.19217836357317111 0.36996972767433872 0 0.17197644233242751 0.37002706837148541 0 0.18589276442329861 0.38606835492789338 0 0.18589276442329861 0.38606835492789338 0 0.20289108470775991 0.38370682355227331 0 0.19700705340585539 0.39579078134538831 0 0.19217836357317111 0.36996972767433872 0 0.18589276442329861 0.38606835492789338 0 0.20289108470775991 0.38370682355227331 0 0.19700705340585539 0.39579078134538831 0 0.21316338490038089 0.39704202397260657 0 0.19877798755638451 0.41086714246249401 0 0.1843100454414533 0.40126956181167389 0 0.19700705340585539 0.39579078134538831 0 0.19877798755638451 0.41086714246249401 0 0.1843100454414533 0.40126956181167389 0 0.18589276442329861 0.38606835492789338 0 0.19700705340585539 0.39579078134538831 0 0.20289108470775991 0.38370682355227331 0 0.19700705340585539 0.39579078134538831 0 0.21316338490038089 0.39704202397260657 0 0.20931495008602691 0.36890180222237801 0 0.20289108470775991 0.38370682355227331 0 0.21961872799640589 0.38146559318592133 0 0.20289108470775991 0.38370682355227331 0 0.21316338490038089 0.39704202397260657 0 0.21961872799640589 0.38146559318592133 0 0.22513916990612379 0.36868200325308897 0 0.21961872799640589 0.38146559318592133 0 0.2386764282036242 0.37725286527910618 0 0.21961872799640589 0.38146559318592133 0 0.22852735017452019 0.39320804083607441 0 0.2386764282036242 0.37725286527910618 0 0.21316338490038089 0.39704202397260657 0 0.21961872799640589 0.38146559318592133 0 0.22852735017452019 0.39320804083607441 0 0.21316338490038089 0.39704202397260657 0 0.22852735017452019 0.39320804083607441 0 0.22983145469658259 0.40925978250573319 0 0.21316338490038089 0.39704202397260657 0 0.22983145469658259 0.40925978250573319 0 0.22852735017452019 0.39320804083607441 0 0.2429624777480478 0.39890547698508871 0 0.22983145469658259 0.40925978250573319 0 0.2429624777480478 0.39890547698508871 0 0.2386764282036242 0.37725286527910618 0 0.22852735017452019 0.39320804083607441 0 0.2429624777480478 0.39890547698508871 0 0.2386764282036242 0.37725286527910618 0 0.2429624777480478 0.39890547698508871 0 0.2386764282036242 0.37725286527910618 0 0.25341304662754638 0.38974012394171498 0 0.2386764282036242 0.37725286527910618 0 0.25383912625151372 0.37755129754335942 0 0.25341304662754638 0.38974012394171498 0 0.24649952449278431 0.42147754103885982 0 0.22996656543308741 0.44177288309861867 0 0.24946733303660301 0.43176723098649622 0 0.24649952449278431 0.42147754103885982 0 0.22996656543308741 0.44177288309861867 0 0.24649952449278431 0.42147754103885982 0 0.22738899126970491 0.42458926785457718 0 0.22996656543308741 0.44177288309861867 0 0.24946733303660301 0.43176723098649622 0 0.24649952449278431 0.42147754103885982 0 0.2429624777480478 0.39890547698508871 0 0.24649952449278431 0.42147754103885982 0 0.24649952449278431 0.42147754103885982 0 0.22983145469658259 0.40925978250573319 0 0.22738899126970491 0.42458926785457718 0 0.24649952449278431 0.42147754103885982 0 0.22983145469658259 0.40925978250573319 0 0.2429624777480478 0.39890547698508871 0 0.24649952449278431 0.42147754103885982 0 0.22983145469658259 0.40925978250573319 0 0.21316338490038089 0.39704202397260657 0 0.22983145469658259 0.40925978250573319 0 0.21370806227123909 0.41789950377956148 0 0.22983145469658259 0.40925978250573319 0 0.22738899126970491 0.42458926785457718 0 0.21370806227123909 0.41789950377956148 0 0.22738899126970491 0.42458926785457718 0 0.21739304288862979 0.43200563017257382 0 0.22996656543308741 0.44177288309861867 0 0.22738899126970491 0.42458926785457718 0 0.21739304288862979 0.43200563017257382 0 0.21370806227123909 0.41789950377956148 0 0.21739304288862979 0.43200563017257382 0 0.1999317510848099 0.43097584272053618 0 0.2111195299095035 0.44359306409302351 0 0.21739304288862979 0.43200563017257382 0 0.21370806227123909 0.41789950377956148 0 0.1999317510848099 0.43097584272053618 0 0.21370806227123909 0.41789950377956148 0 0.19877798755638451 0.41086714246249401 0 0.1999317510848099 0.43097584272053618 0 0.21316338490038089 0.39704202397260657 0 0.21370806227123909 0.41789950377956148 0 0.19877798755638451 0.41086714246249401 0 0.18469425222239219 0.42125941149134333 0 0.19877798755638451 0.41086714246249401 0 0.1999317510848099 0.43097584272053618 0 0.18469425222239219 0.42125941149134333 0 0.1843100454414533 0.40126956181167389 0 0.19877798755638451 0.41086714246249401 0 0.18469425222239219 0.42125941149134333 0 0.1999317510848099 0.43097584272053618 0 0.1809560021812836 0.43814832633623357 0 0.1999317510848099 0.43097584272053618 0 0.19479511809318301 0.4526549487178691 0 0.2111195299095035 0.44359306409302351 0 0.1999317510848099 0.43097584272053618 0 0.19479511809318301 0.4526549487178691 0 0.1809560021812836 0.43814832633623357 0 0.19479511809318301 0.4526549487178691 0 0.213169792932182 0.46047172596691099 0 0.19211155850092579 0.47790980627879082 0 0.19479511809318301 0.4526549487178691 0 0.19211155850092579 0.47790980627879082 0 0.18348770279874721 0.46143911161818069 0 0.213169792932182 0.46047172596691099 0 0.2111195299095035 0.44359306409302351 0 0.22996656543308741 0.44177288309861867 0 0.19479511809318301 0.4526549487178691 0 0.213169792932182 0.46047172596691099 0 0.2111195299095035 0.44359306409302351 0 0.21739304288862979 0.43200563017257382 0 0.2111195299095035 0.44359306409302351 0 0.22996656543308741 0.44177288309861867 0 0.22996656543308741 0.44177288309861867 0 0.22854105436186559 0.46372788353366717 0 0.24141841662185301 0.45603819576859073 0 0.213169792932182 0.46047172596691099 0 0.22854105436186559 0.46372788353366717 0 0.221321310837439 0.47674074212904899 0 0.213169792932182 0.46047172596691099 0 0.22996656543308741 0.44177288309861867 0 0.22854105436186559 0.46372788353366717 0 0.24141841662185301 0.45603819576859073 0 0.23645949407781469 0.47608243786178739 0 0.25047151807745072 0.47036873115219768 0 0.22854105436186559 0.46372788353366717 0 0.24141841662185301 0.45603819576859073 0 0.23645949407781469 0.47608243786178739 0 0.24141841662185301 0.45603819576859073 0 0.25047151807745072 0.47036873115219768 0 0.25477099823403621 0.45804476415031298 0 0.24141841662185301 0.45603819576859073 0 0.25282491994113748 0.44831200937164878 0 0.25477099823403621 0.45804476415031298 0 0.22996656543308741 0.44177288309861867 0 0.24141841662185301 0.45603819576859073 0 0.24583280085865111 0.44361242472787987 0 0.24946733303660301 0.43176723098649622 0 0.22996656543308741 0.44177288309861867 0 0.24583280085865111 0.44361242472787987 0 0.24141841662185301 0.45603819576859073 0 0.24583280085865111 0.44361242472787987 0 0.25282491994113748 0.44831200937164878 0 0.24904418528453851 0.48634810883828161 0 0.23645949407781469 0.47608243786178739 0 0.23352830384551029 0.49999999999999978 0 0.24904418528453851 0.48634810883828161 0 0.23352830384551029 0.49999999999999978 0 0.25181722630913472 0.5 0 0.24904418528453851 0.48634810883828161 0 0.23645949407781469 0.47608243786178739 0 0.25047151807745072 0.47036873115219768 0 0.23645949407781469 0.47608243786178739 0 0.221321310837439 0.47674074212904899 0 0.23352830384551029 0.49999999999999978 0 0.22854105436186559 0.46372788353366717 0 0.23645949407781469 0.47608243786178739 0 0.221321310837439 0.47674074212904899 0 0.23352830384551029 0.49999999999999978 0 0.2128199311732181 0.48895490313939532 0 0.21702906166474581 0.5 0 0.23352830384551029 0.49999999999999978 0 0.2128199311732181 0.48895490313939532 0 0.221321310837439 0.47674074212904899 0 0.23352830384551029 0.49999999999999978 0 0.2128199311732181 0.48895490313939532 0 0.2128199311732181 0.48895490313939532 0 0.21702906166474581 0.5 0 0.20052981948398141 0.49999999999999989 0 0.213169792932182 0.46047172596691099 0 0.221321310837439 0.47674074212904899 0 0.19211155850092579 0.47790980627879082 0 0.221321310837439 0.47674074212904899 0 0.2128199311732181 0.48895490313939532 0 0.19211155850092579 0.47790980627879082 0 0.2128199311732181 0.48895490313939532 0 0.19211155850092579 0.47790980627879082 0 0.2128199311732181 0.48895490313939532 0 0.20052981948398141 0.49999999999999989 0 0.19295831529489699 0.4905304616351287 0 0.2128199311732181 0.48895490313939532 0 0.19211155850092579 0.47790980627879082 0 0.19295831529489699 0.4905304616351287 0 0.20052981948398141 0.49999999999999989 0 0.1839227339461352 0.49861489743603538 0 0.20052981948398141 0.49999999999999989 0 0.19295831529489699 0.4905304616351287 0 0.1839227339461352 0.49861489743603538 0 0.19211155850092579 0.47790980627879082 0 0.19295831529489699 0.4905304616351287 0 0.1809625144841838 0.48570342190566712 0 0.1839227339461352 0.49861489743603538 0 0.1809625144841838 0.48570342190566712 0 0.16731564840828889 0.49722979487207219 0 0.1839227339461352 0.49861489743603538 0 0.16731564840828889 0.49722979487207219 0 0.1839227339461352 0.49861489743603538 0 0.1669427425872391 0.49999999999999922 0 0.16731564840828889 0.49722979487207219 0 0.19295831529489699 0.4905304616351287 0 0.1839227339461352 0.49861489743603538 0 0.1809625144841838 0.48570342190566712 0 0.1809625144841838 0.48570342190566712 0 0.16731564840828889 0.49722979487207219 0 0.16935941711846161 0.48204725214512889 0 0.16731564840828889 0.49722979487207219 0 0.157708884996551 0.48584061526662409 0 0.14611751268168829 0.49546177892012921 0 0.16731564840828889 0.49722979487207219 0 0.14611751268168829 0.49546177892012921 0 0.1669427425872391 0.49999999999999922 0 0.16731564840828889 0.49722979487207219 0 0.14611751268168829 0.49546177892012921 0 0.1669427425872391 0.49999999999999922 0 0.16731564840828889 0.49722979487207219 0 0.16731564840828889 0.49722979487207219 0 0.16935941711846161 0.48204725214512889 0 0.16731564840828889 0.49722979487207219 0 0.157708884996551 0.48584061526662409 0 0.16935941711846161 0.48204725214512889 0 0.16382575626869561 0.4735735187060508 0 0.15802571703479451 0.46684670821381258 0 0.1531189490294651 0.47544631339495541 0 0.157708884996551 0.48584061526662409 0 0.16382575626869561 0.4735735187060508 0 0.1531189490294651 0.47544631339495541 0 0.157708884996551 0.48584061526662409 0 0.16382575626869561 0.4735735187060508 0 0.16935941711846161 0.48204725214512889 0 0.16935941711846161 0.48204725214512889 0 0.17140318582863401 0.46686470941818559 0 0.16382575626869561 0.4735735187060508 0 0.16935941711846161 0.48204725214512889 0 0.17140318582863401 0.46686470941818559 0 0.1809625144841838 0.48570342190566712 0 0.16935941711846161 0.48204725214512889 0 0.17140318582863401 0.46686470941818559 0 0.19211155850092579 0.47790980627879082 0 0.1809625144841838 0.48570342190566712 0 0.17140318582863401 0.46686470941818559 0 0.19211155850092579 0.47790980627879082 0 0.17140318582863401 0.46686470941818559 0 0.19479511809318301 0.4526549487178691 0 0.18348770279874721 0.46143911161818069 0 0.17341546959919829 0.45191605883299152 0 0.19211155850092579 0.47790980627879082 0 0.18348770279874721 0.46143911161818069 0 0.17140318582863401 0.46686470941818559 0 0.18348770279874721 0.46143911161818069 0 0.17341546959919829 0.45191605883299152 0 0.17140318582863401 0.46686470941818559 0 0.17341546959919829 0.45191605883299152 0 0.17140318582863401 0.46686470941818559 0 0.19479511809318301 0.4526549487178691 0 0.1809560021812836 0.43814832633623357 0 0.17341546959919829 0.45191605883299152 0 0.1809560021812836 0.43814832633623357 0 0.17341546959919829 0.45191605883299152 0 0.16598328874466911 0.44273574664910909 0 0.17341546959919829 0.45191605883299152 0 0.16598328874466911 0.44273574664910909 0 0.15954778128093949 0.4508222386347599 0 0.16598328874466911 0.44273574664910909 0 0.15954778128093949 0.4508222386347599 0 0.1507341445198021 0.44370602134863157 0 0.16526304614212209 0.42908608809292892 0 0.16598328874466911 0.44273574664910909 0 0.1507341445198021 0.44370602134863157 0 0.16382575626869561 0.4735735187060508 0 0.1651762257979181 0.46354347419730452 0 0.17140318582863401 0.46686470941818559 0 0.1651762257979181 0.46354347419730452 0 0.17140318582863401 0.46686470941818559 0 0.17341546959919829 0.45191605883299152 0 0.1651762257979181 0.46354347419730452 0 0.17140318582863401 0.46686470941818559 0 0.17341546959919829 0.45191605883299152 0 0.15954778128093949 0.4508222386347599 0 0.1651762257979181 0.46354347419730452 0 0.15954778128093949 0.4508222386347599 0 0.1651762257979181 0.46354347419730452 0 0.1582471669695637 0.45974252444074731 0 0.16382575626869561 0.4735735187060508 0 0.1651762257979181 0.46354347419730452 0 0.15802571703479451 0.46684670821381258 0 0.1651762257979181 0.46354347419730452 0 0.1582471669695637 0.45974252444074731 0 0.15802571703479451 0.46684670821381258 0 0.14976048710833001 0.46192771033000529 0 0.1507341445198021 0.44370602134863157 0 0.136404492151351 0.45486193181106682 0 0.1582471669695637 0.45974252444074731 0 0.15802571703479451 0.46684670821381258 0 0.14976048710833001 0.46192771033000529 0 0.15802571703479451 0.46684670821381258 0 0.14976048710833001 0.46192771033000529 0 0.1531189490294651 0.47544631339495541 0 0.15954778128093949 0.4508222386347599 0 0.1582471669695637 0.45974252444074731 0 0.14976048710833001 0.46192771033000529 0 0.14976048710833001 0.46192771033000529 0 0.136404492151351 0.45486193181106682 0 0.13663143795624749 0.46910754811773492 0 0.15954778128093949 0.4508222386347599 0 0.14976048710833001 0.46192771033000529 0 0.1507341445198021 0.44370602134863157 0 0.1507341445198021 0.44370602134863157 0 0.13510526379757609 0.44116740875256688 0 0.136404492151351 0.45486193181106682 0 0.1221607865463437 0.4507156547582637 0 0.12259086230274099 0.42947812748907283 0 0.13510526379757609 0.44116740875256688 0 0.1221607865463437 0.4507156547582637 0 0.13510526379757609 0.44116740875256688 0 0.136404492151351 0.45486193181106682 0 0.136404492151351 0.45486193181106682 0 0.1267882431275838 0.46370707134437261 0 0.13663143795624749 0.46910754811773492 0 0.1221607865463437 0.4507156547582637 0 0.136404492151351 0.45486193181106682 0 0.1267882431275838 0.46370707134437261 0 0.1267882431275838 0.46370707134437261 0 0.12569724768963239 0.47617993877849962 0 0.13663143795624749 0.46910754811773492 0 0.12569724768963239 0.47617993877849962 0 0.13663143795624749 0.46910754811773492 0 0.1364132019148096 0.48384982340983701 0 0.13663143795624749 0.46910754811773492 0 0.1364132019148096 0.48384982340983701 0 0.14361111091913481 0.47574478002545789 0 0.1249193769550877 0.49369376296818718 0 0.1364132019148096 0.48384982340983701 0 0.14611751268168829 0.49546177892012921 0 0.1249193769550877 0.49369376296818718 0 0.14611751268168829 0.49546177892012921 0 0.1249193769550877 0.49369376296818718 0 0.12569724768963239 0.47617993877849962 0 0.1364132019148096 0.48384982340983701 0 0.1249193769550877 0.49369376296818718 0 0.13738437864054501 0.5 0 0.14611751268168829 0.49546177892012921 0 0.1364132019148096 0.48384982340983701 0 0.14611751268168829 0.49546177892012921 0 0.14718343377546941 0.48347361591025501 0 0.1669427425872391 0.49999999999999922 0 0.13738437864054501 0.5 0 0.14611751268168829 0.49546177892012921 0 0.157708884996551 0.48584061526662409 0 0.14611751268168829 0.49546177892012921 0 0.14718343377546941 0.48347361591025501 0 0.157708884996551 0.48584061526662409 0 0.1531189490294651 0.47544631339495541 0 0.14718343377546941 0.48347361591025501 0 0.14976048710833001 0.46192771033000529 0 0.1531189490294651 0.47544631339495541 0 0.14361111091913481 0.47574478002545789 0 0.14976048710833001 0.46192771033000529 0 0.13663143795624749 0.46910754811773492 0 0.14361111091913481 0.47574478002545789 0 0.1364132019148096 0.48384982340983701 0 0.14361111091913481 0.47574478002545789 0 0.14718343377546941 0.48347361591025501 0 0.1531189490294651 0.47544631339495541 0 0.14361111091913481 0.47574478002545789 0 0.14718343377546941 0.48347361591025501 0 0.35832214194920592 0.47929915408112939 0 0.34611268429232461 0.46591887339206078 0 0.3375369348076922 0.4829399206954248 0 0.35832214194920592 0.47929915408112939 0 0.35850557312216419 0.5 0 0.3375369348076922 0.4829399206954248 0 0.35850557312216419 0.5 0 0.37801407526051067 0.48065415083330842 0 0.38797204790529932 0.5 0 0.35832214194920592 0.47929915408112939 0 0.35850557312216419 0.5 0 0.37801407526051067 0.48065415083330842 0 0.35832214194920592 0.47929915408112939 0 0.36980735363827261 0.46050290225189661 0 0.37801407526051067 0.48065415083330842 0 0.36980735363827261 0.46050290225189661 0 0.34502769605759259 0.44546544446971242 0 0.36959298495063608 0.43610817863788948 0 0.35832214194920592 0.47929915408112939 0 0.36980735363827261 0.46050290225189661 0 0.34611268429232461 0.46591887339206078 0 0.36980735363827261 0.46050290225189661 0 0.34502769605759259 0.44546544446971242 0 0.34611268429232461 0.46591887339206078 0 0.36980735363827261 0.46050290225189661 0 0.34611268429232461 0.46591887339206078 0 0.34611268429232461 0.46591887339206078 0 0.3317687487832644 0.45597005559148451 0 0.32241801494637662 0.47133484453222518 0 0.34502769605759259 0.44546544446971242 0 0.34611268429232461 0.46591887339206078 0 0.3317687487832644 0.45597005559148451 0 0.34611268429232461 0.46591887339206078 0 0.32241801494637662 0.47133484453222518 0 0.34502769605759259 0.44546544446971242 0 0.3317687487832644 0.45597005559148451 0 0.32480939915707069 0.44218818576869201 0 0.34502769605759259 0.44546544446971242 0 0.32480939915707069 0.44218818576869201 0 0.33523501366627878 0.43221560569608392 0 0.3107318966111981 0.4514989769174147 0 0.3227404476219688 0.42624713816244092 0 0.3317687487832644 0.45597005559148451 0 0.32480939915707069 0.44218818576869201 0 0.3107318966111981 0.4514989769174147 0 0.32480939915707069 0.44218818576869201 0 0.3107318966111981 0.4514989769174147 0 0.3227404476219688 0.42624713816244092 0 0.3317687487832644 0.45597005559148451 0 0.32241801494637662 0.47133484453222518 0 0.3107318966111981 0.4514989769174147 0 0.32241801494637662 0.47133484453222518 0 0.3375369348076922 0.4829399206954248 0 0.31372501333874958 0.48784291822244708 0 0.34611268429232461 0.46591887339206078 0 0.32241801494637662 0.47133484453222518 0 0.3375369348076922 0.4829399206954248 0 0.35850557312216419 0.5 0 0.3375369348076922 0.4829399206954248 0 0.32903909833902928 0.5 0 0.32903909833902928 0.5 0 0.31372501333874958 0.48784291822244708 0 0.29957262355589431 0.5 0 0.3375369348076922 0.4829399206954248 0 0.32903909833902928 0.5 0 0.31372501333874958 0.48784291822244708 0 0.31372501333874958 0.48784291822244708 0 0.30130976803097798 0.48891801032572652 0 0.29957262355589431 0.5 0 0.31372501333874958 0.48784291822244708 0 0.30130976803097798 0.48891801032572652 0 0.29872334560042851 0.47675081567238892 0 0.30130976803097798 0.48891801032572652 0 0.29957262355589431 0.5 0 0.28978827390519868 0.49553967616935518 0 0.32241801494637662 0.47133484453222518 0 0.29872334560042851 0.47675081567238892 0 0.32241801494637662 0.47133484453222518 0 0.31372501333874958 0.48784291822244708 0 0.29872334560042851 0.47675081567238892 0 0.29872334560042851 0.47675081567238892 0 0.28397488520641462 0.48012192141307769 0 0.28978827390519868 0.49553967616935518 0 0.29872334560042851 0.47675081567238892 0 0.28929399795500932 0.47058792179259418 0 0.29703527816799058 0.46117092995693892 0 0.29872334560042851 0.47675081567238892 0 0.28929399795500932 0.47058792179259418 0 0.28397488520641462 0.48012192141307769 0 0.29872334560042851 0.47675081567238892 0 0.28397488520641462 0.48012192141307769 0 0.28929399795500932 0.47058792179259418 0 0.28397488520641462 0.48012192141307769 0 0.27920072977811172 0.47805830749059319 0 0.28397488520641462 0.48012192141307769 0 0.28978827390519868 0.49553967616935518 0 0.27010614877275918 0.50000000000000067 0 0.29957262355589431 0.5 0 0.28978827390519868 0.49553967616935518 0 0.27010614877275918 0.50000000000000067 0 0.30130976803097798 0.48891801032572652 0 0.29872334560042851 0.47675081567238892 0 0.28978827390519868 0.49553967616935518 0 0.29872334560042851 0.47675081567238892 0 0.28978827390519868 0.49553967616935518 0 0.28397488520641462 0.48012192141307769 0 0.27010614877275918 0.50000000000000067 0 0.27920072977811172 0.47805830749059319 0 0.27010614877275918 0.50000000000000067 0 0.26909437115437917 0.48384867389528768 0 0.26130641782501518 0.49139676135406141 0 0.27010614877275918 0.50000000000000067 0 0.27920072977811172 0.47805830749059319 0 0.26909437115437917 0.48384867389528768 0 0.27010614877275918 0.50000000000000067 0 0.27920072977811172 0.47805830749059319 0 0.27920072977811172 0.47805830749059319 0 0.27306774476234302 0.47644699960251641 0 0.26909437115437917 0.48384867389528768 0 0.27920072977811172 0.47805830749059319 0 0.27306774476234302 0.47644699960251641 0 0.27643472525740193 0.46726539210963169 0 0.26824582816420722 0.47348896141386071 0 0.27306774476234302 0.47644699960251641 0 0.27643472525740193 0.46726539210963169 0 0.26824582816420722 0.47348896141386071 0 0.26909437115437917 0.48384867389528768 0 0.25993240985832161 0.47939275616227872 0 0.26824582816420722 0.47348896141386071 0 0.27306774476234302 0.47644699960251641 0 0.26909437115437917 0.48384867389528768 0 0.24904418528453851 0.48634810883828161 0 0.25993240985832161 0.47939275616227872 0 0.25047151807745072 0.47036873115219768 0 0.26824582816420722 0.47348896141386071 0 0.25993240985832161 0.47939275616227872 0 0.26165523792153211 0.46576309323832682 0 0.25993240985832161 0.47939275616227872 0 0.25047151807745072 0.47036873115219768 0 0.26165523792153211 0.46576309323832682 0 0.27010614877275918 0.50000000000000067 0 0.25181722630913472 0.5 0 0.26130641782501518 0.49139676135406141 0 0.24904418528453851 0.48634810883828161 0 0.25993240985832161 0.47939275616227872 0 0.26130641782501518 0.49139676135406141 0 0.24904418528453851 0.48634810883828161 0 0.25181722630913472 0.5 0 0.26130641782501518 0.49139676135406141 0 0.26909437115437917 0.48384867389528768 0 0.25993240985832161 0.47939275616227872 0 0.26130641782501518 0.49139676135406141 0 0.26490489917960358 0.45079530358348557 0 0.25548676926057468 0.44017180441404491 0 0.26331147225899149 0.43380076267102891 0 0.24946733303660301 0.43176723098649622 0 0.24583280085865111 0.44361242472787987 0 0.25548676926057468 0.44017180441404491 0 0.24583280085865111 0.44361242472787987 0 0.25548676926057468 0.44017180441404491 0 0.25282491994113748 0.44831200937164878 0 0.26490489917960358 0.45079530358348557 0 0.25548676926057468 0.44017180441404491 0 0.25282491994113748 0.44831200937164878 0 0.26490489917960358 0.45079530358348557 0 0.25282491994113748 0.44831200937164878 0 0.25477099823403621 0.45804476415031298 0 0.25047151807745072 0.47036873115219768 0 0.25477099823403621 0.45804476415031298 0 0.26165523792153211 0.46576309323832682 0 0.26490489917960358 0.45079530358348557 0 0.25477099823403621 0.45804476415031298 0 0.26165523792153211 0.46576309323832682 0 0.26490489917960358 0.45079530358348557 0 0.27160577401557351 0.46248804296782559 0 0.27679169795675967 0.45600994403837303 0 0.26490489917960358 0.45079530358348557 0 0.26165523792153211 0.46576309323832682 0 0.27160577401557351 0.46248804296782559 0 0.26824582816420722 0.47348896141386071 0 0.27160577401557351 0.46248804296782559 0 0.27643472525740193 0.46726539210963169 0 0.26824582816420722 0.47348896141386071 0 0.26165523792153211 0.46576309323832682 0 0.27160577401557351 0.46248804296782559 0 0.27160577401557351 0.46248804296782559 0 0.27643472525740193 0.46726539210963169 0 0.27679169795675967 0.45600994403837303 0 0.27643472525740193 0.46726539210963169 0 0.27679169795675967 0.45600994403837303 0 0.28829531078346382 0.45611661498118572 0 0.27903440424894049 0.4453257315987294 0 0.26331147225899149 0.43380076267102891 0 0.26490489917960358 0.45079530358348557 0 0.27903440424894049 0.4453257315987294 0 0.26331147225899149 0.43380076267102891 0 0.26490489917960358 0.45079530358348557 0 0.27679169795675967 0.45600994403837303 0 0.27903440424894049 0.4453257315987294 0 0.27903440424894049 0.4453257315987294 0 0.2917470315179379 0.44281751567604499 0 0.28179675760275558 0.42932557237874241 0 0.27679169795675967 0.45600994403837303 0 0.27903440424894049 0.4453257315987294 0 0.28829531078346382 0.45611661498118572 0 0.27903440424894049 0.4453257315987294 0 0.2917470315179379 0.44281751567604499 0 0.28829531078346382 0.45611661498118572 0 0.2917470315179379 0.44281751567604499 0 0.28829531078346382 0.45611661498118572 0 0.29813183988985342 0.45090032042111128 0 0.27920072977811172 0.47805830749059319 0 0.27643472525740193 0.46726539210963169 0 0.28829531078346382 0.45611661498118572 0 0.28929399795500932 0.47058792179259418 0 0.27920072977811172 0.47805830749059319 0 0.28829531078346382 0.45611661498118572 0 0.27920072977811172 0.47805830749059319 0 0.28829531078346382 0.45611661498118572 0 0.28829531078346382 0.45611661498118572 0 0.29703527816799058 0.46117092995693892 0 0.29813183988985342 0.45090032042111128 0 0.28929399795500932 0.47058792179259418 0 0.28829531078346382 0.45611661498118572 0 0.29703527816799058 0.46117092995693892 0 0.29872334560042851 0.47675081567238892 0 0.29703527816799058 0.46117092995693892 0 0.3107318966111981 0.4514989769174147 0 0.29872334560042851 0.47675081567238892 0 0.3107318966111981 0.4514989769174147 0 0.32241801494637662 0.47133484453222518 0 0.29872334560042851 0.47675081567238892 0 0.3107318966111981 0.4514989769174147 0 0.29703527816799058 0.46117092995693892 0 0.29813183988985342 0.45090032042111128 0 0.3107318966111981 0.4514989769174147 0 0.30159082278473881 0.44219288247638061 0 0.3107318966111981 0.4514989769174147 0 0.30884109342504262 0.43428586920116352 0 0.2917470315179379 0.44281751567604499 0 0.30159082278473881 0.44219288247638061 0 0.29850225247966211 0.43146173016616862 0 0.2917470315179379 0.44281751567604499 0 0.30159082278473881 0.44219288247638061 0 0.29813183988985342 0.45090032042111128 0 0.30159082278473881 0.44219288247638061 0 0.29813183988985342 0.45090032042111128 0 0.3107318966111981 0.4514989769174147 0 0.30884109342504262 0.43428586920116352 0 0.29850225247966211 0.43146173016616862 0 0.30862162828234507 0.42004495563460759 0 0.29850225247966211 0.43146173016616862 0 0.30862162828234507 0.42004495563460759 0 0.29547148538100448 0.41817397575591742 0 0.30159082278473881 0.44219288247638061 0 0.30884109342504262 0.43428586920116352 0 0.29850225247966211 0.43146173016616862 0 0.30862162828234507 0.42004495563460759 0 0.30304430461131138 0.40735012112542651 0 0.3196782615082488 0.40265332564926309 0 0.30862162828234507 0.42004495563460759 0 0.30304430461131138 0.40735012112542651 0 0.29547148538100448 0.41817397575591742 0 0.30304430461131138 0.40735012112542651 0 0.29062365375375682 0.40708788978866228 0 0.29547148538100448 0.41817397575591742 0 0.29062365375375682 0.40708788978866228 0 0.29547148538100448 0.41817397575591742 0 0.28288479604298378 0.41446876034122271 0 0.29547148538100448 0.41817397575591742 0 0.28288479604298378 0.41446876034122271 0 0.28179675760275558 0.42932557237874241 0 0.29062365375375682 0.40708788978866228 0 0.28288479604298378 0.41446876034122271 0 0.28001120465417539 0.40182109974822727 0 0.29850225247966211 0.43146173016616862 0 0.29547148538100448 0.41817397575591742 0 0.28179675760275558 0.42932557237874241 0 0.2917470315179379 0.44281751567604499 0 0.29850225247966211 0.43146173016616862 0 0.28179675760275558 0.42932557237874241 0 0.28179675760275558 0.42932557237874241 0 0.27042562322166658 0.41684269204638819 0 0.26331147225899149 0.43380076267102891 0 0.27903440424894049 0.4453257315987294 0 0.28179675760275558 0.42932557237874241 0 0.26331147225899149 0.43380076267102891 0 0.27042562322166658 0.41684269204638819 0 0.26380858941988822 0.4002294757553399 0 0.28001120465417539 0.40182109974822727 0 0.28288479604298378 0.41446876034122271 0 0.28179675760275558 0.42932557237874241 0 0.27042562322166658 0.41684269204638819 0 0.28288479604298378 0.41446876034122271 0 0.27042562322166658 0.41684269204638819 0 0.28001120465417539 0.40182109974822727 0 0.24649952449278431 0.42147754103885982 0 0.25492995388566009 0.41993008507457552 0 0.26380858941988822 0.4002294757553399 0 0.27042562322166658 0.41684269204638819 0 0.25492995388566009 0.41993008507457552 0 0.26380858941988822 0.4002294757553399 0 0.24649952449278431 0.42147754103885982 0 0.26380858941988822 0.4002294757553399 0 0.2429624777480478 0.39890547698508871 0 0.24649952449278431 0.42147754103885982 0 0.26380858941988822 0.4002294757553399 0 0.24946733303660301 0.43176723098649622 0 0.24649952449278431 0.42147754103885982 0 0.26331147225899149 0.43380076267102891 0 0.24649952449278431 0.42147754103885982 0 0.25492995388566009 0.41993008507457552 0 0.26331147225899149 0.43380076267102891 0 0.24649952449278431 0.42147754103885982 0 0.26331147225899149 0.43380076267102891 0 0.27042562322166658 0.41684269204638819 0 0.25492995388566009 0.41993008507457552 0 0.26331147225899149 0.43380076267102891 0 0.24946733303660301 0.43176723098649622 0 0.25548676926057468 0.44017180441404491 0 0.26331147225899149 0.43380076267102891 0 0.26350653962281989 0.38010735630523079 0 0.25341304662754638 0.38974012394171498 0 0.26380858941988822 0.4002294757553399 0 0.26350653962281989 0.38010735630523079 0 0.25383912625151372 0.37755129754335942 0 0.25710864090743918 0.37145542319719338 0 0.26350653962281989 0.38010735630523079 0 0.25383912625151372 0.37755129754335942 0 0.25341304662754638 0.38974012394171498 0 0.2429624777480478 0.39890547698508871 0 0.25341304662754638 0.38974012394171498 0 0.26380858941988822 0.4002294757553399 0 0.26380858941988822 0.4002294757553399 0 0.28001120465417539 0.40182109974822727 0 0.28036865154730628 0.37990086281960789 0 0.26350653962281989 0.38010735630523079 0 0.28036865154730628 0.37990086281960789 0 0.2641967246118288 0.36596915937278562 0 0.26380858941988822 0.4002294757553399 0 0.28036865154730628 0.37990086281960789 0 0.26350653962281989 0.38010735630523079 0 0.26380858941988822 0.4002294757553399 0 0.28036865154730628 0.37990086281960789 0 0.28036865154730628 0.37990086281960789 0 0.29170647807930872 0.39362549197251728 0 0.2987730087010142 0.37934426936791982 0 0.28036865154730628 0.37990086281960789 0 0.29170647807930872 0.39362549197251728 0 0.28001120465417539 0.40182109974822727 0 0.28036865154730628 0.37990086281960789 0 0.29170647807930872 0.39362549197251728 0 0.29062365375375682 0.40708788978866228 0 0.28001120465417539 0.40182109974822727 0 0.29170647807930872 0.39362549197251728 0 0.30304430461131138 0.40735012112542651 0 0.29062365375375682 0.40708788978866228 0 0.29170647807930872 0.39362549197251728 0 0.30304430461131138 0.40735012112542651 0 0.30637452063024528 0.39219955594670219 0 0.3196782615082488 0.40265332564926309 0 0.30304430461131138 0.40735012112542651 0 0.29170647807930872 0.39362549197251728 0 0.30304430461131138 0.40735012112542651 0 0.29170647807930872 0.39362549197251728 0 0.30637452063024528 0.39219955594670219 0 0.30637452063024528 0.39219955594670219 0 0.2987730087010142 0.37934426936791982 0 0.31661607539452802 0.37905951313608538 0 0.29170647807930872 0.39362549197251728 0 0.30637452063024528 0.39219955594670219 0 0.2987730087010142 0.37934426936791982 0 0.31661607539452802 0.37905951313608538 0 0.32905198958534931 0.38831461949406398 0 0.3196782615082488 0.40265332564926309 0 0.31661607539452802 0.37905951313608538 0 0.32905198958534931 0.38831461949406398 0 0.33389487655237682 0.3658352592629312 0 0.32905198958534931 0.38831461949406398 0 0.34270248502322931 0.38427053755298168 0 0.33389487655237682 0.3658352592629312 0 0.32905198958534931 0.38831461949406398 0 0.34270248502322931 0.38427053755298168 0 0.33272146632259869 0.40525883785771122 0 0.34270248502322931 0.38427053755298168 0 0.33272146632259869 0.40525883785771122 0 0.34270248502322931 0.38427053755298168 0 0.33272146632259869 0.40525883785771122 0 0.34670895149724801 0.40816004440777182 0 0.31661607539452802 0.37905951313608538 0 0.3196782615082488 0.40265332564926309 0 0.32905198958534931 0.38831461949406398 0 0.33272146632259869 0.40525883785771122 0 0.3196782615082488 0.40265332564926309 0 0.30637452063024528 0.39219955594670219 0 0.31661607539452802 0.37905951313608538 0 0.3196782615082488 0.40265332564926309 0 0.3196782615082488 0.40265332564926309 0 0.3227404476219688 0.42624713816244092 0 0.30862162828234507 0.42004495563460759 0 0.3196782615082488 0.40265332564926309 0 0.3227404476219688 0.42624713816244092 0 0.33272146632259869 0.40525883785771122 0 0.3196782615082488 0.40265332564926309 0 0.3227404476219688 0.42624713816244092 0 0.33272146632259869 0.40525883785771122 0 0.3227404476219688 0.42624713816244092 0 0.32480939915707069 0.44218818576869201 0 0.3227404476219688 0.42624713816244092 0 0.3107318966111981 0.4514989769174147 0 0.30884109342504262 0.43428586920116352 0 0.3227404476219688 0.42624713816244092 0 0.32480939915707069 0.44218818576869201 0 0.3227404476219688 0.42624713816244092 0 0.33523501366627878 0.43221560569608392 0 0.30884109342504262 0.43428586920116352 0 0.30862162828234507 0.42004495563460759 0 0.3227404476219688 0.42624713816244092 0 0.34502769605759259 0.44546544446971242 0 0.33523501366627878 0.43221560569608392 0 0.34795858503051302 0.425881111768525 0 0.3227404476219688 0.42624713816244092 0 0.33523501366627878 0.43221560569608392 0 0.33659904832278342 0.4201421825902541 0 0.33523501366627878 0.43221560569608392 0 0.33659904832278342 0.4201421825902541 0 0.34795858503051302 0.425881111768525 0 0.33272146632259869 0.40525883785771122 0 0.3227404476219688 0.42624713816244092 0 0.33659904832278342 0.4201421825902541 0 0.33272146632259869 0.40525883785771122 0 0.33659904832278342 0.4201421825902541 0 0.34670895149724801 0.40816004440777182 0 0.33659904832278342 0.4201421825902541 0 0.34670895149724801 0.40816004440777182 0 0.34795858503051302 0.425881111768525 0 0.34670895149724801 0.40816004440777182 0 0.34795858503051302 0.425881111768525 0 0.36336601300371613 0.41450991002864218 0 0.34670895149724801 0.40816004440777182 0 0.36336601300371613 0.41450991002864218 0 0.35690611128064731 0.3988976866485166 0 0.34502769605759259 0.44546544446971242 0 0.34795858503051302 0.425881111768525 0 0.36959298495063608 0.43610817863788948 0 0.34795858503051302 0.425881111768525 0 0.36959298495063608 0.43610817863788948 0 0.36336601300371613 0.41450991002864218 0 0.36959298495063608 0.43610817863788948 0 0.36336601300371613 0.41450991002864218 0 0.38530342098431941 0.41064856824057122 0 0.36336601300371613 0.41450991002864218 0 0.3736470799201031 0.39378130610698531 0 0.38530342098431941 0.41064856824057122 0 0.3736470799201031 0.39378130610698531 0 0.3601059063978746 0.38125551426405008 0 0.35690611128064731 0.3988976866485166 0 0.36336601300371613 0.41450991002864218 0 0.3736470799201031 0.39378130610698531 0 0.35690611128064731 0.3988976866485166 0 0.3736470799201031 0.39378130610698531 0 0.3601059063978746 0.38125551426405008 0 0.37414389550204002 0.36898578533419818 0 0.34270248502322931 0.38427053755298168 0 0.3601059063978746 0.38125551426405008 0 0.35690611128064731 0.3988976866485166 0 0.34270248502322931 0.38427053755298168 0 0.3601059063978746 0.38125551426405008 0 0.35268350372385993 0.36328223724825232 0 0.34270248502322931 0.38427053755298168 0 0.34670895149724801 0.40816004440777182 0 0.35690611128064731 0.3988976866485166 0 0.35268350372385993 0.36328223724825232 0 0.36266452242448938 0.34229393694352239 0 0.35030182712711511 0.35130594720886232 0 0.35268350372385993 0.36328223724825232 0 0.36266452242448938 0.34229393694352239 0 0.35030182712711511 0.35130594720886232 0 0.35146565257524442 0.34420791440797271 0 0.36266452242448938 0.34229393694352239 0 0.35030182712711511 0.35130594720886232 0 0.35146565257524442 0.34420791440797271 0 0.34269927497721508 0.34493512072036142 0 0.35030182712711511 0.35130594720886232 0 0.35268350372385993 0.36328223724825232 0 0.33389487655237682 0.3658352592629312 0 0.34270248502322931 0.38427053755298168 0 0.35268350372385993 0.36328223724825232 0 0.3601059063978746 0.38125551426405008 0 0.35268350372385993 0.36328223724825232 0 0.37414389550204002 0.36898578533419818 0 0.35268350372385993 0.36328223724825232 0 0.37414389550204002 0.36898578533419818 0 0.36300645299402812 0.35604351837507042 0 0.37414389550204002 0.36898578533419818 0 0.37228166628853332 0.35471301169251829 0 0.36300645299402812 0.35604351837507042 0 0.35268350372385993 0.36328223724825232 0 0.36300645299402812 0.35604351837507042 0 0.36266452242448938 0.34229393694352239 0 0.37228166628853332 0.35471301169251829 0 0.36300645299402812 0.35604351837507042 0 0.36840829020790361 0.34668560051738673 0 0.36300645299402812 0.35604351837507042 0 0.36840829020790361 0.34668560051738673 0 0.36266452242448938 0.34229393694352239 0 0.36840829020790361 0.34668560051738673 0 0.36266452242448938 0.34229393694352239 0 0.36587418437400321 0.34278907974668538 0 0.37228166628853332 0.35471301169251829 0 0.36840829020790361 0.34668560051738673 0 0.37486749369974542 0.34694596905823039 0 0.37486749369974542 0.34694596905823039 0 0.37256750073976291 0.34304532959464751 0 0.37670219357667811 0.34177383067972761 0 0.36840829020790361 0.34668560051738673 0 0.37486749369974542 0.34694596905823039 0 0.37256750073976291 0.34304532959464751 0 0.36124897776362869 0.33531944770056321 0 0.36266452242448938 0.34229393694352239 0 0.36411885078159001 0.32644375487552563 0 0.37256750073976291 0.34304532959464751 0 0.36916640720496519 0.34145859007673351 0 0.37369311900952262 0.33836265764115908 0 0.37256750073976291 0.34304532959464751 0 0.37369311900952262 0.33836265764115908 0 0.37670219357667811 0.34177383067972761 0 0.36266452242448938 0.34229393694352239 0 0.37014896644917339 0.316543878568457 0 0.36770298492566261 0.33637877995368609 0 0.36266452242448938 0.34229393694352239 0 0.37368960646642962 0.31911015363466272 0 0.36770298492566261 0.33637877995368609 0 0.36985494237623989 0.33311962493185521 0 0.37368960646642962 0.31911015363466272 0 0.36266452242448938 0.34229393694352239 0 0.37368960646642962 0.31911015363466272 0 0.36266452242448938 0.34229393694352239 0 0.37014896644917339 0.316543878568457 0 0.36411885078159001 0.32644375487552563 0 0.36840829020790361 0.34668560051738673 0 0.36916640720496519 0.34145859007673351 0 0.36587418437400321 0.34278907974668538 0 0.36840829020790361 0.34668560051738673 0 0.37256750073976291 0.34304532959464751 0 0.36916640720496519 0.34145859007673351 0 0.36916640720496519 0.34145859007673351 0 0.36587418437400321 0.34278907974668538 0 0.36708394454210669 0.33994961910346172 0 0.36916640720496519 0.34145859007673351 0 0.37010024416019238 0.33739894816112592 0 0.36708394454210669 0.33994961910346172 0 0.36916640720496519 0.34145859007673351 0 0.37010024416019238 0.33739894816112592 0 0.37369311900952262 0.33836265764115908 0 0.36770298492566261 0.33637877995368609 0 0.37010024416019238 0.33739894816112592 0 0.36708394454210669 0.33994961910346172 0 0.37010024416019238 0.33739894816112592 0 0.37369311900952262 0.33836265764115908 0 0.3722735272100694 0.33425106354392481 0 0.3722735272100694 0.33425106354392481 0 0.37245621682226088 0.32924087979990557 0 0.375263113682131 0.33313320718557798 0 0.37369311900952262 0.33836265764115908 0 0.3722735272100694 0.33425106354392481 0 0.375263113682131 0.33313320718557798 0 0.3722735272100694 0.33425106354392481 0 0.37245621682226088 0.32924087979990557 0 0.36985494237623989 0.33311962493185521 0 0.37245621682226088 0.32924087979990557 0 0.37577016905582622 0.32787937856968757 0 0.375263113682131 0.33313320718557798 0 0.37010024416019238 0.33739894816112592 0 0.3722735272100694 0.33425106354392481 0 0.36985494237623989 0.33311962493185521 0 0.36770298492566261 0.33637877995368609 0 0.37010024416019238 0.33739894816112592 0 0.36985494237623989 0.33311962493185521 0 0.36128237795215928 0.33126347269122047 0 0.36124897776362869 0.33531944770056321 0 0.36411885078159001 0.32644375487552563 0 0.36150631125237548 0.32912422255951068 0 0.36128237795215928 0.33126347269122047 0 0.36411885078159001 0.32644375487552563 0 0.36150631125237548 0.32912422255951068 0 0.35994194411877378 0.32646204206530971 0 0.35835984371964152 0.33045614064968309 0 0.36128237795215928 0.33126347269122047 0 0.35899626180536931 0.33430086833413269 0 0.35835984371964152 0.33045614064968309 0 0.36150631125237548 0.32912422255951068 0 0.36128237795215928 0.33126347269122047 0 0.35835984371964152 0.33045614064968309 0 0.36128237795215928 0.33126347269122047 0 0.36124897776362869 0.33531944770056321 0 0.35899626180536931 0.33430086833413269 0 0.36124897776362869 0.33531944770056321 0 0.36001134864139028 0.33778823672905661 0 0.35899626180536931 0.33430086833413269 0 0.36124897776362869 0.33531944770056321 0 0.36001134864139028 0.33778823672905661 0 0.36266452242448938 0.34229393694352239 0 0.36001134864139028 0.33778823672905661 0 0.36266452242448938 0.34229393694352239 0 0.3582225103283424 0.33883319475427592 0 0.36266452242448938 0.34229393694352239 0 0.36587418437400321 0.34278907974668538 0 0.36708394454210669 0.33994961910346172 0 0.36770298492566261 0.33637877995368609 0 0.36266452242448938 0.34229393694352239 0 0.36708394454210669 0.33994961910346172 0 0.36266452242448938 0.34229393694352239 0 0.37368960646642962 0.31911015363466272 0 0.37014896644917339 0.316543878568457 0 0.37014896644917339 0.316543878568457 0 0.36604953812300478 0.31497278055865852 0 0.36630954626425261 0.31087512405144152 0 0.37499251130121058 0.31593455150060828 0 0.37014896644917339 0.316543878568457 0 0.37695808612291098 0.31120865645681561 0 0.37499251130121058 0.31593455150060828 0 0.37368960646642962 0.31911015363466272 0 0.37014896644917339 0.316543878568457 0 0.37014896644917339 0.316543878568457 0 0.36646072203027302 0.32009490443849897 0 0.3659238024377004 0.31770243144255911 0 0.37014896644917339 0.316543878568457 0 0.3659238024377004 0.31770243144255911 0 0.36604953812300478 0.31497278055865852 0 0.37245621682226088 0.32924087979990557 0 0.36985494237623989 0.33311962493185521 0 0.37368960646642962 0.31911015363466272 0 0.37245621682226088 0.32924087979990557 0 0.37368960646642962 0.31911015363466272 0 0.37506056064123422 0.32471797871916308 0 0.37245621682226088 0.32924087979990557 0 0.37577016905582622 0.32787937856968757 0 0.37506056064123422 0.32471797871916308 0 0.37014896644917339 0.316543878568457 0 0.36411885078159001 0.32644375487552563 0 0.36646072203027302 0.32009490443849897 0 0.36411885078159001 0.32644375487552563 0 0.35994194411877378 0.32646204206530971 0 0.36132202517978662 0.32303080634539388 0 0.36150631125237548 0.32912422255951068 0 0.36411885078159001 0.32644375487552563 0 0.35994194411877378 0.32646204206530971 0 0.36132202517978662 0.32303080634539388 0 0.36348301458407639 0.32047903077872458 0 0.35962675317161102 0.31893041505789499 0 0.36411885078159001 0.32644375487552563 0 0.36132202517978662 0.32303080634539388 0 0.36348301458407639 0.32047903077872458 0 0.36411885078159001 0.32644375487552563 0 0.36348301458407639 0.32047903077872458 0 0.36646072203027302 0.32009490443849897 0 0.36348301458407639 0.32047903077872458 0 0.36646072203027302 0.32009490443849897 0 0.3659238024377004 0.31770243144255911 0 0.3659238024377004 0.31770243144255911 0 0.36344593390349789 0.31667187251247519 0 0.36604953812300478 0.31497278055865852 0 0.36348301458407639 0.32047903077872458 0 0.3659238024377004 0.31770243144255911 0 0.36344593390349789 0.31667187251247519 0 0.36348301458407639 0.32047903077872458 0 0.36344593390349789 0.31667187251247519 0 0.35962675317161102 0.31893041505789499 0 0.36344593390349789 0.31667187251247519 0 0.35962675317161102 0.31893041505789499 0 0.35878641637012221 0.31305233625990619 0 0.36344593390349789 0.31667187251247519 0 0.36331333565659901 0.31283202127524651 0 0.35878641637012221 0.31305233625990619 0 0.36331333565659901 0.31283202127524651 0 0.36604953812300478 0.31497278055865852 0 0.36630954626425261 0.31087512405144152 0 0.36344593390349789 0.31667187251247519 0 0.36331333565659901 0.31283202127524651 0 0.36604953812300478 0.31497278055865852 0 0.35878641637012221 0.31305233625990619 0 0.35512602374864599 0.31718053618965047 0 0.35090510471213721 0.31152713165908658 0 0.35512602374864599 0.31718053618965047 0 0.34983435518440159 0.31943204998396652 0 0.35090510471213721 0.31152713165908658 0 0.35962675317161102 0.31893041505789499 0 0.35878641637012221 0.31305233625990619 0 0.35512602374864599 0.31718053618965047 0 0.35962675317161102 0.31893041505789499 0 0.35512602374864599 0.31718053618965047 0 0.35673455485560862 0.32229528426682241 0 0.35512602374864599 0.31718053618965047 0 0.35673455485560862 0.32229528426682241 0 0.34983435518440159 0.31943204998396652 0 0.35673455485560862 0.32229528426682241 0 0.35060422568955008 0.32587015674736058 0 0.34983435518440159 0.31943204998396652 0 0.35994194411877378 0.32646204206530971 0 0.36132202517978662 0.32303080634539388 0 0.35673455485560862 0.32229528426682241 0 0.36132202517978662 0.32303080634539388 0 0.35962675317161102 0.31893041505789499 0 0.35673455485560862 0.32229528426682241 0 0.35994194411877378 0.32646204206530971 0 0.35673455485560862 0.32229528426682241 0 0.35627338036128769 0.32705738058013539 0 0.35994194411877378 0.32646204206530971 0 0.35627338036128769 0.32705738058013539 0 0.35835984371964152 0.33045614064968309 0 0.35627338036128769 0.32705738058013539 0 0.35060422568955008 0.32587015674736058 0 0.35398721241228231 0.33095327650953749 0 0.35673455485560862 0.32229528426682241 0 0.35627338036128769 0.32705738058013539 0 0.35060422568955008 0.32587015674736058 0 0.35060422568955008 0.32587015674736058 0 0.34514221143703899 0.32919058107390442 0 0.34284551192874652 0.32364904383841531 0 0.35060422568955008 0.32587015674736058 0 0.34983435518440159 0.31943204998396652 0 0.34284551192874652 0.32364904383841531 0 0.34983435518440159 0.31943204998396652 0 0.34480088275632298 0.31606258733578418 0 0.35090510471213721 0.31152713165908658 0 0.34983435518440159 0.31943204998396652 0 0.34480088275632298 0.31606258733578418 0 0.34284551192874652 0.32364904383841531 0 0.35146565257524442 0.34420791440797271 0 0.36266452242448938 0.34229393694352239 0 0.35562031764263757 0.34031424282986023 0 0.35302683950207769 0.33602013814058929 0 0.35562031764263757 0.34031424282986023 0 0.35672120529774148 0.33684362974708199 0 0.35202203774268331 0.33965573310897551 0 0.35302683950207769 0.33602013814058929 0 0.35562031764263757 0.34031424282986023 0 0.35146565257524442 0.34420791440797271 0 0.35202203774268331 0.33965573310897551 0 0.35562031764263757 0.34031424282986023 0 0.36266452242448938 0.34229393694352239 0 0.35562031764263757 0.34031424282986023 0 0.3582225103283424 0.33883319475427592 0 0.35562031764263757 0.34031424282986023 0 0.3582225103283424 0.33883319475427592 0 0.35672120529774148 0.33684362974708199 0 0.36001134864139028 0.33778823672905661 0 0.3582225103283424 0.33883319475427592 0 0.35672120529774148 0.33684362974708199 0 0.36001134864139028 0.33778823672905661 0 0.35672120529774148 0.33684362974708199 0 0.35899626180536931 0.33430086833413269 0 0.35899626180536931 0.33430086833413269 0 0.35641212776078268 0.33381706902087938 0 0.35835984371964152 0.33045614064968309 0 0.35672120529774148 0.33684362974708199 0 0.35899626180536931 0.33430086833413269 0 0.35641212776078268 0.33381706902087938 0 0.35627338036128769 0.32705738058013539 0 0.35835984371964152 0.33045614064968309 0 0.35398721241228231 0.33095327650953749 0 0.35641212776078268 0.33381706902087938 0 0.35835984371964152 0.33045614064968309 0 0.35398721241228231 0.33095327650953749 0 0.35302683950207769 0.33602013814058929 0 0.35641212776078268 0.33381706902087938 0 0.35398721241228231 0.33095327650953749 0 0.35302683950207769 0.33602013814058929 0 0.35398721241228231 0.33095327650953749 0 0.34924685744035389 0.33249877391857741 0 0.35302683950207769 0.33602013814058929 0 0.35672120529774148 0.33684362974708199 0 0.35641212776078268 0.33381706902087938 0 0.35302683950207769 0.33602013814058929 0 0.34924685744035389 0.33249877391857741 0 0.34788509595764172 0.33882226599831611 0 0.35060422568955008 0.32587015674736058 0 0.34924685744035389 0.33249877391857741 0 0.34514221143703899 0.32919058107390442 0 0.35060422568955008 0.32587015674736058 0 0.35398721241228231 0.33095327650953749 0 0.34924685744035389 0.33249877391857741 0 0.34924685744035389 0.33249877391857741 0 0.34514221143703899 0.32919058107390442 0 0.34474234507332802 0.33433591834825649 0 0.34924685744035389 0.33249877391857741 0 0.34474234507332802 0.33433591834825649 0 0.34788509595764172 0.33882226599831611 0 0.34474234507332802 0.33433591834825649 0 0.34788509595764172 0.33882226599831611 0 0.34057592936449049 0.33809639891542392 0 0.35146565257524442 0.34420791440797271 0 0.34788509595764172 0.33882226599831611 0 0.34269927497721508 0.34493512072036142 0 0.35202203774268331 0.33965573310897551 0 0.35302683950207769 0.33602013814058929 0 0.34788509595764172 0.33882226599831611 0 0.35146565257524442 0.34420791440797271 0 0.35202203774268331 0.33965573310897551 0 0.34788509595764172 0.33882226599831611 0 0.34057592936449049 0.33809639891542392 0 0.33318390910610529 0.34358855052096038 0 0.34269927497721508 0.34493512072036142 0 0.34788509595764172 0.33882226599831611 0 0.34057592936449049 0.33809639891542392 0 0.34269927497721508 0.34493512072036142 0 0.34474234507332802 0.33433591834825649 0 0.34057592936449049 0.33809639891542392 0 0.33946855119551672 0.33096103471374028 0 0.34514221143703899 0.32919058107390442 0 0.34474234507332802 0.33433591834825649 0 0.33946855119551672 0.33096103471374028 0 0.34057592936449049 0.33809639891542392 0 0.33946855119551672 0.33096103471374028 0 0.33283637980140879 0.33469331179832718 0 0.33946855119551672 0.33096103471374028 0 0.33283637980140879 0.33469331179832718 0 0.33464693517381472 0.32630086361949601 0 0.33283637980140879 0.33469331179832718 0 0.33464693517381472 0.32630086361949601 0 0.3250964778074269 0.32978689602061512 0 0.34057592936449049 0.33809639891542392 0 0.33283637980140879 0.33469331179832718 0 0.33318390910610529 0.34358855052096038 0 0.33283637980140879 0.33469331179832718 0 0.33318390910610529 0.34358855052096038 0 0.32611481079287369 0.33974729713420021 0 0.34480088275632298 0.31606258733578418 0 0.33769186663180051 0.31814262317354819 0 0.34192449374142192 0.30753297203612773 0 0.34480088275632298 0.31606258733578418 0 0.33769186663180051 0.31814262317354819 0 0.34284551192874652 0.32364904383841531 0 0.33946855119551672 0.33096103471374028 0 0.34284551192874652 0.32364904383841531 0 0.33464693517381472 0.32630086361949601 0 0.33769186663180051 0.31814262317354819 0 0.34284551192874652 0.32364904383841531 0 0.33464693517381472 0.32630086361949601 0 0.34514221143703899 0.32919058107390442 0 0.33946855119551672 0.33096103471374028 0 0.34284551192874652 0.32364904383841531 0 0.33769186663180051 0.31814262317354819 0 0.33464693517381472 0.32630086361949601 0 0.32994282367798861 0.32057227217232959 0 0.33464693517381472 0.32630086361949601 0 0.32994282367798861 0.32057227217232959 0 0.3250964778074269 0.32978689602061512 0 0.33769186663180051 0.31814262317354819 0 0.32994282367798861 0.32057227217232959 0 0.32867162081685902 0.31028670060733149 0 0.32176892132522322 0.32006025561378759 0 0.31440941436971798 0.31242774502049953 0 0.32867162081685902 0.31028670060733149 0 0.32994282367798861 0.32057227217232959 0 0.32176892132522322 0.32006025561378759 0 0.32867162081685902 0.31028670060733149 0 0.32176892132522322 0.32006025561378759 0 0.31484893044661 0.32778579360563193 0 0.3250964778074269 0.32978689602061512 0 0.32994282367798861 0.32057227217232959 0 0.32176892132522322 0.32006025561378759 0 0.3250964778074269 0.32978689602061512 0 0.32176892132522322 0.32006025561378759 0 0.31484893044661 0.32778579360563193 0 0.31440941436971798 0.31242774502049953 0 0.32611481079287369 0.33974729713420021 0 0.3250964778074269 0.32978689602061512 0 0.31767498628904178 0.33862919533695518 0 0.32611481079287369 0.33974729713420021 0 0.31767498628904178 0.33862919533695518 0 0.32336406622478242 0.34852958887145069 0 0.33283637980140879 0.33469331179832718 0 0.32611481079287369 0.33974729713420021 0 0.3250964778074269 0.32978689602061512 0 0.31484893044661 0.32778579360563193 0 0.31767498628904178 0.33862919533695518 0 0.30654896287530792 0.34033791233229299 0 0.31484893044661 0.32778579360563193 0 0.3250964778074269 0.32978689602061512 0 0.31767498628904178 0.33862919533695518 0 0.31767498628904178 0.33862919533695518 0 0.31315570067328902 0.3464643712977632 0 0.32336406622478242 0.34852958887145069 0 0.31315570067328902 0.3464643712977632 0 0.31355388928080707 0.35546570062290778 0 0.32336406622478242 0.34852958887145069 0 0.32336406622478242 0.34852958887145069 0 0.33442175170730049 0.35218858713626039 0 0.32437013183195901 0.3602157298059272 0 0.31355388928080707 0.35546570062290778 0 0.32336406622478242 0.34852958887145069 0 0.32437013183195901 0.3602157298059272 0 0.33318390910610529 0.34358855052096038 0 0.32611481079287369 0.33974729713420021 0 0.32336406622478242 0.34852958887145069 0 0.35030182712711511 0.35130594720886232 0 0.33442175170730049 0.35218858713626039 0 0.33389487655237682 0.3658352592629312 0 0.33318390910610529 0.34358855052096038 0 0.32336406622478242 0.34852958887145069 0 0.33442175170730049 0.35218858713626039 0 0.35030182712711511 0.35130594720886232 0 0.33442175170730049 0.35218858713626039 0 0.34269927497721508 0.34493512072036142 0 0.33318390910610529 0.34358855052096038 0 0.33442175170730049 0.35218858713626039 0 0.34269927497721508 0.34493512072036142 0 0.34270248502322931 0.38427053755298168 0 0.35268350372385993 0.36328223724825232 0 0.33389487655237682 0.3658352592629312 0 0.33442175170730049 0.35218858713626039 0 0.33389487655237682 0.3658352592629312 0 0.32437013183195901 0.3602157298059272 0 0.31661607539452802 0.37905951313608538 0 0.33389487655237682 0.3658352592629312 0 0.32437013183195901 0.3602157298059272 0 0.31661607539452802 0.37905951313608538 0 0.31355388928080707 0.35546570062290778 0 0.32437013183195901 0.3602157298059272 0 0.31661607539452802 0.37905951313608538 0 0.31355388928080707 0.35546570062290778 0 0.31661607539452802 0.37905951313608538 0 0.31355388928080707 0.35546570062290778 0 0.30541822204374358 0.36584678197342768 0 0.2987730087010142 0.37934426936791982 0 0.31661607539452802 0.37905951313608538 0 0.30541822204374358 0.36584678197342768 0 0.30541822204374358 0.36584678197342768 0 0.30393955747459928 0.35096595789874813 0 0.29215410451095353 0.36543341035917859 0 0.2987730087010142 0.37934426936791982 0 0.30541822204374358 0.36584678197342768 0 0.29215410451095353 0.36543341035917859 0 0.31315570067328902 0.3464643712977632 0 0.30393955747459928 0.35096595789874813 0 0.30654896287530792 0.34033791233229299 0 0.31315570067328902 0.3464643712977632 0 0.31355388928080707 0.35546570062290778 0 0.30393955747459928 0.35096595789874813 0 0.31355388928080707 0.35546570062290778 0 0.30541822204374358 0.36584678197342768 0 0.30393955747459928 0.35096595789874813 0 0.30393955747459928 0.35096595789874813 0 0.29215410451095353 0.36543341035917859 0 0.30393955747459928 0.35096595789874813 0 0.29720735802849829 0.34424744790442102 0 0.29027641861796738 0.35164951467646482 0 0.30393955747459928 0.35096595789874813 0 0.29720735802849829 0.34424744790442102 0 0.30654896287530792 0.34033791233229299 0 0.29720735802849829 0.34424744790442102 0 0.29027641861796738 0.35164951467646482 0 0.28998304713239348 0.34105976447064218 0 0.30393955747459928 0.35096595789874813 0 0.29027641861796738 0.35164951467646482 0 0.29215410451095353 0.36543341035917859 0 0.29027641861796738 0.35164951467646482 0 0.29215410451095353 0.36543341035917859 0 0.27920137084664282 0.3573603676334649 0 0.29027641861796738 0.35164951467646482 0 0.27920137084664282 0.3573603676334649 0 0.28068773357058369 0.34198453751068081 0 0.29027641861796738 0.35164951467646482 0 0.28068773357058369 0.34198453751068081 0 0.28998304713239348 0.34105976447064218 0 0.28036865154730628 0.37990086281960789 0 0.29215410451095353 0.36543341035917859 0 0.27920137084664282 0.3573603676334649 0 0.28036865154730628 0.37990086281960789 0 0.2987730087010142 0.37934426936791982 0 0.29215410451095353 0.36543341035917859 0 0.28036865154730628 0.37990086281960789 0 0.29215410451095353 0.36543341035917859 0 0.28036865154730628 0.37990086281960789 0 0.27920137084664282 0.3573603676334649 0 0.26173146881309822 0.35734024057335978 0 0.28036865154730628 0.37990086281960789 0 0.26173146881309822 0.35734024057335978 0 0.28036865154730628 0.37990086281960789 0 0.26173146881309822 0.35734024057335978 0 0.2641967246118288 0.36596915937278562 0 0.27920137084664282 0.3573603676334649 0 0.27030047393074008 0.3474963096498429 0 0.26173146881309822 0.35734024057335978 0 0.27920137084664282 0.3573603676334649 0 0.27030047393074008 0.3474963096498429 0 0.28068773357058369 0.34198453751068081 0 0.2430942860788903 0.33477961832711151 0 0.26173146881309822 0.35734024057335978 0 0.27030047393074008 0.3474963096498429 0 0.26173146881309822 0.35734024057335978 0 0.26240083601839698 0.33727672217147331 0 0.23816107804029091 0.35120524212074949 0 0.26173146881309822 0.35734024057335978 0 0.2641967246118288 0.36596915937278562 0 0.23816107804029091 0.35120524212074949 0 0.2641967246118288 0.36596915937278562 0 0.2492643002430574 0.365916522193315 0 0.24311907173897271 0.36013203008567057 0 0.2641967246118288 0.36596915937278562 0 0.2492643002430574 0.365916522193315 0 0.25710864090743918 0.37145542319719338 0 0.2641967246118288 0.36596915937278562 0 0.2492643002430574 0.365916522193315 0 0.25383912625151372 0.37755129754335942 0 0.25710864090743918 0.37145542319719338 0 0.26350653962281989 0.38010735630523079 0 0.25710864090743918 0.37145542319719338 0 0.2641967246118288 0.36596915937278562 0 0.2484846271056145 0.31037308609574782 0 0.25508783524565293 0.32209220201309929 0 0.26836904206483531 0.31075971332937607 0 0.25508783524565293 0.32209220201309929 0 0.26240083601839698 0.33727672217147331 0 0.26677092012209491 0.32204036282613252 0 0.25508783524565293 0.32209220201309929 0 0.26677092012209491 0.32204036282613252 0 0.26836904206483531 0.31075971332937607 0 0.2430942860788903 0.33477961832711151 0 0.25508783524565293 0.32209220201309929 0 0.26240083601839698 0.33727672217147331 0 0.2430942860788903 0.33477961832711151 0 0.26173146881309822 0.35734024057335978 0 0.26240083601839698 0.33727672217147331 0 0.26240083601839698 0.33727672217147331 0 0.27184092000699639 0.33891315949469752 0 0.27388917516664008 0.32964775149744319 0 0.26240083601839698 0.33727672217147331 0 0.27388917516664008 0.32964775149744319 0 0.26677092012209491 0.32204036282613252 0 0.27030047393074008 0.3474963096498429 0 0.26240083601839698 0.33727672217147331 0 0.27184092000699639 0.33891315949469752 0 0.27030047393074008 0.3474963096498429 0 0.27184092000699639 0.33891315949469752 0 0.28068773357058369 0.34198453751068081 0 0.27184092000699639 0.33891315949469752 0 0.28068773357058369 0.34198453751068081 0 0.27388917516664008 0.32964775149744319 0 0.28068773357058369 0.34198453751068081 0 0.27388917516664008 0.32964775149744319 0 0.28570907475377572 0.33188311037056872 0 0.27388917516664008 0.32964775149744319 0 0.26677092012209491 0.32204036282613252 0 0.28178409254690689 0.31684790712797722 0 0.27388917516664008 0.32964775149744319 0 0.28178409254690689 0.31684790712797722 0 0.28570907475377572 0.33188311037056872 0 0.26677092012209491 0.32204036282613252 0 0.28178409254690689 0.31684790712797722 0 0.26836904206483531 0.31075971332937607 0 0.28178409254690689 0.31684790712797722 0 0.29262159606390598 0.32453461147271162 0 0.29660332646403359 0.30785121346786842 0 0.28178409254690689 0.31684790712797722 0 0.29262159606390598 0.32453461147271162 0 0.28570907475377572 0.33188311037056872 0 0.28068773357058369 0.34198453751068081 0 0.28570907475377572 0.33188311037056872 0 0.28998304713239348 0.34105976447064218 0 0.29262159606390598 0.32453461147271162 0 0.28570907475377572 0.33188311037056872 0 0.29603465069114282 0.33553421189107618 0 0.29720735802849829 0.34424744790442102 0 0.29603465069114282 0.33553421189107618 0 0.28998304713239348 0.34105976447064218 0 0.28570907475377572 0.33188311037056872 0 0.29603465069114282 0.33553421189107618 0 0.28998304713239348 0.34105976447064218 0 0.29720735802849829 0.34424744790442102 0 0.29603465069114282 0.33553421189107618 0 0.30654896287530792 0.34033791233229299 0 0.29603465069114282 0.33553421189107618 0 0.30654896287530792 0.34033791233229299 0 0.30445412428221041 0.32558903425911379 0 0.29262159606390598 0.32453461147271162 0 0.29603465069114282 0.33553421189107618 0 0.30445412428221041 0.32558903425911379 0 0.31484893044661 0.32778579360563193 0 0.30654896287530792 0.34033791233229299 0 0.30445412428221041 0.32558903425911379 0 0.31767498628904178 0.33862919533695518 0 0.31315570067328902 0.3464643712977632 0 0.30654896287530792 0.34033791233229299 0 0.30445412428221041 0.32558903425911379 0 0.29660332646403359 0.30785121346786842 0 0.31440941436971798 0.31242774502049953 0 0.29262159606390598 0.32453461147271162 0 0.30445412428221041 0.32558903425911379 0 0.29660332646403359 0.30785121346786842 0 0.31484893044661 0.32778579360563193 0 0.30445412428221041 0.32558903425911379 0 0.31440941436971798 0.31242774502049953 0 0.30822946874662033 0.29998271616579031 0 0.29660332646403359 0.30785121346786842 0 0.31440941436971798 0.31242774502049953 0 0.30822946874662033 0.29998271616579031 0 0.30055108247350393 0.28416894361273021 0 0.29660332646403359 0.30785121346786842 0 0.30822946874662033 0.29998271616579031 0 0.30055108247350393 0.28416894361273021 0 0.32109763140443309 0.29547610107375327 0 0.30055108247350393 0.28416894361273021 0 0.29660332646403359 0.30785121346786842 0 0.27430616976337108 0.29100628718303567 0 0.30055108247350393 0.28416894361273021 0 0.27430616976337108 0.29100628718303567 0 0.28443506245096839 0.27205148705280008 0 0.30055108247350393 0.28416894361273021 0 0.27430616976337108 0.29100628718303567 0 0.28178409254690689 0.31684790712797722 0 0.29660332646403359 0.30785121346786842 0 0.27430616976337108 0.29100628718303567 0 0.28178409254690689 0.31684790712797722 0 0.26836904206483531 0.31075971332937607 0 0.27430616976337108 0.29100628718303567 0 0.28178409254690689 0.31684790712797722 0 0.27430616976337108 0.29100628718303567 0 0.27430616976337108 0.29100628718303567 0 0.25121587924780342 0.29702178630611242 0 0.27430616976337108 0.29100628718303567 0 0.25953152444998728 0.28294166139542631 0 0.25121587924780342 0.29702178630611242 0 0.26836904206483531 0.31075971332937607 0 0.27430616976337108 0.29100628718303567 0 0.25121587924780342 0.29702178630611242 0 0.26836904206483531 0.31075971332937607 0 0.25121587924780342 0.29702178630611242 0 0.2484846271056145 0.31037308609574782 0 0.26836904206483531 0.31075971332937607 0 0.25121587924780342 0.29702178630611242 0 0.25102838231212438 0.26850893423506528 0 0.26790857605335527 0.26889798384773289 0 0.26221447651104962 0.2479993693513689 0 0.26790857605335527 0.26889798384773289 0 0.26221447651104962 0.2479993693513689 0 0.25953152444998728 0.28294166139542631 0 0.25102838231212438 0.26850893423506528 0 0.26790857605335527 0.26889798384773289 0 0.27430616976337108 0.29100628718303567 0 0.26790857605335527 0.26889798384773289 0 0.28443506245096839 0.27205148705280008 0 0.27430616976337108 0.29100628718303567 0 0.25953152444998728 0.28294166139542631 0 0.26790857605335527 0.26889798384773289 0 0.27430616976337108 0.29100628718303567 0 0.26790857605335527 0.26889798384773289 0 0.26790857605335527 0.26889798384773289 0 0.28119448123381058 0.25405304303149878 0 0.26221447651104962 0.2479993693513689 0 0.26790857605335527 0.26889798384773289 0 0.28119448123381058 0.25405304303149878 0 0.28443506245096839 0.27205148705280008 0 0.28119448123381058 0.25405304303149878 0 0.28443506245096839 0.27205148705280008 0 0.2982150027308012 0.26213117758900317 0 0.28119448123381058 0.25405304303149878 0 0.2982150027308012 0.26213117758900317 0 0.30328699804120918 0.24394477185791469 0 0.30055108247350393 0.28416894361273021 0 0.28443506245096839 0.27205148705280008 0 0.2982150027308012 0.26213117758900317 0 0.30055108247350393 0.28416894361273021 0 0.2982150027308012 0.26213117758900317 0 0.31879452400631653 0.25919465198291952 0 0.2982150027308012 0.26213117758900317 0 0.31879452400631653 0.25919465198291952 0 0.30328699804120918 0.24394477185791469 0 0.31879452400631653 0.25919465198291952 0 0.33092809789354199 0.24744869965648561 0 0.31845456220733243 0.24449663650262579 0 0.31879452400631653 0.25919465198291952 0 0.33565265393095528 0.25675142138279861 0 0.33982225619875311 0.26765994074234428 0 0.31879452400631653 0.25919465198291952 0 0.33982225619875311 0.26765994074234428 0 0.31879452400631653 0.25919465198291952 0 0.33565265393095528 0.25675142138279861 0 0.33092809789354199 0.24744869965648561 0 0.33565265393095528 0.25675142138279861 0 0.33982225619875311 0.26765994074234428 0 0.34536281311255052 0.25941060478944128 0 0.33565265393095528 0.25675142138279861 0 0.3433555784436142 0.25004320974280247 0 0.33092809789354199 0.24744869965648561 0 0.33565265393095528 0.25675142138279861 0 0.3433555784436142 0.25004320974280247 0 0.34536281311255052 0.25941060478944128 0 0.31879452400631653 0.25919465198291952 0 0.33982225619875311 0.26765994074234428 0 0.32679599518363661 0.27733160004242491 0 0.33982225619875311 0.26765994074234428 0 0.32679599518363661 0.27733160004242491 0 0.34056182851336592 0.28206143899133118 0 0.30055108247350393 0.28416894361273021 0 0.32679599518363661 0.27733160004242491 0 0.30055108247350393 0.28416894361273021 0 0.31879452400631653 0.25919465198291952 0 0.32679599518363661 0.27733160004242491 0 0.32679599518363661 0.27733160004242491 0 0.32109763140443309 0.29547610107375327 0 0.33248404658197278 0.28876668272462419 0 0.30055108247350393 0.28416894361273021 0 0.32679599518363661 0.27733160004242491 0 0.32109763140443309 0.29547610107375327 0 0.32109763140443309 0.29547610107375327 0 0.31440941436971798 0.31242774502049953 0 0.32867162081685902 0.31028670060733149 0 0.30822946874662033 0.29998271616579031 0 0.32109763140443309 0.29547610107375327 0 0.31440941436971798 0.31242774502049953 0 0.32867162081685902 0.31028670060733149 0 0.33472549883669622 0.29791121211074773 0 0.34192449374142192 0.30753297203612773 0 0.32109763140443309 0.29547610107375327 0 0.32867162081685902 0.31028670060733149 0 0.33472549883669622 0.29791121211074773 0 0.33472549883669622 0.29791121211074773 0 0.34281583705185747 0.29966479619329672 0 0.34192449374142192 0.30753297203612773 0 0.33769186663180051 0.31814262317354819 0 0.32867162081685902 0.31028670060733149 0 0.34192449374142192 0.30753297203612773 0 0.32679599518363661 0.27733160004242491 0 0.33248404658197278 0.28876668272462419 0 0.34056182851336592 0.28206143899133118 0 0.32109763140443309 0.29547610107375327 0 0.33472549883669622 0.29791121211074773 0 0.33248404658197278 0.28876668272462419 0 0.33472549883669622 0.29791121211074773 0 0.33248404658197278 0.28876668272462419 0 0.34417327957572558 0.29277050597204329 0 0.33472549883669622 0.29791121211074773 0 0.34281583705185747 0.29966479619329672 0 0.34417327957572558 0.29277050597204329 0 0.33248404658197278 0.28876668272462419 0 0.34056182851336592 0.28206143899133118 0 0.34417327957572558 0.29277050597204329 0 0.34056182851336592 0.28206143899133118 0 0.34979868535227071 0.28728326233729501 0 0.34417327957572558 0.29277050597204329 0 0.34056182851336592 0.28206143899133118 0 0.34979868535227071 0.28728326233729501 0 0.35183199075491411 0.27966461044832719 0 0.34417327957572558 0.29277050597204329 0 0.35334053836337709 0.29410458558147129 0 0.34972900846361488 0.30172704795696642 0 0.34979868535227071 0.28728326233729501 0 0.34417327957572558 0.29277050597204329 0 0.35334053836337709 0.29410458558147129 0 0.34979868535227071 0.28728326233729501 0 0.35334053836337709 0.29410458558147129 0 0.35722235408413222 0.28831366276426512 0 0.35334053836337709 0.29410458558147129 0 0.35826071325737319 0.3003277240158499 0 0.36091512844171192 0.29433704443458902 0 0.35334053836337709 0.29410458558147129 0 0.35722235408413222 0.28831366276426512 0 0.36091512844171192 0.29433704443458902 0 0.34979868535227071 0.28728326233729501 0 0.35722235408413222 0.28831366276426512 0 0.35183199075491411 0.27966461044832719 0 0.35722235408413222 0.28831366276426512 0 0.36152496379752869 0.28359539021876212 0 0.35183199075491411 0.27966461044832719 0 0.34480088275632298 0.31606258733578418 0 0.34192449374142192 0.30753297203612773 0 0.35090510471213721 0.31152713165908658 0 0.34192449374142192 0.30753297203612773 0 0.35090510471213721 0.31152713165908658 0 0.34972900846361488 0.30172704795696642 0 0.34281583705185747 0.29966479619329672 0 0.34417327957572558 0.29277050597204329 0 0.34972900846361488 0.30172704795696642 0 0.34281583705185747 0.29966479619329672 0 0.34192449374142192 0.30753297203612773 0 0.34972900846361488 0.30172704795696642 0 0.34972900846361488 0.30172704795696642 0 0.35826071325737319 0.3003277240158499 0 0.35721607615581658 0.30656573559573969 0 0.35334053836337709 0.29410458558147129 0 0.34972900846361488 0.30172704795696642 0 0.35826071325737319 0.3003277240158499 0 0.35090510471213721 0.31152713165908658 0 0.34972900846361488 0.30172704795696642 0 0.35721607615581658 0.30656573559573969 0 0.35878641637012221 0.31305233625990619 0 0.35090510471213721 0.31152713165908658 0 0.35721607615581658 0.30656573559573969 0 0.37014896644917339 0.316543878568457 0 0.37763341047385651 0.29079382019339128 0 0.37014896644917339 0.316543878568457 0 0.37108481648816682 0.30013899891886681 0 0.36845835323010317 0.30596496181531441 0 0.37014896644917339 0.316543878568457 0 0.37763341047385651 0.29079382019339128 0 0.37695808612291098 0.31120865645681561 0 0.37014896644917339 0.316543878568457 0 0.37108481648816682 0.30013899891886681 0 0.37763341047385651 0.29079382019339128 0 0.36630954626425261 0.31087512405144152 0 0.36228941999803421 0.30896529616435242 0 0.36543096483439103 0.3064802843427199 0 0.36331333565659901 0.31283202127524651 0 0.36630954626425261 0.31087512405144152 0 0.36228941999803421 0.30896529616435242 0 0.36331333565659901 0.31283202127524651 0 0.35878641637012221 0.31305233625990619 0 0.36228941999803421 0.30896529616435242 0 0.35878641637012221 0.31305233625990619 0 0.35721607615581658 0.30656573559573969 0 0.36228941999803421 0.30896529616435242 0 0.35721607615581658 0.30656573559573969 0 0.36228941999803421 0.30896529616435242 0 0.36268018070702418 0.30398627546106088 0 0.36630954626425261 0.31087512405144152 0 0.36543096483439103 0.3064802843427199 0 0.36845835323010317 0.30596496181531441 0 0.36228941999803421 0.30896529616435242 0 0.36543096483439103 0.3064802843427199 0 0.36268018070702418 0.30398627546106088 0 0.36543096483439103 0.3064802843427199 0 0.36607900901995372 0.30349396637540749 0 0.36845835323010317 0.30596496181531441 0 0.36607900901995372 0.30349396637540749 0 0.36268018070702418 0.30398627546106088 0 0.36558719123160882 0.29969948119116269 0 0.36607900901995372 0.30349396637540749 0 0.36558719123160882 0.29969948119116269 0 0.36823835509664099 0.30133882906677939 0 0.36543096483439103 0.3064802843427199 0 0.36607900901995372 0.30349396637540749 0 0.36268018070702418 0.30398627546106088 0 0.35826071325737319 0.3003277240158499 0 0.35721607615581658 0.30656573559573969 0 0.36268018070702418 0.30398627546106088 0 0.35826071325737319 0.3003277240158499 0 0.36268018070702418 0.30398627546106088 0 0.36558719123160882 0.29969948119116269 0 0.35826071325737319 0.3003277240158499 0 0.36558719123160882 0.29969948119116269 0 0.36091512844171192 0.29433704443458902 0 0.36871223371641282 0.29817542324200702 0 0.37108481648816682 0.30013899891886681 0 0.37014933742706652 0.29575476169949788 0 0.36558719123160882 0.29969948119116269 0 0.36871223371641282 0.29817542324200702 0 0.36734652779664789 0.29411680932906442 0 0.36558719123160882 0.29969948119116269 0 0.36871223371641282 0.29817542324200702 0 0.36823835509664099 0.30133882906677939 0 0.36871223371641282 0.29817542324200702 0 0.37108481648816682 0.30013899891886681 0 0.36823835509664099 0.30133882906677939 0 0.37108481648816682 0.30013899891886681 0 0.36823835509664099 0.30133882906677939 0 0.36845835323010317 0.30596496181531441 0 0.36607900901995372 0.30349396637540749 0 0.36823835509664099 0.30133882906677939 0 0.36845835323010317 0.30596496181531441 0 0.37014896644917339 0.316543878568457 0 0.36630954626425261 0.31087512405144152 0 0.36845835323010317 0.30596496181531441 0 0.36812955944888692 0.28419813691800921 0 0.36084998839118931 0.2761252295017701 0 0.37969218042614078 0.28371066929036243 0 0.36152496379752869 0.28359539021876212 0 0.36812955944888692 0.28419813691800921 0 0.36084998839118931 0.2761252295017701 0 0.36414496955441777 0.28941104037434479 0 0.36911771796651938 0.28986917351547109 0 0.36812955944888692 0.28419813691800921 0 0.36152496379752869 0.28359539021876212 0 0.36414496955441777 0.28941104037434479 0 0.36812955944888692 0.28419813691800921 0 0.35722235408413222 0.28831366276426512 0 0.36152496379752869 0.28359539021876212 0 0.36414496955441777 0.28941104037434479 0 0.35722235408413222 0.28831366276426512 0 0.36091512844171192 0.29433704443458902 0 0.36414496955441777 0.28941104037434479 0 0.36558719123160882 0.29969948119116269 0 0.36091512844171192 0.29433704443458902 0 0.36734652779664789 0.29411680932906442 0 0.36091512844171192 0.29433704443458902 0 0.36414496955441777 0.28941104037434479 0 0.36734652779664789 0.29411680932906442 0 0.36414496955441777 0.28941104037434479 0 0.36911771796651938 0.28986917351547109 0 0.36734652779664789 0.29411680932906442 0 0.36911771796651938 0.28986917351547109 0 0.37026464520563152 0.29279186409727531 0 0.36734652779664789 0.29411680932906442 0 0.37108481648816682 0.30013899891886681 0 0.37306860395079622 0.29341917559567809 0 0.37763341047385651 0.29079382019339128 0 0.36911771796651938 0.28986917351547109 0 0.37026464520563152 0.29279186409727531 0 0.37237913536365119 0.29056320862162688 0 0.36871223371641282 0.29817542324200702 0 0.36734652779664789 0.29411680932906442 0 0.37014933742706652 0.29575476169949788 0 0.37026464520563152 0.29279186409727531 0 0.36734652779664789 0.29411680932906442 0 0.37014933742706652 0.29575476169949788 0 0.37108481648816682 0.30013899891886681 0 0.37014933742706652 0.29575476169949788 0 0.37306860395079622 0.29341917559567809 0 0.37026464520563152 0.29279186409727531 0 0.37014933742706652 0.29575476169949788 0 0.37306860395079622 0.29341917559567809 0 0.36911771796651938 0.28986917351547109 0 0.37237913536365119 0.29056320862162688 0 0.37333201972158658 0.2878654242033048 0 0.37306860395079622 0.29341917559567809 0 0.37237913536365119 0.29056320862162688 0 0.37763341047385651 0.29079382019339128 0 0.37237913536365119 0.29056320862162688 0 0.37333201972158658 0.2878654242033048 0 0.37763341047385651 0.29079382019339128 0 0.37026464520563152 0.29279186409727531 0 0.37306860395079622 0.29341917559567809 0 0.37237913536365119 0.29056320862162688 0 0.37333201972158658 0.2878654242033048 0 0.36812955944888692 0.28419813691800921 0 0.37969218042614078 0.28371066929036243 0 0.36911771796651938 0.28986917351547109 0 0.37333201972158658 0.2878654242033048 0 0.36812955944888692 0.28419813691800921 0 0.36084998839118931 0.2761252295017701 0 0.37969218042614078 0.28371066929036243 0 0.36084998839118931 0.2761252295017701 0 0.37017340450925651 0.266060206293324 0 0.3539366042426153 0.26554047293381039 0 0.36084998839118931 0.2761252295017701 0 0.38460708535355081 0.26680105137204091 0 0.36084998839118931 0.2761252295017701 0 0.37017340450925651 0.266060206293324 0 0.38460708535355081 0.26680105137204091 0 0.3539366042426153 0.26554047293381039 0 0.38129994004966872 0.25577407136566988 0 0.37169426656027921 0.24972740256563611 0 0.37017340450925651 0.266060206293324 0 0.3539366042426153 0.26554047293381039 0 0.38129994004966872 0.25577407136566988 0 0.3539366042426153 0.26554047293381039 0 0.37169426656027921 0.24972740256563611 0 0.36205361842742478 0.24882498742118489 0 0.3539366042426153 0.26554047293381039 0 0.38129994004966872 0.25577407136566988 0 0.3539366042426153 0.26554047293381039 0 0.35175757775775729 0.2532797976346674 0 0.36205361842742478 0.24882498742118489 0 0.3433555784436142 0.25004320974280247 0 0.35175757775775729 0.2532797976346674 0 0.34536281311255052 0.25941060478944128 0 0.33982225619875311 0.26765994074234428 0 0.3539366042426153 0.26554047293381039 0 0.34536281311255052 0.25941060478944128 0 0.3539366042426153 0.26554047293381039 0 0.35175757775775729 0.2532797976346674 0 0.34536281311255052 0.25941060478944128 0 0.33982225619875311 0.26765994074234428 0 0.36084998839118931 0.2761252295017701 0 0.33982225619875311 0.26765994074234428 0 0.36084998839118931 0.2761252295017701 0 0.3539366042426153 0.26554047293381039 0 0.33982225619875311 0.26765994074234428 0 0.36084998839118931 0.2761252295017701 0 0.35183199075491411 0.27966461044832719 0 0.33982225619875311 0.26765994074234428 0 0.34056182851336592 0.28206143899133118 0 0.35183199075491411 0.27966461044832719 0 0.36152496379752869 0.28359539021876212 0 0.36084998839118931 0.2761252295017701 0 0.35183199075491411 0.27966461044832719 0 0.36084998839118931 0.2761252295017701 0 0.35183199075491411 0.27966461044832719 0 0.39945440726228237 0.27350419034528239 0 0.38460708535355081 0.26680105137204091 0 0.40768566828284042 0.25774317622192677 0 0.39945440726228237 0.27350419034528239 0 0.4092682188351508 0.26816031590002881 0 0.40768566828284042 0.25774317622192677 0 0.39945440726228237 0.27350419034528239 0 0.38460708535355081 0.26680105137204091 0 0.3904751567012596 0.27530993325585928 0 0.39945440726228237 0.27350419034528239 0 0.3904751567012596 0.27530993325585928 0 0.39488150240831521 0.28173053148540511 0 0.39945440726228237 0.27350419034528239 0 0.40366985246608472 0.28285995447659418 0 0.40929088926209078 0.279020096056181 0 0.39945440726228237 0.27350419034528239 0 0.4092682188351508 0.26816031590002881 0 0.40929088926209078 0.279020096056181 0 0.39945440726228237 0.27350419034528239 0 0.39488150240831521 0.28173053148540511 0 0.40366985246608472 0.28285995447659418 0 0.38783836144724232 0.2556839199238965 0 0.38129994004966872 0.25577407136566988 0 0.40866327585672191 0.24600766979752939 0 0.38460708535355081 0.26680105137204091 0 0.40768566828284042 0.25774317622192677 0 0.38783836144724232 0.2556839199238965 0 0.40768566828284042 0.25774317622192677 0 0.40866327585672191 0.24600766979752939 0 0.38783836144724232 0.2556839199238965 0 0.38460708535355081 0.26680105137204091 0 0.40768566828284042 0.25774317622192677 0 0.38129994004966872 0.25577407136566988 0 0.40866327585672191 0.24600766979752939 0 0.38783836144724232 0.2556839199238965 0 0.38129994004966872 0.25577407136566988 0 0.38460708535355081 0.26680105137204091 0 0.38783836144724232 0.2556839199238965 0 0.38460708535355081 0.26680105137204091 0 0.38129994004966872 0.25577407136566988 0 0.37169426656027921 0.24972740256563611 0 0.38106847269238292 0.24536179082341181 0 0.37017340450925651 0.266060206293324 0 0.38129994004966872 0.25577407136566988 0 0.38460708535355081 0.26680105137204091 0 0.36084998839118931 0.2761252295017701 0 0.38460708535355081 0.26680105137204091 0 0.37969218042614078 0.28371066929036243 0 0.38460708535355081 0.26680105137204091 0 0.3904751567012596 0.27530993325585928 0 0.37969218042614078 0.28371066929036243 0 0.38460708535355081 0.26680105137204091 0 0.37969218042614078 0.28371066929036243 0 0.3904751567012596 0.27530993325585928 0 0.37969218042614078 0.28371066929036243 0 0.39488150240831521 0.28173053148540511 0 0.37969218042614078 0.28371066929036243 0 0.37763341047385651 0.29079382019339128 0 0.40259214502479168 0.29292967641552992 0 0.37763341047385651 0.29079382019339128 0 0.4027243230010164 0.30147339632314252 0 0.37969218042614078 0.28371066929036243 0 0.37763341047385651 0.29079382019339128 0 0.37333201972158658 0.2878654242033048 0 0.37969218042614078 0.28371066929036243 0 0.37763341047385651 0.29079382019339128 0 0.37763341047385651 0.29079382019339128 0 0.37695808612291098 0.31120865645681561 0 0.38599374742651271 0.30414296713942529 0 0.37763341047385651 0.29079382019339128 0 0.38599374742651271 0.30414296713942529 0 0.4027243230010164 0.30147339632314252 0 0.37695808612291098 0.31120865645681561 0 0.38599374742651271 0.30414296713942529 0 0.38754735899376969 0.31282171123814728 0 0.38599374742651271 0.30414296713942529 0 0.4027243230010164 0.30147339632314252 0 0.38754735899376969 0.31282171123814728 0 0.4027243230010164 0.30147339632314252 0 0.3956366020903157 0.32248231082130752 0 0.38754735899376969 0.31282171123814728 0 0.37969218042614078 0.28371066929036243 0 0.40259214502479168 0.29292967641552992 0 0.37969218042614078 0.28371066929036243 0 0.39488150240831521 0.28173053148540511 0 0.40259214502479168 0.29292967641552992 0 0.37763341047385651 0.29079382019339128 0 0.4027243230010164 0.30147339632314252 0 0.40259214502479168 0.29292967641552992 0 0.4027243230010164 0.30147339632314252 0 0.40259214502479168 0.29292967641552992 0 0.41139710839419091 0.29189735433941028 0 0.40259214502479168 0.29292967641552992 0 0.40366985246608472 0.28285995447659418 0 0.41139710839419091 0.29189735433941028 0 0.39488150240831521 0.28173053148540511 0 0.40259214502479168 0.29292967641552992 0 0.40366985246608472 0.28285995447659418 0 0.40366985246608472 0.28285995447659418 0 0.41139710839419091 0.29189735433941028 0 0.40929088926209078 0.279020096056181 0 0.41139710839419091 0.29189735433941028 0 0.42781523552817591 0.31215297245289481 0 0.42226183937510081 0.28327127115801121 0 0.41139710839419091 0.29189735433941028 0 0.42226183937510081 0.28327127115801121 0 0.40929088926209078 0.279020096056181 0 0.4027243230010164 0.30147339632314252 0 0.41139710839419091 0.29189735433941028 0 0.42781523552817591 0.31215297245289481 0 0.4027243230010164 0.30147339632314252 0 0.42781523552817591 0.31215297245289481 0 0.41357021602424721 0.32279281759874212 0 0.4027243230010164 0.30147339632314252 0 0.42781523552817591 0.31215297245289481 0 0.42781523552817591 0.31215297245289481 0 0.42226183937510081 0.28327127115801121 0 0.42781523552817591 0.31215297245289481 0 0.42226183937510081 0.28327127115801121 0 0.44120727567718632 0.28746005308771089 0 0.42226183937510081 0.28327127115801121 0 0.43023391716603732 0.27040224467912161 0 0.44120727567718632 0.28746005308771089 0 0.42226183937510081 0.28327127115801121 0 0.43023391716603732 0.27040224467912161 0 0.41664462513020523 0.25422696758609492 0 0.43023391716603732 0.27040224467912161 0 0.43692075095235122 0.26433370861442979 0 0.44373838257505849 0.27050131303512348 0 0.42226183937510081 0.28327127115801121 0 0.4092682188351508 0.26816031590002881 0 0.41664462513020523 0.25422696758609492 0 0.42226183937510081 0.28327127115801121 0 0.41664462513020523 0.25422696758609492 0 0.42226183937510081 0.28327127115801121 0 0.4092682188351508 0.26816031590002881 0 0.40929088926209078 0.279020096056181 0 0.40768566828284042 0.25774317622192677 0 0.41664462513020523 0.25422696758609492 0 0.40866327585672191 0.24600766979752939 0 0.40768566828284042 0.25774317622192677 0 0.41664462513020523 0.25422696758609492 0 0.4092682188351508 0.26816031590002881 0 0.40768566828284042 0.25774317622192677 0 0.41664462513020523 0.25422696758609492 0 0.42749544465446981 0.25699566217507153 0 0.45166362976964691 0.25106894999712381 0 0.43076425121212841 0.2486853010718087 0 0.41664462513020523 0.25422696758609492 0 0.42749544465446981 0.25699566217507153 0 0.43076425121212841 0.2486853010718087 0 0.43023391716603732 0.27040224467912161 0 0.41664462513020523 0.25422696758609492 0 0.42749544465446981 0.25699566217507153 0 0.41664462513020523 0.25422696758609492 0 0.43076425121212841 0.2486853010718087 0 0.42749544465446981 0.25699566217507153 0 0.43692075095235122 0.26433370861442979 0 0.44456450099631911 0.26043047377218492 0 0.43023391716603732 0.27040224467912161 0 0.42749544465446981 0.25699566217507153 0 0.43692075095235122 0.26433370861442979 0 0.42749544465446981 0.25699566217507153 0 0.45166362976964691 0.25106894999712381 0 0.42749544465446981 0.25699566217507153 0 0.44456450099631911 0.26043047377218492 0 0.45166362976964691 0.25106894999712381 0 0.43692075095235122 0.26433370861442979 0 0.44456450099631911 0.26043047377218492 0 0.44373838257505849 0.27050131303512348 0 0.44456450099631911 0.26043047377218492 0 0.44373838257505849 0.27050131303512348 0 0.45508065662597141 0.26402805921732958 0 0.44456450099631911 0.26043047377218492 0 0.45166362976964691 0.25106894999712381 0 0.45508065662597141 0.26402805921732958 0 0.44373838257505849 0.27050131303512348 0 0.45472874274978531 0.27586911806656422 0 0.44120727567718632 0.28746005308771089 0 0.43023391716603732 0.27040224467912161 0 0.44373838257505849 0.27050131303512348 0 0.44120727567718632 0.28746005308771089 0 0.44373838257505849 0.27050131303512348 0 0.45472874274978531 0.27586911806656422 0 0.45508065662597141 0.26402805921732958 0 0.45472874274978531 0.27586911806656422 0 0.46665275363318931 0.27127710252775639 0 0.46192346945889701 0.28817835066990299 0 0.45472874274978531 0.27586911806656422 0 0.46665275363318931 0.27127710252775639 0 0.45508065662597141 0.26402805921732958 0 0.45166362976964691 0.25106894999712381 0 0.46652816171208539 0.25830808769848879 0 0.47583181488482379 0.2451422378191761 0 0.45166362976964691 0.25106894999712381 0 0.45508065662597141 0.26402805921732958 0 0.46652816171208539 0.25830808769848879 0 0.46665275363318931 0.27127710252775639 0 0.45508065662597141 0.26402805921732958 0 0.46652816171208539 0.25830808769848879 0 0.46665275363318931 0.27127710252775639 0 0.46652816171208539 0.25830808769848879 0 0.48341195364679568 0.26002408893105827 0 0.46652816171208539 0.25830808769848879 0 0.48341195364679568 0.26002408893105827 0 0.47583181488482379 0.2451422378191761 0 0.46665275363318931 0.27127710252775639 0 0.48341195364679568 0.26002408893105827 0 0.48138518434246891 0.28130646820503019 0 0.46665275363318931 0.27127710252775639 0 0.48138518434246891 0.28130646820503019 0 0.46192346945889701 0.28817835066990299 0 0.5 0.26671351767664991 0 0.5 0.29421150971207138 0 0.48138518434246891 0.28130646820503019 0 0.48341195364679568 0.26002408893105827 0 0.5 0.26671351767664991 0 0.48138518434246891 0.28130646820503019 0 0.48341195364679568 0.26002408893105827 0 0.5 0.26671351767664991 0 0.50000000000000067 0.2392155256412283 0 0.5 0.29421150971207138 0 0.47556093647901088 0.30733800586058863 0 0.5 0.32170950174749302 0 0.5 0.29421150971207138 0 0.48138518434246891 0.28130646820503019 0 0.47556093647901088 0.30733800586058863 0 0.48138518434246891 0.28130646820503019 0 0.47556093647901088 0.30733800586058863 0 0.46192346945889701 0.28817835066990299 0 0.47556093647901088 0.30733800586058863 0 0.45214514511688908 0.30370412902975941 0 0.45421880844117613 0.32339126307769928 0 0.47556093647901088 0.30733800586058863 0 0.46192346945889701 0.28817835066990299 0 0.45214514511688908 0.30370412902975941 0 0.46192346945889701 0.28817835066990299 0 0.44120727567718632 0.28746005308771089 0 0.45214514511688908 0.30370412902975941 0 0.45472874274978531 0.27586911806656422 0 0.46192346945889701 0.28817835066990299 0 0.44120727567718632 0.28746005308771089 0 0.42781523552817591 0.31215297245289481 0 0.44120727567718632 0.28746005308771089 0 0.45214514511688908 0.30370412902975941 0 0.42781523552817591 0.31215297245289481 0 0.45421880844117613 0.32339126307769928 0 0.43298436918619881 0.33903622913929549 0 0.42781523552817591 0.31215297245289481 0 0.45214514511688908 0.30370412902975941 0 0.45421880844117613 0.32339126307769928 0 0.42781523552817591 0.31215297245289481 0 0.45421880844117613 0.32339126307769928 0 0.45421880844117613 0.32339126307769928 0 0.45970761232660212 0.34692044601787542 0 0.43298436918619881 0.33903622913929549 0 0.45421880844117613 0.32339126307769928 0 0.48062238135417568 0.33462955370250519 0 0.45421880844117613 0.32339126307769928 0 0.48062238135417568 0.33462955370250519 0 0.45970761232660212 0.34692044601787542 0 0.47556093647901088 0.30733800586058863 0 0.45421880844117613 0.32339126307769928 0 0.48062238135417568 0.33462955370250519 0 0.48062238135417568 0.33462955370250519 0 0.5 0.32170950174749302 0 0.5 0.34920749378291471 0 0.47556093647901088 0.30733800586058863 0 0.48062238135417568 0.33462955370250519 0 0.5 0.32170950174749302 0 0.5 0.34920749378291471 0 0.48254603458521478 0.3522402998402685 0 0.5 0.37670548581833618 0 0.48062238135417568 0.33462955370250519 0 0.5 0.34920749378291471 0 0.48254603458521478 0.3522402998402685 0 0.48254603458521478 0.3522402998402685 0 0.46972057754862501 0.36630584452178799 0 0.45970761232660212 0.34692044601787542 0 0.48062238135417568 0.33462955370250519 0 0.48254603458521478 0.3522402998402685 0 0.45970761232660212 0.34692044601787542 0 0.48254603458521478 0.3522402998402685 0 0.46972057754862501 0.36630584452178799 0 0.5 0.37670548581833618 0 0.46972057754862501 0.36630584452178799 0 0.43815350284422228 0.36591948582569622 0 0.45848938469160699 0.38276388730883248 0 0.46972057754862501 0.36630584452178799 0 0.45970761232660212 0.34692044601787542 0 0.43815350284422228 0.36591948582569622 0 0.45970761232660212 0.34692044601787542 0 0.43815350284422228 0.36591948582569622 0 0.43298436918619881 0.33903622913929549 0 0.43815350284422228 0.36591948582569622 0 0.4167242930516859 0.35972934744593471 0 0.42344095457037051 0.38268701701273461 0 0.4167242930516859 0.35972934744593471 0 0.40101385701800268 0.38518895784325291 0 0.4167242930516859 0.35972934744593471 0 0.40181680918128981 0.35947395412181382 0 0.40101385701800268 0.38518895784325291 0 0.4167242930516859 0.35972934744593471 0 0.40869055031553031 0.33881917925707022 0 0.40181680918128981 0.35947395412181382 0 0.4167242930516859 0.35972934744593471 0 0.43298436918619881 0.33903622913929549 0 0.40869055031553031 0.33881917925707022 0 0.43815350284422228 0.36591948582569622 0 0.4167242930516859 0.35972934744593471 0 0.43298436918619881 0.33903622913929549 0 0.43815350284422228 0.36591948582569622 0 0.43298436918619881 0.33903622913929549 0 0.42781523552817591 0.31215297245289481 0 0.43298436918619881 0.33903622913929549 0 0.42781523552817591 0.31215297245289481 0 0.43298436918619881 0.33903622913929549 0 0.41357021602424721 0.32279281759874212 0 0.43298436918619881 0.33903622913929549 0 0.41357021602424721 0.32279281759874212 0 0.40869055031553031 0.33881917925707022 0 0.40869055031553031 0.33881917925707022 0 0.39369601167170543 0.33564153172070438 0 0.39209274976778918 0.34814598654190299 0 0.40869055031553031 0.33881917925707022 0 0.39369601167170543 0.33564153172070438 0 0.3956366020903157 0.32248231082130752 0 0.39369601167170543 0.33564153172070438 0 0.3956366020903157 0.32248231082130752 0 0.38362385659697051 0.32926172455430031 0 0.39369601167170543 0.33564153172070438 0 0.38635485741833753 0.33883185827426582 0 0.39209274976778918 0.34814598654190299 0 0.41357021602424721 0.32279281759874212 0 0.40869055031553031 0.33881917925707022 0 0.3956366020903157 0.32248231082130752 0 0.4027243230010164 0.30147339632314252 0 0.41357021602424721 0.32279281759874212 0 0.3956366020903157 0.32248231082130752 0 0.3956366020903157 0.32248231082130752 0 0.38754735899376969 0.31282171123814728 0 0.38479800915553353 0.32074741934569512 0 0.38754735899376969 0.31282171123814728 0 0.38479800915553353 0.32074741934569512 0 0.37917338616632867 0.3168755173424983 0 0.3956366020903157 0.32248231082130752 0 0.38479800915553353 0.32074741934569512 0 0.38362385659697051 0.32926172455430031 0 0.38479800915553353 0.32074741934569512 0 0.37832625022041982 0.32264150287239662 0 0.38362385659697051 0.32926172455430031 0 0.37577016905582622 0.32787937856968757 0 0.37832625022041982 0.32264150287239662 0 0.38362385659697051 0.32926172455430031 0 0.37577016905582622 0.32787937856968757 0 0.37506056064123422 0.32471797871916308 0 0.37832625022041982 0.32264150287239662 0 0.37368960646642962 0.31911015363466272 0 0.37506056064123422 0.32471797871916308 0 0.37832625022041982 0.32264150287239662 0 0.37695808612291098 0.31120865645681561 0 0.38754735899376969 0.31282171123814728 0 0.37917338616632867 0.3168755173424983 0 0.38479800915553353 0.32074741934569512 0 0.37832625022041982 0.32264150287239662 0 0.37917338616632867 0.3168755173424983 0 0.37368960646642962 0.31911015363466272 0 0.37832625022041982 0.32264150287239662 0 0.37917338616632867 0.3168755173424983 0 0.37499251130121058 0.31593455150060828 0 0.37368960646642962 0.31911015363466272 0 0.37917338616632867 0.3168755173424983 0 0.37499251130121058 0.31593455150060828 0 0.37695808612291098 0.31120865645681561 0 0.37917338616632867 0.3168755173424983 0 0.38635485741833753 0.33883185827426582 0 0.3795813787571668 0.3363772241379393 0 0.38278029029805521 0.34473282441648212 0 0.39369601167170543 0.33564153172070438 0 0.38635485741833753 0.33883185827426582 0 0.38362385659697051 0.32926172455430031 0 0.38635485741833753 0.33883185827426582 0 0.38362385659697051 0.32926172455430031 0 0.3795813787571668 0.3363772241379393 0 0.37577016905582622 0.32787937856968757 0 0.38362385659697051 0.32926172455430031 0 0.37868435463470768 0.3315773541462857 0 0.38362385659697051 0.32926172455430031 0 0.37868435463470768 0.3315773541462857 0 0.3795813787571668 0.3363772241379393 0 0.37577016905582622 0.32787937856968757 0 0.37868435463470768 0.3315773541462857 0 0.375263113682131 0.33313320718557798 0 0.37868435463470768 0.3315773541462857 0 0.375263113682131 0.33313320718557798 0 0.3795813787571668 0.3363772241379393 0 0.37369311900952262 0.33836265764115908 0 0.3795813787571668 0.3363772241379393 0 0.37670219357667811 0.34177383067972761 0 0.3795813787571668 0.3363772241379393 0 0.37670219357667811 0.34177383067972761 0 0.38278029029805521 0.34473282441648212 0 0.37369311900952262 0.33836265764115908 0 0.375263113682131 0.33313320718557798 0 0.3795813787571668 0.3363772241379393 0 0.3809821990389497 0.35490418517770578 0 0.39056259575344082 0.36548629952090861 0 0.39209274976778918 0.34814598654190299 0 0.37486749369974542 0.34694596905823039 0 0.37670219357667811 0.34177383067972761 0 0.38278029029805521 0.34473282441648212 0 0.37486749369974542 0.34694596905823039 0 0.38278029029805521 0.34473282441648212 0 0.3809821990389497 0.35490418517770578 0 0.38278029029805521 0.34473282441648212 0 0.3809821990389497 0.35490418517770578 0 0.39209274976778918 0.34814598654190299 0 0.38635485741833753 0.33883185827426582 0 0.38278029029805521 0.34473282441648212 0 0.39209274976778918 0.34814598654190299 0 0.37228166628853332 0.35471301169251829 0 0.37486749369974542 0.34694596905823039 0 0.3809821990389497 0.35490418517770578 0 0.37414389550204002 0.36898578533419818 0 0.3809821990389497 0.35490418517770578 0 0.39056259575344082 0.36548629952090861 0 0.37414389550204002 0.36898578533419818 0 0.39056259575344082 0.36548629952090861 0 0.40101385701800268 0.38518895784325291 0 0.37414389550204002 0.36898578533419818 0 0.37228166628853332 0.35471301169251829 0 0.3809821990389497 0.35490418517770578 0 0.39056259575344082 0.36548629952090861 0 0.40181680918128981 0.35947395412181382 0 0.40101385701800268 0.38518895784325291 0 0.39056259575344082 0.36548629952090861 0 0.40181680918128981 0.35947395412181382 0 0.39209274976778918 0.34814598654190299 0 0.40869055031553031 0.33881917925707022 0 0.40181680918128981 0.35947395412181382 0 0.39209274976778918 0.34814598654190299 0 0.40101385701800268 0.38518895784325291 0 0.38530342098431941 0.41064856824057122 0 0.40101385701800268 0.38518895784325291 0 0.38530342098431941 0.41064856824057122 0 0.41521715527738928 0.40390661881175682 0 0.3736470799201031 0.39378130610698531 0 0.37414389550204002 0.36898578533419818 0 0.40101385701800268 0.38518895784325291 0 0.3736470799201031 0.39378130610698531 0 0.40101385701800268 0.38518895784325291 0 0.38530342098431941 0.41064856824057122 0 0.36959298495063608 0.43610817863788948 0 0.38530342098431941 0.41064856824057122 0 0.36959298495063608 0.43610817863788948 0 0.38530342098431941 0.41064856824057122 0 0.3889231515195431 0.43141286456833011 0 0.3889231515195431 0.43141286456833011 0 0.40362265567455102 0.42304679086704539 0 0.39942544658573009 0.43872588670818857 0 0.40362265567455102 0.42304679086704539 0 0.41248490446316177 0.43293377153942381 0 0.39942544658573009 0.43872588670818857 0 0.38530342098431941 0.41064856824057122 0 0.3889231515195431 0.43141286456833011 0 0.40362265567455102 0.42304679086704539 0 0.38530342098431941 0.41064856824057122 0 0.40362265567455102 0.42304679086704539 0 0.41521715527738928 0.40390661881175682 0 0.40362265567455102 0.42304679086704539 0 0.42233359500988371 0.42307221464191669 0 0.41521715527738928 0.40390661881175682 0 0.40362265567455102 0.42304679086704539 0 0.41248490446316177 0.43293377153942381 0 0.42233359500988371 0.42307221464191669 0 0.41248490446316177 0.43293377153942381 0 0.42233359500988371 0.42307221464191669 0 0.42326813014219627 0.43909650749986368 0 0.42233359500988371 0.42307221464191669 0 0.43681876433844857 0.43497208046478802 0 0.42326813014219627 0.43909650749986368 0 0.42233359500988371 0.42307221464191669 0 0.43681876433844857 0.43497208046478802 0 0.43655617137350622 0.42038510460191503 0 0.42233359500988371 0.42307221464191669 0 0.42830887421762198 0.41018013153495869 0 0.41521715527738928 0.40390661881175682 0 0.42233359500988371 0.42307221464191669 0 0.42830887421762198 0.41018013153495869 0 0.43655617137350622 0.42038510460191503 0 0.42830887421762198 0.41018013153495869 0 0.43655617137350622 0.42038510460191503 0 0.439625884597032 0.40642404903869822 0 0.42978568865087441 0.39901034440009059 0 0.42344095457037051 0.38268701701273461 0 0.4433226365022459 0.39280274251209668 0 0.42978568865087441 0.39901034440009059 0 0.41521715527738928 0.40390661881175682 0 0.42344095457037051 0.38268701701273461 0 0.42830887421762198 0.41018013153495869 0 0.42978568865087441 0.39901034440009059 0 0.439625884597032 0.40642404903869822 0 0.42830887421762198 0.41018013153495869 0 0.42978568865087441 0.39901034440009059 0 0.41521715527738928 0.40390661881175682 0 0.4167242930516859 0.35972934744593471 0 0.40101385701800268 0.38518895784325291 0 0.42344095457037051 0.38268701701273461 0 0.40101385701800268 0.38518895784325291 0 0.41521715527738928 0.40390661881175682 0 0.42344095457037051 0.38268701701273461 0 0.43815350284422228 0.36591948582569622 0 0.42344095457037051 0.38268701701273461 0 0.4433226365022459 0.39280274251209668 0 0.43815350284422228 0.36591948582569622 0 0.4433226365022459 0.39280274251209668 0 0.43815350284422228 0.36591948582569622 0 0.4433226365022459 0.39280274251209668 0 0.45848938469160699 0.38276388730883248 0 0.4433226365022459 0.39280274251209668 0 0.4587292321942566 0.40377894109977869 0 0.44849177016026981 0.41968599919849731 0 0.4433226365022459 0.39280274251209668 0 0.44849177016026981 0.41968599919849731 0 0.42978568865087441 0.39901034440009059 0 0.4433226365022459 0.39280274251209668 0 0.439625884597032 0.40642404903869822 0 0.4433226365022459 0.39280274251209668 0 0.4587292321942566 0.40377894109977869 0 0.45848938469160699 0.38276388730883248 0 0.4587292321942566 0.40377894109977869 0 0.45848938469160699 0.38276388730883248 0 0.47720201034463561 0.39055994944820821 0 0.46972057754862501 0.36630584452178799 0 0.45848938469160699 0.38276388730883248 0 0.47720201034463561 0.39055994944820821 0 0.46972057754862501 0.36630584452178799 0 0.47720201034463561 0.39055994944820821 0 0.5 0.37670548581833618 0 0.47720201034463561 0.39055994944820821 0 0.5 0.40420347785375749 0 0.47329291580914951 0.41490179660840648 0 0.4587292321942566 0.40377894109977869 0 0.47720201034463561 0.39055994944820821 0 0.47329291580914951 0.41490179660840648 0 0.47720201034463561 0.39055994944820821 0 0.5 0.40420347785375749 0 0.5 0.37670548581833618 0 0.48546521128148462 0.42572005307568972 0 0.49999999999999828 0.43170146988917901 0 0.48502495584706629 0.44181750450007778 0 0.49999999999999828 0.43170146988917901 0 0.48502495584706629 0.44181750450007778 0 0.5 0.40420347785375749 0 0.48546521128148462 0.42572005307568972 0 0.47329291580914951 0.41490179660840648 0 0.5 0.40420347785375749 0 0.48546521128148462 0.42572005307568972 0 0.49999999999999828 0.43170146988917901 0 0.48546521128148462 0.42572005307568972 0 0.47462076711180717 0.43403653248997731 0 0.48502495584706629 0.44181750450007778 0 0.47329291580914951 0.41490179660840648 0 0.47462076711180717 0.43403653248997731 0 0.45927084092720188 0.43580976915473651 0 0.48546521128148462 0.42572005307568972 0 0.47329291580914951 0.41490179660840648 0 0.47462076711180717 0.43403653248997731 0 0.45927084092720188 0.43580976915473651 0 0.44849177016026981 0.41968599919849731 0 0.47329291580914951 0.41490179660840648 0 0.45927084092720188 0.43580976915473651 0 0.44849177016026981 0.41968599919849731 0 0.45927084092720188 0.43580976915473651 0 0.44849177016026981 0.41968599919849731 0 0.45165089640657707 0.43611575462809582 0 0.4587292321942566 0.40377894109977869 0 0.47329291580914951 0.41490179660840648 0 0.44849177016026981 0.41968599919849731 0 0.4433226365022459 0.39280274251209668 0 0.44849177016026981 0.41968599919849731 0 0.439625884597032 0.40642404903869822 0 0.43655617137350622 0.42038510460191503 0 0.44849177016026981 0.41968599919849731 0 0.439625884597032 0.40642404903869822 0 0.44849177016026981 0.41968599919849731 0 0.439625884597032 0.40642404903869822 0 0.44849177016026981 0.41968599919849731 0 0.45165089640657707 0.43611575462809582 0 0.44386952542921521 0.4295111469185629 0 0.44849177016026981 0.41968599919849731 0 0.45165089640657707 0.43611575462809582 0 0.45165089640657707 0.43611575462809582 0 0.44386952542921521 0.4295111469185629 0 0.44519082659473158 0.43782150968735878 0 0.43655617137350622 0.42038510460191503 0 0.44849177016026981 0.41968599919849731 0 0.44386952542921521 0.4295111469185629 0 0.43681876433844857 0.43497208046478802 0 0.43655617137350622 0.42038510460191503 0 0.44386952542921521 0.4295111469185629 0 0.43681876433844857 0.43497208046478802 0 0.44386952542921521 0.4295111469185629 0 0.44519082659473158 0.43782150968735878 0 0.43681876433844857 0.43497208046478802 0 0.44519082659473158 0.43782150968735878 0 0.44362096681603608 0.44566090358066651 0 0.43681876433844857 0.43497208046478802 0 0.44362096681603608 0.44566090358066651 0 0.43343701099378978 0.44857281610427868 0 0.44362096681603608 0.44566090358066651 0 0.44110505044236059 0.45564825146568327 0 0.43343701099378978 0.44857281610427868 0 0.44362096681603608 0.44566090358066651 0 0.45255374853073171 0.45216262504332899 0 0.45221828903371142 0.44335246171580328 0 0.44362096681603608 0.44566090358066651 0 0.45255374853073171 0.45216262504332899 0 0.44110505044236059 0.45564825146568327 0 0.44519082659473158 0.43782150968735878 0 0.44362096681603608 0.44566090358066651 0 0.45221828903371142 0.44335246171580328 0 0.45165089640657707 0.43611575462809582 0 0.44519082659473158 0.43782150968735878 0 0.45221828903371142 0.44335246171580328 0 0.45255374853073171 0.45216262504332899 0 0.44518446721829791 0.46873079822848901 0 0.44110505044236059 0.45564825146568327 0 0.44518446721829791 0.46873079822848901 0 0.44110505044236059 0.45564825146568327 0 0.43072905865294731 0.46311411437165317 0 0.47284597636140308 0.45611600571247141 0 0.46302896313844299 0.47272331085799019 0 0.45255374853073171 0.45216262504332899 0 0.44518446721829791 0.46873079822848901 0 0.47004991169413368 0.45193353911097589 0 0.47004991169413368 0.45193353911097589 0 0.47284597636140308 0.45611600571247141 0 0.46302896313844299 0.47272331085799019 0 0.44518446721829791 0.46873079822848901 0 0.47004991169413368 0.45193353911097589 0 0.46302896313844299 0.47272331085799019 0 0.44518446721829791 0.46873079822848901 0 0.47004991169413368 0.45193353911097589 0 0.45927084092720188 0.43580976915473651 0 0.47004991169413368 0.45193353911097589 0 0.45927084092720188 0.43580976915473651 0 0.45930684530103161 0.44617181272829648 0 0.47004991169413368 0.45193353911097589 0 0.47462076711180717 0.43403653248997731 0 0.45927084092720188 0.43580976915473651 0 0.47004991169413368 0.45193353911097589 0 0.45255374853073171 0.45216262504332899 0 0.45930684530103161 0.44617181272829648 0 0.47004991169413368 0.45193353911097589 0 0.45927084092720188 0.43580976915473651 0 0.45221828903371142 0.44335246171580328 0 0.45930684530103161 0.44617181272829648 0 0.45927084092720188 0.43580976915473651 0 0.45165089640657707 0.43611575462809582 0 0.45221828903371142 0.44335246171580328 0 0.45255374853073171 0.45216262504332899 0 0.45221828903371142 0.44335246171580328 0 0.45930684530103161 0.44617181272829648 0 0.47462076711180717 0.43403653248997731 0 0.47004991169413368 0.45193353911097589 0 0.48502495584706629 0.44181750450007778 0 0.48189680466807888 0.45106209462173341 0 0.47450081081676521 0.45331654521044668 0 0.48502495584706629 0.44181750450007778 0 0.47004991169413368 0.45193353911097589 0 0.48502495584706629 0.44181750450007778 0 0.47004991169413368 0.45193353911097589 0 0.47450081081676521 0.45331654521044668 0 0.48502495584706629 0.44181750450007778 0 0.47284597636140308 0.45611600571247141 0 0.48050552008400071 0.46757346096286262 0 0.46302896313844299 0.47272331085799019 0 0.47004991169413368 0.45193353911097589 0 0.47284597636140308 0.45611600571247141 0 0.47004991169413368 0.45193353911097589 0 0.47450081081676521 0.45331654521044668 0 0.47284597636140308 0.45611600571247141 0 0.47450081081676521 0.45331654521044668 0 0.47284597636140308 0.45611600571247141 0 0.47951191807974908 0.45654698881850991 0 0.47450081081676521 0.45331654521044668 0 0.47284597636140308 0.45611600571247141 0 0.47284597636140308 0.45611600571247141 0 0.48050552008400071 0.46757346096286262 0 0.47284597636140308 0.45611600571247141 0 0.48050552008400071 0.46757346096286262 0 0.47951191807974908 0.45654698881850991 0 0.48189680466807888 0.45106209462173341 0 0.47951191807974908 0.45654698881850991 0 0.4878104784684959 0.4546668375850359 0 0.48050552008400071 0.46757346096286262 0 0.47951191807974908 0.45654698881850991 0 0.4878104784684959 0.4546668375850359 0 0.48189680466807888 0.45106209462173341 0 0.47450081081676521 0.45331654521044668 0 0.47951191807974908 0.45654698881850991 0 0.48050552008400071 0.46757346096286262 0 0.4878104784684959 0.4546668375850359 0 0.49999999999999928 0.46182898591187349 0 0.48050552008400071 0.46757346096286262 0 0.49999999999999928 0.46182898591187349 0 0.49999999999999828 0.43170146988917901 0 0.4878104784684959 0.4546668375850359 0 0.49999999999999928 0.46182898591187349 0 0.49999999999999828 0.43170146988917901 0 0.4878104784684959 0.4546668375850359 0 0.48502495584706629 0.44181750450007778 0 0.48189680466807888 0.45106209462173341 0 0.4878104784684959 0.4546668375850359 0 0.48502495584706629 0.44181750450007778 0 0.49999999999999928 0.46182898591187349 0 0.5 0.5 0 0.49753071700976492 0.4930404390193398 0 0.5 0.5 0 0.47501141284236448 0.48698608464618232 0 0.44690499747156931 0.4999999999999995 0 0.5 0.5 0 0.49753071700976492 0.4930404390193398 0 0.47501141284236448 0.48698608464618232 0 0.49753071700976492 0.4930404390193398 0 0.48901811854688337 0.4803069499911008 0 0.47501141284236448 0.48698608464618232 0 0.49753071700976492 0.4930404390193398 0 0.48901811854688337 0.4803069499911008 0 0.48050552008400071 0.46757346096286262 0 0.49999999999999928 0.46182898591187349 0 0.48901811854688337 0.4803069499911008 0 0.49999999999999928 0.46182898591187349 0 0.49753071700976492 0.4930404390193398 0 0.48901811854688337 0.4803069499911008 0 0.48050552008400071 0.46757346096286262 0 0.48901811854688337 0.4803069499911008 0 0.48050552008400071 0.46757346096286262 0 0.46302896313844299 0.47272331085799019 0 0.48901811854688337 0.4803069499911008 0 0.47689100365292297 0.47689745161453417 0 0.47501141284236448 0.48698608464618232 0 0.48050552008400071 0.46757346096286262 0 0.47689100365292297 0.47689745161453417 0 0.46302896313844299 0.47272331085799019 0 0.48050552008400071 0.46757346096286262 0 0.48901811854688337 0.4803069499911008 0 0.47689100365292297 0.47689745161453417 0 0.47689100365292297 0.47689745161453417 0 0.47501141284236448 0.48698608464618232 0 0.46302896313844299 0.47272331085799019 0 0.47501141284236448 0.48698608464618232 0 0.45496698030500621 0.48636165542899479 0 0.44690499747156931 0.4999999999999995 0 0.47501141284236448 0.48698608464618232 0 0.45496698030500621 0.48636165542899479 0 0.46302896313844299 0.47272331085799019 0 0.45496698030500621 0.48636165542899479 0 0.46302896313844299 0.47272331085799019 0 0.46302896313844299 0.47272331085799019 0 0.43620850627812668 0.48062654530969717 0 0.44518446721829791 0.46873079822848901 0 0.46302896313844299 0.47272331085799019 0 0.43620850627812668 0.48062654530969717 0 0.45496698030500621 0.48636165542899479 0 0.46302896313844299 0.47272331085799019 0 0.43620850627812668 0.48062654530969717 0 0.45496698030500621 0.48636165542899479 0 0.44690499747156931 0.4999999999999995 0 0.43620850627812668 0.48062654530969717 0 0.45496698030500621 0.48636165542899479 0 0.44690499747156931 0.4999999999999995 0 0.42031902274246069 0.48552805734600057 0 0.41743852268843429 0.5 0 0.43620850627812668 0.48062654530969717 0 0.44690499747156931 0.4999999999999995 0 0.41743852268843429 0.5 0 0.43620850627812668 0.48062654530969717 0 0.42031902274246069 0.48552805734600057 0 0.41743852268843429 0.5 0 0.40134209412993838 0.48520307466421098 0 0.42031902274246069 0.48552805734600057 0 0.40973563488985532 0.47579104778557152 0 0.40134209412993838 0.48520307466421098 0 0.42031902274246069 0.48552805734600057 0 0.40973563488985532 0.47579104778557152 0 0.41789473538963601 0.46705380048502582 0 0.44518446721829791 0.46873079822848901 0 0.42031902274246069 0.48552805734600057 0 0.43072905865294731 0.46311411437165317 0 0.44518446721829791 0.46873079822848901 0 0.42031902274246069 0.48552805734600057 0 0.43620850627812668 0.48062654530969717 0 0.44518446721829791 0.46873079822848901 0 0.42031902274246069 0.48552805734600057 0 0.42031902274246069 0.48552805734600057 0 0.43072905865294731 0.46311411437165317 0 0.41789473538963601 0.46705380048502582 0 0.44110505044236059 0.45564825146568327 0 0.43072905865294731 0.46311411437165317 0 0.43343701099378978 0.44857281610427868 0 0.43072905865294731 0.46311411437165317 0 0.43343701099378978 0.44857281610427868 0 0.42053980660522761 0.45341513910658388 0 0.43072905865294731 0.46311411437165317 0 0.41789473538963601 0.46705380048502582 0 0.42053980660522761 0.45341513910658388 0 0.43681876433844857 0.43497208046478802 0 0.43343701099378978 0.44857281610427868 0 0.42326813014219627 0.43909650749986368 0 0.43343701099378978 0.44857281610427868 0 0.42326813014219627 0.43909650749986368 0 0.42053980660522761 0.45341513910658388 0 0.41248490446316177 0.43293377153942381 0 0.42326813014219627 0.43909650749986368 0 0.41215324011006321 0.44426916471351768 0 0.42326813014219627 0.43909650749986368 0 0.41215324011006321 0.44426916471351768 0 0.42053980660522761 0.45341513910658388 0 0.41215324011006321 0.44426916471351768 0 0.42053980660522761 0.45341513910658388 0 0.40575666434273311 0.45838443146516472 0 0.41248490446316177 0.43293377153942381 0 0.41215324011006321 0.44426916471351768 0 0.39942544658573009 0.43872588670818857 0 0.40973563488985532 0.47579104778557152 0 0.41789473538963601 0.46705380048502582 0 0.40575666434273311 0.45838443146516472 0 0.41789473538963601 0.46705380048502582 0 0.42053980660522761 0.45341513910658388 0 0.40575666434273311 0.45838443146516472 0 0.40973563488985532 0.47579104778557152 0 0.40575666434273311 0.45838443146516472 0 0.39457326129307041 0.46924519202038539 0 0.40575666434273311 0.45838443146516472 0 0.38748492612950952 0.44892285829301931 0 0.39457326129307041 0.46924519202038539 0 0.40575666434273311 0.45838443146516472 0 0.39942544658573009 0.43872588670818857 0 0.38748492612950952 0.44892285829301931 0 0.3889231515195431 0.43141286456833011 0 0.39942544658573009 0.43872588670818857 0 0.38748492612950952 0.44892285829301931 0 0.41215324011006321 0.44426916471351768 0 0.40575666434273311 0.45838443146516472 0 0.39942544658573009 0.43872588670818857 0 0.36980735363827261 0.46050290225189661 0 0.36959298495063608 0.43610817863788948 0 0.38748492612950952 0.44892285829301931 0 0.36959298495063608 0.43610817863788948 0 0.3889231515195431 0.43141286456833011 0 0.38748492612950952 0.44892285829301931 0 0.36980735363827261 0.46050290225189661 0 0.38748492612950952 0.44892285829301931 0 0.39457326129307041 0.46924519202038539 0 0.36980735363827261 0.46050290225189661 0 0.37801407526051067 0.48065415083330842 0 0.39457326129307041 0.46924519202038539 0 0.37801407526051067 0.48065415083330842 0 0.38797204790529932 0.5 0 0.40134209412993838 0.48520307466421098 0 0.41743852268843429 0.5 0 0.38797204790529932 0.5 0 0.40134209412993838 0.48520307466421098 0 0.40973563488985532 0.47579104778557152 0 0.40134209412993838 0.48520307466421098 0 0.39457326129307041 0.46924519202038539 0 0.37801407526051067 0.48065415083330842 0 0.40134209412993838 0.48520307466421098 0 0.39457326129307041 0.46924519202038539 0 0.33471388977496319 0.083869725553476451 0 0.32003772732572838 0.080925826065863432 0 0.34163206045391592 0.099703108374672819 0 0.32003772732572838 0.080925826065863432 0 0.34163206045391592 0.099703108374672819 0 0.33471388977496319 0.083869725553476451 0 0.34163206045391592 0.099703108374672819 0 0.35085433501378249 0.086695181415402722 0 0.33471388977496319 0.083869725553476451 0 0.34209731100959018 0.06531632876058778 0 0.3490795063897344 0.076610282135673974 0 0.33471388977496319 0.083869725553476451 0 0.34209731100959018 0.06531632876058778 0 0.32721969837032222 0.069259436753723466 0 0.33471388977496319 0.083869725553476451 0 0.32721969837032222 0.069259436753723466 0 0.32003772732572838 0.080925826065863432 0 0.31518448171420999 0.065085558788002928 0 0.32721969837032222 0.069259436753723466 0 0.32003772732572838 0.080925826065863432 0 0.32003772732572838 0.080925826065863432 0 0.31657863646219547 0.093324099257994786 0 0.34163206045391592 0.099703108374672819 0 0.32003772732572838 0.080925826065863432 0 0.31657863646219547 0.093324099257994786 0 0.30227411453462139 0.089652133027170247 0 0.33471388977496319 0.083869725553476451 0 0.32003772732572838 0.080925826065863432 0 0.31657863646219547 0.093324099257994786 0 0.32025759602694659 0.1047776340902011 0 0.34163206045391592 0.099703108374672819 0 0.31657863646219547 0.093324099257994786 0 0.32025759602694659 0.1047776340902011 0 0.30640852481201453 0.1024735992044304 0 0.32025759602694659 0.1047776340902011 0 0.31114536757858358 0.11742006929579971 0 0.30640852481201453 0.1024735992044304 0 0.32606950933900308 0.1158177097477945 0 0.31114536757858358 0.11742006929579971 0 0.3195478300457561 0.1332621056988223 0 0.32025759602694659 0.1047776340902011 0 0.32606950933900308 0.1158177097477945 0 0.31114536757858358 0.11742006929579971 0 0.33761965874988609 0.1186889285033586 0 0.34163206045391592 0.099703108374672819 0 0.34956654336434939 0.1234914401014125 0 0.32606950933900308 0.1158177097477945 0 0.33761965874988609 0.1186889285033586 0 0.34163206045391592 0.099703108374672819 0 0.32606950933900308 0.1158177097477945 0 0.33761965874988609 0.1186889285033586 0 0.33436770153514289 0.13112975471366969 0 0.33761965874988609 0.1186889285033586 0 0.34956654336434939 0.1234914401014125 0 0.33436770153514289 0.13112975471366969 0 0.32025759602694659 0.1047776340902011 0 0.32606950933900308 0.1158177097477945 0 0.34163206045391592 0.099703108374672819 0 0.34163206045391592 0.099703108374672819 0 0.35755874922647762 0.098360434014750309 0 0.36322639358210312 0.11848039068348271 0 0.34163206045391592 0.099703108374672819 0 0.36322639358210312 0.11848039068348271 0 0.34163206045391592 0.099703108374672819 0 0.35755874922647762 0.098360434014750309 0 0.35085433501378249 0.086695181415402722 0 0.34163206045391592 0.099703108374672819 0 0.34956654336434939 0.1234914401014125 0 0.36322639358210312 0.11848039068348271 0 0.36322639358210312 0.11848039068348271 0 0.37045299287494049 0.09679375479102828 0 0.38005682511468147 0.12140739343396729 0 0.35755874922647762 0.098360434014750309 0 0.36322639358210312 0.11848039068348271 0 0.37045299287494049 0.09679375479102828 0 0.35755874922647762 0.098360434014750309 0 0.37045299287494049 0.09679375479102828 0 0.35979627253246887 0.087956112087811941 0 0.37045299287494049 0.09679375479102828 0 0.36986657419494789 0.075759843690150083 0 0.37682589963749002 0.081332762740894418 0 0.37045299287494049 0.09679375479102828 0 0.35979627253246887 0.087956112087811941 0 0.36084916063519962 0.072180116148089279 0 0.37045299287494049 0.09679375479102828 0 0.36084916063519962 0.072180116148089279 0 0.36986657419494789 0.075759843690150083 0 0.37045299287494049 0.09679375479102828 0 0.36084916063519962 0.072180116148089279 0 0.35755874922647762 0.098360434014750309 0 0.35979627253246887 0.087956112087811941 0 0.35085433501378249 0.086695181415402722 0 0.35979627253246887 0.087956112087811941 0 0.35560274156159061 0.081403828627082772 0 0.36084916063519962 0.072180116148089279 0 0.33471388977496319 0.083869725553476451 0 0.35085433501378249 0.086695181415402722 0 0.3490795063897344 0.076610282135673974 0 0.35979627253246887 0.087956112087811941 0 0.35560274156159061 0.081403828627082772 0 0.35085433501378249 0.086695181415402722 0 0.35560274156159061 0.081403828627082772 0 0.35085433501378249 0.086695181415402722 0 0.3490795063897344 0.076610282135673974 0 0.34209731100959018 0.06531632876058778 0 0.3490795063897344 0.076610282135673974 0 0.36084916063519962 0.072180116148089279 0 0.36448270712015302 0.068442951443566186 0 0.36084916063519962 0.072180116148089279 0 0.35124532839545858 0.047566477505150237 0 0.35560274156159061 0.081403828627082772 0 0.3490795063897344 0.076610282135673974 0 0.36084916063519962 0.072180116148089279 0 0.36448270712015302 0.068442951443566186 0 0.36084916063519962 0.072180116148089279 0 0.36986657419494789 0.075759843690150083 0 0.36986657419494789 0.075759843690150083 0 0.37596532967213542 0.069868995675824025 0 0.37682589963749002 0.081332762740894418 0 0.36448270712015302 0.068442951443566186 0 0.36986657419494789 0.075759843690150083 0 0.37084641292541748 0.06878424193773866 0 0.36986657419494789 0.075759843690150083 0 0.37084641292541748 0.06878424193773866 0 0.37596532967213542 0.069868995675824025 0 0.36448270712015302 0.068442951443566186 0 0.37084641292541748 0.06878424193773866 0 0.37307104071443398 0.061065176941414383 0 0.37084641292541748 0.06878424193773866 0 0.37307104071443398 0.061065176941414383 0 0.37596532967213542 0.069868995675824025 0 0.36448270712015302 0.068442951443566186 0 0.37307104071443398 0.061065176941414383 0 0.37146335928247548 0.04052602251159599 0 0.36448270712015302 0.068442951443566186 0 0.37146335928247548 0.04052602251159599 0 0.35124532839545858 0.047566477505150237 0 0.36448270712015302 0.068442951443566186 0 0.37146335928247548 0.04052602251159599 0 0.37146335928247548 0.04052602251159599 0 0.35572529983931911 0.032753521421585163 0 0.36312657459820519 0.022962182453169309 0 0.37146335928247548 0.04052602251159599 0 0.35572529983931911 0.032753521421585163 0 0.35124532839545858 0.047566477505150237 0 0.35572529983931911 0.032753521421585163 0 0.35124532839545858 0.047566477505150237 0 0.3321968515854315 0.028027004478648001 0 0.36084916063519962 0.072180116148089279 0 0.35124532839545858 0.047566477505150237 0 0.34209731100959018 0.06531632876058778 0 0.36084916063519962 0.072180116148089279 0 0.35124532839545858 0.047566477505150237 0 0.36312657459820519 0.022962182453169309 0 0.35936362748920009 0.0091271431172253586 0 0.37844401144479839 0.012609093579625891 0 0.35936362748920009 0.0091271431172253586 0 0.37844401144479839 0.012609093579625891 0 0.36665723294200347 -0.001883505129568449 0 0.35936362748920009 0.0091271431172253586 0 0.36665723294200347 -0.001883505129568449 0 0.35531676971978082 -0.0033532784323768001 0 0.37146335928247548 0.04052602251159599 0 0.36312657459820519 0.022962182453169309 0 0.37844401144479839 0.012609093579625891 0 0.37146335928247548 0.04052602251159599 0 0.37844401144479839 0.012609093579625891 0 0.35572529983931911 0.032753521421585163 0 0.35063657493523293 0.0197951316358141 0 0.3321968515854315 0.028027004478648001 0 0.35572529983931911 0.032753521421585163 0 0.36312657459820519 0.022962182453169309 0 0.35063657493523293 0.0197951316358141 0 0.36312657459820519 0.022962182453169309 0 0.35063657493523293 0.0197951316358141 0 0.35936362748920009 0.0091271431172253586 0 0.35936362748920009 0.0091271431172253586 0 0.33689267375143878 0.0039255003288513873 0 0.35531676971978082 -0.0033532784323768001 0 0.35063657493523293 0.0197951316358141 0 0.35936362748920009 0.0091271431172253586 0 0.33689267375143878 0.0039255003288513873 0 0.33689267375143878 0.0039255003288513873 0 0.3321968515854315 0.028027004478648001 0 0.30352242257352219 0.0039185454548519476 0 0.35063657493523293 0.0197951316358141 0 0.33689267375143878 0.0039255003288513873 0 0.3321968515854315 0.028027004478648001 0 0.3321968515854315 0.028027004478648001 0 0.32406508202711942 0.05109974460068676 0 0.30086563814790429 0.035038583275740692 0 0.34209731100959018 0.06531632876058778 0 0.32721969837032222 0.069259436753723466 0 0.32406508202711942 0.05109974460068676 0 0.34209731100959018 0.06531632876058778 0 0.35124532839545858 0.047566477505150237 0 0.32406508202711942 0.05109974460068676 0 0.35124532839545858 0.047566477505150237 0 0.3321968515854315 0.028027004478648001 0 0.32406508202711942 0.05109974460068676 0 0.31518448171420999 0.065085558788002928 0 0.32721969837032222 0.069259436753723466 0 0.32406508202711942 0.05109974460068676 0 0.31518448171420999 0.065085558788002928 0 0.32406508202711942 0.05109974460068676 0 0.29882370077581188 0.062479238108283437 0 0.32406508202711942 0.05109974460068676 0 0.29882370077581188 0.062479238108283437 0 0.30086563814790429 0.035038583275740692 0 0.32406508202711942 0.05109974460068676 0 0.30086563814790429 0.035038583275740692 0 0.30086563814790429 0.035038583275740692 0 0.28350496565293731 0.043820562147367653 0 0.27766619426868899 0.018977421950794569 0 0.29882370077581188 0.062479238108283437 0 0.30086563814790429 0.035038583275740692 0 0.28350496565293731 0.043820562147367653 0 0.29882370077581188 0.062479238108283437 0 0.28350496565293731 0.043820562147367653 0 0.28339325744793759 0.061338593161917712 0 0.3321968515854315 0.028027004478648001 0 0.30086563814790429 0.035038583275740692 0 0.30352242257352219 0.0039185454548519476 0 0.30086563814790429 0.035038583275740692 0 0.27766619426868899 0.018977421950794569 0 0.30086563814790429 0.035038583275740692 0 0.30352242257352219 0.0039185454548519476 0 0.27766619426868899 0.018977421950794569 0 0.30352242257352219 0.0039185454548519476 0 0.27766619426868899 0.018977421950794569 0 0.27708695819087842 -0.0025378708656911609 0 0.27766619426868899 0.018977421950794569 0 0.25446675038947358 0.0029162606258486688 0 0.27766619426868899 0.018977421950794569 0 0.26047117107291767 -0.0019720443344692288 0 0.27708695819087842 -0.0025378708656911609 0 0.27766619426868899 0.018977421950794569 0 0.2600935707136679 0.019574361616358959 0 0.26464981823601458 0.038183209123269009 0 0.2600935707136679 0.019574361616358959 0 0.26464981823601458 0.038183209123269009 0 0.25044211127373811 0.032849993626191502 0 0.27766619426868899 0.018977421950794569 0 0.2600935707136679 0.019574361616358959 0 0.25446675038947358 0.0029162606258486688 0 0.27766619426868899 0.018977421950794569 0 0.25446675038947358 0.0029162606258486688 0 0.26047117107291767 -0.0019720443344692288 0 0.25446675038947358 0.0029162606258486688 0 0.26047117107291767 -0.0019720443344692288 0 0.28339325744793759 0.061338593161917712 0 0.2699795556074106 0.054659435659755229 0 0.26514968559830832 0.069915803624621298 0 0.28350496565293731 0.043820562147367653 0 0.28339325744793759 0.061338593161917712 0 0.2699795556074106 0.054659435659755229 0 0.28350496565293731 0.043820562147367653 0 0.27766619426868899 0.018977421950794569 0 0.26464981823601458 0.038183209123269009 0 0.28350496565293731 0.043820562147367653 0 0.2699795556074106 0.054659435659755229 0 0.26464981823601458 0.038183209123269009 0 0.26464981823601458 0.038183209123269009 0 0.25174039047255609 0.044464402284776217 0 0.2585751734657834 0.052327775232976027 0 0.26464981823601458 0.038183209123269009 0 0.25044211127373811 0.032849993626191502 0 0.25174039047255609 0.044464402284776217 0 0.25174039047255609 0.044464402284776217 0 0.25102243244437311 0.053297338652025752 0 0.2585751734657834 0.052327775232976027 0 0.2699795556074106 0.054659435659755229 0 0.26464981823601458 0.038183209123269009 0 0.2585751734657834 0.052327775232976027 0 0.2699795556074106 0.054659435659755229 0 0.2585751734657834 0.052327775232976027 0 0.26000268679747079 0.061003988239662958 0 0.2699795556074106 0.054659435659755229 0 0.26000268679747079 0.061003988239662958 0 0.26514968559830832 0.069915803624621298 0 0.2585751734657834 0.052327775232976027 0 0.26000268679747079 0.061003988239662958 0 0.2530174900015254 0.0600809219264858 0 0.25102243244437311 0.053297338652025752 0 0.2585751734657834 0.052327775232976027 0 0.2530174900015254 0.0600809219264858 0 0.24751669685985911 0.059618880130872708 0 0.25102243244437311 0.053297338652025752 0 0.2530174900015254 0.0600809219264858 0 0.24853219730195361 0.063845178725116872 0 0.2530174900015254 0.0600809219264858 0 0.25274476311700622 0.067427493409812952 0 0.2530174900015254 0.0600809219264858 0 0.25274476311700622 0.067427493409812952 0 0.26000268679747079 0.061003988239662958 0 0.2530174900015254 0.0600809219264858 0 0.25274476311700622 0.067427493409812952 0 0.25274476311700622 0.067427493409812952 0 0.25243039498113262 0.075895774732197205 0 0.24842415088314279 0.069033451464499671 0 0.25274476311700622 0.067427493409812952 0 0.25243039498113262 0.075895774732197205 0 0.25274476311700622 0.067427493409812952 0 0.25243039498113262 0.075895774732197205 0 0.26514968559830832 0.069915803624621298 0 0.25243039498113262 0.075895774732197205 0 0.26514968559830832 0.069915803624621298 0 0.26417250328098718 0.085299079350852347 0 0.25243039498113262 0.075895774732197205 0 0.26514968559830832 0.069915803624621298 0 0.26000268679747079 0.061003988239662958 0 0.25274476311700622 0.067427493409812952 0 0.26514968559830832 0.069915803624621298 0 0.25274476311700622 0.067427493409812952 0 0.26514968559830832 0.069915803624621298 0 0.25243039498113262 0.075895774732197205 0 0.26417250328098718 0.085299079350852347 0 0.25158482098595109 0.098673396421397969 0 0.25243039498113262 0.075895774732197205 0 0.25158482098595109 0.098673396421397969 0 0.26417250328098718 0.085299079350852347 0 0.27563544099652842 0.091217529053328833 0 0.26597619666038957 0.098681263799979324 0 0.26417250328098718 0.085299079350852347 0 0.27658940398852799 0.081360569412953818 0 0.27563544099652842 0.091217529053328833 0 0.26514968559830832 0.069915803624621298 0 0.26417250328098718 0.085299079350852347 0 0.27658940398852799 0.081360569412953818 0 0.27658940398852799 0.081360569412953818 0 0.27563544099652842 0.091217529053328833 0 0.28742128170162778 0.087331448045782731 0 0.28339325744793759 0.061338593161917712 0 0.26514968559830832 0.069915803624621298 0 0.29259370646201821 0.075420814845242989 0 0.26514968559830832 0.069915803624621298 0 0.27658940398852799 0.081360569412953818 0 0.29259370646201821 0.075420814845242989 0 0.28339325744793759 0.061338593161917712 0 0.26514968559830832 0.069915803624621298 0 0.26514968559830832 0.069915803624621298 0 0.29259370646201821 0.075420814845242989 0 0.29882370077581188 0.062479238108283437 0 0.28339325744793759 0.061338593161917712 0 0.29259370646201821 0.075420814845242989 0 0.27658940398852799 0.081360569412953818 0 0.29259370646201821 0.075420814845242989 0 0.28742128170162778 0.087331448045782731 0 0.27563544099652842 0.091217529053328833 0 0.28742128170162778 0.087331448045782731 0 0.29001374252644291 0.099006193890217781 0 0.28742128170162778 0.087331448045782731 0 0.30227411453462139 0.089652133027170247 0 0.29001374252644291 0.099006193890217781 0 0.29259370646201821 0.075420814845242989 0 0.28742128170162778 0.087331448045782731 0 0.30227411453462139 0.089652133027170247 0 0.32003772732572838 0.080925826065863432 0 0.29259370646201821 0.075420814845242989 0 0.30227411453462139 0.089652133027170247 0 0.32003772732572838 0.080925826065863432 0 0.29259370646201821 0.075420814845242989 0 0.32003772732572838 0.080925826065863432 0 0.29882370077581188 0.062479238108283437 0 0.29259370646201821 0.075420814845242989 0 0.32003772732572838 0.080925826065863432 0 0.29882370077581188 0.062479238108283437 0 0.31518448171420999 0.065085558788002928 0 0.32003772732572838 0.080925826065863432 0 0.29882370077581188 0.062479238108283437 0 0.29818169174329712 0.11066146566519899 0 0.31114536757858358 0.11742006929579971 0 0.294250496481684 0.12267566802032639 0 0.31114536757858358 0.11742006929579971 0 0.294250496481684 0.12267566802032639 0 0.30313841955192899 0.13260249050964579 0 0.29818169174329712 0.11066146566519899 0 0.31114536757858358 0.11742006929579971 0 0.30640852481201453 0.1024735992044304 0 0.30227411453462139 0.089652133027170247 0 0.30640852481201453 0.1024735992044304 0 0.29001374252644291 0.099006193890217781 0 0.29818169174329712 0.11066146566519899 0 0.30640852481201453 0.1024735992044304 0 0.29001374252644291 0.099006193890217781 0 0.31657863646219547 0.093324099257994786 0 0.30227411453462139 0.089652133027170247 0 0.30640852481201453 0.1024735992044304 0 0.29818169174329712 0.11066146566519899 0 0.29001374252644291 0.099006193890217781 0 0.28729541733308872 0.1128284558108848 0 0.29001374252644291 0.099006193890217781 0 0.28729541733308872 0.1128284558108848 0 0.27577858748266387 0.1072301355245756 0 0.29818169174329712 0.11066146566519899 0 0.28729541733308872 0.1128284558108848 0 0.294250496481684 0.12267566802032639 0 0.28729541733308872 0.1128284558108848 0 0.294250496481684 0.12267566802032639 0 0.28067449336876182 0.1220521091494646 0 0.28067449336876182 0.1220521091494646 0 0.26956705708048567 0.1198361090660386 0 0.27577858748266387 0.1072301355245756 0 0.28729541733308872 0.1128284558108848 0 0.28067449336876182 0.1220521091494646 0 0.27577858748266387 0.1072301355245756 0 0.26956705708048567 0.1198361090660386 0 0.27577858748266387 0.1072301355245756 0 0.26270963055581759 0.11098617864974181 0 0.27563544099652842 0.091217529053328833 0 0.27577858748266387 0.1072301355245756 0 0.26597619666038957 0.098681263799979324 0 0.27563544099652842 0.091217529053328833 0 0.29001374252644291 0.099006193890217781 0 0.27577858748266387 0.1072301355245756 0 0.27577858748266387 0.1072301355245756 0 0.26597619666038957 0.098681263799979324 0 0.26270963055581759 0.11098617864974181 0 0.25158482098595109 0.098673396421397969 0 0.25094552198087999 0.11589449234768209 0 0.25158482098595109 0.098673396421397969 0 0.26270963055581759 0.11098617864974181 0 0.25094552198087999 0.11589449234768209 0 0.26417250328098718 0.085299079350852347 0 0.26597619666038957 0.098681263799979324 0 0.25158482098595109 0.098673396421397969 0 0.26597619666038957 0.098681263799979324 0 0.25158482098595109 0.098673396421397969 0 0.26270963055581759 0.11098617864974181 0 0.25158482098595109 0.098673396421397969 0 0.26270963055581759 0.11098617864974181 0 0.25094552198087999 0.11589449234768209 0 0.25030622297580962 0.13311558827396619 0 0.26022612795132161 0.12333036834530881 0 0.25094552198087999 0.11589449234768209 0 0.25030622297580962 0.13311558827396619 0 0.26956705708048567 0.1198361090660386 0 0.26022612795132161 0.12333036834530881 0 0.26270963055581759 0.11098617864974181 0 0.26022612795132161 0.12333036834530881 0 0.26270963055581759 0.11098617864974181 0 0.25094552198087999 0.11589449234768209 0 0.26956705708048567 0.1198361090660386 0 0.26022612795132161 0.12333036834530881 0 0.26675796828336718 0.1380571931171293 0 0.26022612795132161 0.12333036834530881 0 0.25030622297580962 0.13311558827396619 0 0.26675796828336718 0.1380571931171293 0 0.25030622297580962 0.13311558827396619 0 0.26675796828336718 0.1380571931171293 0 0.25030622297580962 0.13311558827396619 0 0.26675796828336718 0.1380571931171293 0 0.25638724149227848 0.14295410589973731 0 0.25004344172447263 0.14019424959050239 0 0.25030622297580962 0.13311558827396619 0 0.25638724149227848 0.14295410589973731 0 0.25004344172447263 0.14019424959050239 0 0.25030622297580962 0.13311558827396619 0 0.26675796828336718 0.1380571931171293 0 0.28320971359092417 0.1429987979602943 0 0.26675796828336718 0.1380571931171293 0 0.28666270206708028 0.1324408374186071 0 0.28320971359092417 0.1429987979602943 0 0.28067449336876182 0.1220521091494646 0 0.26956705708048567 0.1198361090660386 0 0.26675796828336718 0.1380571931171293 0 0.28067449336876182 0.1220521091494646 0 0.26675796828336718 0.1380571931171293 0 0.28666270206708028 0.1324408374186071 0 0.26675796828336718 0.1380571931171293 0 0.27436529468354132 0.15433220537778311 0 0.26010861073109098 0.15248373785575309 0 0.26675796828336718 0.1380571931171293 0 0.27436529468354132 0.15433220537778311 0 0.28320971359092417 0.1429987979602943 0 0.26675796828336718 0.1380571931171293 0 0.26010861073109098 0.15248373785575309 0 0.25638724149227848 0.14295410589973731 0 0.2496536413094039 0.15044712256699261 0 0.25004344172447263 0.14019424959050239 0 0.25638724149227848 0.14295410589973731 0 0.24653130607993951 0.16237692388552691 0 0.2496536413094039 0.15044712256699261 0 0.26010861073109098 0.15248373785575309 0 0.2496536413094039 0.15044712256699261 0 0.26010861073109098 0.15248373785575309 0 0.25638724149227848 0.14295410589973731 0 0.24653130607993951 0.16237692388552691 0 0.25292738168467233 0.17649485219682931 0 0.26638423851283249 0.16867758561061549 0 0.24653130607993951 0.16237692388552691 0 0.26010861073109098 0.15248373785575309 0 0.26638423851283249 0.16867758561061549 0 0.24528107816237801 0.1907036486386274 0 0.25292738168467233 0.17649485219682931 0 0.26633433714882182 0.18577592949096661 0 0.25292738168467233 0.17649485219682931 0 0.26633433714882182 0.18577592949096661 0 0.26638423851283249 0.16867758561061549 0 0.27723266788850742 0.181048228772968 0 0.26638423851283249 0.16867758561061549 0 0.28391425324491287 0.17071999404263091 0 0.26633433714882182 0.18577592949096661 0 0.27723266788850742 0.181048228772968 0 0.26638423851283249 0.16867758561061549 0 0.27436529468354132 0.15433220537778311 0 0.26010861073109098 0.15248373785575309 0 0.26638423851283249 0.16867758561061549 0 0.27436529468354132 0.15433220537778311 0 0.26638423851283249 0.16867758561061549 0 0.28391425324491287 0.17071999404263091 0 0.27436529468354132 0.15433220537778311 0 0.28391425324491287 0.17071999404263091 0 0.29097703849613438 0.15773848939083679 0 0.28391425324491287 0.17071999404263091 0 0.2931647794093819 0.16879209887591959 0 0.29097703849613438 0.15773848939083679 0 0.2931647794093819 0.16879209887591959 0 0.29097703849613438 0.15773848939083679 0 0.30040947706207388 0.16512632217721829 0 0.28391425324491287 0.17071999404263091 0 0.28743664533084129 0.187357279865842 0 0.29743995151898561 0.17866098634217961 0 0.27723266788850742 0.181048228772968 0 0.28391425324491287 0.17071999404263091 0 0.28743664533084129 0.187357279865842 0 0.28391425324491287 0.17071999404263091 0 0.2931647794093819 0.16879209887591959 0 0.29743995151898561 0.17866098634217961 0 0.28743664533084129 0.187357279865842 0 0.29743995151898561 0.17866098634217961 0 0.29971043857951379 0.19298806906372529 0 0.29743995151898561 0.17866098634217961 0 0.30929675685570829 0.1858318568065235 0 0.29971043857951379 0.19298806906372529 0 0.29743995151898561 0.17866098634217961 0 0.3101655001798202 0.17563615506282959 0 0.30040947706207388 0.16512632217721829 0 0.29743995151898561 0.17866098634217961 0 0.3101655001798202 0.17563615506282959 0 0.30929675685570829 0.1858318568065235 0 0.30040947706207388 0.16512632217721829 0 0.30453528129870422 0.15487579661148021 0 0.32848741365188411 0.1727716232507491 0 0.29097703849613438 0.15773848939083679 0 0.30040947706207388 0.16512632217721829 0 0.30453528129870422 0.15487579661148021 0 0.2931647794093819 0.16879209887591959 0 0.29743995151898561 0.17866098634217961 0 0.30040947706207388 0.16512632217721829 0 0.29097703849613438 0.15773848939083679 0 0.30453528129870422 0.15487579661148021 0 0.29618567382365713 0.14404403195872001 0 0.30453528129870422 0.15487579661148021 0 0.30873747279203018 0.14281046260302349 0 0.29618567382365713 0.14404403195872001 0 0.30453528129870422 0.15487579661148021 0 0.30873747279203018 0.14281046260302349 0 0.32007589174333823 0.14676000458717811 0 0.30873747279203018 0.14281046260302349 0 0.30313841955192899 0.13260249050964579 0 0.3195478300457561 0.1332621056988223 0 0.31114536757858358 0.11742006929579971 0 0.30313841955192899 0.13260249050964579 0 0.3195478300457561 0.1332621056988223 0 0.30873747279203018 0.14281046260302349 0 0.30313841955192899 0.13260249050964579 0 0.29618567382365713 0.14404403195872001 0 0.294250496481684 0.12267566802032639 0 0.30313841955192899 0.13260249050964579 0 0.28666270206708028 0.1324408374186071 0 0.30313841955192899 0.13260249050964579 0 0.28666270206708028 0.1324408374186071 0 0.29618567382365713 0.14404403195872001 0 0.294250496481684 0.12267566802032639 0 0.28067449336876182 0.1220521091494646 0 0.28666270206708028 0.1324408374186071 0 0.28666270206708028 0.1324408374186071 0 0.28320971359092417 0.1429987979602943 0 0.29618567382365713 0.14404403195872001 0 0.27436529468354132 0.15433220537778311 0 0.29097703849613438 0.15773848939083679 0 0.28320971359092417 0.1429987979602943 0 0.29097703849613438 0.15773848939083679 0 0.28320971359092417 0.1429987979602943 0 0.29618567382365713 0.14404403195872001 0 0.28119448123381058 0.25405304303149878 0 0.26221447651104962 0.2479993693513689 0 0.28440499104296979 0.23439140090611099 0 0.26221447651104962 0.2479993693513689 0 0.26853130556434218 0.23400660741274959 0 0.28440499104296979 0.23439140090611099 0 0.26221447651104962 0.2479993693513689 0 0.28440499104296979 0.23439140090611099 0 0.2457442494512444 0.24022391879071339 0 0.26221447651104962 0.2479993693513689 0 0.25511338863332461 0.22468137717712711 0 0.26221447651104962 0.2479993693513689 0 0.25511338863332461 0.22468137717712711 0 0.26853130556434218 0.23400660741274959 0 0.26221447651104962 0.2479993693513689 0 0.25511338863332461 0.22468137717712711 0 0.25511338863332461 0.22468137717712711 0 0.25242827713160498 0.21540237912569379 0 0.25511338863332461 0.22468137717712711 0 0.2794126892910288 0.21617120911671081 0 0.25511338863332461 0.22468137717712711 0 0.26853130556434218 0.23400660741274959 0 0.2794126892910288 0.21617120911671081 0 0.26853130556434218 0.23400660741274959 0 0.2794126892910288 0.21617120911671081 0 0.28440499104296979 0.23439140090611099 0 0.25511338863332461 0.22468137717712711 0 0.2794126892910288 0.21617120911671081 0 0.26644318031571418 0.20408753099865831 0 0.2794126892910288 0.21617120911671081 0 0.26644318031571418 0.20408753099865831 0 0.27722953884408802 0.19656269719262509 0 0.24528107816237801 0.1907036486386274 0 0.26644318031571418 0.20408753099865831 0 0.25242827713160498 0.21540237912569379 0 0.25511338863332461 0.22468137717712711 0 0.26644318031571418 0.20408753099865831 0 0.25242827713160498 0.21540237912569379 0 0.26644318031571418 0.20408753099865831 0 0.25242827713160498 0.21540237912569379 0 0.24528107816237801 0.1907036486386274 0 0.26633433714882182 0.18577592949096661 0 0.26644318031571418 0.20408753099865831 0 0.26633433714882182 0.18577592949096661 0 0.26644318031571418 0.20408753099865831 0 0.27722953884408802 0.19656269719262509 0 0.27723266788850742 0.181048228772968 0 0.28743664533084129 0.187357279865842 0 0.27722953884408802 0.19656269719262509 0 0.26633433714882182 0.18577592949096661 0 0.27723266788850742 0.181048228772968 0 0.27722953884408802 0.19656269719262509 0 0.28743664533084129 0.187357279865842 0 0.27722953884408802 0.19656269719262509 0 0.28939512316467059 0.2005252056429343 0 0.28743664533084129 0.187357279865842 0 0.28939512316467059 0.2005252056429343 0 0.29971043857951379 0.19298806906372529 0 0.30929675685570829 0.1858318568065235 0 0.29971043857951379 0.19298806906372529 0 0.31162694501442678 0.19735313208654229 0 0.29971043857951379 0.19298806906372529 0 0.31162694501442678 0.19735313208654229 0 0.30371198994873311 0.20766104105629449 0 0.28939512316467059 0.2005252056429343 0 0.29971043857951379 0.19298806906372529 0 0.30371198994873311 0.20766104105629449 0 0.2794126892910288 0.21617120911671081 0 0.30371198994873311 0.20766104105629449 0 0.2794126892910288 0.21617120911671081 0 0.30371198994873311 0.20766104105629449 0 0.30659550557489001 0.220783432460853 0 0.2794126892910288 0.21617120911671081 0 0.27722953884408802 0.19656269719262509 0 0.28939512316467059 0.2005252056429343 0 0.2794126892910288 0.21617120911671081 0 0.28939512316467059 0.2005252056429343 0 0.30371198994873311 0.20766104105629449 0 0.30659550557489001 0.220783432460853 0 0.28440499104296979 0.23439140090611099 0 0.2794126892910288 0.21617120911671081 0 0.30659550557489001 0.220783432460853 0 0.28440499104296979 0.23439140090611099 0 0.30659550557489001 0.220783432460853 0 0.30328699804120918 0.24394477185791469 0 0.28440499104296979 0.23439140090611099 0 0.30659550557489001 0.220783432460853 0 0.30328699804120918 0.24394477185791469 0 0.31607427666693672 0.2331905299380852 0 0.28119448123381058 0.25405304303149878 0 0.30328699804120918 0.24394477185791469 0 0.28440499104296979 0.23439140090611099 0 0.3433555784436142 0.25004320974280247 0 0.34183468199228573 0.23727684870966961 0 0.33092809789354199 0.24744869965648561 0 0.34183468199228573 0.23727684870966961 0 0.3288410404878227 0.2348757256337824 0 0.33092809789354199 0.24744869965648561 0 0.3288410404878227 0.2348757256337824 0 0.33092809789354199 0.24744869965648561 0 0.31845456220733243 0.24449663650262579 0 0.31879452400631653 0.25919465198291952 0 0.30328699804120918 0.24394477185791469 0 0.31845456220733243 0.24449663650262579 0 0.30328699804120918 0.24394477185791469 0 0.31845456220733243 0.24449663650262579 0 0.31607427666693672 0.2331905299380852 0 0.3288410404878227 0.2348757256337824 0 0.31845456220733243 0.24449663650262579 0 0.31607427666693672 0.2331905299380852 0 0.3288410404878227 0.2348757256337824 0 0.31607427666693672 0.2331905299380852 0 0.32372534117020862 0.22390137225637691 0 0.30659550557489001 0.220783432460853 0 0.31607427666693672 0.2331905299380852 0 0.32372534117020862 0.22390137225637691 0 0.3288410404878227 0.2348757256337824 0 0.32372534117020862 0.22390137225637691 0 0.33832986301458301 0.22348170923356889 0 0.34183468199228573 0.23727684870966961 0 0.3288410404878227 0.2348757256337824 0 0.33832986301458301 0.22348170923356889 0 0.32372534117020862 0.22390137225637691 0 0.33832986301458301 0.22348170923356889 0 0.32878602010681029 0.20717546401559489 0 0.33832986301458301 0.22348170923356889 0 0.32878602010681029 0.20717546401559489 0 0.35089693608391498 0.21212819010674691 0 0.32878602010681029 0.20717546401559489 0 0.35097653463873058 0.19356749557033681 0 0.35089693608391498 0.21212819010674691 0 0.30659550557489001 0.220783432460853 0 0.32372534117020862 0.22390137225637691 0 0.32878602010681029 0.20717546401559489 0 0.31162694501442678 0.19735313208654229 0 0.30371198994873311 0.20766104105629449 0 0.32878602010681029 0.20717546401559489 0 0.30371198994873311 0.20766104105629449 0 0.30659550557489001 0.220783432460853 0 0.32878602010681029 0.20717546401559489 0 0.30659550557489001 0.220783432460853 0 0.32878602010681029 0.20717546401559489 0 0.32878602010681029 0.20717546401559489 0 0.31972446529152482 0.19052244909679969 0 0.3336272658304279 0.18895925974375941 0 0.31162694501442678 0.19735313208654229 0 0.32878602010681029 0.20717546401559489 0 0.31972446529152482 0.19052244909679969 0 0.30929675685570829 0.1858318568065235 0 0.31162694501442678 0.19735313208654229 0 0.31972446529152482 0.19052244909679969 0 0.32878602010681029 0.20717546401559489 0 0.3336272658304279 0.18895925974375941 0 0.35097653463873058 0.19356749557033681 0 0.32878602010681029 0.20717546401559489 0 0.35097653463873058 0.19356749557033681 0 0.3336272658304279 0.18895925974375941 0 0.35097653463873058 0.19356749557033681 0 0.35656535024169428 0.1804169243242798 0 0.35097653463873058 0.19356749557033681 0 0.35896651107905142 0.20360726904620211 0 0.35089693608391498 0.21212819010674691 0 0.35097653463873058 0.19356749557033681 0 0.36405518175537521 0.19484170215684679 0 0.35896651107905142 0.20360726904620211 0 0.35097653463873058 0.19356749557033681 0 0.36405518175537521 0.19484170215684679 0 0.35656535024169428 0.1804169243242798 0 0.36405518175537521 0.19484170215684679 0 0.35656535024169428 0.1804169243242798 0 0.38464328683150451 0.18806222539781059 0 0.36405518175537521 0.19484170215684679 0 0.36923798170140371 0.20928007436804161 0 0.38464328683150451 0.18806222539781059 0 0.36405518175537521 0.19484170215684679 0 0.36923798170140371 0.20928007436804161 0 0.35896651107905142 0.20360726904620211 0 0.36923798170140371 0.20928007436804161 0 0.36132702422268731 0.21787493872225441 0 0.35896651107905142 0.20360726904620211 0 0.36923798170140371 0.20928007436804161 0 0.36132702422268731 0.21787493872225441 0 0.37292139258550783 0.22672254500020811 0 0.36132702422268731 0.21787493872225441 0 0.35896651107905142 0.20360726904620211 0 0.35089693608391498 0.21212819010674691 0 0.34183468199228573 0.23727684870966961 0 0.33832986301458301 0.22348170923356889 0 0.35524969613090918 0.22837961108452459 0 0.36132702422268731 0.21787493872225441 0 0.35089693608391498 0.21212819010674691 0 0.35524969613090918 0.22837961108452459 0 0.33832986301458301 0.22348170923356889 0 0.35089693608391498 0.21212819010674691 0 0.35524969613090918 0.22837961108452459 0 0.36132702422268731 0.21787493872225441 0 0.35524969613090918 0.22837961108452459 0 0.37292139258550783 0.22672254500020811 0 0.35524969613090918 0.22837961108452459 0 0.37292139258550783 0.22672254500020811 0 0.36587213359177301 0.2378375665458646 0 0.37292139258550783 0.22672254500020811 0 0.36587213359177301 0.2378375665458646 0 0.3757768555661396 0.240133652284411 0 0.36587213359177301 0.2378375665458646 0 0.37169426656027921 0.24972740256563611 0 0.3757768555661396 0.240133652284411 0 0.36587213359177301 0.2378375665458646 0 0.37169426656027921 0.24972740256563611 0 0.36205361842742478 0.24882498742118489 0 0.36587213359177301 0.2378375665458646 0 0.36205361842742478 0.24882498742118489 0 0.35356337405553911 0.24205426642971811 0 0.35175757775775729 0.2532797976346674 0 0.36205361842742478 0.24882498742118489 0 0.35356337405553911 0.24205426642971811 0 0.35524969613090918 0.22837961108452459 0 0.36587213359177301 0.2378375665458646 0 0.35356337405553911 0.24205426642971811 0 0.34183468199228573 0.23727684870966961 0 0.35524969613090918 0.22837961108452459 0 0.35356337405553911 0.24205426642971811 0 0.3433555784436142 0.25004320974280247 0 0.34183468199228573 0.23727684870966961 0 0.35356337405553911 0.24205426642971811 0 0.3433555784436142 0.25004320974280247 0 0.35175757775775729 0.2532797976346674 0 0.35356337405553911 0.24205426642971811 0 0.33379856680907583 0.1437068241164389 0 0.32007589174333823 0.14676000458717811 0 0.33365817402274128 0.15789089208148979 0 0.33379856680907583 0.1437068241164389 0 0.33365817402274128 0.15789089208148979 0 0.34780073530519279 0.14835628742565241 0 0.33379856680907583 0.1437068241164389 0 0.34780073530519279 0.14835628742565241 0 0.34586764947947463 0.1362539899128139 0 0.33379856680907583 0.1437068241164389 0 0.33436770153514289 0.13112975471366969 0 0.34586764947947463 0.1362539899128139 0 0.34956654336434939 0.1234914401014125 0 0.33436770153514289 0.13112975471366969 0 0.34586764947947463 0.1362539899128139 0 0.33379856680907583 0.1437068241164389 0 0.33436770153514289 0.13112975471366969 0 0.3195478300457561 0.1332621056988223 0 0.32606950933900308 0.1158177097477945 0 0.33436770153514289 0.13112975471366969 0 0.3195478300457561 0.1332621056988223 0 0.30873747279203018 0.14281046260302349 0 0.3195478300457561 0.1332621056988223 0 0.32007589174333823 0.14676000458717811 0 0.30453528129870422 0.15487579661148021 0 0.32007589174333823 0.14676000458717811 0 0.33365817402274128 0.15789089208148979 0 0.33379856680907583 0.1437068241164389 0 0.3195478300457561 0.1332621056988223 0 0.32007589174333823 0.14676000458717811 0 0.30453528129870422 0.15487579661148021 0 0.33365817402274128 0.15789089208148979 0 0.30453528129870422 0.15487579661148021 0 0.32848741365188411 0.1727716232507491 0 0.33365817402274128 0.15789089208148979 0 0.30040947706207388 0.16512632217721829 0 0.32848741365188411 0.1727716232507491 0 0.3101655001798202 0.17563615506282959 0 0.30040947706207388 0.16512632217721829 0 0.32848741365188411 0.1727716232507491 0 0.3101655001798202 0.17563615506282959 0 0.31983557186529732 0.18171103000860481 0 0.32848741365188411 0.1727716232507491 0 0.3336272658304279 0.18895925974375941 0 0.31983557186529732 0.18171103000860481 0 0.32848741365188411 0.1727716232507491 0 0.3101655001798202 0.17563615506282959 0 0.30929675685570829 0.1858318568065235 0 0.31983557186529732 0.18171103000860481 0 0.30929675685570829 0.1858318568065235 0 0.31972446529152482 0.19052244909679969 0 0.31983557186529732 0.18171103000860481 0 0.31972446529152482 0.19052244909679969 0 0.3336272658304279 0.18895925974375941 0 0.31983557186529732 0.18171103000860481 0 0.32848741365188411 0.1727716232507491 0 0.34507730906385942 0.16855187839241309 0 0.35656535024169428 0.1804169243242798 0 0.3336272658304279 0.18895925974375941 0 0.32848741365188411 0.1727716232507491 0 0.35656535024169428 0.1804169243242798 0 0.32848741365188411 0.1727716232507491 0 0.35656535024169428 0.1804169243242798 0 0.32848741365188411 0.1727716232507491 0 0.33365817402274128 0.15789089208148979 0 0.34507730906385942 0.16855187839241309 0 0.33365817402274128 0.15789089208148979 0 0.34507730906385942 0.16855187839241309 0 0.36278106674677829 0.1609059875514994 0 0.34507730906385942 0.16855187839241309 0 0.35656535024169428 0.1804169243242798 0 0.36278106674677829 0.1609059875514994 0 0.33365817402274128 0.15789089208148979 0 0.36278106674677829 0.1609059875514994 0 0.35656535024169428 0.1804169243242798 0 0.37356219856206202 0.1741215612114578 0 0.38464328683150451 0.18806222539781059 0 0.35656535024169428 0.1804169243242798 0 0.38464328683150451 0.18806222539781059 0 0.35656535024169428 0.1804169243242798 0 0.37356219856206202 0.1741215612114578 0 0.36278106674677829 0.1609059875514994 0 0.36278106674677829 0.1609059875514994 0 0.36531512046589693 0.1378839500987098 0 0.37680076681991098 0.15092733218095339 0 0.36278106674677829 0.1609059875514994 0 0.34780073530519279 0.14835628742565241 0 0.36531512046589693 0.1378839500987098 0 0.34780073530519279 0.14835628742565241 0 0.34586764947947463 0.1362539899128139 0 0.36531512046589693 0.1378839500987098 0 0.33365817402274128 0.15789089208148979 0 0.36278106674677829 0.1609059875514994 0 0.34780073530519279 0.14835628742565241 0 0.34956654336434939 0.1234914401014125 0 0.34586764947947463 0.1362539899128139 0 0.36531512046589693 0.1378839500987098 0 0.34956654336434939 0.1234914401014125 0 0.36322639358210312 0.11848039068348271 0 0.36531512046589693 0.1378839500987098 0 0.36322639358210312 0.11848039068348271 0 0.36531512046589693 0.1378839500987098 0 0.38482072671029011 0.13725767299229241 0 0.36322639358210312 0.11848039068348271 0 0.38482072671029011 0.13725767299229241 0 0.36322639358210312 0.11848039068348271 0 0.38482072671029011 0.13725767299229241 0 0.38005682511468147 0.12140739343396729 0 0.38482072671029011 0.13725767299229241 0 0.39398634319161102 0.12556361147638159 0 0.38005682511468147 0.12140739343396729 0 0.38482072671029011 0.13725767299229241 0 0.39398634319161102 0.12556361147638159 0 0.40386822996399702 0.1370092008917044 0 0.39398634319161102 0.12556361147638159 0 0.40386822996399702 0.1370092008917044 0 0.40630256149234217 0.12337914253670321 0 0.38482072671029011 0.13725767299229241 0 0.40641505983847698 0.15603495530110209 0 0.38482072671029011 0.13725767299229241 0 0.40386822996399702 0.1370092008917044 0 0.40641505983847698 0.15603495530110209 0 0.38482072671029011 0.13725767299229241 0 0.39190395947081519 0.16392108302150901 0 0.40641505983847698 0.15603495530110209 0 0.36531512046589693 0.1378839500987098 0 0.38482072671029011 0.13725767299229241 0 0.37680076681991098 0.15092733218095339 0 0.38482072671029011 0.13725767299229241 0 0.37680076681991098 0.15092733218095339 0 0.39190395947081519 0.16392108302150901 0 0.36278106674677829 0.1609059875514994 0 0.39190395947081519 0.16392108302150901 0 0.36278106674677829 0.1609059875514994 0 0.37680076681991098 0.15092733218095339 0 0.39190395947081519 0.16392108302150901 0 0.37356219856206202 0.1741215612114578 0 0.36278106674677829 0.1609059875514994 0 0.39190395947081519 0.16392108302150901 0 0.37356219856206202 0.1741215612114578 0 0.39190395947081519 0.16392108302150901 0 0.38464328683150451 0.18806222539781059 0 0.4059128807594603 0.17981630131623391 0 0.39190395947081519 0.16392108302150901 0 0.38464328683150451 0.18806222539781059 0 0.39190395947081519 0.16392108302150901 0 0.42102685219485209 0.16693617849151851 0 0.40641505983847698 0.15603495530110209 0 0.4059128807594603 0.17981630131623391 0 0.39190395947081519 0.16392108302150901 0 0.42102685219485209 0.16693617849151851 0 0.42102685219485209 0.16693617849151851 0 0.40641505983847698 0.15603495530110209 0 0.41490094777653419 0.14712571815411829 0 0.39190395947081519 0.16392108302150901 0 0.42102685219485209 0.16693617849151851 0 0.4059128807594603 0.17981630131623391 0 0.42102685219485209 0.16693617849151851 0 0.42759287120751482 0.1799189573059411 0 0.4059128807594603 0.17981630131623391 0 0.42759287120751482 0.1799189573059411 0 0.42045703890892938 0.19185412915784311 0 0.42102685219485209 0.16693617849151851 0 0.42759287120751482 0.1799189573059411 0 0.45014974491888898 0.16995127396152809 0 0.42759287120751482 0.1799189573059411 0 0.42045703890892938 0.19185412915784311 0 0.43799329450951457 0.1898848624547933 0 0.42102685219485209 0.16693617849151851 0 0.45014974491888898 0.16995127396152809 0 0.42102685219485209 0.16693617849151851 0 0.43641214087317609 0.15776157540708571 0 0.42820809332857229 0.14540676379554701 0 0.42102685219485209 0.16693617849151851 0 0.43641214087317609 0.15776157540708571 0 0.45014974491888898 0.16995127396152809 0 0.43641214087317609 0.15776157540708571 0 0.42820809332857229 0.14540676379554701 0 0.44305345270963392 0.14224085277467549 0 0.42820809332857229 0.14540676379554701 0 0.43267139290449452 0.12562392175117529 0 0.41815906511665779 0.13368892679480551 0 0.42820809332857229 0.14540676379554701 0 0.43267139290449452 0.12562392175117529 0 0.44305345270963392 0.14224085277467549 0 0.43267139290449452 0.12562392175117529 0 0.41815906511665779 0.13368892679480551 0 0.41840244549433692 0.1204435227777134 0 0.41815906511665779 0.13368892679480551 0 0.41840244549433692 0.1204435227777134 0 0.40630256149234217 0.12337914253670321 0 0.40386822996399702 0.1370092008917044 0 0.41815906511665779 0.13368892679480551 0 0.40630256149234217 0.12337914253670321 0 0.40386822996399702 0.1370092008917044 0 0.41815906511665779 0.13368892679480551 0 0.41490094777653419 0.14712571815411829 0 0.42102685219485209 0.16693617849151851 0 0.42820809332857229 0.14540676379554701 0 0.41490094777653419 0.14712571815411829 0 0.40386822996399702 0.1370092008917044 0 0.40641505983847698 0.15603495530110209 0 0.41490094777653419 0.14712571815411829 0 0.42820809332857229 0.14540676379554701 0 0.41815906511665779 0.13368892679480551 0 0.41490094777653419 0.14712571815411829 0 0.39196586341458151 0.242441409442547 0 0.40329821407583749 0.23025496453590971 0 0.40866327585672191 0.24600766979752939 0 0.38129994004966872 0.25577407136566988 0 0.39196586341458151 0.242441409442547 0 0.40866327585672191 0.24600766979752939 0 0.38129994004966872 0.25577407136566988 0 0.39196586341458151 0.242441409442547 0 0.38106847269238292 0.24536179082341181 0 0.37169426656027921 0.24972740256563611 0 0.38106847269238292 0.24536179082341181 0 0.3757768555661396 0.240133652284411 0 0.37292139258550783 0.22672254500020811 0 0.3757768555661396 0.240133652284411 0 0.38460543787124563 0.238732418458795 0 0.38106847269238292 0.24536179082341181 0 0.3757768555661396 0.240133652284411 0 0.38460543787124563 0.238732418458795 0 0.39196586341458151 0.242441409442547 0 0.38106847269238292 0.24536179082341181 0 0.38460543787124563 0.238732418458795 0 0.39196586341458151 0.242441409442547 0 0.38460543787124563 0.238732418458795 0 0.38844350160088592 0.2284985707660753 0 0.37292139258550783 0.22672254500020811 0 0.38460543787124563 0.238732418458795 0 0.38844350160088592 0.2284985707660753 0 0.37292139258550783 0.22672254500020811 0 0.38844350160088592 0.2284985707660753 0 0.38369130631537601 0.21297307403445409 0 0.38844350160088592 0.2284985707660753 0 0.39679964264504158 0.21937630878092959 0 0.38369130631537601 0.21297307403445409 0 0.38844350160088592 0.2284985707660753 0 0.39679964264504158 0.21937630878092959 0 0.40329821407583749 0.23025496453590971 0 0.39196586341458151 0.242441409442547 0 0.38844350160088592 0.2284985707660753 0 0.40329821407583749 0.23025496453590971 0 0.39679964264504158 0.21937630878092959 0 0.40329821407583749 0.23025496453590971 0 0.41066806580544729 0.2160617609406458 0 0.39598296716959969 0.20626700748070109 0 0.40513352984814438 0.19492560706685999 0 0.41066806580544729 0.2160617609406458 0 0.39679964264504158 0.21937630878092959 0 0.39598296716959969 0.20626700748070109 0 0.41066806580544729 0.2160617609406458 0 0.39679964264504158 0.21937630878092959 0 0.39598296716959969 0.20626700748070109 0 0.38369130631537601 0.21297307403445409 0 0.36923798170140371 0.20928007436804161 0 0.37292139258550783 0.22672254500020811 0 0.38369130631537601 0.21297307403445409 0 0.36923798170140371 0.20928007436804161 0 0.38369130631537601 0.21297307403445409 0 0.38464328683150451 0.18806222539781059 0 0.39598296716959969 0.20626700748070109 0 0.38369130631537601 0.21297307403445409 0 0.38464328683150451 0.18806222539781059 0 0.39598296716959969 0.20626700748070109 0 0.38464328683150451 0.18806222539781059 0 0.40513352984814438 0.19492560706685999 0 0.4059128807594603 0.17981630131623391 0 0.38464328683150451 0.18806222539781059 0 0.40513352984814438 0.19492560706685999 0 0.40513352984814438 0.19492560706685999 0 0.42045703890892938 0.19185412915784311 0 0.42444067869502011 0.20693424997503959 0 0.4059128807594603 0.17981630131623391 0 0.40513352984814438 0.19492560706685999 0 0.42045703890892938 0.19185412915784311 0 0.42045703890892938 0.19185412915784311 0 0.42444067869502011 0.20693424997503959 0 0.43799329450951457 0.1898848624547933 0 0.42444067869502011 0.20693424997503959 0 0.44184419378540352 0.2076794424592901 0 0.43799329450951457 0.1898848624547933 0 0.42444067869502011 0.20693424997503959 0 0.4302098735549707 0.2206458244329694 0 0.44184419378540352 0.2076794424592901 0 0.42444067869502011 0.20693424997503959 0 0.41066806580544729 0.2160617609406458 0 0.4302098735549707 0.2206458244329694 0 0.40513352984814438 0.19492560706685999 0 0.42444067869502011 0.20693424997503959 0 0.41066806580544729 0.2160617609406458 0 0.41066806580544729 0.2160617609406458 0 0.41777320819135039 0.22984229758728861 0 0.4302098735549707 0.2206458244329694 0 0.40329821407583749 0.23025496453590971 0 0.41066806580544729 0.2160617609406458 0 0.41777320819135039 0.22984229758728861 0 0.4302098735549707 0.2206458244329694 0 0.43602661166377499 0.2362412682293889 0 0.44584438813649652 0.2203436080528294 0 0.41777320819135039 0.22984229758728861 0 0.4302098735549707 0.2206458244329694 0 0.43602661166377499 0.2362412682293889 0 0.43602661166377499 0.2362412682293889 0 0.43076425121212841 0.2486853010718087 0 0.40866327585672191 0.24600766979752939 0 0.43602661166377499 0.2362412682293889 0 0.40866327585672191 0.24600766979752939 0 0.41777320819135039 0.22984229758728861 0 0.43602661166377499 0.2362412682293889 0 0.40866327585672191 0.24600766979752939 0 0.41664462513020523 0.25422696758609492 0 0.43076425121212841 0.2486853010718087 0 0.40866327585672191 0.24600766979752939 0 0.40329821407583749 0.23025496453590971 0 0.41777320819135039 0.22984229758728861 0 0.40866327585672191 0.24600766979752939 0 0.45166362976964691 0.25106894999712381 0 0.45384283414141641 0.23962742592169059 0 0.47583181488482379 0.2451422378191761 0 0.45166362976964691 0.25106894999712381 0 0.47583181488482379 0.2451422378191761 0 0.45384283414141641 0.23962742592169059 0 0.47692141707070451 0.23056955077157251 0 0.45166362976964691 0.25106894999712381 0 0.43076425121212841 0.2486853010718087 0 0.45384283414141641 0.23962742592169059 0 0.43602661166377499 0.2362412682293889 0 0.43076425121212841 0.2486853010718087 0 0.45384283414141641 0.23962742592169059 0 0.43076425121212841 0.2486853010718087 0 0.45384283414141641 0.23962742592169059 0 0.43602661166377499 0.2362412682293889 0 0.46338994747082818 0.22647486666124839 0 0.43602661166377499 0.2362412682293889 0 0.44584438813649652 0.2203436080528294 0 0.46338994747082818 0.22647486666124839 0 0.43602661166377499 0.2362412682293889 0 0.45384283414141641 0.23962742592169059 0 0.46338994747082818 0.22647486666124839 0 0.44584438813649652 0.2203436080528294 0 0.46338994747082818 0.22647486666124839 0 0.4574246187180494 0.20998202225832771 0 0.45384283414141641 0.23962742592169059 0 0.46338994747082818 0.22647486666124839 0 0.47692141707070451 0.23056955077157251 0 0.46338994747082818 0.22647486666124839 0 0.4574246187180494 0.20998202225832771 0 0.47311107537994651 0.21060674662752529 0 0.4574246187180494 0.20998202225832771 0 0.46861366351278472 0.19789432193598561 0 0.47311107537994651 0.21060674662752529 0 0.44584438813649652 0.2203436080528294 0 0.4574246187180494 0.20998202225832771 0 0.44184419378540352 0.2076794424592901 0 0.4302098735549707 0.2206458244329694 0 0.44584438813649652 0.2203436080528294 0 0.44184419378540352 0.2076794424592901 0 0.4574246187180494 0.20998202225832771 0 0.44184419378540352 0.2076794424592901 0 0.45120510308892831 0.19507838461398491 0 0.44184419378540352 0.2076794424592901 0 0.43799329450951457 0.1898848624547933 0 0.45120510308892831 0.19507838461398491 0 0.4574246187180494 0.20998202225832771 0 0.45120510308892831 0.19507838461398491 0 0.46861366351278472 0.19789432193598561 0 0.45120510308892831 0.19507838461398491 0 0.46861366351278472 0.19789432193598561 0 0.45014974491888898 0.16995127396152809 0 0.46861366351278472 0.19789432193598561 0 0.48377650321145821 0.20030440734603891 0 0.47890777313388699 0.17818810929941131 0 0.46861366351278472 0.19789432193598561 0 0.48377650321145821 0.20030440734603891 0 0.47311107537994651 0.21060674662752529 0 0.48377650321145821 0.20030440734603891 0 0.5 0.19442179120654851 0 0.47890777313388699 0.17818810929941131 0 0.48377650321145821 0.20030440734603891 0 0.5 0.19442179120654851 0 0.49075328327788142 0.2167084650931079 0 0.5 0.19442179120654851 0 0.49075328327788142 0.2167084650931079 0 0.49999999999999339 0.2215116756214566 0 0.48377650321145821 0.20030440734603891 0 0.49075328327788142 0.2167084650931079 0 0.47311107537994651 0.21060674662752529 0 0.46338994747082818 0.22647486666124839 0 0.49075328327788142 0.2167084650931079 0 0.47311107537994651 0.21060674662752529 0 0.46338994747082818 0.22647486666124839 0 0.49075328327788142 0.2167084650931079 0 0.46338994747082818 0.22647486666124839 0 0.49075328327788142 0.2167084650931079 0 0.47692141707070451 0.23056955077157251 0 0.47692141707070451 0.23056955077157251 0 0.49999999999999339 0.2215116756214566 0 0.50000000000000067 0.2392155256412283 0 0.49075328327788142 0.2167084650931079 0 0.47692141707070451 0.23056955077157251 0 0.49999999999999339 0.2215116756214566 0 0.47692141707070451 0.23056955077157251 0 0.49999999999999339 0.2215116756214566 0 0.50000000000000067 0.2392155256412283 0 0.47583181488482379 0.2451422378191761 0 0.48341195364679568 0.26002408893105827 0 0.50000000000000067 0.2392155256412283 0 0.47583181488482379 0.2451422378191761 0 0.47692141707070451 0.23056955077157251 0 0.50000000000000067 0.2392155256412283 0 0.47583181488482379 0.2451422378191761 0 0.45384283414141641 0.23962742592169059 0 0.47692141707070451 0.23056955077157251 0 0.47583181488482379 0.2451422378191761 0 0.46053260521531592 0.14091734283165991 0 0.45014974491888898 0.16995127396152809 0 0.47759274938693741 0.15337993901402261 0 0.46053260521531592 0.14091734283165991 0 0.47596637305353268 0.1236489788231635 0 0.45094723062946279 0.12208098845927939 0 0.46053260521531592 0.14091734283165991 0 0.44305345270963392 0.14224085277467549 0 0.45094723062946279 0.12208098845927939 0 0.43267139290449452 0.12562392175117529 0 0.44305345270963392 0.14224085277467549 0 0.45094723062946279 0.12208098845927939 0 0.46053260521531592 0.14091734283165991 0 0.44305345270963392 0.14224085277467549 0 0.45014974491888898 0.16995127396152809 0 0.43641214087317609 0.15776157540708571 0 0.44305345270963392 0.14224085277467549 0 0.45014974491888898 0.16995127396152809 0 0.42759287120751482 0.1799189573059411 0 0.43799329450951457 0.1898848624547933 0 0.45014974491888898 0.16995127396152809 0 0.43799329450951457 0.1898848624547933 0 0.45120510308892831 0.19507838461398491 0 0.45014974491888898 0.16995127396152809 0 0.46861366351278472 0.19789432193598561 0 0.45014974491888898 0.16995127396152809 0 0.47890777313388699 0.17818810929941131 0 0.45014974491888898 0.16995127396152809 0 0.47890777313388699 0.17818810929941131 0 0.47759274938693741 0.15337993901402261 0 0.5 0.19442179120654851 0 0.47890777313388699 0.17818810929941131 0 0.5 0.16733190679164031 0 0.47890777313388699 0.17818810929941131 0 0.5 0.16733190679164031 0 0.47759274938693741 0.15337993901402261 0 0.5 0.16733190679164031 0 0.47759274938693741 0.15337993901402261 0 0.5 0.14024202237673219 0 0.46053260521531592 0.14091734283165991 0 0.47759274938693741 0.15337993901402261 0 0.47596637305353268 0.1236489788231635 0 0.5 0.14024202237673219 0 0.5 0.11315213796182411 0 0.47596637305353268 0.1236489788231635 0 0.47759274938693741 0.15337993901402261 0 0.5 0.14024202237673219 0 0.47596637305353268 0.1236489788231635 0 0.5 0.11315213796182411 0 0.48146508414057748 0.097867616362435003 0 0.47596637305353268 0.1236489788231635 0 0.5 0.11315213796182411 0 0.48146508414057748 0.097867616362435003 0 0.5 0.08606225354691599 0 0.48146508414057748 0.097867616362435003 0 0.46684480345772023 0.083704774648097419 0 0.46085076100455152 0.1051260388446932 0 0.48146508414057748 0.097867616362435003 0 0.47596637305353268 0.1236489788231635 0 0.46085076100455152 0.1051260388446932 0 0.5 0.08606225354691599 0 0.48297411160829701 0.071419164250366693 0 0.5 0.058972369132007867 0 0.48146508414057748 0.097867616362435003 0 0.5 0.08606225354691599 0 0.48297411160829701 0.071419164250366693 0 0.48146508414057748 0.097867616362435003 0 0.48297411160829701 0.071419164250366693 0 0.46684480345772023 0.083704774648097419 0 0.48297411160829701 0.071419164250366693 0 0.46368779630991369 0.062884433647911922 0 0.46684480345772023 0.083704774648097419 0 0.46368779630991369 0.062884433647911922 0 0.4455316944648699 0.078385408113317706 0 0.46368779630991369 0.062884433647911922 0 0.46684480345772023 0.083704774648097419 0 0.4455316944648699 0.078385408113317706 0 0.46684480345772023 0.083704774648097419 0 0.4455316944648699 0.078385408113317706 0 0.46085076100455152 0.1051260388446932 0 0.4455316944648699 0.078385408113317706 0 0.46085076100455152 0.1051260388446932 0 0.43655847815144871 0.087567909291679069 0 0.4455316944648699 0.078385408113317706 0 0.43655847815144871 0.087567909291679069 0 0.43300293116684879 0.070359854062556224 0 0.4455316944648699 0.078385408113317706 0 0.43300293116684879 0.070359854062556224 0 0.44432728466234178 0.059795406129610977 0 0.46368779630991369 0.062884433647911922 0 0.4455316944648699 0.078385408113317706 0 0.44432728466234178 0.059795406129610977 0 0.47596637305353268 0.1236489788231635 0 0.46085076100455152 0.1051260388446932 0 0.45094723062946279 0.12208098845927939 0 0.46085076100455152 0.1051260388446932 0 0.43655847815144871 0.087567909291679069 0 0.46085076100455152 0.1051260388446932 0 0.43845481143497073 0.110031162788742 0 0.43302597451412722 0.09911942802672713 0 0.46085076100455152 0.1051260388446932 0 0.43302597451412722 0.09911942802672713 0 0.43655847815144871 0.087567909291679069 0 0.43267139290449452 0.12562392175117529 0 0.45094723062946279 0.12208098845927939 0 0.43845481143497073 0.110031162788742 0 0.46085076100455152 0.1051260388446932 0 0.45094723062946279 0.12208098845927939 0 0.43845481143497073 0.110031162788742 0 0.43267139290449452 0.12562392175117529 0 0.43845481143497073 0.110031162788742 0 0.42512360996164289 0.1101942667169049 0 0.43267139290449452 0.12562392175117529 0 0.42512360996164289 0.1101942667169049 0 0.41840244549433692 0.1204435227777134 0 0.42512360996164289 0.1101942667169049 0 0.41840244549433692 0.1204435227777134 0 0.41145911669595331 0.1096997076075869 0 0.41840244549433692 0.1204435227777134 0 0.41145911669595331 0.1096997076075869 0 0.40630256149234217 0.12337914253670321 0 0.41145911669595331 0.1096997076075869 0 0.41782870111656589 0.098086010242617663 0 0.40188519574572068 0.098349840232826835 0 0.41782870111656589 0.098086010242617663 0 0.41132824907511162 0.087668761689670915 0 0.40188519574572068 0.098349840232826835 0 0.42512360996164289 0.1101942667169049 0 0.41145911669595331 0.1096997076075869 0 0.41782870111656589 0.098086010242617663 0 0.41782870111656589 0.098086010242617663 0 0.43302597451412722 0.09911942802672713 0 0.42198136315300161 0.08812274721924529 0 0.42512360996164289 0.1101942667169049 0 0.41782870111656589 0.098086010242617663 0 0.43302597451412722 0.09911942802672713 0 0.43845481143497073 0.110031162788742 0 0.42512360996164289 0.1101942667169049 0 0.43302597451412722 0.09911942802672713 0 0.43655847815144871 0.087567909291679069 0 0.42198136315300161 0.08812274721924529 0 0.41226619529834591 0.070009779738664735 0 0.43655847815144871 0.087567909291679069 0 0.41226619529834591 0.070009779738664735 0 0.43302597451412722 0.09911942802672713 0 0.43655847815144871 0.087567909291679069 0 0.42198136315300161 0.08812274721924529 0 0.43300293116684879 0.070359854062556224 0 0.41226619529834591 0.070009779738664735 0 0.42739758089851382 0.054541393999090262 0 0.43655847815144871 0.087567909291679069 0 0.43300293116684879 0.070359854062556224 0 0.41226619529834591 0.070009779738664735 0 0.42198136315300161 0.08812274721924529 0 0.41226619529834591 0.070009779738664735 0 0.41132824907511162 0.087668761689670915 0 0.41226619529834591 0.070009779738664735 0 0.41132824907511162 0.087668761689670915 0 0.39992923875424519 0.082621500021195282 0 0.41782870111656589 0.098086010242617663 0 0.42198136315300161 0.08812274721924529 0 0.41132824907511162 0.087668761689670915 0 0.41132824907511162 0.087668761689670915 0 0.39992923875424519 0.082621500021195282 0 0.40188519574572068 0.098349840232826835 0 0.39992923875424519 0.082621500021195282 0 0.38759228221014619 0.095233220303727467 0 0.40188519574572068 0.098349840232826835 0 0.39992923875424519 0.082621500021195282 0 0.38759228221014619 0.095233220303727467 0 0.41226619529834591 0.070009779738664735 0 0.39707386889515511 0.070908779594843374 0 0.39683376059791597 0.058855427163935138 0 0.41226619529834591 0.070009779738664735 0 0.39683376059791597 0.058855427163935138 0 0.41226619529834591 0.070009779738664735 0 0.39992923875424519 0.082621500021195282 0 0.41226619529834591 0.070009779738664735 0 0.39992923875424519 0.082621500021195282 0 0.39707386889515511 0.070908779594843374 0 0.39992923875424519 0.082621500021195282 0 0.39707386889515511 0.070908779594843374 0 0.38583977896057609 0.075316135258006081 0 0.39707386889515511 0.070908779594843374 0 0.38282045226763678 0.060547433734587333 0 0.39683376059791597 0.058855427163935138 0 0.39707386889515511 0.070908779594843374 0 0.38583977896057609 0.075316135258006081 0 0.38282045226763678 0.060547433734587333 0 0.38583977896057609 0.075316135258006081 0 0.37596532967213542 0.069868995675824025 0 0.37682589963749002 0.081332762740894418 0 0.37307104071443398 0.061065176941414383 0 0.37596532967213542 0.069868995675824025 0 0.38282045226763678 0.060547433734587333 0 0.38583977896057609 0.075316135258006081 0 0.37596532967213542 0.069868995675824025 0 0.38282045226763678 0.060547433734587333 0 0.39992923875424519 0.082621500021195282 0 0.38412803848747967 0.086259474622970303 0 0.38759228221014619 0.095233220303727467 0 0.39992923875424519 0.082621500021195282 0 0.38583977896057609 0.075316135258006081 0 0.38412803848747967 0.086259474622970303 0 0.37045299287494049 0.09679375479102828 0 0.38412803848747967 0.086259474622970303 0 0.38759228221014619 0.095233220303727467 0 0.38583977896057609 0.075316135258006081 0 0.38412803848747967 0.086259474622970303 0 0.37682589963749002 0.081332762740894418 0 0.37045299287494049 0.09679375479102828 0 0.38412803848747967 0.086259474622970303 0 0.37682589963749002 0.081332762740894418 0 0.37045299287494049 0.09679375479102828 0 0.38005682511468147 0.12140739343396729 0 0.37045299287494049 0.09679375479102828 0 0.38759228221014619 0.095233220303727467 0 0.38890959528695412 0.1083938038889192 0 0.37045299287494049 0.09679375479102828 0 0.38890959528695412 0.1083938038889192 0 0.38005682511468147 0.12140739343396729 0 0.39398634319161102 0.12556361147638159 0 0.38890959528695412 0.1083938038889192 0 0.38005682511468147 0.12140739343396729 0 0.39398634319161102 0.12556361147638159 0 0.38890959528695412 0.1083938038889192 0 0.39948393258462489 0.11301500309558379 0 0.39398634319161102 0.12556361147638159 0 0.40630256149234217 0.12337914253670321 0 0.39948393258462489 0.11301500309558379 0 0.41145911669595331 0.1096997076075869 0 0.40630256149234217 0.12337914253670321 0 0.39948393258462489 0.11301500309558379 0 0.41145911669595331 0.1096997076075869 0 0.39948393258462489 0.11301500309558379 0 0.40188519574572068 0.098349840232826835 0 0.38759228221014619 0.095233220303727467 0 0.38890959528695412 0.1083938038889192 0 0.40188519574572068 0.098349840232826835 0 0.38890959528695412 0.1083938038889192 0 0.39948393258462489 0.11301500309558379 0 0.40188519574572068 0.098349840232826835 0 0.3912475249538237 0.025882868266216091 0 0.40325323122183843 0.024352223252143548 0 0.39536881189699241 0.01378873843063998 0 0.3912475249538237 0.025882868266216091 0 0.40325323122183843 0.024352223252143548 0 0.39805180056669343 0.032772735105760037 0 0.40325323122183843 0.024352223252143548 0 0.39805180056669343 0.032772735105760037 0 0.40655765028286611 0.035582104639029083 0 0.40325323122183843 0.024352223252143548 0 0.39536881189699241 0.01378873843063998 0 0.40720094273855439 0.01372602960598159 0 0.40060323373222451 0.0042547197705496897 0 0.39536881189699241 0.01378873843063998 0 0.40720094273855439 0.01372602960598159 0 0.40060323373222451 0.0042547197705496897 0 0.41081432206005303 0.0037114498956348132 0 0.4046584776842293 -0.0050702490882302163 0 0.40060323373222451 0.0042547197705496897 0 0.41081432206005303 0.0037114498956348132 0 0.40720094273855439 0.01372602960598159 0 0.40060323373222451 0.0042547197705496897 0 0.39025836247721268 0.0036292771787240202 0 0.39531848553630572 -0.0042569273994520467 0 0.40060323373222451 0.0042547197705496897 0 0.39536881189699241 0.01378873843063998 0 0.39025836247721268 0.0036292771787240202 0 0.37844401144479839 0.012609093579625891 0 0.38356146703633898 -0.0078565650350033434 0 0.37844401144479839 0.012609093579625891 0 0.39025836247721268 0.0036292771787240202 0 0.38356146703633898 -0.0078565650350033434 0 0.39536881189699241 0.01378873843063998 0 0.37844401144479839 0.012609093579625891 0 0.39025836247721268 0.0036292771787240202 0 0.3912475249538237 0.025882868266216091 0 0.37844401144479839 0.012609093579625891 0 0.38063223185621792 0.036578263657106522 0 0.37844401144479839 0.012609093579625891 0 0.38063223185621792 0.036578263657106522 0 0.37146335928247548 0.04052602251159599 0 0.37844401144479839 0.012609093579625891 0 0.38063223185621792 0.036578263657106522 0 0.3912475249538237 0.025882868266216091 0 0.39536881189699241 0.01378873843063998 0 0.37844401144479839 0.012609093579625891 0 0.37146335928247548 0.04052602251159599 0 0.38063223185621792 0.036578263657106522 0 0.38282045226763678 0.060547433734587333 0 0.3912475249538237 0.025882868266216091 0 0.38063223185621792 0.036578263657106522 0 0.3908528121234538 0.035995570554822158 0 0.38063223185621792 0.036578263657106522 0 0.38791705742610771 0.044539104287684539 0 0.3908528121234538 0.035995570554822158 0 0.38791705742610771 0.044539104287684539 0 0.38282045226763678 0.060547433734587333 0 0.39079668350586277 0.051215399393808793 0 0.37307104071443398 0.061065176941414383 0 0.37146335928247548 0.04052602251159599 0 0.38282045226763678 0.060547433734587333 0 0.38063223185621792 0.036578263657106522 0 0.38791705742610771 0.044539104287684539 0 0.38282045226763678 0.060547433734587333 0 0.38063223185621792 0.036578263657106522 0 0.38282045226763678 0.060547433734587333 0 0.38282045226763678 0.060547433734587333 0 0.39683376059791597 0.058855427163935138 0 0.39079668350586277 0.051215399393808793 0 0.41226619529834591 0.070009779738664735 0 0.39683376059791597 0.058855427163935138 0 0.40948896714378957 0.05055434744181983 0 0.39683376059791597 0.058855427163935138 0 0.39079668350586277 0.051215399393808793 0 0.39674782008621368 0.04348041067995833 0 0.39683376059791597 0.058855427163935138 0 0.39674782008621368 0.04348041067995833 0 0.40948896714378957 0.05055434744181983 0 0.3908528121234538 0.035995570554822158 0 0.39805180056669343 0.032772735105760037 0 0.39674782008621368 0.04348041067995833 0 0.3912475249538237 0.025882868266216091 0 0.3908528121234538 0.035995570554822158 0 0.39805180056669343 0.032772735105760037 0 0.38791705742610771 0.044539104287684539 0 0.3908528121234538 0.035995570554822158 0 0.39674782008621368 0.04348041067995833 0 0.38791705742610771 0.044539104287684539 0 0.39079668350586277 0.051215399393808793 0 0.39674782008621368 0.04348041067995833 0 0.39674782008621368 0.04348041067995833 0 0.40655765028286611 0.035582104639029083 0 0.40948896714378957 0.05055434744181983 0 0.39805180056669343 0.032772735105760037 0 0.39674782008621368 0.04348041067995833 0 0.40655765028286611 0.035582104639029083 0 0.40655765028286611 0.035582104639029083 0 0.41713079569888262 0.040856968430241461 0 0.41557099838193923 0.024039796491718179 0 0.41713079569888262 0.040856968430241461 0 0.42755741698364552 0.032815777208855347 0 0.41557099838193923 0.024039796491718179 0 0.40655765028286611 0.035582104639029083 0 0.41713079569888262 0.040856968430241461 0 0.40948896714378957 0.05055434744181983 0 0.41226619529834591 0.070009779738664735 0 0.40948896714378957 0.05055434744181983 0 0.42739758089851382 0.054541393999090262 0 0.41713079569888262 0.040856968430241461 0 0.40948896714378957 0.05055434744181983 0 0.42739758089851382 0.054541393999090262 0 0.41226619529834591 0.070009779738664735 0 0.42739758089851382 0.054541393999090262 0 0.43300293116684879 0.070359854062556224 0 0.42739758089851382 0.054541393999090262 0 0.44432728466234178 0.059795406129610977 0 0.41713079569888262 0.040856968430241461 0 0.42739758089851382 0.054541393999090262 0 0.42755741698364552 0.032815777208855347 0 0.42739758089851382 0.054541393999090262 0 0.42755741698364552 0.032815777208855347 0 0.44252896649868317 0.039073008259517338 0 0.42739758089851382 0.054541393999090262 0 0.44252896649868317 0.039073008259517338 0 0.42755741698364552 0.032815777208855347 0 0.4358194844604939 0.024219735287320941 0 0.44252896649868317 0.039073008259517338 0 0.42755741698364552 0.032815777208855347 0 0.41557099838193923 0.024039796491718179 0 0.4265644217351573 0.014684511896395219 0 0.4358194844604939 0.024219735287320941 0 0.4265644217351573 0.014684511896395219 0 0.44548351627008242 0.01642882659412407 0 0.42755741698364552 0.032815777208855347 0 0.4358194844604939 0.024219735287320941 0 0.4265644217351573 0.014684511896395219 0 0.41557099838193923 0.024039796491718179 0 0.4165272652869268 0.01155925859927168 0 0.4265644217351573 0.014684511896395219 0 0.41557099838193923 0.024039796491718179 0 0.40720094273855439 0.01372602960598159 0 0.4165272652869268 0.01155925859927168 0 0.40325323122183843 0.024352223252143548 0 0.41557099838193923 0.024039796491718179 0 0.40720094273855439 0.01372602960598159 0 0.40325323122183843 0.024352223252143548 0 0.40655765028286611 0.035582104639029083 0 0.41557099838193923 0.024039796491718179 0 0.41081432206005303 0.0037114498956348132 0 0.40720094273855439 0.01372602960598159 0 0.4165272652869268 0.01155925859927168 0 0.4165272652869268 0.01155925859927168 0 0.42248564151892998 0.0016345051066286029 0 0.4265644217351573 0.014684511896395219 0 0.41081432206005303 0.0037114498956348132 0 0.4165272652869268 0.01155925859927168 0 0.42248564151892998 0.0016345051066286029 0 0.42248564151892998 0.0016345051066286029 0 0.4265644217351573 0.014684511896395219 0 0.4382820622288856 -0.0014159552958160841 0 0.4265644217351573 0.014684511896395219 0 0.44548351627008242 0.01642882659412407 0 0.4382820622288856 -0.0014159552958160841 0 0.45100246047295739 0.0046664116742636159 0 0.44548351627008242 0.01642882659412407 0 0.4382820622288856 -0.0014159552958160841 0 0.45100246047295739 0.0046664116742636159 0 0.44548351627008242 0.01642882659412407 0 0.4580470330794123 0.0188547641718908 0 0.4358194844604939 0.024219735287320941 0 0.4514029071021442 0.02821869916314456 0 0.44548351627008242 0.01642882659412407 0 0.4358194844604939 0.024219735287320941 0 0.4514029071021442 0.02821869916314456 0 0.44252896649868317 0.039073008259517338 0 0.4514029071021442 0.02821869916314456 0 0.44548351627008242 0.01642882659412407 0 0.4580470330794123 0.0188547641718908 0 0.4514029071021442 0.02821869916314456 0 0.4580470330794123 0.0188547641718908 0 0.46553563141862692 0.027383902935855992 0 0.4580470330794123 0.0188547641718908 0 0.46553563141862692 0.027383902935855992 0 0.471035018561343 0.01684384088441979 0 0.4580470330794123 0.0188547641718908 0 0.4620271672997433 0.0081957990277541914 0 0.471035018561343 0.01684384088441979 0 0.4620271672997433 0.0081957990277541914 0 0.47207727543944228 0.0077163925679632076 0 0.45540766643685782 -0.0078732224449345398 0 0.4620271672997433 0.0081957990277541914 0 0.47207727543944228 0.0077163925679632076 0 0.471035018561343 0.01684384088441979 0 0.45100246047295739 0.0046664116742636159 0 0.4620271672997433 0.0081957990277541914 0 0.45540766643685782 -0.0078732224449345398 0 0.45100246047295739 0.0046664116742636159 0 0.4580470330794123 0.0188547641718908 0 0.4620271672997433 0.0081957990277541914 0 0.42739758089851382 0.054541393999090262 0 0.44432728466234178 0.059795406129610977 0 0.44252896649868317 0.039073008259517338 0 0.44432728466234178 0.059795406129610977 0 0.44252896649868317 0.039073008259517338 0 0.46100281088556699 0.043351957730158222 0 0.4514029071021442 0.02821869916314456 0 0.44252896649868317 0.039073008259517338 0 0.46100281088556699 0.043351957730158222 0 0.4514029071021442 0.02821869916314456 0 0.46553563141862692 0.027383902935855992 0 0.46100281088556699 0.043351957730158222 0 0.46553563141862692 0.027383902935855992 0 0.46100281088556699 0.043351957730158222 0 0.4764725540003833 0.035303178421407518 0 0.46368779630991369 0.062884433647911922 0 0.44432728466234178 0.059795406129610977 0 0.46100281088556699 0.043351957730158222 0 0.48297411160829701 0.071419164250366693 0 0.46368779630991369 0.062884433647911922 0 0.48184389815495748 0.047383459182506117 0 0.46368779630991369 0.062884433647911922 0 0.46100281088556699 0.043351957730158222 0 0.48184389815495748 0.047383459182506117 0 0.46368779630991369 0.062884433647911922 0 0.48184389815495748 0.047383459182506117 0 0.46100281088556699 0.043351957730158222 0 0.48184389815495748 0.047383459182506117 0 0.4764725540003833 0.035303178421407518 0 0.48184389815495748 0.047383459182506117 0 0.50000000000000089 0.031882484717099757 0 0.48184389815495748 0.047383459182506117 0 0.50000000000000089 0.031882484717099757 0 0.5 0.058972369132007867 0 0.48184389815495748 0.047383459182506117 0 0.4764725540003833 0.035303178421407518 0 0.50000000000000089 0.031882484717099757 0 0.48297411160829701 0.071419164250366693 0 0.48184389815495748 0.047383459182506117 0 0.5 0.058972369132007867 0 0.48173822001607031 0.002441982684480838 0 0.47207727543944228 0.0077163925679632076 0 0.45540766643685782 -0.0078732224449345398 0 0.48073089036299149 0.01447516008145705 0 0.48088876464914698 0.0066420825236524483 0 0.47207727543944228 0.0077163925679632076 0 0.48088876464914698 0.0066420825236524483 0 0.48173822001607031 0.002441982684480838 0 0.48944624590280772 0.014576472087587141 0 0.48073089036299149 0.01447516008145705 0 0.48088876464914698 0.0066420825236524483 0 0.48944624590280772 0.014576472087587141 0 0.48088876464914698 0.0066420825236524483 0 0.48173822001607031 0.002441982684480838 0 0.47207727543944228 0.0077163925679632076 0 0.48088876464914698 0.0066420825236524483 0 0.48173822001607031 0.002441982684480838 0 0.48073089036299149 0.01447516008145705 0 0.47207727543944228 0.0077163925679632076 0 0.471035018561343 0.01684384088441979 0 0.46553563141862692 0.027383902935855992 0 0.471035018561343 0.01684384088441979 0 0.48098968552297122 0.023479159592672289 0 0.46553563141862692 0.027383902935855992 0 0.4764725540003833 0.035303178421407518 0 0.48098968552297122 0.023479159592672289 0 0.48073089036299149 0.01447516008145705 0 0.471035018561343 0.01684384088441979 0 0.48098968552297122 0.023479159592672289 0 0.48073089036299149 0.01447516008145705 0 0.48098968552297122 0.023479159592672289 0 0.48944624590280772 0.014576472087587141 0 0.50000000000000089 0.031882484717099757 0 0.50000000000000044 0.0095961811708810997 0 0.48944624590280772 0.014576472087587141 0 0.4764725540003833 0.035303178421407518 0 0.50000000000000089 0.031882484717099757 0 0.48098968552297122 0.023479159592672289 0 0.50000000000000089 0.031882484717099757 0 0.48098968552297122 0.023479159592672289 0 0.48944624590280772 0.014576472087587141 0 0.48173822001607031 0.002441982684480838 0 0.50000000000000044 0.0095961811708810997 0 0.48944624590280772 0.014576472087587141 0 0.48173822001607031 0.002441982684480838 0 0.50000000000000044 0.0095961811708810997 0 0.48173822001607031 0.002441982684480838 0 0.50000000000000044 0.0095961811708810997 0 0.5 -0.01553848795347695 0 0.48173822001607031 0.002441982684480838 0 0.5 -0.01553848795347695 0 0.48723509010938909 -0.024737082977995831 0 0.48173822001607031 0.002441982684480838 0 0.48723509010938909 -0.024737082977995831 0 0.48173822001607031 0.002441982684480838 0 0.46944239540012012 -0.021901386132034111 0 0.45540766643685782 -0.0078732224449345398 0 0.48173822001607031 0.002441982684480838 0 0.46944239540012012 -0.021901386132034111 0 0.48723509010938909 -0.024737082977995831 0 0.46944239540012012 -0.021901386132034111 0 0.48723509010938909 -0.024737082977995831 0 0.47311684284700922 -0.039980301183512167 0 0.5 -0.01553848795347695 0 0.48723509010938909 -0.024737082977995831 0 0.5 -0.040673157077835087 0 0.48723509010938909 -0.024737082977995831 0 0.49273196020270971 -0.051916148640471983 0 0.48034048547664182 -0.050194577481915269 0 0.48723509010938909 -0.024737082977995831 0 0.49273196020270971 -0.051916148640471983 0 0.48723509010938909 -0.024737082977995831 0 0.5 -0.040673157077835087 0 0.49273196020270971 -0.051916148640471983 0 0.5 -0.040673157077835087 0 0.49273196020270971 -0.051916148640471983 0 0.5 -0.065807826202193331 0 0.49273196020270971 -0.051916148640471983 0 0.48384360039889979 -0.062204599920787272 0 0.48034048547664182 -0.050194577481915269 0 0.48034048547664182 -0.050194577481915269 0 0.47035120232490191 -0.060528185902064997 0 0.47311684284700922 -0.039980301183512167 0 0.47035120232490191 -0.060528185902064997 0 0.47311684284700922 -0.039980301183512167 0 0.48384360039889979 -0.062204599920787272 0 0.48034048547664182 -0.050194577481915269 0 0.47035120232490191 -0.060528185902064997 0 0.48723509010938909 -0.024737082977995831 0 0.48034048547664182 -0.050194577481915269 0 0.47311684284700922 -0.039980301183512167 0 0.46944239540012012 -0.021901386132034111 0 0.47311684284700922 -0.039980301183512167 0 0.44971415759127392 -0.039358306738208573 0 0.47035120232490191 -0.060528185902064997 0 0.47311684284700922 -0.039980301183512167 0 0.44971415759127392 -0.039358306738208573 0 0.47035120232490191 -0.060528185902064997 0 0.44971415759127392 -0.039358306738208573 0 0.47035120232490191 -0.060528185902064997 0 0.43963483674523918 -0.055334607978488382 0 0.44971415759127392 -0.039358306738208573 0 0.43963483674523918 -0.055334607978488382 0 0.44971415759127392 -0.039358306738208573 0 0.42419530264354072 -0.042652000491910397 0 0.46944239540012012 -0.021901386132034111 0 0.44971415759127392 -0.039358306738208573 0 0.45540766643685782 -0.0078732224449345398 0 0.44971415759127392 -0.039358306738208573 0 0.42907711285764621 -0.01818842757435184 0 0.44971415759127392 -0.039358306738208573 0 0.45540766643685782 -0.0078732224449345398 0 0.42907711285764621 -0.01818842757435184 0 0.45540766643685782 -0.0078732224449345398 0 0.42907711285764621 -0.01818842757435184 0 0.45100246047295739 0.0046664116742636159 0 0.4382820622288856 -0.0014159552958160841 0 0.45540766643685782 -0.0078732224449345398 0 0.4382820622288856 -0.0014159552958160841 0 0.45540766643685782 -0.0078732224449345398 0 0.42907711285764621 -0.01818842757435184 0 0.48173822001607031 0.002441982684480838 0 0.45540766643685782 -0.0078732224449345398 0 0.47129126618897188 -0.1223351355815797 0 0.47148248434309947 -0.114916285604633 0 0.48087269318342413 -0.1216818802472065 0 0.47148248434309947 -0.114916285604633 0 0.48087269318342413 -0.1216818802472065 0 0.47838814501791832 -0.1066654575105275 0 0.48087269318342413 -0.1216818802472065 0 0.48924328608656842 -0.1141618265083332 0 0.47838814501791832 -0.1066654575105275 0 0.5 -0.1122204549214597 0 0.48924328608656842 -0.1141618265083332 0 0.5 -0.13349841451636779 0 0.48087269318342413 -0.1216818802472065 0 0.48924328608656842 -0.1141618265083332 0 0.5 -0.13349841451636779 0 0.5 -0.1122204549214597 0 0.48924328608656842 -0.1141618265083332 0 0.48827073793524339 -0.097774102912636218 0 0.48924328608656842 -0.1141618265083332 0 0.48827073793524339 -0.097774102912636218 0 0.47838814501791832 -0.1066654575105275 0 0.5 -0.1122204549214597 0 0.48827073793524339 -0.097774102912636218 0 0.50000000000000266 -0.090942495326551576 0 0.47652975213937199 -0.091635549067057065 0 0.46683976751390588 -0.086617099886465918 0 0.46456669494636288 -0.10350535152343909 0 0.48827073793524339 -0.097774102912636218 0 0.47838814501791832 -0.1066654575105275 0 0.47652975213937199 -0.091635549067057065 0 0.47148248434309947 -0.114916285604633 0 0.47838814501791832 -0.1066654575105275 0 0.46456669494636288 -0.10350535152343909 0 0.47838814501791832 -0.1066654575105275 0 0.47652975213937199 -0.091635549067057065 0 0.46456669494636288 -0.10350535152343909 0 0.48827073793524339 -0.097774102912636218 0 0.47652975213937199 -0.091635549067057065 0 0.48517560116245317 -0.075735340614307423 0 0.47652975213937199 -0.091635549067057065 0 0.48517560116245317 -0.075735340614307423 0 0.46683976751390588 -0.086617099886465918 0 0.47652975213937199 -0.091635549067057065 0 0.46683976751390588 -0.086617099886465918 0 0.50000000000000266 -0.090942495326551576 0 0.49822883029603021 -0.079095214302948247 0 0.5 -0.065807826202193331 0 0.48827073793524339 -0.097774102912636218 0 0.50000000000000266 -0.090942495326551576 0 0.48517560116245317 -0.075735340614307423 0 0.50000000000000266 -0.090942495326551576 0 0.48517560116245317 -0.075735340614307423 0 0.50000000000000266 -0.090942495326551576 0 0.49822883029603021 -0.079095214302948247 0 0.48517560116245317 -0.075735340614307423 0 0.49273196020270971 -0.051916148640471983 0 0.49822883029603021 -0.079095214302948247 0 0.48384360039889979 -0.062204599920787272 0 0.49822883029603021 -0.079095214302948247 0 0.48517560116245317 -0.075735340614307423 0 0.49273196020270971 -0.051916148640471983 0 0.48384360039889979 -0.062204599920787272 0 0.49822883029603021 -0.079095214302948247 0 0.49273196020270971 -0.051916148640471983 0 0.49822883029603021 -0.079095214302948247 0 0.5 -0.065807826202193331 0 0.47035120232490191 -0.060528185902064997 0 0.48517560116245317 -0.075735340614307423 0 0.47035120232490191 -0.060528185902064997 0 0.48517560116245317 -0.075735340614307423 0 0.46683976751390588 -0.086617099886465918 0 0.48384360039889979 -0.062204599920787272 0 0.47035120232490191 -0.060528185902064997 0 0.48517560116245317 -0.075735340614307423 0 0.47035120232490191 -0.060528185902064997 0 0.46683976751390588 -0.086617099886465918 0 0.47035120232490191 -0.060528185902064997 0 0.44249197108241189 -0.074007360679063244 0 0.46683976751390588 -0.086617099886465918 0 0.47035120232490191 -0.060528185902064997 0 0.43963483674523918 -0.055334607978488382 0 0.44249197108241189 -0.074007360679063244 0 0.44249197108241189 -0.074007360679063244 0 0.46683976751390588 -0.086617099886465918 0 0.4490662803509099 -0.094083529251462475 0 0.44249197108241189 -0.074007360679063244 0 0.4490662803509099 -0.094083529251462475 0 0.42834270349958448 -0.099226311759436261 0 0.44249197108241189 -0.074007360679063244 0 0.46683976751390588 -0.086617099886465918 0 0.46683976751390588 -0.086617099886465918 0 0.46456669494636288 -0.10350535152343909 0 0.4490662803509099 -0.094083529251462475 0 0.46683976751390588 -0.086617099886465918 0 0.46456669494636288 -0.10350535152343909 0 0.46456669494636288 -0.10350535152343909 0 0.4490662803509099 -0.094083529251462475 0 0.44386094964032902 -0.11054798122052439 0 0.4490662803509099 -0.094083529251462475 0 0.44386094964032902 -0.11054798122052439 0 0.42834270349958448 -0.099226311759436261 0 0.44386094964032902 -0.11054798122052439 0 0.46257396642688631 -0.12529077885077469 0 0.45239247298790419 -0.125419693033265 0 0.44386094964032902 -0.11054798122052439 0 0.42916935431308728 -0.1205456085246996 0 0.4435038969132965 -0.12540022695152131 0 0.44386094964032902 -0.11054798122052439 0 0.45239247298790419 -0.125419693033265 0 0.4435038969132965 -0.12540022695152131 0 0.44386094964032902 -0.11054798122052439 0 0.46229362237882032 -0.1203936031604123 0 0.46257396642688631 -0.12529077885077469 0 0.46456669494636288 -0.10350535152343909 0 0.46229362237882032 -0.1203936031604123 0 0.46456669494636288 -0.10350535152343909 0 0.44386094964032902 -0.11054798122052439 0 0.46229362237882032 -0.1203936031604123 0 0.44386094964032902 -0.11054798122052439 0 0.46257396642688631 -0.12529077885077469 0 0.47148248434309947 -0.114916285604633 0 0.46456669494636288 -0.10350535152343909 0 0.46229362237882032 -0.1203936031604123 0 0.47129126618897188 -0.1223351355815797 0 0.46229362237882032 -0.1203936031604123 0 0.46257396642688631 -0.12529077885077469 0 0.47129126618897188 -0.1223351355815797 0 0.47148248434309947 -0.114916285604633 0 0.46229362237882032 -0.1203936031604123 0 0.44386094964032902 -0.11054798122052439 0 0.42916935431308728 -0.1205456085246996 0 0.42834270349958448 -0.099226311759436261 0 0.41143930547928681 -0.11934523636421419 0 0.42916935431308728 -0.1205456085246996 0 0.42834270349958448 -0.099226311759436261 0 0.41143930547928681 -0.11934523636421419 0 0.40555832972599831 -0.095826118330896617 0 0.41143930547928681 -0.11934523636421419 0 0.42834270349958448 -0.099226311759436261 0 0.40555832972599831 -0.095826118330896617 0 0.42834270349958448 -0.099226311759436261 0 0.41884290658632428 -0.080552882507727325 0 0.40555832972599831 -0.095826118330896617 0 0.41884290658632428 -0.080552882507727325 0 0.39967735397270959 -0.072307000297579083 0 0.40555832972599831 -0.095826118330896617 0 0.44249197108241189 -0.074007360679063244 0 0.42834270349958448 -0.099226311759436261 0 0.41884290658632428 -0.080552882507727325 0 0.44249197108241189 -0.074007360679063244 0 0.41814417465091752 -0.061397621471661459 0 0.43963483674523918 -0.055334607978488382 0 0.44249197108241189 -0.074007360679063244 0 0.41814417465091752 -0.061397621471661459 0 0.44249197108241189 -0.074007360679063244 0 0.41884290658632428 -0.080552882507727325 0 0.41814417465091752 -0.061397621471661459 0 0.41884290658632428 -0.080552882507727325 0 0.39967735397270959 -0.072307000297579083 0 0.41814417465091752 -0.061397621471661459 0 0.39967735397270959 -0.072307000297579083 0 0.38669795957132042 -0.057310603286660967 0 0.37240766699872252 -0.068318548019290964 0 0.39967735397270959 -0.072307000297579083 0 0.37781097748786241 -0.089314889372882261 0 0.37240766699872252 -0.068318548019290964 0 0.39967735397270959 -0.072307000297579083 0 0.37781097748786241 -0.089314889372882261 0 0.40555832972599831 -0.095826118330896617 0 0.39967735397270959 -0.072307000297579083 0 0.40555832972599831 -0.095826118330896617 0 0.40555832972599831 -0.095826118330896617 0 0.38953803654933628 -0.10754997095337659 0 0.39823574772599779 -0.11763079726210079 0 0.37781097748786241 -0.089314889372882261 0 0.40555832972599831 -0.095826118330896617 0 0.38953803654933628 -0.10754997095337659 0 0.37781097748786241 -0.089314889372882261 0 0.38953803654933628 -0.10754997095337659 0 0.37644505785585192 -0.1058120404938334 0 0.38953803654933628 -0.10754997095337659 0 0.37644505785585192 -0.1058120404938334 0 0.37720890243704291 -0.12310924361699779 0 0.38953803654933628 -0.10754997095337659 0 0.37720890243704291 -0.12310924361699779 0 0.38918813321375051 -0.12739880168557821 0 0.38953803654933628 -0.10754997095337659 0 0.39823574772599779 -0.11763079726210079 0 0.38918813321375051 -0.12739880168557821 0 0.41143930547928681 -0.11934523636421419 0 0.39823574772599779 -0.11763079726210079 0 0.40257569972698831 -0.13396225485532559 0 0.41143930547928681 -0.11934523636421419 0 0.40555832972599831 -0.095826118330896617 0 0.39823574772599779 -0.11763079726210079 0 0.42011428296152808 -0.02169968792975261 0 0.41401194260749391 -0.028450411104576211 0 0.41343304557213612 -0.018371446868227208 0 0.42011428296152808 -0.02169968792975261 0 0.41343304557213612 -0.018371446868227208 0 0.41928481904255338 -0.01548900553927589 0 0.42011428296152808 -0.02169968792975261 0 0.41928481904255338 -0.01548900553927589 0 0.42542521438275183 -0.0144422395697206 0 0.42011428296152808 -0.02169968792975261 0 0.41401194260749391 -0.028450411104576211 0 0.42742255973229643 -0.030069766767760062 0 0.41401194260749391 -0.028450411104576211 0 0.40522076275047969 -0.019933987949522329 0 0.40044964155059998 -0.029094842751199331 0 0.41401194260749391 -0.028450411104576211 0 0.41343304557213612 -0.018371446868227208 0 0.40522076275047969 -0.019933987949522329 0 0.41343304557213612 -0.018371446868227208 0 0.40806592415966281 -0.01253819616599721 0 0.40522076275047969 -0.019933987949522329 0 0.40806592415966281 -0.01253819616599721 0 0.4135204533098043 -0.0054466611181140526 0 0.41498054603746559 -0.011947546426581419 0 0.41343304557213612 -0.018371446868227208 0 0.40806592415966281 -0.01253819616599721 0 0.41498054603746559 -0.011947546426581419 0 0.41081432206005303 0.0037114498956348132 0 0.4135204533098043 -0.0054466611181140526 0 0.4046584776842293 -0.0050702490882302163 0 0.40806592415966281 -0.01253819616599721 0 0.4135204533098043 -0.0054466611181140526 0 0.4046584776842293 -0.0050702490882302163 0 0.41081432206005303 0.0037114498956348132 0 0.42248564151892998 0.0016345051066286029 0 0.4135204533098043 -0.0054466611181140526 0 0.42248564151892998 0.0016345051066286029 0 0.4135204533098043 -0.0054466611181140526 0 0.42119781252485211 -0.0083000839364812864 0 0.41343304557213612 -0.018371446868227208 0 0.41498054603746559 -0.011947546426581419 0 0.41928481904255338 -0.01548900553927589 0 0.4135204533098043 -0.0054466611181140526 0 0.41498054603746559 -0.011947546426581419 0 0.42119781252485211 -0.0083000839364812864 0 0.41498054603746559 -0.011947546426581419 0 0.42119781252485211 -0.0083000839364812864 0 0.41928481904255338 -0.01548900553927589 0 0.42542521438275183 -0.0144422395697206 0 0.42820760236351979 -0.0076976995852137747 0 0.42907711285764621 -0.01818842757435184 0 0.4382820622288856 -0.0014159552958160841 0 0.42820760236351979 -0.0076976995852137747 0 0.42907711285764621 -0.01818842757435184 0 0.42119781252485211 -0.0083000839364812864 0 0.41928481904255338 -0.01548900553927589 0 0.42542521438275183 -0.0144422395697206 0 0.42248564151892998 0.0016345051066286029 0 0.4382820622288856 -0.0014159552958160841 0 0.42820760236351979 -0.0076976995852137747 0 0.42119781252485211 -0.0083000839364812864 0 0.42542521438275183 -0.0144422395697206 0 0.42820760236351979 -0.0076976995852137747 0 0.42248564151892998 0.0016345051066286029 0 0.42119781252485211 -0.0083000839364812864 0 0.42820760236351979 -0.0076976995852137747 0 0.44971415759127392 -0.039358306738208573 0 0.42907711285764621 -0.01818842757435184 0 0.42742255973229643 -0.030069766767760062 0 0.42011428296152808 -0.02169968792975261 0 0.42907711285764621 -0.01818842757435184 0 0.42742255973229643 -0.030069766767760062 0 0.42011428296152808 -0.02169968792975261 0 0.42542521438275183 -0.0144422395697206 0 0.42907711285764621 -0.01818842757435184 0 0.42011428296152808 -0.02169968792975261 0 0.42907711285764621 -0.01818842757435184 0 0.42542521438275183 -0.0144422395697206 0 0.42907711285764621 -0.01818842757435184 0 0.44971415759127392 -0.039358306738208573 0 0.42742255973229643 -0.030069766767760062 0 0.42419530264354072 -0.042652000491910397 0 0.41401194260749391 -0.028450411104576211 0 0.42742255973229643 -0.030069766767760062 0 0.42419530264354072 -0.042652000491910397 0 0.43963483674523918 -0.055334607978488382 0 0.42419530264354072 -0.042652000491910397 0 0.41814417465091752 -0.061397621471661459 0 0.41814417465091752 -0.061397621471661459 0 0.41107184061272262 -0.047596707948501772 0 0.39379637821942232 -0.04878788226426127 0 0.42419530264354072 -0.042652000491910397 0 0.41814417465091752 -0.061397621471661459 0 0.41107184061272262 -0.047596707948501772 0 0.41401194260749391 -0.028450411104576211 0 0.42419530264354072 -0.042652000491910397 0 0.40815150693701141 -0.037549327566173699 0 0.42419530264354072 -0.042652000491910397 0 0.41107184061272262 -0.047596707948501772 0 0.40815150693701141 -0.037549327566173699 0 0.41401194260749391 -0.028450411104576211 0 0.40815150693701141 -0.037549327566173699 0 0.40044964155059998 -0.029094842751199331 0 0.41107184061272262 -0.047596707948501772 0 0.40815150693701141 -0.037549327566173699 0 0.39379637821942232 -0.04878788226426127 0 0.40815150693701141 -0.037549327566173699 0 0.39379637821942232 -0.04878788226426127 0 0.40044964155059998 -0.029094842751199331 0 0.39379637821942232 -0.04878788226426127 0 0.38867892262788012 -0.028322223649632432 0 0.39379637821942232 -0.04878788226426127 0 0.38867892262788012 -0.028322223649632432 0 0.40044964155059998 -0.029094842751199331 0 0.39967735397270959 -0.072307000297579083 0 0.39379637821942232 -0.04878788226426127 0 0.38669795957132042 -0.057310603286660967 0 0.41814417465091752 -0.061397621471661459 0 0.39379637821942232 -0.04878788226426127 0 0.39967735397270959 -0.072307000297579083 0 0.39379637821942232 -0.04878788226426127 0 0.39967735397270959 -0.072307000297579083 0 0.41814417465091752 -0.061397621471661459 0 0.39379637821942232 -0.04878788226426127 0 0.39379637821942232 -0.04878788226426127 0 0.38896036142985008 -0.046283306103098283 0 0.38669795957132042 -0.057310603286660967 0 0.37839056082150663 -0.050608978831784571 0 0.37240766699872252 -0.068318548019290964 0 0.38669795957132042 -0.057310603286660967 0 0.37839056082150663 -0.050608978831784571 0 0.38896036142985008 -0.046283306103098283 0 0.39379637821942232 -0.04878788226426127 0 0.38669795957132042 -0.057310603286660967 0 0.38896036142985008 -0.046283306103098283 0 0.39379637821942232 -0.04878788226426127 0 0.38896036142985008 -0.046283306103098283 0 0.38867892262788012 -0.028322223649632432 0 0.3834615598562825 -0.037386722635115492 0 0.38896036142985008 -0.046283306103098283 0 0.38867892262788012 -0.028322223649632432 0 0.37839056082150663 -0.050608978831784571 0 0.3834615598562825 -0.037386722635115492 0 0.38896036142985008 -0.046283306103098283 0 0.37839056082150663 -0.050608978831784571 0 0.3834615598562825 -0.037386722635115492 0 0.37356965880113402 -0.040783236975350308 0 0.38867892262788012 -0.028322223649632432 0 0.38356146703633898 -0.0078565650350033434 0 0.3834615598562825 -0.037386722635115492 0 0.37600683512296651 -0.014087071697862221 0 0.37356965880113402 -0.040783236975350308 0 0.3834615598562825 -0.037386722635115492 0 0.38867892262788012 -0.028322223649632432 0 0.37600683512296651 -0.014087071697862221 0 0.38867892262788012 -0.028322223649632432 0 0.37600683512296651 -0.014087071697862221 0 0.38356146703633898 -0.0078565650350033434 0 0.38867892262788012 -0.028322223649632432 0 0.39658225960386179 -0.014459285545308009 0 0.38356146703633898 -0.0078565650350033434 0 0.38867892262788012 -0.028322223649632432 0 0.40044964155059998 -0.029094842751199331 0 0.39658225960386179 -0.014459285545308009 0 0.40522076275047969 -0.019933987949522329 0 0.40044964155059998 -0.029094842751199331 0 0.39658225960386179 -0.014459285545308009 0 0.40806592415966281 -0.01253819616599721 0 0.40522076275047969 -0.019933987949522329 0 0.39658225960386179 -0.014459285545308009 0 0.40060323373222451 0.0042547197705496897 0 0.4046584776842293 -0.0050702490882302163 0 0.39531848553630572 -0.0042569273994520467 0 0.40806592415966281 -0.01253819616599721 0 0.4046584776842293 -0.0050702490882302163 0 0.39658225960386179 -0.014459285545308009 0 0.4046584776842293 -0.0050702490882302163 0 0.39658225960386179 -0.014459285545308009 0 0.39531848553630572 -0.0042569273994520467 0 0.39658225960386179 -0.014459285545308009 0 0.39531848553630572 -0.0042569273994520467 0 0.38356146703633898 -0.0078565650350033434 0 0.39025836247721268 0.0036292771787240202 0 0.39531848553630572 -0.0042569273994520467 0 0.38356146703633898 -0.0078565650350033434 0 0.37844401144479839 0.012609093579625891 0 0.37600683512296651 -0.014087071697862221 0 0.37844401144479839 0.012609093579625891 0 0.37600683512296651 -0.014087071697862221 0 0.38356146703633898 -0.0078565650350033434 0 0.37600683512296651 -0.014087071697862221 0 0.36665723294200347 -0.001883505129568449 0 0.35850646790810559 -0.01395473468271459 0 0.37844401144479839 0.012609093579625891 0 0.37600683512296651 -0.014087071697862221 0 0.36665723294200347 -0.001883505129568449 0 0.36665723294200347 -0.001883505129568449 0 0.35531676971978082 -0.0033532784323768001 0 0.35850646790810559 -0.01395473468271459 0 0.37600683512296651 -0.014087071697862221 0 0.37356965880113402 -0.040783236975350308 0 0.37600683512296651 -0.014087071697862221 0 0.36404947753274258 -0.026706798856440471 0 0.35850646790810559 -0.01395473468271459 0 0.37600683512296651 -0.014087071697862221 0 0.36404947753274258 -0.026706798856440471 0 0.37356965880113402 -0.040783236975350308 0 0.34748556133762742 -0.02738266599094942 0 0.35850646790810559 -0.01395473468271459 0 0.34370628527030811 -0.0115647124322744 0 0.36404947753274258 -0.026706798856440471 0 0.34748556133762742 -0.02738266599094942 0 0.35850646790810559 -0.01395473468271459 0 0.36404947753274258 -0.026706798856440471 0 0.34748556133762742 -0.02738266599094942 0 0.36012817770438982 -0.039413746555128387 0 0.33689267375143878 0.0039255003288513873 0 0.35531676971978082 -0.0033532784323768001 0 0.34370628527030811 -0.0115647124322744 0 0.35531676971978082 -0.0033532784323768001 0 0.35850646790810559 -0.01395473468271459 0 0.34370628527030811 -0.0115647124322744 0 0.33689267375143878 0.0039255003288513873 0 0.34370628527030811 -0.0115647124322744 0 0.32469666258817742 -0.019557632270551 0 0.33689267375143878 0.0039255003288513873 0 0.30352242257352219 0.0039185454548519476 0 0.32469666258817742 -0.019557632270551 0 0.34748556133762742 -0.02738266599094942 0 0.34370628527030811 -0.0115647124322744 0 0.32469666258817742 -0.019557632270551 0 0.34748556133762742 -0.02738266599094942 0 0.32469666258817742 -0.019557632270551 0 0.33457477032001748 -0.043965109755099818 0 0.31326255248553708 -0.043768501277314603 0 0.32924913997341337 -0.063603686862235317 0 0.31014365419524398 -0.06072536978512106 0 0.31326255248553708 -0.043768501277314603 0 0.32924913997341337 -0.063603686862235317 0 0.31326255248553708 -0.043768501277314603 0 0.33457477032001748 -0.043965109755099818 0 0.32924913997341337 -0.063603686862235317 0 0.32469666258817742 -0.019557632270551 0 0.31326255248553708 -0.043768501277314603 0 0.33457477032001748 -0.043965109755099818 0 0.33457477032001748 -0.043965109755099818 0 0.34313363496153881 -0.061193084728204693 0 0.35029003257871461 -0.048624574981710279 0 0.33457477032001748 -0.043965109755099818 0 0.34313363496153881 -0.061193084728204693 0 0.32924913997341337 -0.063603686862235317 0 0.35029003257871461 -0.048624574981710279 0 0.36524615827173029 -0.053571455971191423 0 0.35631850447425872 -0.066333179594821989 0 0.34313363496153881 -0.061193084728204693 0 0.35029003257871461 -0.048624574981710279 0 0.35631850447425872 -0.066333179594821989 0 0.35029003257871461 -0.048624574981710279 0 0.36012817770438982 -0.039413746555128387 0 0.36524615827173029 -0.053571455971191423 0 0.34748556133762742 -0.02738266599094942 0 0.33457477032001748 -0.043965109755099818 0 0.35029003257871461 -0.048624574981710279 0 0.34748556133762742 -0.02738266599094942 0 0.35029003257871461 -0.048624574981710279 0 0.36012817770438982 -0.039413746555128387 0 0.36404947753274258 -0.026706798856440471 0 0.36012817770438982 -0.039413746555128387 0 0.37356965880113402 -0.040783236975350308 0 0.36012817770438982 -0.039413746555128387 0 0.37356965880113402 -0.040783236975350308 0 0.36524615827173029 -0.053571455971191423 0 0.37839056082150663 -0.050608978831784571 0 0.36524615827173029 -0.053571455971191423 0 0.37240766699872252 -0.068318548019290964 0 0.37839056082150663 -0.050608978831784571 0 0.37356965880113402 -0.040783236975350308 0 0.36524615827173029 -0.053571455971191423 0 0.36524615827173029 -0.053571455971191423 0 0.37240766699872252 -0.068318548019290964 0 0.35631850447425872 -0.066333179594821989 0 0.37240766699872252 -0.068318548019290964 0 0.36259903827425999 -0.08213590949324566 0 0.35631850447425872 -0.066333179594821989 0 0.37781097748786241 -0.089314889372882261 0 0.37240766699872252 -0.068318548019290964 0 0.36259903827425999 -0.08213590949324566 0 0.37781097748786241 -0.089314889372882261 0 0.36259903827425999 -0.08213590949324566 0 0.3612223149491664 -0.1032740580320769 0 0.34523572746128989 -0.083438872447156087 0 0.3612223149491664 -0.1032740580320769 0 0.36259903827425999 -0.08213590949324566 0 0.34523572746128989 -0.083438872447156087 0 0.3612223149491664 -0.1032740580320769 0 0.34313363496153881 -0.061193084728204693 0 0.34523572746128989 -0.083438872447156087 0 0.35631850447425872 -0.066333179594821989 0 0.36259903827425999 -0.08213590949324566 0 0.34523572746128989 -0.083438872447156087 0 0.35631850447425872 -0.066333179594821989 0 0.37720890243704291 -0.12310924361699779 0 0.36253108037134668 -0.1248744885805331 0 0.3612223149491664 -0.1032740580320769 0 0.37644505785585192 -0.1058120404938334 0 0.37720890243704291 -0.12310924361699779 0 0.3612223149491664 -0.1032740580320769 0 0.37720890243704291 -0.12310924361699779 0 0.3612223149491664 -0.1032740580320769 0 0.37781097748786241 -0.089314889372882261 0 0.37644505785585192 -0.1058120404938334 0 0.3612223149491664 -0.1032740580320769 0 0.34523572746128989 -0.083438872447156087 0 0.3612223149491664 -0.1032740580320769 0 0.33932087337301742 -0.1007066993955318 0 0.3612223149491664 -0.1032740580320769 0 0.34941185211170689 -0.1127717253903176 0 0.33932087337301742 -0.1007066993955318 0 0.36253108037134668 -0.1248744885805331 0 0.33587402752894302 -0.122350175475488 0 0.36253108037134668 -0.1248744885805331 0 0.34941185211170689 -0.1127717253903176 0 0.33587402752894302 -0.122350175475488 0 0.36253108037134668 -0.1248744885805331 0 0.3612223149491664 -0.1032740580320769 0 0.34941185211170689 -0.1127717253903176 0 0.34941185211170689 -0.1127717253903176 0 0.33587402752894302 -0.122350175475488 0 0.33932087337301742 -0.1007066993955318 0 0.33587402752894302 -0.122350175475488 0 0.33932087337301742 -0.1007066993955318 0 0.31943204723016899 -0.10139701157958859 0 0.33932087337301742 -0.1007066993955318 0 0.31943204723016899 -0.10139701157958859 0 0.32474927095682959 -0.081008353448563344 0 0.33587402752894302 -0.122350175475488 0 0.31943204723016899 -0.10139701157958859 0 0.3092169746865393 -0.1198258623704429 0 0.33587402752894302 -0.122350175475488 0 0.3092169746865393 -0.1198258623704429 0 0.34523572746128989 -0.083438872447156087 0 0.32924913997341337 -0.063603686862235317 0 0.32474927095682959 -0.081008353448563344 0 0.34523572746128989 -0.083438872447156087 0 0.32924913997341337 -0.063603686862235317 0 0.34313363496153881 -0.061193084728204693 0 0.34523572746128989 -0.083438872447156087 0 0.32924913997341337 -0.063603686862235317 0 0.34523572746128989 -0.083438872447156087 0 0.33932087337301742 -0.1007066993955318 0 0.32474927095682959 -0.081008353448563344 0 0.31943204723016899 -0.10139701157958859 0 0.32474927095682959 -0.081008353448563344 0 0.31117343018006932 -0.08835554327446378 0 0.32474927095682959 -0.081008353448563344 0 0.30201438303726968 -0.075929904193525521 0 0.32474927095682959 -0.081008353448563344 0 0.30201438303726968 -0.075929904193525521 0 0.31117343018006932 -0.08835554327446378 0 0.32924913997341337 -0.063603686862235317 0 0.32474927095682959 -0.081008353448563344 0 0.31014365419524398 -0.06072536978512106 0 0.32474927095682959 -0.081008353448563344 0 0.30201438303726968 -0.075929904193525521 0 0.31014365419524398 -0.06072536978512106 0 0.30201438303726968 -0.075929904193525521 0 0.31014365419524398 -0.06072536978512106 0 0.29222542489931519 -0.060978945333093171 0 0.31117343018006932 -0.08835554327446378 0 0.29442961060618023 -0.089764156713605506 0 0.30306705175182019 -0.101009202806625 0 0.30201438303726968 -0.075929904193525521 0 0.31117343018006932 -0.08835554327446378 0 0.29442961060618023 -0.089764156713605506 0 0.29442961060618023 -0.089764156713605506 0 0.28691460331806928 -0.079185378374353493 0 0.27734124638624891 -0.089737863242296378 0 0.30201438303726968 -0.075929904193525521 0 0.29442961060618023 -0.089764156713605506 0 0.28691460331806928 -0.079185378374353493 0 0.30201438303726968 -0.075929904193525521 0 0.27927949511770961 -0.070851454938488739 0 0.29222542489931519 -0.060978945333093171 0 0.30201438303726968 -0.075929904193525521 0 0.27927949511770961 -0.070851454938488739 0 0.30201438303726968 -0.075929904193525521 0 0.28691460331806928 -0.079185378374353493 0 0.27927949511770961 -0.070851454938488739 0 0.28691460331806928 -0.079185378374353493 0 0.27927949511770961 -0.070851454938488739 0 0.27809334201771629 -0.079209584513290715 0 0.28691460331806928 -0.079185378374353493 0 0.27927949511770961 -0.070851454938488739 0 0.27927949511770961 -0.070851454938488739 0 0.27868582307562201 -0.055886184139343542 0 0.29222542489931519 -0.060978945333093171 0 0.31943204723016899 -0.10139701157958859 0 0.3092169746865393 -0.1198258623704429 0 0.30306705175182019 -0.101009202806625 0 0.3092169746865393 -0.1198258623704429 0 0.30306705175182019 -0.101009202806625 0 0.28879183359809052 -0.10393054527906551 0 0.31943204723016899 -0.10139701157958859 0 0.31117343018006932 -0.08835554327446378 0 0.30306705175182019 -0.101009202806625 0 0.28879183359809052 -0.10393054527906551 0 0.28255992184413548 -0.11730154926539781 0 0.27267591943638608 -0.1048970298088977 0 0.29442961060618023 -0.089764156713605506 0 0.28879183359809052 -0.10393054527906551 0 0.27734124638624891 -0.089737863242296378 0 0.29442961060618023 -0.089764156713605506 0 0.30306705175182019 -0.101009202806625 0 0.28879183359809052 -0.10393054527906551 0 0.3092169746865393 -0.1198258623704429 0 0.28255992184413548 -0.11730154926539781 0 0.3092169746865393 -0.1198258623704429 0 0.28879183359809052 -0.10393054527906551 0 0.28255992184413548 -0.11730154926539781 0 0.3092169746865393 -0.1198258623704429 0 0.28255992184413548 -0.11730154926539781 0 0.28721398294742878 -0.13035474923543569 0 0.28255992184413548 -0.11730154926539781 0 0.26776517015272971 -0.1222840496799191 0 0.28721398294742878 -0.13035474923543569 0 0.28255992184413548 -0.11730154926539781 0 0.26776517015272971 -0.1222840496799191 0 0.27267591943638608 -0.1048970298088977 0 0.26776517015272971 -0.1222840496799191 0 0.27267591943638608 -0.1048970298088977 0 0.26047800574605201 -0.11084537767631369 0 0.28879183359809052 -0.10393054527906551 0 0.27267591943638608 -0.1048970298088977 0 0.27734124638624891 -0.089737863242296378 0 0.27267591943638608 -0.1048970298088977 0 0.27734124638624891 -0.089737863242296378 0 0.26256105175446781 -0.092679464148907056 0 0.25771864553297669 -0.099620140202181948 0 0.26047800574605201 -0.11084537767631369 0 0.24375228786211539 -0.116580291014256 0 0.27267591943638608 -0.1048970298088977 0 0.25771864553297669 -0.099620140202181948 0 0.26256105175446781 -0.092679464148907056 0 0.25771864553297669 -0.099620140202181948 0 0.25304747237378489 -0.090741332181114118 0 0.24292322406264641 -0.096552741650977186 0 0.25771864553297669 -0.099620140202181948 0 0.26256105175446781 -0.092679464148907056 0 0.25304747237378489 -0.090741332181114118 0 0.27267591943638608 -0.1048970298088977 0 0.25771864553297669 -0.099620140202181948 0 0.26047800574605201 -0.11084537767631369 0 0.26776517015272971 -0.1222840496799191 0 0.26153006621115998 -0.13421007507225571 0 0.24375228786211539 -0.116580291014256 0 0.26776517015272971 -0.1222840496799191 0 0.24375228786211539 -0.116580291014256 0 0.26776517015272971 -0.1222840496799191 0 0.26047800574605201 -0.11084537767631369 0 0.24375228786211539 -0.116580291014256 0 0.27927949511770961 -0.070851454938488739 0 0.25811154610651499 -0.066123023671663908 0 0.26329678137076351 -0.053405898285071182 0 0.27927949511770961 -0.070851454938488739 0 0.25811154610651499 -0.066123023671663908 0 0.26883802324883782 -0.077063641498024305 0 0.27927949511770961 -0.070851454938488739 0 0.25811154610651499 -0.066123023671663908 0 0.26883802324883782 -0.077063641498024305 0 0.27927949511770961 -0.070851454938488739 0 0.27809334201771629 -0.079209584513290715 0 0.26883802324883782 -0.077063641498024305 0 0.27809334201771629 -0.079209584513290715 0 0.27734124638624891 -0.089737863242296378 0 0.26883802324883782 -0.077063641498024305 0 0.27734124638624891 -0.089737863242296378 0 0.25202197504294188 -0.078400955310045109 0 0.28691460331806928 -0.079185378374353493 0 0.27809334201771629 -0.079209584513290715 0 0.27734124638624891 -0.089737863242296378 0 0.27734124638624891 -0.089737863242296378 0 0.26256105175446781 -0.092679464148907056 0 0.25202197504294188 -0.078400955310045109 0 0.27734124638624891 -0.089737863242296378 0 0.25202197504294188 -0.078400955310045109 0 0.26256105175446781 -0.092679464148907056 0 0.25304747237378489 -0.090741332181114118 0 0.25202197504294188 -0.078400955310045109 0 0.25304747237378489 -0.090741332181114118 0 0.25202197504294188 -0.078400955310045109 0 0.24624903761231479 -0.086847438891893419 0 0.26883802324883782 -0.077063641498024305 0 0.25202197504294188 -0.078400955310045109 0 0.25811154610651499 -0.066123023671663908 0 0.25811154610651499 -0.066123023671663908 0 0.26329678137076351 -0.053405898285071182 0 0.24870160087168189 -0.052882304334001928 0 0.26329678137076351 -0.053405898285071182 0 0.24870160087168189 -0.052882304334001928 0 0.24731406762381819 -0.035960341631652723 0 0.27927949511770961 -0.070851454938488739 0 0.26329678137076351 -0.053405898285071182 0 0.27868582307562201 -0.055886184139343542 0 0.27927949511770961 -0.070851454938488739 0 0.26329678137076351 -0.053405898285071182 0 0.26329678137076351 -0.053405898285071182 0 0.27868582307562201 -0.055886184139343542 0 0.27337213238318842 -0.044040078526876879 0 0.27868582307562201 -0.055886184139343542 0 0.27337213238318842 -0.044040078526876879 0 0.28525528160713332 -0.050154543613187753 0 0.26329678137076351 -0.053405898285071182 0 0.27337213238318842 -0.044040078526876879 0 0.26311483972878968 -0.036713614733010089 0 0.27337213238318842 -0.044040078526876879 0 0.27217486102646721 -0.027861542379398439 0 0.28494473946257981 -0.034556038004921102 0 0.27337213238318842 -0.044040078526876879 0 0.26311483972878968 -0.036713614733010089 0 0.27217486102646721 -0.027861542379398439 0 0.27337213238318842 -0.044040078526876879 0 0.28525528160713332 -0.050154543613187753 0 0.28494473946257981 -0.034556038004921102 0 0.26311483972878968 -0.036713614733010089 0 0.25941635623971138 -0.02230021284205122 0 0.24731406762381819 -0.035960341631652723 0 0.26329678137076351 -0.053405898285071182 0 0.24731406762381819 -0.035960341631652723 0 0.26329678137076351 -0.053405898285071182 0 0.26311483972878968 -0.036713614733010089 0 0.24731406762381819 -0.035960341631652723 0 0.25941635623971138 -0.02230021284205122 0 0.24731406762381819 -0.035960341631652723 0 0.2482857443068576 -0.021714794414400052 0 0.25941635623971138 -0.02230021284205122 0 0.25508119948702751 -0.010083838205662381 0 0.2482857443068576 -0.021714794414400052 0 0.26311483972878968 -0.036713614733010089 0 0.25941635623971138 -0.02230021284205122 0 0.27217486102646721 -0.027861542379398439 0 0.2541426920980116 -0.0036136263454906951 0 0.25508119948702751 -0.010083838205662381 0 0.24138147174972829 -0.0061427828714447699 0 0.2541426920980116 -0.0036136263454906951 0 0.25508119948702751 -0.010083838205662381 0 0.26047117107291767 -0.0019720443344692288 0 0.25446675038947358 0.0029162606258486688 0 0.2541426920980116 -0.0036136263454906951 0 0.26047117107291767 -0.0019720443344692288 0 0.25941635623971138 -0.02230021284205122 0 0.25508119948702751 -0.010083838205662381 0 0.26474460583379889 -0.01023883548432745 0 0.25941635623971138 -0.02230021284205122 0 0.26474460583379889 -0.01023883548432745 0 0.27166734417845928 -0.01430021117376327 0 0.25508119948702751 -0.010083838205662381 0 0.26474460583379889 -0.01023883548432745 0 0.26047117107291767 -0.0019720443344692288 0 0.26474460583379889 -0.01023883548432745 0 0.26047117107291767 -0.0019720443344692288 0 0.27708695819087842 -0.0025378708656911609 0 0.26474460583379889 -0.01023883548432745 0 0.27166734417845928 -0.01430021117376327 0 0.27708695819087842 -0.0025378708656911609 0 0.27166734417845928 -0.01430021117376327 0 0.27708695819087842 -0.0025378708656911609 0 0.28469269166600031 -0.01545933141113482 0 0.27217486102646721 -0.027861542379398439 0 0.28469269166600031 -0.01545933141113482 0 0.28494473946257981 -0.034556038004921102 0 0.25941635623971138 -0.02230021284205122 0 0.27166734417845928 -0.01430021117376327 0 0.27217486102646721 -0.027861542379398439 0 0.27166734417845928 -0.01430021117376327 0 0.27217486102646721 -0.027861542379398439 0 0.28469269166600031 -0.01545933141113482 0 0.28469269166600031 -0.01545933141113482 0 0.29727596499766062 -0.023933315692393788 0 0.28494473946257981 -0.034556038004921102 0 0.30352242257352219 0.0039185454548519476 0 0.28469269166600031 -0.01545933141113482 0 0.29727596499766062 -0.023933315692393788 0 0.30352242257352219 0.0039185454548519476 0 0.27708695819087842 -0.0025378708656911609 0 0.28469269166600031 -0.01545933141113482 0 0.30352242257352219 0.0039185454548519476 0 0.32469666258817742 -0.019557632270551 0 0.29727596499766062 -0.023933315692393788 0 0.32469666258817742 -0.019557632270551 0 0.31326255248553708 -0.043768501277314603 0 0.29727596499766062 -0.023933315692393788 0 0.31326255248553708 -0.043768501277314603 0 0.29727596499766062 -0.023933315692393788 0 0.2968975050950291 -0.045887416406534938 0 0.31326255248553708 -0.043768501277314603 0 0.29727596499766062 -0.023933315692393788 0 0.31326255248553708 -0.043768501277314603 0 0.2968975050950291 -0.045887416406534938 0 0.31014365419524398 -0.06072536978512106 0 0.2968975050950291 -0.045887416406534938 0 0.31014365419524398 -0.06072536978512106 0 0.29222542489931519 -0.060978945333093171 0 0.2968975050950291 -0.045887416406534938 0 0.29222542489931519 -0.060978945333093171 0 0.28525528160713332 -0.050154543613187753 0 0.27868582307562201 -0.055886184139343542 0 0.29222542489931519 -0.060978945333093171 0 0.28525528160713332 -0.050154543613187753 0 0.2968975050950291 -0.045887416406534938 0 0.28525528160713332 -0.050154543613187753 0 0.28494473946257981 -0.034556038004921102 0 0.29727596499766062 -0.023933315692393788 0 0.2968975050950291 -0.045887416406534938 0 0.28494473946257981 -0.034556038004921102 0 0.29579617193404978 -0.19432558104056491 0 0.30588539897632072 -0.22256652654210629 0 0.2776594049058328 -0.2175861504380624 0 0.29579617193404978 -0.19432558104056491 0 0.2776594049058328 -0.2175861504380624 0 0.2764107852420567 -0.19644220614923899 0 0.29579617193404978 -0.19432558104056491 0 0.2764107852420567 -0.19644220614923899 0 0.2792899687438003 -0.18116405860585089 0 0.29579617193404978 -0.19432558104056491 0 0.31045946319455608 -0.20263901644370941 0 0.31057073564158039 -0.17760626025882659 0 0.29579617193404978 -0.19432558104056491 0 0.30588539897632072 -0.22256652654210629 0 0.31045946319455608 -0.20263901644370941 0 0.30588539897632072 -0.22256652654210629 0 0.32020032842118662 -0.2136972324735969 0 0.29579617193404978 -0.19432558104056491 0 0.31045946319455608 -0.20263901644370941 0 0.30588539897632072 -0.22256652654210629 0 0.29681701546221179 -0.23419681124085551 0 0.31597462601859122 -0.25080747204364812 0 0.30111904597271899 -0.2536098058489899 0 0.30588539897632072 -0.22256652654210629 0 0.29681701546221179 -0.23419681124085551 0 0.31597462601859122 -0.25080747204364812 0 0.30588539897632072 -0.22256652654210629 0 0.31597462601859122 -0.25080747204364812 0 0.29681701546221179 -0.23419681124085551 0 0.31597462601859122 -0.25080747204364812 0 0.29681701546221179 -0.23419681124085551 0 0.30111904597271899 -0.2536098058489899 0 0.28456511698073272 -0.25518130134833977 0 0.29681701546221179 -0.23419681124085551 0 0.27830026498091959 -0.23745462562099759 0 0.28456511698073272 -0.25518130134833977 0 0.30588539897632072 -0.22256652654210629 0 0.29681701546221179 -0.23419681124085551 0 0.2776594049058328 -0.2175861504380624 0 0.29681701546221179 -0.23419681124085551 0 0.27830026498091959 -0.23745462562099759 0 0.2776594049058328 -0.2175861504380624 0 0.29681701546221179 -0.23419681124085551 0 0.2776594049058328 -0.2175861504380624 0 0.26584409390649738 -0.23415831621220631 0 0.27830026498091959 -0.23745462562099759 0 0.2776594049058328 -0.2175861504380624 0 0.26584409390649738 -0.23415831621220631 0 0.25658827463044448 -0.2222138965281123 0 0.2776594049058328 -0.2175861504380624 0 0.27830026498091959 -0.23745462562099759 0 0.28456511698073272 -0.25518130134833977 0 0.26629969424128969 -0.25192769388052821 0 0.26584409390649738 -0.23415831621220631 0 0.27830026498091959 -0.23745462562099759 0 0.26629969424128969 -0.25192769388052821 0 0.26584409390649738 -0.23415831621220631 0 0.25037283077400019 -0.2416092145933311 0 0.26629969424128969 -0.25192769388052821 0 0.25037283077400019 -0.2416092145933311 0 0.25658827463044448 -0.2222138965281123 0 0.2446094219978813 -0.2276121794933563 0 0.26584409390649738 -0.23415831621220631 0 0.25037283077400019 -0.2416092145933311 0 0.25658827463044448 -0.2222138965281123 0 0.25658827463044448 -0.2222138965281123 0 0.2776594049058328 -0.2175861504380624 0 0.25850179434945381 -0.20097548963526929 0 0.25658827463044448 -0.2222138965281123 0 0.25850179434945381 -0.20097548963526929 0 0.23907695871134879 -0.21289681242661959 0 0.2776594049058328 -0.2175861504380624 0 0.25850179434945381 -0.20097548963526929 0 0.2776594049058328 -0.2175861504380624 0 0.2764107852420567 -0.19644220614923899 0 0.25850179434945381 -0.20097548963526929 0 0.2764107852420567 -0.19644220614923899 0 0.25850179434945381 -0.20097548963526929 0 0.26539786460737957 -0.18100391429238191 0 0.25850179434945381 -0.20097548963526929 0 0.26539786460737957 -0.18100391429238191 0 0.23934418379307471 -0.18436482883247621 0 0.26539786460737957 -0.18100391429238191 0 0.25449645062408999 -0.16331052089379791 0 0.23934418379307471 -0.18436482883247621 0 0.26539786460737957 -0.18100391429238191 0 0.25449645062408999 -0.16331052089379791 0 0.27043371620885309 -0.16438603764101259 0 0.25449645062408999 -0.16331052089379791 0 0.27043371620885309 -0.16438603764101259 0 0.2633734196266177 -0.15149826902969399 0 0.27043371620885309 -0.16438603764101259 0 0.2792899687438003 -0.18116405860585089 0 0.28570694489177878 -0.1660846355390232 0 0.27043371620885309 -0.16438603764101259 0 0.27930784456020519 -0.15183985913025491 0 0.28570694489177878 -0.1660846355390232 0 0.26539786460737957 -0.18100391429238191 0 0.27043371620885309 -0.16438603764101259 0 0.2792899687438003 -0.18116405860585089 0 0.2764107852420567 -0.19644220614923899 0 0.26539786460737957 -0.18100391429238191 0 0.2792899687438003 -0.18116405860585089 0 0.26153006621115998 -0.13421007507225571 0 0.24375228786211539 -0.116580291014256 0 0.24955680073527009 -0.143898101237383 0 0.26153006621115998 -0.13421007507225571 0 0.24375228786211539 -0.116580291014256 0 0.25449645062408999 -0.16331052089379791 0 0.2633734196266177 -0.15149826902969399 0 0.24955680073527009 -0.143898101237383 0 0.26153006621115998 -0.13421007507225571 0 0.2633734196266177 -0.15149826902969399 0 0.24955680073527009 -0.143898101237383 0 0.27043371620885309 -0.16438603764101259 0 0.2633734196266177 -0.15149826902969399 0 0.27930784456020519 -0.15183985913025491 0 0.27561771784950778 -0.13784369003748159 0 0.28570694489177878 -0.1660846355390232 0 0.26153006621115998 -0.13421007507225571 0 0.27930784456020519 -0.15183985913025491 0 0.27561771784950778 -0.13784369003748159 0 0.27930784456020519 -0.15183985913025491 0 0.27561771784950778 -0.13784369003748159 0 0.28570694489177878 -0.1660846355390232 0 0.26153006621115998 -0.13421007507225571 0 0.2633734196266177 -0.15149826902969399 0 0.27930784456020519 -0.15183985913025491 0 0.26153006621115998 -0.13421007507225571 0 0.27930784456020519 -0.15183985913025491 0 0.26776517015272971 -0.1222840496799191 0 0.27561771784950778 -0.13784369003748159 0 0.28721398294742878 -0.13035474923543569 0 0.26776517015272971 -0.1222840496799191 0 0.26153006621115998 -0.13421007507225571 0 0.27561771784950778 -0.13784369003748159 0 0.27561771784950778 -0.13784369003748159 0 0.28721398294742878 -0.13035474923543569 0 0.28891568690104508 -0.14625428249578579 0 0.28721398294742878 -0.13035474923543569 0 0.28891568690104508 -0.14625428249578579 0 0.29920842625061578 -0.1386190615635868 0 0.28891568690104508 -0.14625428249578579 0 0.29920842625061578 -0.1386190615635868 0 0.29789574789403661 -0.15876522012859751 0 0.27561771784950778 -0.13784369003748159 0 0.28891568690104508 -0.14625428249578579 0 0.28570694489177878 -0.1660846355390232 0 0.30985117626407932 -0.1486491484402036 0 0.29920842625061578 -0.1386190615635868 0 0.29789574789403661 -0.15876522012859751 0 0.30985117626407932 -0.1486491484402036 0 0.29789574789403661 -0.15876522012859751 0 0.3134799250960158 -0.16133035304856411 0 0.30985117626407932 -0.1486491484402036 0 0.29920842625061578 -0.1386190615635868 0 0.31980994510895661 -0.13408045692276491 0 0.3092169746865393 -0.1198258623704429 0 0.28721398294742878 -0.13035474923543569 0 0.29920842625061578 -0.1386190615635868 0 0.3092169746865393 -0.1198258623704429 0 0.29920842625061578 -0.1386190615635868 0 0.31980994510895661 -0.13408045692276491 0 0.29579617193404978 -0.19432558104056491 0 0.2792899687438003 -0.18116405860585089 0 0.28570694489177878 -0.1660846355390232 0 0.29579617193404978 -0.19432558104056491 0 0.28570694489177878 -0.1660846355390232 0 0.29579617193404978 -0.19432558104056491 0 0.28570694489177878 -0.1660846355390232 0 0.29784246694311001 -0.17248502473641619 0 0.28891568690104508 -0.14625428249578579 0 0.28570694489177878 -0.1660846355390232 0 0.29789574789403661 -0.15876522012859751 0 0.28570694489177878 -0.1660846355390232 0 0.29789574789403661 -0.15876522012859751 0 0.29784246694311001 -0.17248502473641619 0 0.29789574789403661 -0.15876522012859751 0 0.31057073564158039 -0.17760626025882659 0 0.3134799250960158 -0.16133035304856411 0 0.29789574789403661 -0.15876522012859751 0 0.31057073564158039 -0.17760626025882659 0 0.29784246694311001 -0.17248502473641619 0 0.29789574789403661 -0.15876522012859751 0 0.31057073564158039 -0.17760626025882659 0 0.29579617193404978 -0.19432558104056491 0 0.31057073564158039 -0.17760626025882659 0 0.29784246694311001 -0.17248502473641619 0 0.31057073564158039 -0.17760626025882659 0 0.33117051957001492 -0.16690810347740409 0 0.33960500058918919 -0.18923554211963439 0 0.31057073564158039 -0.17760626025882659 0 0.32324572338912438 -0.19644730038905581 0 0.3134799250960158 -0.16133035304856411 0 0.33117051957001492 -0.16690810347740409 0 0.32297156368297691 -0.15191279281852399 0 0.31057073564158039 -0.17760626025882659 0 0.3134799250960158 -0.16133035304856411 0 0.33117051957001492 -0.16690810347740409 0 0.33117051957001492 -0.16690810347740409 0 0.34312821131240068 -0.1490342399984359 0 0.35150112372442083 -0.17432517416681301 0 0.33117051957001492 -0.16690810347740409 0 0.35150112372442083 -0.17432517416681301 0 0.33960500058918919 -0.18923554211963439 0 0.33587402752894302 -0.122350175475488 0 0.3092169746865393 -0.1198258623704429 0 0.31980994510895661 -0.13408045692276491 0 0.30985117626407932 -0.1486491484402036 0 0.31980994510895661 -0.13408045692276491 0 0.32297156368297691 -0.15191279281852399 0 0.30985117626407932 -0.1486491484402036 0 0.3134799250960158 -0.16133035304856411 0 0.32297156368297691 -0.15191279281852399 0 0.33117051957001492 -0.16690810347740409 0 0.32297156368297691 -0.15191279281852399 0 0.34312821131240068 -0.1490342399984359 0 0.31980994510895661 -0.13408045692276491 0 0.32297156368297691 -0.15191279281852399 0 0.34312821131240068 -0.1490342399984359 0 0.33587402752894302 -0.122350175475488 0 0.31980994510895661 -0.13408045692276491 0 0.34312821131240068 -0.1490342399984359 0 0.36253108037134668 -0.1248744885805331 0 0.33587402752894302 -0.122350175475488 0 0.3555623608711499 -0.1359942506039106 0 0.33587402752894302 -0.122350175475488 0 0.34312821131240068 -0.1490342399984359 0 0.3555623608711499 -0.1359942506039106 0 0.34312821131240068 -0.1490342399984359 0 0.3555623608711499 -0.1359942506039106 0 0.36858459771950869 -0.15733985743645959 0 0.3555623608711499 -0.1359942506039106 0 0.36652086356581781 -0.12946943863695781 0 0.36858459771950869 -0.15733985743645959 0 0.36652086356581781 -0.12946943863695781 0 0.36858459771950869 -0.15733985743645959 0 0.36652086356581781 -0.12946943863695781 0 0.36858459771950869 -0.15733985743645959 0 0.3787995421462832 -0.1425544525875144 0 0.36652086356581781 -0.12946943863695781 0 0.37808333446084269 -0.1309391893982525 0 0.3787995421462832 -0.1425544525875144 0 0.36253108037134668 -0.1248744885805331 0 0.36652086356581781 -0.12946943863695781 0 0.37808333446084269 -0.1309391893982525 0 0.36253108037134668 -0.1248744885805331 0 0.3555623608711499 -0.1359942506039106 0 0.36652086356581781 -0.12946943863695781 0 0.35150112372442083 -0.17432517416681301 0 0.37064833187319962 -0.1852102762359614 0 0.35587008128221181 -0.19822302573298239 0 0.35150112372442083 -0.17432517416681301 0 0.35587008128221181 -0.19822302573298239 0 0.33960500058918919 -0.18923554211963439 0 0.34312821131240068 -0.1490342399984359 0 0.35150112372442083 -0.17432517416681301 0 0.36858459771950869 -0.15733985743645959 0 0.36858459771950869 -0.15733985743645959 0 0.37064833187319962 -0.1852102762359614 0 0.35150112372442083 -0.17432517416681301 0 0.36858459771950869 -0.15733985743645959 0 0.37064833187319962 -0.1852102762359614 0 0.36858459771950869 -0.15733985743645959 0 0.37064833187319962 -0.1852102762359614 0 0.3834788620725188 -0.17954848884060079 0 0.37064833187319962 -0.1852102762359614 0 0.37271206602689039 -0.21308069503546309 0 0.38139900114097952 -0.20469292352659629 0 0.37064833187319962 -0.1852102762359614 0 0.37271206602689039 -0.21308069503546309 0 0.37064833187319962 -0.1852102762359614 0 0.37271206602689039 -0.21308069503546309 0 0.35587008128221181 -0.19822302573298239 0 0.37271206602689039 -0.21308069503546309 0 0.35603419272415182 -0.2169366224123114 0 0.35587008128221181 -0.19822302573298239 0 0.35603419272415182 -0.2169366224123114 0 0.35587008128221181 -0.19822302573298239 0 0.33592071113666833 -0.21528834051928489 0 0.35587008128221181 -0.19822302573298239 0 0.33960500058918919 -0.18923554211963439 0 0.33592071113666833 -0.21528834051928489 0 0.33960500058918919 -0.18923554211963439 0 0.33592071113666833 -0.21528834051928489 0 0.32324572338912438 -0.19644730038905581 0 0.33592071113666833 -0.21528834051928489 0 0.32324572338912438 -0.19644730038905581 0 0.33592071113666833 -0.21528834051928489 0 0.32020032842118662 -0.2136972324735969 0 0.32324572338912438 -0.19644730038905581 0 0.31045946319455608 -0.20263901644370941 0 0.32020032842118662 -0.2136972324735969 0 0.32324572338912438 -0.19644730038905581 0 0.31057073564158039 -0.17760626025882659 0 0.33960500058918919 -0.18923554211963439 0 0.32324572338912438 -0.19644730038905581 0 0.31045946319455608 -0.20263901644370941 0 0.31057073564158039 -0.17760626025882659 0 0.32324572338912438 -0.19644730038905581 0 0.32549034540926353 -0.23154497847382799 0 0.33517615116993849 -0.24743488902137309 0 0.31597462601859122 -0.25080747204364812 0 0.30588539897632072 -0.22256652654210629 0 0.32549034540926353 -0.23154497847382799 0 0.31597462601859122 -0.25080747204364812 0 0.30588539897632072 -0.22256652654210629 0 0.32020032842118662 -0.2136972324735969 0 0.32549034540926353 -0.23154497847382799 0 0.33592071113666833 -0.21528834051928489 0 0.32020032842118662 -0.2136972324735969 0 0.32549034540926353 -0.23154497847382799 0 0.33592071113666833 -0.21528834051928489 0 0.32549034540926353 -0.23154497847382799 0 0.34859569888421221 -0.23412938064951411 0 0.33592071113666833 -0.21528834051928489 0 0.34859569888421221 -0.23412938064951411 0 0.32549034540926353 -0.23154497847382799 0 0.33517615116993849 -0.24743488902137309 0 0.34859569888421221 -0.23412938064951411 0 0.33517615116993849 -0.24743488902137309 0 0.34859569888421221 -0.23412938064951411 0 0.35185333732921159 -0.25428502110151557 0 0.34859569888421221 -0.23412938064951411 0 0.36075586336603621 -0.2426037127049111 0 0.35185333732921159 -0.25428502110151557 0 0.34859569888421221 -0.23412938064951411 0 0.36291464790978972 -0.22902601310760301 0 0.36075586336603621 -0.2426037127049111 0 0.35603419272415182 -0.2169366224123114 0 0.34859569888421221 -0.23412938064951411 0 0.36291464790978972 -0.22902601310760301 0 0.35603419272415182 -0.2169366224123114 0 0.33592071113666833 -0.21528834051928489 0 0.34859569888421221 -0.23412938064951411 0 0.37271206602689039 -0.21308069503546309 0 0.35603419272415182 -0.2169366224123114 0 0.36291464790978972 -0.22902601310760301 0 0.37271206602689039 -0.21308069503546309 0 0.37477580018058132 -0.24095111383496479 0 0.37555308153547928 -0.22286467051027881 0 0.37271206602689039 -0.21308069503546309 0 0.37477580018058132 -0.24095111383496479 0 0.37271206602689039 -0.21308069503546309 0 0.36291464790978972 -0.22902601310760301 0 0.37477580018058132 -0.24095111383496479 0 0.36075586336603621 -0.2426037127049111 0 0.37477580018058132 -0.24095111383496479 0 0.36563983252638571 -0.25462703483095822 0 0.36291464790978972 -0.22902601310760301 0 0.36075586336603621 -0.2426037127049111 0 0.37477580018058132 -0.24095111383496479 0 0.37477580018058132 -0.24095111383496479 0 0.39321551516580561 -0.23618023300957031 0 0.38725375881062551 -0.25185160038302579 0 0.39321551516580561 -0.23618023300957031 0 0.41087794879613182 -0.2494957955088617 0 0.40741230325918792 -0.23450562481703699 0 0.39321551516580561 -0.23618023300957031 0 0.41087794879613182 -0.2494957955088617 0 0.39321551516580561 -0.23618023300957031 0 0.38725375881062551 -0.25185160038302579 0 0.39640803358832022 -0.25154779433757402 0 0.39321551516580561 -0.23618023300957031 0 0.41087794879613182 -0.2494957955088617 0 0.39640803358832022 -0.25154779433757402 0 0.4055308246994358 -0.22407667781788709 0 0.39424069285124719 -0.22310079746779379 0 0.40434357831770951 -0.21487406561090469 0 0.4055308246994358 -0.22407667781788709 0 0.39424069285124719 -0.22310079746779379 0 0.40741230325918792 -0.23450562481703699 0 0.39321551516580561 -0.23618023300957031 0 0.39424069285124719 -0.22310079746779379 0 0.40741230325918792 -0.23450562481703699 0 0.37477580018058132 -0.24095111383496479 0 0.39321551516580561 -0.23618023300957031 0 0.37555308153547928 -0.22286467051027881 0 0.39424069285124719 -0.22310079746779379 0 0.37555308153547928 -0.22286467051027881 0 0.38300691860546521 -0.21527996176244341 0 0.39321551516580561 -0.23618023300957031 0 0.37555308153547928 -0.22286467051027881 0 0.39321551516580561 -0.23618023300957031 0 0.39424069285124719 -0.22310079746779379 0 0.37555308153547928 -0.22286467051027881 0 0.37271206602689039 -0.21308069503546309 0 0.37555308153547928 -0.22286467051027881 0 0.38300691860546521 -0.21527996176244341 0 0.37271206602689039 -0.21308069503546309 0 0.38139900114097952 -0.20469292352659629 0 0.38300691860546521 -0.21527996176244341 0 0.38139900114097952 -0.20469292352659629 0 0.39078770323730427 -0.19674260859680251 0 0.39112975147272949 -0.2126607222720846 0 0.38139900114097952 -0.20469292352659629 0 0.38300691860546521 -0.21527996176244341 0 0.39112975147272949 -0.2126607222720846 0 0.39424069285124719 -0.22310079746779379 0 0.38300691860546521 -0.21527996176244341 0 0.39112975147272949 -0.2126607222720846 0 0.37064833187319962 -0.1852102762359614 0 0.38139900114097952 -0.20469292352659629 0 0.39078770323730427 -0.19674260859680251 0 0.39078770323730427 -0.19674260859680251 0 0.40475141021500721 -0.1910589369573561 0 0.39510197637232292 -0.1839605883432579 0 0.39078770323730427 -0.19674260859680251 0 0.40426546228868082 -0.20108352786525729 0 0.397631623829106 -0.20634023108626229 0 0.39078770323730427 -0.19674260859680251 0 0.40426546228868082 -0.20108352786525729 0 0.40475141021500721 -0.1910589369573561 0 0.39078770323730427 -0.19674260859680251 0 0.39112975147272949 -0.2126607222720846 0 0.397631623829106 -0.20634023108626229 0 0.39112975147272949 -0.2126607222720846 0 0.397631623829106 -0.20634023108626229 0 0.40434357831770951 -0.21487406561090469 0 0.39424069285124719 -0.22310079746779379 0 0.39112975147272949 -0.2126607222720846 0 0.40434357831770951 -0.21487406561090469 0 0.40426546228868082 -0.20108352786525729 0 0.397631623829106 -0.20634023108626229 0 0.40434357831770951 -0.21487406561090469 0 0.40434357831770951 -0.21487406561090469 0 0.41713092845542321 -0.20900944133272009 0 0.41612672436959858 -0.22382622337581301 0 0.40426546228868082 -0.20108352786525729 0 0.40434357831770951 -0.21487406561090469 0 0.41713092845542321 -0.20900944133272009 0 0.41713092845542321 -0.20900944133272009 0 0.42330136258736267 -0.2174116668913772 0 0.41612672436959858 -0.22382622337581301 0 0.40475141021500721 -0.1910589369573561 0 0.41487892771890261 -0.19826025474908979 0 0.4146572714410397 -0.186958864794112 0 0.40426546228868082 -0.20108352786525729 0 0.41713092845542321 -0.20900944133272009 0 0.41487892771890261 -0.19826025474908979 0 0.40426546228868082 -0.20108352786525729 0 0.40475141021500721 -0.1910589369573561 0 0.41487892771890261 -0.19826025474908979 0 0.41713092845542321 -0.20900944133272009 0 0.41487892771890261 -0.19826025474908979 0 0.42701217502226602 -0.19751647228806199 0 0.41487892771890261 -0.19826025474908979 0 0.42053294087941678 -0.1923617771039739 0 0.42701217502226602 -0.19751647228806199 0 0.42053294087941678 -0.1923617771039739 0 0.4146572714410397 -0.186958864794112 0 0.42558338933545942 -0.1867115165846317 0 0.41487892771890261 -0.19826025474908979 0 0.42053294087941678 -0.1923617771039739 0 0.4146572714410397 -0.186958864794112 0 0.42701217502226602 -0.19751647228806199 0 0.43844209377108118 -0.18689286854296691 0 0.44355474576021348 -0.2050869029196882 0 0.42053294087941678 -0.1923617771039739 0 0.42701217502226602 -0.19751647228806199 0 0.42558338933545942 -0.1867115165846317 0 0.42701217502226602 -0.19751647228806199 0 0.42558338933545942 -0.1867115165846317 0 0.43844209377108118 -0.18689286854296691 0 0.42701217502226602 -0.19751647228806199 0 0.43006687167525981 -0.21185300334864521 0 0.44355474576021348 -0.2050869029196882 0 0.41713092845542321 -0.20900944133272009 0 0.42330136258736267 -0.2174116668913772 0 0.43006687167525981 -0.21185300334864521 0 0.42330136258736267 -0.2174116668913772 0 0.43006687167525981 -0.21185300334864521 0 0.42988092584916948 -0.2249579995083304 0 0.41713092845542321 -0.20900944133272009 0 0.42701217502226602 -0.19751647228806199 0 0.43006687167525981 -0.21185300334864521 0 0.43006687167525981 -0.21185300334864521 0 0.42988092584916948 -0.2249579995083304 0 0.44009267276725389 -0.2176624614444449 0 0.42330136258736267 -0.2174116668913772 0 0.42988092584916948 -0.2249579995083304 0 0.41612672436959858 -0.22382622337581301 0 0.42988092584916948 -0.2249579995083304 0 0.43458399188612801 -0.2397076170126072 0 0.42159465327244361 -0.23640953485310751 0 0.42988092584916948 -0.2249579995083304 0 0.42159465327244361 -0.23640953485310751 0 0.41612672436959858 -0.22382622337581301 0 0.42988092584916948 -0.2249579995083304 0 0.43458399188612801 -0.2397076170126072 0 0.44416109061426973 -0.22983272991065171 0 0.43458399188612801 -0.2397076170126072 0 0.42656562700980838 -0.24831468624349931 0 0.4372088962240912 -0.25169219704383999 0 0.43458399188612801 -0.2397076170126072 0 0.42656562700980838 -0.24831468624349931 0 0.42159465327244361 -0.23640953485310751 0 0.42656562700980838 -0.24831468624349931 0 0.42159465327244361 -0.23640953485310751 0 0.41087794879613182 -0.2494957955088617 0 0.42159465327244361 -0.23640953485310751 0 0.41087794879613182 -0.2494957955088617 0 0.40741230325918792 -0.23450562481703699 0 0.4055308246994358 -0.22407667781788709 0 0.40741230325918792 -0.23450562481703699 0 0.41612672436959858 -0.22382622337581301 0 0.4055308246994358 -0.22407667781788709 0 0.40434357831770951 -0.21487406561090469 0 0.41612672436959858 -0.22382622337581301 0 0.42159465327244361 -0.23640953485310751 0 0.40741230325918792 -0.23450562481703699 0 0.41612672436959858 -0.22382622337581301 0 0.39823574772599779 -0.11763079726210079 0 0.40257569972698831 -0.13396225485532559 0 0.38918813321375051 -0.12739880168557821 0 0.40257569972698831 -0.13396225485532559 0 0.38918813321375051 -0.12739880168557821 0 0.39017348084279901 -0.13955387731924049 0 0.38918813321375051 -0.12739880168557821 0 0.37808333446084269 -0.1309391893982525 0 0.39017348084279901 -0.13955387731924049 0 0.37720890243704291 -0.12310924361699779 0 0.36253108037134668 -0.1248744885805331 0 0.38918813321375051 -0.12739880168557821 0 0.36253108037134668 -0.1248744885805331 0 0.38918813321375051 -0.12739880168557821 0 0.37808333446084269 -0.1309391893982525 0 0.36253108037134668 -0.1248744885805331 0 0.38918813321375051 -0.12739880168557821 0 0.37808333446084269 -0.1309391893982525 0 0.39017348084279901 -0.13955387731924049 0 0.3787995421462832 -0.1425544525875144 0 0.36858459771950869 -0.15733985743645959 0 0.3787995421462832 -0.1425544525875144 0 0.38535727780346091 -0.1527557998392445 0 0.39017348084279901 -0.13955387731924049 0 0.3787995421462832 -0.1425544525875144 0 0.38535727780346091 -0.1527557998392445 0 0.40257569972698831 -0.13396225485532559 0 0.39822107621443897 -0.1501202070538992 0 0.41732028123257531 -0.14286435439753159 0 0.40257569972698831 -0.13396225485532559 0 0.39017348084279901 -0.13955387731924049 0 0.39822107621443897 -0.1501202070538992 0 0.39017348084279901 -0.13955387731924049 0 0.38535727780346091 -0.1527557998392445 0 0.39822107621443897 -0.1501202070538992 0 0.39822107621443897 -0.1501202070538992 0 0.39107178753907162 -0.16851380255406381 0 0.40713652226246821 -0.16744863749245631 0 0.39107178753907162 -0.16851380255406381 0 0.40713652226246821 -0.16744863749245631 0 0.38535727780346091 -0.1527557998392445 0 0.39822107621443897 -0.1501202070538992 0 0.39107178753907162 -0.16851380255406381 0 0.39107178753907162 -0.16851380255406381 0 0.40460499843718001 -0.17902112385493851 0 0.40713652226246821 -0.16744863749245631 0 0.36858459771950869 -0.15733985743645959 0 0.38535727780346091 -0.1527557998392445 0 0.39107178753907162 -0.16851380255406381 0 0.36858459771950869 -0.15733985743645959 0 0.39107178753907162 -0.16851380255406381 0 0.3834788620725188 -0.17954848884060079 0 0.39107178753907162 -0.16851380255406381 0 0.3834788620725188 -0.17954848884060079 0 0.39510197637232292 -0.1839605883432579 0 0.39078770323730427 -0.19674260859680251 0 0.3834788620725188 -0.17954848884060079 0 0.39510197637232292 -0.1839605883432579 0 0.37064833187319962 -0.1852102762359614 0 0.39078770323730427 -0.19674260859680251 0 0.3834788620725188 -0.17954848884060079 0 0.39107178753907162 -0.16851380255406381 0 0.39510197637232292 -0.1839605883432579 0 0.40460499843718001 -0.17902112385493851 0 0.40475141021500721 -0.1910589369573561 0 0.39510197637232292 -0.1839605883432579 0 0.40460499843718001 -0.17902112385493851 0 0.40475141021500721 -0.1910589369573561 0 0.40460499843718001 -0.17902112385493851 0 0.4146572714410397 -0.186958864794112 0 0.40460499843718001 -0.17902112385493851 0 0.41491102279317088 -0.17618591298838529 0 0.4146572714410397 -0.186958864794112 0 0.40460499843718001 -0.17902112385493851 0 0.41491102279317088 -0.17618591298838529 0 0.40713652226246821 -0.16744863749245631 0 0.41491102279317088 -0.17618591298838529 0 0.42527009306055918 -0.1746571334479238 0 0.4232012569858648 -0.16638347243084889 0 0.41491102279317088 -0.17618591298838529 0 0.42095079563492938 -0.18072636251124541 0 0.42527009306055918 -0.1746571334479238 0 0.41491102279317088 -0.17618591298838529 0 0.42095079563492938 -0.18072636251124541 0 0.4146572714410397 -0.186958864794112 0 0.42095079563492938 -0.18072636251124541 0 0.4146572714410397 -0.186958864794112 0 0.42558338933545942 -0.1867115165846317 0 0.43180268423531071 -0.1802632517690351 0 0.42527009306055918 -0.1746571334479238 0 0.44880083799057491 -0.164686103644653 0 0.42095079563492938 -0.18072636251124541 0 0.42558338933545942 -0.1867115165846317 0 0.43180268423531071 -0.1802632517690351 0 0.42558338933545942 -0.1867115165846317 0 0.43180268423531071 -0.1802632517690351 0 0.43844209377108118 -0.18689286854296691 0 0.42095079563492938 -0.18072636251124541 0 0.43180268423531071 -0.1802632517690351 0 0.42527009306055918 -0.1746571334479238 0 0.42527009306055918 -0.1746571334479238 0 0.4232012569858648 -0.16638347243084889 0 0.44880083799057491 -0.164686103644653 0 0.4232012569858648 -0.16638347243084889 0 0.43334283997313311 -0.15135273030925811 0 0.44880083799057491 -0.164686103644653 0 0.4232012569858648 -0.16638347243084889 0 0.44880083799057491 -0.164686103644653 0 0.42527009306055918 -0.1746571334479238 0 0.4232012569858648 -0.16638347243084889 0 0.4232012569858648 -0.16638347243084889 0 0.40713652226246821 -0.16744863749245631 0 0.41732028123257531 -0.14286435439753159 0 0.41491102279317088 -0.17618591298838529 0 0.4232012569858648 -0.16638347243084889 0 0.40713652226246821 -0.16744863749245631 0 0.4232012569858648 -0.16638347243084889 0 0.40713652226246821 -0.16744863749245631 0 0.4232012569858648 -0.16638347243084889 0 0.41732028123257531 -0.14286435439753159 0 0.39822107621443897 -0.1501202070538992 0 0.40713652226246821 -0.16744863749245631 0 0.41732028123257531 -0.14286435439753159 0 0.41732028123257531 -0.14286435439753159 0 0.43334283997313311 -0.15135273030925811 0 0.43763345530417341 -0.13584027725706749 0 0.4232012569858648 -0.16638347243084889 0 0.41732028123257531 -0.14286435439753159 0 0.43334283997313311 -0.15135273030925811 0 0.42916935431308728 -0.1205456085246996 0 0.41732028123257531 -0.14286435439753159 0 0.43763345530417341 -0.13584027725706749 0 0.42916935431308728 -0.1205456085246996 0 0.4435038969132965 -0.12540022695152131 0 0.43763345530417341 -0.13584027725706749 0 0.41143930547928681 -0.11934523636421419 0 0.42916935431308728 -0.1205456085246996 0 0.41732028123257531 -0.14286435439753159 0 0.41143930547928681 -0.11934523636421419 0 0.40257569972698831 -0.13396225485532559 0 0.41732028123257531 -0.14286435439753159 0 0.41143930547928681 -0.11934523636421419 0 0.41732028123257531 -0.14286435439753159 0 0.46257396642688631 -0.12529077885077469 0 0.46381730130484328 -0.1363472541609663 0 0.4585659370706795 -0.1308283620105129 0 0.46381730130484328 -0.1363472541609663 0 0.4585659370706795 -0.1308283620105129 0 0.45274550479158487 -0.1345999168850856 0 0.46381730130484328 -0.1363472541609663 0 0.45274550479158487 -0.1345999168850856 0 0.46138481906560302 -0.14686228775601681 0 0.46257396642688631 -0.12529077885077469 0 0.4585659370706795 -0.1308283620105129 0 0.45239247298790419 -0.125419693033265 0 0.4585659370706795 -0.1308283620105129 0 0.45239247298790419 -0.125419693033265 0 0.45274550479158487 -0.1345999168850856 0 0.45239247298790419 -0.125419693033265 0 0.4435038969132965 -0.12540022695152131 0 0.45274550479158487 -0.1345999168850856 0 0.4435038969132965 -0.12540022695152131 0 0.43763345530417341 -0.13584027725706749 0 0.45274550479158487 -0.1345999168850856 0 0.43763345530417341 -0.13584027725706749 0 0.45274550479158487 -0.1345999168850856 0 0.44678149142501389 -0.1466682631704162 0 0.43334283997313311 -0.15135273030925811 0 0.44678149142501389 -0.1466682631704162 0 0.44880083799057491 -0.164686103644653 0 0.44678149142501389 -0.1466682631704162 0 0.46138481906560302 -0.14686228775601681 0 0.44880083799057491 -0.164686103644653 0 0.43334283997313311 -0.15135273030925811 0 0.43763345530417341 -0.13584027725706749 0 0.44678149142501389 -0.1466682631704162 0 0.45274550479158487 -0.1345999168850856 0 0.44678149142501389 -0.1466682631704162 0 0.46138481906560302 -0.14686228775601681 0 0.46138481906560302 -0.14686228775601681 0 0.44880083799057491 -0.164686103644653 0 0.47440041899528501 -0.16298873485845719 0 0.44880083799057491 -0.164686103644653 0 0.46834799031954211 -0.17915452781490099 0 0.47440041899528501 -0.16298873485845719 0 0.44880083799057491 -0.164686103644653 0 0.47440041899528501 -0.16298873485845719 0 0.43180268423531071 -0.1802632517690351 0 0.44880083799057491 -0.164686103644653 0 0.43844209377108118 -0.18689286854296691 0 0.44880083799057491 -0.164686103644653 0 0.43844209377108118 -0.18689286854296691 0 0.45508032593701309 -0.1914137801830845 0 0.44880083799057491 -0.164686103644653 0 0.46834799031954211 -0.17915452781490099 0 0.45508032593701309 -0.1914137801830845 0 0.46834799031954211 -0.17915452781490099 0 0.48419704391512092 -0.17843144908975531 0 0.47440041899528501 -0.16298873485845719 0 0.46834799031954211 -0.17915452781490099 0 0.48419704391512092 -0.17843144908975531 0 0.47823681026078202 -0.19812675643970101 0 0.48419704391512092 -0.17843144908975531 0 0.49999999999999523 -0.16129136607226169 0 0.5 -0.1905958602634561 0 0.49999999999999523 -0.16129136607226169 0 0.47440041899528501 -0.16298873485845719 0 0.50000000000000067 -0.1547763741112759 0 0.48419704391512092 -0.17843144908975531 0 0.49999999999999523 -0.16129136607226169 0 0.47440041899528501 -0.16298873485845719 0 0.49999999999999523 -0.16129136607226169 0 0.47440041899528501 -0.16298873485845719 0 0.46138481906560302 -0.14686228775601681 0 0.47440041899528501 -0.16298873485845719 0 0.48128698321344371 -0.14003357648102521 0 0.46381730130484328 -0.1363472541609663 0 0.46138481906560302 -0.14686228775601681 0 0.48128698321344371 -0.14003357648102521 0 0.50000000000000067 -0.1547763741112759 0 0.48128698321344371 -0.14003357648102521 0 0.50000000000000067 -0.1547763741112759 0 0.5 -0.13349841451636779 0 0.48128698321344371 -0.14003357648102521 0 0.47440041899528501 -0.16298873485845719 0 0.50000000000000067 -0.1547763741112759 0 0.48128698321344371 -0.14003357648102521 0 0.48087269318342413 -0.1216818802472065 0 0.5 -0.13349841451636779 0 0.48128698321344371 -0.14003357648102521 0 0.46257396642688631 -0.12529077885077469 0 0.48128698321344371 -0.14003357648102521 0 0.46257396642688631 -0.12529077885077469 0 0.46381730130484328 -0.1363472541609663 0 0.48128698321344371 -0.14003357648102521 0 0.47129126618897188 -0.1223351355815797 0 0.48087269318342413 -0.1216818802472065 0 0.48128698321344371 -0.14003357648102521 0 0.47129126618897188 -0.1223351355815797 0 0.46257396642688631 -0.12529077885077469 0 0.48128698321344371 -0.14003357648102521 0 0.46029750420545162 -0.23134667767863379 0 0.45079963313025367 -0.219495204315066 0 0.46126535540865482 -0.21094244298034759 0 0.46029750420545162 -0.23134667767863379 0 0.46126535540865482 -0.21094244298034759 0 0.47937109712497578 -0.22608105856418539 0 0.46029750420545162 -0.23134667767863379 0 0.44856132313442931 -0.24393079079591279 0 0.47387431588802909 -0.25499376211151131 0 0.46029750420545162 -0.23134667767863379 0 0.44856132313442931 -0.24393079079591279 0 0.44416109061426973 -0.22983272991065171 0 0.43458399188612801 -0.2397076170126072 0 0.44856132313442931 -0.24393079079591279 0 0.4372088962240912 -0.25169219704383999 0 0.43458399188612801 -0.2397076170126072 0 0.44856132313442931 -0.24393079079591279 0 0.44416109061426973 -0.22983272991065171 0 0.46029750420545162 -0.23134667767863379 0 0.44416109061426973 -0.22983272991065171 0 0.45079963313025367 -0.219495204315066 0 0.44416109061426973 -0.22983272991065171 0 0.45079963313025367 -0.219495204315066 0 0.44009267276725389 -0.2176624614444449 0 0.42988092584916948 -0.2249579995083304 0 0.44416109061426973 -0.22983272991065171 0 0.44009267276725389 -0.2176624614444449 0 0.45079963313025367 -0.219495204315066 0 0.44355474576021348 -0.2050869029196882 0 0.46126535540865482 -0.21094244298034759 0 0.43006687167525981 -0.21185300334864521 0 0.44009267276725389 -0.2176624614444449 0 0.44355474576021348 -0.2050869029196882 0 0.45079963313025367 -0.219495204315066 0 0.44009267276725389 -0.2176624614444449 0 0.44355474576021348 -0.2050869029196882 0 0.43844209377108118 -0.18689286854296691 0 0.44355474576021348 -0.2050869029196882 0 0.45508032593701309 -0.1914137801830845 0 0.46834799031954211 -0.17915452781490099 0 0.45508032593701309 -0.1914137801830845 0 0.47823681026078202 -0.19812675643970101 0 0.44355474576021348 -0.2050869029196882 0 0.45508032593701309 -0.1914137801830845 0 0.46126535540865482 -0.21094244298034759 0 0.45508032593701309 -0.1914137801830845 0 0.46126535540865482 -0.21094244298034759 0 0.47823681026078202 -0.19812675643970101 0 0.46126535540865482 -0.21094244298034759 0 0.47823681026078202 -0.19812675643970101 0 0.47937109712497578 -0.22608105856418539 0 0.48419704391512092 -0.17843144908975531 0 0.47823681026078202 -0.19812675643970101 0 0.5 -0.1905958602634561 0 0.47823681026078202 -0.19812675643970101 0 0.5 -0.1905958602634561 0 0.5 -0.21990035445465039 0 0.47823681026078202 -0.19812675643970101 0 0.5 -0.21990035445465039 0 0.47937109712497578 -0.22608105856418539 0 0.5 -0.21990035445465039 0 0.47937109712497578 -0.22608105856418539 0 0.50000000000000444 -0.24920484864584491 0 0.46029750420545162 -0.23134667767863379 0 0.47937109712497578 -0.22608105856418539 0 0.47387431588802909 -0.25499376211151131 0 0.47937109712497578 -0.22608105856418539 0 0.50000000000000444 -0.24920484864584491 0 0.47387431588802909 -0.25499376211151131 0 0.50000000000000444 -0.24920484864584491 0 0.4915669900217115 -0.25615479242606781 0 0.5 -0.27170772691138367 0 0.50000000000000444 -0.24920484864584491 0 0.4915669900217115 -0.25615479242606781 0 0.47387431588802909 -0.25499376211151131 0 0.50000000000000444 -0.24920484864584491 0 0.47387431588802909 -0.25499376211151131 0 0.4915669900217115 -0.25615479242606781 0 0.48280749151585822 -0.27129304150170008 0 0.47954864786353962 -0.26301133191085868 0 0.4915669900217115 -0.25615479242606781 0 0.5 -0.27170772691138367 0 0.48280749151585822 -0.27129304150170008 0 0.5 -0.27170772691138367 0 0.48280749151585822 -0.27129304150170008 0 0.48951500520952212 -0.28458010338455908 0 0.48280749151585822 -0.27129304150170008 0 0.47474596181800061 -0.28621450290334632 0 0.48951500520952212 -0.28458010338455908 0 0.48280749151585822 -0.27129304150170008 0 0.47416229901770612 -0.26612875971404459 0 0.47954864786353962 -0.26301133191085868 0 0.48280749151585822 -0.27129304150170008 0 0.47416229901770612 -0.26612875971404459 0 0.47052118473631321 -0.27447720361836658 0 0.47416229901770612 -0.26612875971404459 0 0.47052118473631321 -0.27447720361836658 0 0.46319689217890331 -0.26835660325056299 0 0.48280749151585822 -0.27129304150170008 0 0.47052118473631321 -0.27447720361836658 0 0.47474596181800061 -0.28621450290334632 0 0.4915669900217115 -0.25615479242606781 0 0.46965781089888248 -0.25846873400162218 0 0.4915669900217115 -0.25615479242606781 0 0.47387431588802909 -0.25499376211151131 0 0.46965781089888248 -0.25846873400162218 0 0.4915669900217115 -0.25615479242606781 0 0.47954864786353962 -0.26301133191085868 0 0.46965781089888248 -0.25846873400162218 0 0.47416229901770612 -0.26612875971404459 0 0.47954864786353962 -0.26301133191085868 0 0.46965781089888248 -0.25846873400162218 0 0.47416229901770612 -0.26612875971404459 0 0.46965781089888248 -0.25846873400162218 0 0.46319689217890331 -0.26835660325056299 0 0.46965781089888248 -0.25846873400162218 0 0.46319689217890331 -0.26835660325056299 0 0.4477486317760534 -0.26078267557717671 0 0.44856132313442931 -0.24393079079591279 0 0.47387431588802909 -0.25499376211151131 0 0.4477486317760534 -0.26078267557717671 0 0.47387431588802909 -0.25499376211151131 0 0.4477486317760534 -0.26078267557717671 0 0.46965781089888248 -0.25846873400162218 0 0.4477486317760534 -0.26078267557717671 0 0.47387431588802909 -0.25499376211151131 0 0.46965781089888248 -0.25846873400162218 0 0.4477486317760534 -0.26078267557717671 0 0.47052118473631321 -0.27447720361836658 0 0.45389453446556111 -0.28192564334160541 0 0.47474596181800061 -0.28621450290334632 0 0.47052118473631321 -0.27447720361836658 0 0.46319689217890331 -0.26835660325056299 0 0.45389453446556111 -0.28192564334160541 0 0.46319689217890331 -0.26835660325056299 0 0.4477486317760534 -0.26078267557717671 0 0.45389453446556111 -0.28192564334160541 0 0.45389453446556111 -0.28192564334160541 0 0.430823863629894 -0.26453285558412298 0 0.45389453446556111 -0.28192564334160541 0 0.430823863629894 -0.26453285558412298 0 0.43570592202634773 -0.28205449164250063 0 0.4477486317760534 -0.26078267557717671 0 0.45389453446556111 -0.28192564334160541 0 0.430823863629894 -0.26453285558412298 0 0.4477486317760534 -0.26078267557717671 0 0.42854038242645709 -0.26281135800815408 0 0.44856132313442931 -0.24393079079591279 0 0.4477486317760534 -0.26078267557717671 0 0.4372088962240912 -0.25169219704383999 0 0.4477486317760534 -0.26078267557717671 0 0.42854038242645709 -0.26281135800815408 0 0.4372088962240912 -0.25169219704383999 0 0.4477486317760534 -0.26078267557717671 0 0.430823863629894 -0.26453285558412298 0 0.44815314542162782 -0.30273998798419938 0 0.44271266904340639 -0.31513600928105973 0 0.43092107089682352 -0.30573631325696571 0 0.44815314542162782 -0.30273998798419938 0 0.43874415768382158 -0.29310671547163403 0 0.43092107089682352 -0.30573631325696571 0 0.43874415768382158 -0.29310671547163403 0 0.45389453446556111 -0.28192564334160541 0 0.43570592202634773 -0.28205449164250063 0 0.44815314542162782 -0.30273998798419938 0 0.43874415768382158 -0.29310671547163403 0 0.45389453446556111 -0.28192564334160541 0 0.45389453446556111 -0.28192564334160541 0 0.46668010371271101 -0.29937682325086112 0 0.47474596181800061 -0.28621450290334632 0 0.44815314542162782 -0.30273998798419938 0 0.45389453446556111 -0.28192564334160541 0 0.46668010371271101 -0.29937682325086112 0 0.46668010371271101 -0.29937682325086112 0 0.45907432653114449 -0.32014896664993769 0 0.44815314542162782 -0.30273998798419938 0 0.46668010371271101 -0.29937682325086112 0 0.45907432653114449 -0.32014896664993769 0 0.46668010371271101 -0.29937682325086112 0 0.48375110351916628 -0.30725513966339157 0 0.45907432653114449 -0.32014896664993769 0 0.46668010371271101 -0.29937682325086112 0 0.48375110351916628 -0.30725513966339157 0 0.47474596181800061 -0.28621450290334632 0 0.48375110351916628 -0.30725513966339157 0 0.47474596181800061 -0.28621450290334632 0 0.48951500520952212 -0.28458010338455908 0 0.48375110351916628 -0.30725513966339157 0 0.5 -0.29421060517692271 0 0.48951500520952212 -0.28458010338455908 0 0.5 -0.27170772691138367 0 0.5 -0.29421060517692271 0 0.48951500520952212 -0.28458010338455908 0 0.48375110351916628 -0.30725513966339157 0 0.5 -0.29421060517692271 0 0.49999999999999972 -0.31671348344246159 0 0.48375110351916628 -0.30725513966339157 0 0.49999999999999972 -0.31671348344246159 0 0.48658745812515303 -0.32591538654610069 0 0.49999999999999972 -0.31671348344246159 0 0.49107839048707969 -0.33844651150006611 0 0.49999999999999972 -0.31671348344246159 0 0.48658745812515303 -0.32591538654610069 0 0.49107839048707969 -0.33844651150006611 0 0.49999999999999972 -0.31671348344246159 0 0.5 -0.34354646621870782 0 0.49107839048707969 -0.33844651150006611 0 0.48658745812515303 -0.32591538654610069 0 0.49107839048707969 -0.33844651150006611 0 0.48013111160135669 -0.33592777501669763 0 0.48658745812515303 -0.32591538654610069 0 0.48013111160135669 -0.33592777501669763 0 0.47588582758327369 -0.32632043512378739 0 0.48013111160135669 -0.33592777501669763 0 0.46883970942210401 -0.33989811375075968 0 0.47588582758327369 -0.32632043512378739 0 0.48375110351916628 -0.30725513966339157 0 0.48658745812515303 -0.32591538654610069 0 0.47588582758327369 -0.32632043512378739 0 0.48375110351916628 -0.30725513966339157 0 0.47588582758327369 -0.32632043512378739 0 0.45907432653114449 -0.32014896664993769 0 0.5 -0.37037944899495368 0 0.48466784746851571 -0.3739080713738358 0 0.48215678097416009 -0.36017953955767068 0 0.5 -0.34354646621870782 0 0.49107839048707969 -0.33844651150006611 0 0.48215678097416009 -0.36017953955767068 0 0.49107839048707969 -0.33844651150006611 0 0.48013111160135669 -0.33592777501669763 0 0.48215678097416009 -0.36017953955767068 0 0.5 -0.34354646621870782 0 0.5 -0.37037944899495368 0 0.48215678097416009 -0.36017953955767068 0 0.49107839048707969 -0.33844651150006611 0 0.48215678097416009 -0.36017953955767068 0 0.48013111160135669 -0.33592777501669763 0 0.46883970942210401 -0.33989811375075968 0 0.48215678097416009 -0.36017953955767068 0 0.46883970942210401 -0.33989811375075968 0 0.48215678097416009 -0.36017953955767068 0 0.46166172922915721 -0.35810144835948332 0 0.48215678097416009 -0.36017953955767068 0 0.47323517146124039 -0.38191256761527542 0 0.48215678097416009 -0.36017953955767068 0 0.4671179630262795 -0.37324494563770522 0 0.47323517146124039 -0.38191256761527542 0 0.48466784746851571 -0.3739080713738358 0 0.48215678097416009 -0.36017953955767068 0 0.47323517146124039 -0.38191256761527542 0 0.48215678097416009 -0.36017953955767068 0 0.4671179630262795 -0.37324494563770522 0 0.46166172922915721 -0.35810144835948332 0 0.45652460043480969 -0.37267172771365881 0 0.46166172922915721 -0.35810144835948332 0 0.44386277216801179 -0.36169325344809122 0 0.45652460043480969 -0.37267172771365881 0 0.4671179630262795 -0.37324494563770522 0 0.46166172922915721 -0.35810144835948332 0 0.46883970942210401 -0.33989811375075968 0 0.46166172922915721 -0.35810144835948332 0 0.45146854934957792 -0.34092111004901438 0 0.43963091224731599 -0.34751792105314822 0 0.44386277216801179 -0.36169325344809122 0 0.45146854934957792 -0.34092111004901438 0 0.44386277216801179 -0.36169325344809122 0 0.45146854934957792 -0.34092111004901438 0 0.46166172922915721 -0.35810144835948332 0 0.44386277216801179 -0.36169325344809122 0 0.45146854934957792 -0.34092111004901438 0 0.44386277216801179 -0.36169325344809122 0 0.43376943787959182 -0.36708850497004442 0 0.43808065797110041 -0.37748478958974491 0 0.45652460043480969 -0.37267172771365881 0 0.44386277216801179 -0.36169325344809122 0 0.44783900322824399 -0.38008781189722518 0 0.44386277216801179 -0.36169325344809122 0 0.43808065797110041 -0.37748478958974491 0 0.44386277216801179 -0.36169325344809122 0 0.43808065797110041 -0.37748478958974491 0 0.44783900322824399 -0.38008781189722518 0 0.45652460043480969 -0.37267172771365881 0 0.44386277216801179 -0.36169325344809122 0 0.46883970942210401 -0.33989811375075968 0 0.45907432653114449 -0.32014896664993769 0 0.45146854934957792 -0.34092111004901438 0 0.45907432653114449 -0.32014896664993769 0 0.45146854934957792 -0.34092111004901438 0 0.46883970942210401 -0.33989811375075968 0 0.47588582758327369 -0.32632043512378739 0 0.45907432653114449 -0.32014896664993769 0 0.43963091224731599 -0.34751792105314822 0 0.45146854934957792 -0.34092111004901438 0 0.43565299676263758 -0.3352386806192425 0 0.45146854934957792 -0.34092111004901438 0 0.44493724809618768 -0.32603283426431229 0 0.43565299676263758 -0.3352386806192425 0 0.45907432653114449 -0.32014896664993769 0 0.45146854934957792 -0.34092111004901438 0 0.44493724809618768 -0.32603283426431229 0 0.45907432653114449 -0.32014896664993769 0 0.44493724809618768 -0.32603283426431229 0 0.44271266904340639 -0.31513600928105973 0 0.44493724809618768 -0.32603283426431229 0 0.44271266904340639 -0.31513600928105973 0 0.43047755427124879 -0.32102194424988317 0 0.44815314542162782 -0.30273998798419938 0 0.45907432653114449 -0.32014896664993769 0 0.44271266904340639 -0.31513600928105973 0 0.44271266904340639 -0.31513600928105973 0 0.43047755427124879 -0.32102194424988317 0 0.43092107089682352 -0.30573631325696571 0 0.43047755427124879 -0.32102194424988317 0 0.41919911313656122 -0.31385112706466711 0 0.41739686236043672 -0.32199345155319897 0 0.43047755427124879 -0.32102194424988317 0 0.41919911313656122 -0.31385112706466711 0 0.43092107089682352 -0.30573631325696571 0 0.43047755427124879 -0.32102194424988317 0 0.42053718701310799 -0.32957674384091618 0 0.41739686236043672 -0.32199345155319897 0 0.44493724809618768 -0.32603283426431229 0 0.43047755427124879 -0.32102194424988317 0 0.43565299676263758 -0.3352386806192425 0 0.43565299676263758 -0.3352386806192425 0 0.42053718701310799 -0.32957674384091618 0 0.4250793590774925 -0.34540704162396091 0 0.43963091224731599 -0.34751792105314822 0 0.43565299676263758 -0.3352386806192425 0 0.4250793590774925 -0.34540704162396091 0 0.43047755427124879 -0.32102194424988317 0 0.43565299676263758 -0.3352386806192425 0 0.42053718701310799 -0.32957674384091618 0 0.4062959459869725 -0.32912082979983148 0 0.4250793590774925 -0.34540704162396091 0 0.41055923831377589 -0.34398547157316572 0 0.42053718701310799 -0.32957674384091618 0 0.4062959459869725 -0.32912082979983148 0 0.4250793590774925 -0.34540704162396091 0 0.4062959459869725 -0.32912082979983148 0 0.4250793590774925 -0.34540704162396091 0 0.42053718701310799 -0.32957674384091618 0 0.4062959459869725 -0.32912082979983148 0 0.40802480504278882 -0.32457497099322458 0 0.4062959459869725 -0.32912082979983148 0 0.40802480504278882 -0.32457497099322458 0 0.4062959459869725 -0.32912082979983148 0 0.40802480504278882 -0.32457497099322458 0 0.40572459905769331 -0.31910551143285631 0 0.40802480504278882 -0.32457497099322458 0 0.4119015194344513 -0.31818912214386269 0 0.41739686236043672 -0.32199345155319897 0 0.40802480504278882 -0.32457497099322458 0 0.4119015194344513 -0.31818912214386269 0 0.40572459905769331 -0.31910551143285631 0 0.4119015194344513 -0.31818912214386269 0 0.41919911313656122 -0.31385112706466711 0 0.40916221757477672 -0.31142054967536659 0 0.4119015194344513 -0.31818912214386269 0 0.40572459905769331 -0.31910551143285631 0 0.40916221757477672 -0.31142054967536659 0 0.4119015194344513 -0.31818912214386269 0 0.41919911313656122 -0.31385112706466711 0 0.41739686236043672 -0.32199345155319897 0 0.42053718701310799 -0.32957674384091618 0 0.40802480504278882 -0.32457497099322458 0 0.41739686236043672 -0.32199345155319897 0 0.44386277216801179 -0.36169325344809122 0 0.43376943787959182 -0.36708850497004442 0 0.42728564025893462 -0.35958684797927032 0 0.42489657602010461 -0.37065940299189432 0 0.43376943787959182 -0.36708850497004442 0 0.43808065797110041 -0.37748478958974491 0 0.42489657602010461 -0.37065940299189432 0 0.43376943787959182 -0.36708850497004442 0 0.42728564025893462 -0.35958684797927032 0 0.44386277216801179 -0.36169325344809122 0 0.4250793590774925 -0.34540704162396091 0 0.43963091224731599 -0.34751792105314822 0 0.44386277216801179 -0.36169325344809122 0 0.4250793590774925 -0.34540704162396091 0 0.44386277216801179 -0.36169325344809122 0 0.42728564025893462 -0.35958684797927032 0 0.4250793590774925 -0.34540704162396091 0 0.42728564025893462 -0.35958684797927032 0 0.4250793590774925 -0.34540704162396091 0 0.41069622259092692 -0.35617360609135817 0 0.4250793590774925 -0.34540704162396091 0 0.41055923831377589 -0.34398547157316572 0 0.41069622259092692 -0.35617360609135817 0 0.41055923831377589 -0.34398547157316572 0 0.41069622259092692 -0.35617360609135817 0 0.40016542559971202 -0.34524040877751239 0 0.42489657602010461 -0.37065940299189432 0 0.42728564025893462 -0.35958684797927032 0 0.41069622259092692 -0.35617360609135817 0 0.42489657602010461 -0.37065940299189432 0 0.41069622259092692 -0.35617360609135817 0 0.4070765621089808 -0.37107032214525337 0 0.42489657602010461 -0.37065940299189432 0 0.41069622259092692 -0.35617360609135817 0 0.39585190457779329 -0.37201308858561799 0 0.3940349052124521 -0.36135998775519362 0 0.38601585554704992 -0.38244526212700758 0 0.41069622259092692 -0.35617360609135817 0 0.4070765621089808 -0.37107032214525337 0 0.3940349052124521 -0.36135998775519362 0 0.4070765621089808 -0.37107032214525337 0 0.39585190457779329 -0.37201308858561799 0 0.3940349052124521 -0.36135998775519362 0 0.39585190457779329 -0.37201308858561799 0 0.3940349052124521 -0.36135998775519362 0 0.3940349052124521 -0.36135998775519362 0 0.40016542559971202 -0.34524040877751239 0 0.38974443050024338 -0.33620485529262373 0 0.3940349052124521 -0.36135998775519362 0 0.38974443050024338 -0.33620485529262373 0 0.3940349052124521 -0.36135998775519362 0 0.40016542559971202 -0.34524040877751239 0 0.41069622259092692 -0.35617360609135817 0 0.3940349052124521 -0.36135998775519362 0 0.40016542559971202 -0.34524040877751239 0 0.3940349052124521 -0.36135998775519362 0 0.38974443050024338 -0.33620485529262373 0 0.37368731816096312 -0.34897020548070451 0 0.3940349052124521 -0.36135998775519362 0 0.38601585554704992 -0.38244526212700758 0 0.3940349052124521 -0.36135998775519362 0 0.38601585554704992 -0.38244526212700758 0 0.3689120952668708 -0.37284951495870189 0 0.3940349052124521 -0.36135998775519362 0 0.3689120952668708 -0.37284951495870189 0 0.37368731816096312 -0.34897020548070451 0 0.4062959459869725 -0.32912082979983148 0 0.40572459905769331 -0.31910551143285631 0 0.39816778062817881 -0.31191488097197773 0 0.4062959459869725 -0.32912082979983148 0 0.38974443050024338 -0.33620485529262373 0 0.38545395578803499 -0.31104972283005378 0 0.4062959459869725 -0.32912082979983148 0 0.38545395578803499 -0.31104972283005378 0 0.4062959459869725 -0.32912082979983148 0 0.38545395578803499 -0.31104972283005378 0 0.39816778062817881 -0.31191488097197773 0 0.40572459905769331 -0.31910551143285631 0 0.39816778062817881 -0.31191488097197773 0 0.40916221757477672 -0.31142054967536659 0 0.4062959459869725 -0.32912082979983148 0 0.40016542559971202 -0.34524040877751239 0 0.38974443050024338 -0.33620485529262373 0 0.4062959459869725 -0.32912082979983148 0 0.40016542559971202 -0.34524040877751239 0 0.4062959459869725 -0.32912082979983148 0 0.41055923831377589 -0.34398547157316572 0 0.40016542559971202 -0.34524040877751239 0 0.38974443050024338 -0.33620485529262373 0 0.36945761595668469 -0.32738841673247931 0 0.37368731816096312 -0.34897020548070451 0 0.38974443050024338 -0.33620485529262373 0 0.38545395578803499 -0.31104972283005378 0 0.36945761595668469 -0.32738841673247931 0 0.38974443050024338 -0.33620485529262373 0 0.38545395578803499 -0.31104972283005378 0 0.38545395578803499 -0.31104972283005378 0 0.38245755150739558 -0.29348174920317632 0 0.37101427446782781 -0.29852975601036341 0 0.38545395578803499 -0.31104972283005378 0 0.38245755150739558 -0.29348174920317632 0 0.38545395578803499 -0.31104972283005378 0 0.37101427446782781 -0.29852975601036341 0 0.38545395578803499 -0.31104972283005378 0 0.39567659353887108 -0.29306988619604551 0 0.38245755150739558 -0.29348174920317632 0 0.39816778062817881 -0.31191488097197773 0 0.40563314249086863 -0.30155395497769039 0 0.39567659353887108 -0.29306988619604551 0 0.38545395578803499 -0.31104972283005378 0 0.39816778062817881 -0.31191488097197773 0 0.39567659353887108 -0.29306988619604551 0 0.39816778062817881 -0.31191488097197773 0 0.40563314249086863 -0.30155395497769039 0 0.40916221757477672 -0.31142054967536659 0 0.39567659353887108 -0.29306988619604551 0 0.40514250542832608 -0.27022331558021301 0 0.41160024963212011 -0.28933460066763711 0 0.40563314249086863 -0.30155395497769039 0 0.39567659353887108 -0.29306988619604551 0 0.41160024963212011 -0.28933460066763711 0 0.38245755150739558 -0.29348174920317632 0 0.37946114722675722 -0.27591377557629859 0 0.39567659353887108 -0.29306988619604551 0 0.38245755150739558 -0.29348174920317632 0 0.37946114722675722 -0.27591377557629859 0 0.38245755150739558 -0.29348174920317632 0 0.37795999762798671 -0.28395322059410122 0 0.37946114722675722 -0.27591377557629859 0 0.37519981906117678 -0.29055939022370142 0 0.38245755150739558 -0.29348174920317632 0 0.37101427446782781 -0.29852975601036341 0 0.37519981906117678 -0.29055939022370142 0 0.38245755150739558 -0.29348174920317632 0 0.37795999762798671 -0.28395322059410122 0 0.37795999762798671 -0.28395322059410122 0 0.37946114722675722 -0.27591377557629859 0 0.37739853904771847 -0.27637080706343392 0 0.37739853904771847 -0.27637080706343392 0 0.37683953433427181 -0.26882153263446662 0 0.37273728942595791 -0.27740364396778311 0 0.37795999762798671 -0.28395322059410122 0 0.37739853904771847 -0.27637080706343392 0 0.37273728942595791 -0.27740364396778311 0 0.37946114722675722 -0.27591377557629859 0 0.38774772661347989 -0.26664574742688191 0 0.3964002279028962 -0.26984905957103239 0 0.37946114722675722 -0.27591377557629859 0 0.3964002279028962 -0.26984905957103239 0 0.37795999762798671 -0.28395322059410122 0 0.37739853904771847 -0.27637080706343392 0 0.37739853904771847 -0.27637080706343392 0 0.37273728942595791 -0.27740364396778311 0 0.37946114722675722 -0.27591377557629859 0 0.37739853904771847 -0.27637080706343392 0 0.37683953433427181 -0.26882153263446662 0 0.37946114722675722 -0.27591377557629859 0 0.37739853904771847 -0.27637080706343392 0 0.37946114722675722 -0.27591377557629859 0 0.37843581040967561 -0.26746760801825881 0 0.38284686623937531 -0.26497045393317709 0 0.37946114722675722 -0.27591377557629859 0 0.37683953433427181 -0.26882153263446662 0 0.37843581040967561 -0.26746760801825881 0 0.37739853904771847 -0.27637080706343392 0 0.37683953433427181 -0.26882153263446662 0 0.37683953433427181 -0.26882153263446662 0 0.37843581040967561 -0.26746760801825881 0 0.37946114722675722 -0.27591377557629859 0 0.38774772661347989 -0.26664574742688191 0 0.38284686623937531 -0.26497045393317709 0 0.37477580018058132 -0.24095111383496479 0 0.37683953433427181 -0.26882153263446662 0 0.38107906364546162 -0.25934379353391329 0 0.37477580018058132 -0.24095111383496479 0 0.37683953433427181 -0.26882153263446662 0 0.37477580018058132 -0.24095111383496479 0 0.38107906364546162 -0.25934379353391329 0 0.38725375881062551 -0.25185160038302579 0 0.37843581040967561 -0.26746760801825881 0 0.38107906364546162 -0.25934379353391329 0 0.38284686623937531 -0.26497045393317709 0 0.37683953433427181 -0.26882153263446662 0 0.37843581040967561 -0.26746760801825881 0 0.38107906364546162 -0.25934379353391329 0 0.38107906364546162 -0.25934379353391329 0 0.38632261189823958 -0.26200045239958702 0 0.38284686623937531 -0.26497045393317709 0 0.38774772661347989 -0.26664574742688191 0 0.38632261189823958 -0.26200045239958702 0 0.38284686623937531 -0.26497045393317709 0 0.38774772661347989 -0.26664574742688191 0 0.38955528694719099 -0.2630172622662057 0 0.39295554709344072 -0.26445586107842978 0 0.38774772661347989 -0.26664574742688191 0 0.38632261189823958 -0.26200045239958702 0 0.38955528694719099 -0.2630172622662057 0 0.38632261189823958 -0.26200045239958702 0 0.38955528694719099 -0.2630172622662057 0 0.39119526218360401 -0.25896698815992442 0 0.38632261189823958 -0.26200045239958702 0 0.38725375881062551 -0.25185160038302579 0 0.39119526218360401 -0.25896698815992442 0 0.38107906364546162 -0.25934379353391329 0 0.38632261189823958 -0.26200045239958702 0 0.38725375881062551 -0.25185160038302579 0 0.40314688718896508 -0.2619981766022052 0 0.39707581272688741 -0.26613449373937459 0 0.41345304600685079 -0.26440480953867462 0 0.39707581272688741 -0.26613449373937459 0 0.41345304600685079 -0.26440480953867462 0 0.38725375881062551 -0.25185160038302579 0 0.39640803358832022 -0.25154779433757402 0 0.39119526218360401 -0.25896698815992442 0 0.39640803358832022 -0.25154779433757402 0 0.39702034872720737 -0.26014738253762237 0 0.39119526218360401 -0.25896698815992442 0 0.39702034872720737 -0.26014738253762237 0 0.39119526218360401 -0.25896698815992442 0 0.39295554709344072 -0.26445586107842978 0 0.38955528694719099 -0.2630172622662057 0 0.39119526218360401 -0.25896698815992442 0 0.39295554709344072 -0.26445586107842978 0 0.39702034872720737 -0.26014738253762237 0 0.39295554709344072 -0.26445586107842978 0 0.39707581272688741 -0.26613449373937459 0 0.39702034872720737 -0.26014738253762237 0 0.40314688718896508 -0.2619981766022052 0 0.39707581272688741 -0.26613449373937459 0 0.40314688718896508 -0.2619981766022052 0 0.40257909468765629 -0.25704117102420471 0 0.40998094690083942 -0.2590606397541646 0 0.39702034872720737 -0.26014738253762237 0 0.40314688718896508 -0.2619981766022052 0 0.40257909468765629 -0.25704117102420471 0 0.39640803358832022 -0.25154779433757402 0 0.39702034872720737 -0.26014738253762237 0 0.40257909468765629 -0.25704117102420471 0 0.41087794879613182 -0.2494957955088617 0 0.39640803358832022 -0.25154779433757402 0 0.40257909468765629 -0.25704117102420471 0 0.40514250542832608 -0.27022331558021301 0 0.3964002279028962 -0.26984905957103239 0 0.41345304600685079 -0.26440480953867462 0 0.37946114722675722 -0.27591377557629859 0 0.40514250542832608 -0.27022331558021301 0 0.3964002279028962 -0.26984905957103239 0 0.39707581272688741 -0.26613449373937459 0 0.3964002279028962 -0.26984905957103239 0 0.41345304600685079 -0.26440480953867462 0 0.37946114722675722 -0.27591377557629859 0 0.40514250542832608 -0.27022331558021301 0 0.3964002279028962 -0.26984905957103239 0 0.41345304600685079 -0.26440480953867462 0 0.39567659353887108 -0.29306988619604551 0 0.37946114722675722 -0.27591377557629859 0 0.40514250542832608 -0.27022331558021301 0 0.38774772661347989 -0.26664574742688191 0 0.39295554709344072 -0.26445586107842978 0 0.3964002279028962 -0.26984905957103239 0 0.39295554709344072 -0.26445586107842978 0 0.39707581272688741 -0.26613449373937459 0 0.3964002279028962 -0.26984905957103239 0 0.40514250542832608 -0.27022331558021301 0 0.41345304600685079 -0.26440480953867462 0 0.430823863629894 -0.26453285558412298 0 0.40514250542832608 -0.27022331558021301 0 0.430823863629894 -0.26453285558412298 0 0.40514250542832608 -0.27022331558021301 0 0.42166373126508722 -0.27984448092147479 0 0.41160024963212011 -0.28933460066763711 0 0.40514250542832608 -0.27022331558021301 0 0.42166373126508722 -0.27984448092147479 0 0.430823863629894 -0.26453285558412298 0 0.41087794879613182 -0.2494957955088617 0 0.41984775782459283 -0.2623632460968765 0 0.42854038242645709 -0.26281135800815408 0 0.41087794879613182 -0.2494957955088617 0 0.42854038242645709 -0.26281135800815408 0 0.41087794879613182 -0.2494957955088617 0 0.40257909468765629 -0.25704117102420471 0 0.40998094690083942 -0.2590606397541646 0 0.41087794879613182 -0.2494957955088617 0 0.40998094690083942 -0.2590606397541646 0 0.41984775782459283 -0.2623632460968765 0 0.40314688718896508 -0.2619981766022052 0 0.40998094690083942 -0.2590606397541646 0 0.41345304600685079 -0.26440480953867462 0 0.41345304600685079 -0.26440480953867462 0 0.41984775782459283 -0.2623632460968765 0 0.42854038242645709 -0.26281135800815408 0 0.40998094690083942 -0.2590606397541646 0 0.41345304600685079 -0.26440480953867462 0 0.41984775782459283 -0.2623632460968765 0 0.41345304600685079 -0.26440480953867462 0 0.42854038242645709 -0.26281135800815408 0 0.41345304600685079 -0.26440480953867462 0 0.41984775782459283 -0.2623632460968765 0 0.42656562700980838 -0.24831468624349931 0 0.41087794879613182 -0.2494957955088617 0 0.42854038242645709 -0.26281135800815408 0 0.4477486317760534 -0.26078267557717671 0 0.42854038242645709 -0.26281135800815408 0 0.430823863629894 -0.26453285558412298 0 0.41345304600685079 -0.26440480953867462 0 0.42854038242645709 -0.26281135800815408 0 0.430823863629894 -0.26453285558412298 0 0.42854038242645709 -0.26281135800815408 0 0.430823863629894 -0.26453285558412298 0 0.42656562700980838 -0.24831468624349931 0 0.42854038242645709 -0.26281135800815408 0 0.4372088962240912 -0.25169219704383999 0 0.42166373126508722 -0.27984448092147479 0 0.430823863629894 -0.26453285558412298 0 0.43570592202634773 -0.28205449164250063 0 0.42166373126508722 -0.27984448092147479 0 0.43570592202634773 -0.28205449164250063 0 0.42504611560874761 -0.29307714113289868 0 0.43874415768382158 -0.29310671547163403 0 0.43570592202634773 -0.28205449164250063 0 0.42504611560874761 -0.29307714113289868 0 0.43874415768382158 -0.29310671547163403 0 0.42504611560874761 -0.29307714113289868 0 0.43092107089682352 -0.30573631325696571 0 0.41919911313656122 -0.31385112706466711 0 0.43092107089682352 -0.30573631325696571 0 0.41692698488998292 -0.30249561446253759 0 0.42504611560874761 -0.29307714113289868 0 0.43092107089682352 -0.30573631325696571 0 0.41692698488998292 -0.30249561446253759 0 0.41919911313656122 -0.31385112706466711 0 0.41692698488998292 -0.30249561446253759 0 0.40916221757477672 -0.31142054967536659 0 0.40563314249086863 -0.30155395497769039 0 0.41692698488998292 -0.30249561446253759 0 0.40916221757477672 -0.31142054967536659 0 0.40563314249086863 -0.30155395497769039 0 0.41692698488998292 -0.30249561446253759 0 0.41160024963212011 -0.28933460066763711 0 0.42166373126508722 -0.27984448092147479 0 0.42504611560874761 -0.29307714113289868 0 0.41160024963212011 -0.28933460066763711 0 0.42504611560874761 -0.29307714113289868 0 0.41692698488998292 -0.30249561446253759 0 0.41160024963212011 -0.28933460066763711 0 0.5 -0.5 0 0.47532784176218862 -0.47257481327436679 0 0.43264288253940292 -0.48275234633568048 0 0.5 -0.5 0 0.41749257905485199 -0.50000000000000033 0 0.43264288253940292 -0.48275234633568048 0 0.47532784176218862 -0.47257481327436679 0 0.44779318602395363 -0.46550469267136052 0 0.43264288253940292 -0.48275234633568048 0 0.44779318602395363 -0.46550469267136052 0 0.43264288253940292 -0.48275234633568048 0 0.5 -0.5 0 0.47532784176218862 -0.47257481327436679 0 0.49999999999999828 -0.44642064777577001 0 0.47532784176218862 -0.47257481327436679 0 0.47918453573141367 -0.4495963838019249 0 0.46294348950850428 -0.44825703900704061 0 0.47532784176218862 -0.47257481327436679 0 0.49999999999999828 -0.44642064777577001 0 0.47918453573141367 -0.4495963838019249 0 0.49999999999999828 -0.44642064777577001 0 0.47846681165496419 -0.4311330351505217 0 0.49999999999999828 -0.44642064777577001 0 0.47918453573141367 -0.4495963838019249 0 0.47846681165496419 -0.4311330351505217 0 0.47918453573141367 -0.4495963838019249 0 0.46294348950850428 -0.44825703900704061 0 0.47846681165496419 -0.4311330351505217 0 0.46294348950850428 -0.44825703900704061 0 0.44442683605218691 -0.44583817528272968 0 0.45721208074107311 -0.43281318479414382 0 0.46294348950850428 -0.44825703900704061 0 0.44779318602395363 -0.46550469267136052 0 0.47532784176218862 -0.47257481327436679 0 0.46294348950850428 -0.44825703900704061 0 0.44779318602395363 -0.46550469267136052 0 0.44779318602395363 -0.46550469267136052 0 0.44442683605218691 -0.44583817528272968 0 0.43057418754349119 -0.46211781715143319 0 0.46294348950850428 -0.44825703900704061 0 0.44779318602395363 -0.46550469267136052 0 0.44442683605218691 -0.44583817528272968 0 0.44442683605218691 -0.44583817528272968 0 0.44324354583686831 -0.42153379012121539 0 0.45721208074107311 -0.43281318479414382 0 0.44442683605218691 -0.44583817528272968 0 0.44324354583686831 -0.42153379012121539 0 0.42653452723640378 -0.44279137365393179 0 0.44324354583686831 -0.42153379012121539 0 0.45693362330993059 -0.41584542252527262 0 0.45721208074107311 -0.43281318479414382 0 0.45693362330993059 -0.41584542252527262 0 0.4354004349648965 -0.40055780990002432 0 0.44324354583686831 -0.42153379012121539 0 0.45693362330993059 -0.41584542252527262 0 0.4354004349648965 -0.40055780990002432 0 0.45693362330993059 -0.41584542252527262 0 0.46461049463358839 -0.41117161714406408 0 0.47846681165496419 -0.4311330351505217 0 0.45693362330993059 -0.41584542252527262 0 0.46461049463358839 -0.41117161714406408 0 0.45329728287846061 -0.39963099679296588 0 0.46294348950850428 -0.44825703900704061 0 0.45721208074107311 -0.43281318479414382 0 0.47846681165496419 -0.4311330351505217 0 0.45693362330993059 -0.41584542252527262 0 0.45721208074107311 -0.43281318479414382 0 0.47846681165496419 -0.4311330351505217 0 0.45693362330993059 -0.41584542252527262 0 0.47846681165496419 -0.4311330351505217 0 0.49999999999999828 -0.44642064777577001 0 0.47846681165496419 -0.4311330351505217 0 0.5 -0.42181653977348488 0 0.5 -0.42181653977348488 0 0.48394518954555588 -0.41195106762427058 0 0.49999999999999789 -0.3972124317711998 0 0.47846681165496419 -0.4311330351505217 0 0.5 -0.42181653977348488 0 0.48394518954555588 -0.41195106762427058 0 0.46461049463358839 -0.41117161714406408 0 0.47846681165496419 -0.4311330351505217 0 0.48394518954555588 -0.41195106762427058 0 0.46461049463358839 -0.41117161714406408 0 0.48394518954555588 -0.41195106762427058 0 0.47664864143922919 -0.39842171428208217 0 0.47664864143922919 -0.39842171428208217 0 0.47975395238035062 -0.3854291032725421 0 0.46812846895096999 -0.38912968091376021 0 0.47664864143922919 -0.39842171428208217 0 0.49999999999999789 -0.3972124317711998 0 0.48779058149940679 -0.38751051868815611 0 0.48394518954555588 -0.41195106762427058 0 0.47664864143922919 -0.39842171428208217 0 0.49999999999999789 -0.3972124317711998 0 0.47664864143922919 -0.39842171428208217 0 0.49999999999999789 -0.3972124317711998 0 0.5 -0.37037944899495368 0 0.49999999999999789 -0.3972124317711998 0 0.48779058149940679 -0.38751051868815611 0 0.5 -0.37037944899495368 0 0.48466784746851571 -0.3739080713738358 0 0.48779058149940679 -0.38751051868815611 0 0.48466784746851571 -0.3739080713738358 0 0.47975395238035062 -0.3854291032725421 0 0.47323517146124039 -0.38191256761527542 0 0.48466784746851571 -0.3739080713738358 0 0.48779058149940679 -0.38751051868815611 0 0.47975395238035062 -0.3854291032725421 0 0.47664864143922919 -0.39842171428208217 0 0.48779058149940679 -0.38751051868815611 0 0.47975395238035062 -0.3854291032725421 0 0.47975395238035062 -0.3854291032725421 0 0.47323517146124039 -0.38191256761527542 0 0.46812846895096999 -0.38912968091376021 0 0.46918642870160698 -0.38365020197922722 0 0.47323517146124039 -0.38191256761527542 0 0.46812846895096999 -0.38912968091376021 0 0.4671179630262795 -0.37324494563770522 0 0.46918642870160698 -0.38365020197922722 0 0.47323517146124039 -0.38191256761527542 0 0.45652460043480969 -0.37267172771365881 0 0.4671179630262795 -0.37324494563770522 0 0.46918642870160698 -0.38365020197922722 0 0.45652460043480969 -0.37267172771365881 0 0.46918642870160698 -0.38365020197922722 0 0.45652460043480969 -0.37267172771365881 0 0.45606522570456098 -0.38599652494351028 0 0.44783900322824399 -0.38008781189722518 0 0.45652460043480969 -0.37267172771365881 0 0.46918642870160698 -0.38365020197922722 0 0.45606522570456098 -0.38599652494351028 0 0.46918642870160698 -0.38365020197922722 0 0.45606522570456098 -0.38599652494351028 0 0.46812846895096999 -0.38912968091376021 0 0.46461049463358839 -0.41117161714406408 0 0.47664864143922919 -0.39842171428208217 0 0.45329728287846061 -0.39963099679296588 0 0.47664864143922919 -0.39842171428208217 0 0.45329728287846061 -0.39963099679296588 0 0.47664864143922919 -0.39842171428208217 0 0.46812846895096999 -0.38912968091376021 0 0.45329728287846061 -0.39963099679296588 0 0.46461049463358839 -0.41117161714406408 0 0.45329728287846061 -0.39963099679296588 0 0.45606522570456098 -0.38599652494351028 0 0.46812846895096999 -0.38912968091376021 0 0.45329728287846061 -0.39963099679296588 0 0.45693362330993059 -0.41584542252527262 0 0.45329728287846061 -0.39963099679296588 0 0.4354004349648965 -0.40055780990002432 0 0.45329728287846061 -0.39963099679296588 0 0.4354004349648965 -0.40055780990002432 0 0.45329728287846061 -0.39963099679296588 0 0.4390969294492823 -0.3851451998924304 0 0.4354004349648965 -0.40055780990002432 0 0.45329728287846061 -0.39963099679296588 0 0.4390969294492823 -0.3851451998924304 0 0.45606522570456098 -0.38599652494351028 0 0.4390969294492823 -0.3851451998924304 0 0.44783900322824399 -0.38008781189722518 0 0.45606522570456098 -0.38599652494351028 0 0.45329728287846061 -0.39963099679296588 0 0.4390969294492823 -0.3851451998924304 0 0.4390969294492823 -0.3851451998924304 0 0.43808065797110041 -0.37748478958974491 0 0.44783900322824399 -0.38008781189722518 0 0.42782015831496062 -0.38505662608606978 0 0.4354004349648965 -0.40055780990002432 0 0.41188669282555868 -0.38386409155992901 0 0.42489657602010461 -0.37065940299189432 0 0.4390969294492823 -0.3851451998924304 0 0.42782015831496062 -0.38505662608606978 0 0.42489657602010461 -0.37065940299189432 0 0.4390969294492823 -0.3851451998924304 0 0.43808065797110041 -0.37748478958974491 0 0.42489657602010461 -0.37065940299189432 0 0.4390969294492823 -0.3851451998924304 0 0.4390969294492823 -0.3851451998924304 0 0.42782015831496062 -0.38505662608606978 0 0.4354004349648965 -0.40055780990002432 0 0.4354004349648965 -0.40055780990002432 0 0.41188669282555868 -0.38386409155992901 0 0.4354004349648965 -0.40055780990002432 0 0.40669862042327182 -0.40204417319942209 0 0.4354004349648965 -0.40055780990002432 0 0.40669862042327182 -0.40204417319942209 0 0.41188669282555868 -0.38386409155992901 0 0.42489657602010461 -0.37065940299189432 0 0.42782015831496062 -0.38505662608606978 0 0.41188669282555868 -0.38386409155992901 0 0.42489657602010461 -0.37065940299189432 0 0.4070765621089808 -0.37107032214525337 0 0.41188669282555868 -0.38386409155992901 0 0.4070765621089808 -0.37107032214525337 0 0.39585190457779329 -0.37201308858561799 0 0.39886607975096749 -0.38470810625682389 0 0.40669862042327182 -0.40204417319942209 0 0.41188669282555868 -0.38386409155992901 0 0.39886607975096749 -0.38470810625682389 0 0.4070765621089808 -0.37107032214525337 0 0.41188669282555868 -0.38386409155992901 0 0.39886607975096749 -0.38470810625682389 0 0.39585190457779329 -0.37201308858561799 0 0.39886607975096749 -0.38470810625682389 0 0.38601585554704992 -0.38244526212700758 0 0.39886607975096749 -0.38470810625682389 0 0.38601585554704992 -0.38244526212700758 0 0.37799680588164719 -0.40353053649882148 0 0.38601585554704992 -0.38244526212700758 0 0.37799680588164719 -0.40353053649882148 0 0.38601585554704992 -0.38244526212700758 0 0.37799680588164719 -0.40353053649882148 0 0.36816388811638329 -0.39545065246060412 0 0.37799680588164719 -0.40353053649882148 0 0.37635446215448021 -0.40784891206015261 0 0.37799680588164719 -0.40353053649882148 0 0.37505152225636262 -0.40368306209891941 0 0.37635446215448021 -0.40784891206015261 0 0.37799680588164719 -0.40353053649882148 0 0.37505152225636262 -0.40368306209891941 0 0.40669862042327182 -0.40204417319942209 0 0.39886607975096749 -0.38470810625682389 0 0.37799680588164719 -0.40353053649882148 0 0.40669862042327182 -0.40204417319942209 0 0.37799680588164719 -0.40353053649882148 0 0.40669862042327182 -0.40204417319942209 0 0.38553791301154328 -0.41840677215457472 0 0.40567792500840172 -0.4277251834563135 0 0.40669862042327182 -0.40204417319942209 0 0.37799680588164719 -0.40353053649882148 0 0.38553791301154328 -0.41840677215457472 0 0.38553791301154328 -0.41840677215457472 0 0.36905142820508552 -0.42917232846767789 0 0.37241381966677689 -0.417360225696081 0 0.38553791301154328 -0.41840677215457472 0 0.37635446215448021 -0.40784891206015261 0 0.37241381966677689 -0.417360225696081 0 0.37799680588164719 -0.40353053649882148 0 0.38553791301154328 -0.41840677215457472 0 0.37635446215448021 -0.40784891206015261 0 0.38553791301154328 -0.41840677215457472 0 0.38807715457860831 -0.4388905332329941 0 0.36905142820508552 -0.42917232846767789 0 0.38553791301154328 -0.41840677215457472 0 0.40567792500840172 -0.4277251834563135 0 0.38807715457860831 -0.4388905332329941 0 0.40567792500840172 -0.4277251834563135 0 0.42351101069396863 -0.41893046606618117 0 0.42653452723640378 -0.44279137365393179 0 0.4354004349648965 -0.40055780990002432 0 0.40669862042327182 -0.40204417319942209 0 0.42351101069396863 -0.41893046606618117 0 0.40669862042327182 -0.40204417319942209 0 0.40567792500840172 -0.4277251834563135 0 0.42351101069396863 -0.41893046606618117 0 0.44324354583686831 -0.42153379012121539 0 0.4354004349648965 -0.40055780990002432 0 0.42351101069396863 -0.41893046606618117 0 0.44324354583686831 -0.42153379012121539 0 0.42653452723640378 -0.44279137365393179 0 0.44324354583686831 -0.42153379012121539 0 0.42351101069396863 -0.41893046606618117 0 0.42653452723640378 -0.44279137365393179 0 0.44442683605218691 -0.44583817528272968 0 0.42653452723640378 -0.44279137365393179 0 0.43057418754349119 -0.46211781715143319 0 0.42653452723640378 -0.44279137365393179 0 0.43057418754349119 -0.46211781715143319 0 0.40982550863593931 -0.46404895718664829 0 0.42653452723640378 -0.44279137365393179 0 0.40982550863593931 -0.46404895718664829 0 0.42653452723640378 -0.44279137365393179 0 0.40982550863593931 -0.46404895718664829 0 0.4036378289262339 -0.44671034290208689 0 0.40567792500840172 -0.4277251834563135 0 0.42653452723640378 -0.44279137365393179 0 0.4036378289262339 -0.44671034290208689 0 0.40567792500840172 -0.4277251834563135 0 0.4036378289262339 -0.44671034290208689 0 0.38807715457860831 -0.4388905332329941 0 0.4036378289262339 -0.44671034290208689 0 0.38807715457860831 -0.4388905332329941 0 0.38807402917181633 -0.46009566698054732 0 0.38807715457860831 -0.4388905332329941 0 0.3733961412993268 -0.45022493016754961 0 0.36905142820508552 -0.42917232846767789 0 0.38807715457860831 -0.4388905332329941 0 0.38807402917181633 -0.46009566698054732 0 0.3733961412993268 -0.45022493016754961 0 0.38807402917181633 -0.46009566698054732 0 0.36593927904035028 -0.47432204071884282 0 0.3733961412993268 -0.45022493016754961 0 0.40982550863593931 -0.46404895718664829 0 0.4036378289262339 -0.44671034290208689 0 0.38807402917181633 -0.46009566698054732 0 0.40982550863593931 -0.46404895718664829 0 0.39311649003547477 -0.48530654071936469 0 0.40982550863593931 -0.46404895718664829 0 0.38807402917181633 -0.46009566698054732 0 0.39311649003547477 -0.48530654071936469 0 0.38807402917181633 -0.46009566698054732 0 0.39311649003547477 -0.48530654071936469 0 0.36593927904035028 -0.47432204071884282 0 0.37603974257992701 -0.49999999999999978 0 0.39311649003547477 -0.48530654071936469 0 0.36593927904035028 -0.47432204071884282 0 0.37603974257992701 -0.49999999999999978 0 0.39676616081738958 -0.5 0 0.39311649003547477 -0.48530654071936469 0 0.39676616081738958 -0.5 0 0.39311649003547477 -0.48530654071936469 0 0.41749257905485199 -0.50000000000000033 0 0.40982550863593931 -0.46404895718664829 0 0.41749257905485199 -0.50000000000000033 0 0.43264288253940292 -0.48275234633568048 0 0.40982550863593931 -0.46404895718664829 0 0.39311649003547477 -0.48530654071936469 0 0.41749257905485199 -0.50000000000000033 0 0.43057418754349119 -0.46211781715143319 0 0.40982550863593931 -0.46404895718664829 0 0.43264288253940292 -0.48275234633568048 0 0.44779318602395363 -0.46550469267136052 0 0.43057418754349119 -0.46211781715143319 0 0.43264288253940292 -0.48275234633568048 0 0.41749257905485199 -0.50000000000000033 0 0.43264288253940292 -0.48275234633568048 0 0.32215468257820618 -0.5 0 0.33760568703239408 -0.47417818032706111 0 0.31005432530219129 -0.48106067464861729 0 0.33760568703239408 -0.47417818032706111 0 0.3189449745883719 -0.46117016543644002 0 0.31005432530219129 -0.48106067464861729 0 0.32215468257820618 -0.5 0 0.33760568703239408 -0.47417818032706111 0 0.34909721257906662 -0.5 0 0.37603974257992701 -0.49999999999999978 0 0.34909721257906662 -0.5 0 0.36593927904035028 -0.47432204071884282 0 0.37603974257992701 -0.49999999999999978 0 0.36593927904035028 -0.47432204071884282 0 0.33760568703239408 -0.47417818032706111 0 0.34909721257906662 -0.5 0 0.36593927904035028 -0.47432204071884282 0 0.33760568703239408 -0.47417818032706111 0 0.36593927904035028 -0.47432204071884282 0 0.35583881550077368 -0.44864408143768569 0 0.36593927904035028 -0.47432204071884282 0 0.35583881550077368 -0.44864408143768569 0 0.36593927904035028 -0.47432204071884282 0 0.3733961412993268 -0.45022493016754961 0 0.35583881550077368 -0.44864408143768569 0 0.3733961412993268 -0.45022493016754961 0 0.35583881550077368 -0.44864408143768569 0 0.36905142820508552 -0.42917232846767789 0 0.35583881550077368 -0.44864408143768569 0 0.33540415989768779 -0.44905252560006492 0 0.34573835196119679 -0.42296612215652868 0 0.33760568703239408 -0.47417818032706111 0 0.35583881550077368 -0.44864408143768569 0 0.33540415989768779 -0.44905252560006492 0 0.33760568703239408 -0.47417818032706111 0 0.33540415989768779 -0.44905252560006492 0 0.3189449745883719 -0.46117016543644002 0 0.33540415989768779 -0.44905252560006492 0 0.3189449745883719 -0.46117016543644002 0 0.32126124445813709 -0.43429719032362252 0 0.3189449745883719 -0.46117016543644002 0 0.32126124445813709 -0.43429719032362252 0 0.30480654487456732 -0.44641521679941309 0 0.32126124445813709 -0.43429719032362252 0 0.3193156137706864 -0.40941365839269389 0 0.29937418247959258 -0.41817563384508599 0 0.3193156137706864 -0.40941365839269389 0 0.34573835196119679 -0.42296612215652868 0 0.33563788842162012 -0.39728816287537172 0 0.34573835196119679 -0.42296612215652868 0 0.33563788842162012 -0.39728816287537172 0 0.33540415989768779 -0.44905252560006492 0 0.32126124445813709 -0.43429719032362252 0 0.34573835196119679 -0.42296612215652868 0 0.32126124445813709 -0.43429719032362252 0 0.3193156137706864 -0.40941365839269389 0 0.34573835196119679 -0.42296612215652868 0 0.35583881550077368 -0.44864408143768569 0 0.34573835196119679 -0.42296612215652868 0 0.36905142820508552 -0.42917232846767789 0 0.35583881550077368 -0.44864408143768569 0 0.34573835196119679 -0.42296612215652868 0 0.36905142820508552 -0.42917232846767789 0 0.37241381966677689 -0.417360225696081 0 0.36195200988480669 -0.41065981681110758 0 0.36990343230398692 -0.40830781576793279 0 0.37241381966677689 -0.417360225696081 0 0.36195200988480669 -0.41065981681110758 0 0.37635446215448021 -0.40784891206015261 0 0.36990343230398692 -0.40830781576793279 0 0.37241381966677689 -0.417360225696081 0 0.37505152225636262 -0.40368306209891941 0 0.37635446215448021 -0.40784891206015261 0 0.36990343230398692 -0.40830781576793279 0 0.36990343230398692 -0.40830781576793279 0 0.36195200988480669 -0.41065981681110758 0 0.36876771314038492 -0.40452533678464098 0 0.34573835196119679 -0.42296612215652868 0 0.36195200988480669 -0.41065981681110758 0 0.35211107663302149 -0.40015425695529971 0 0.34573835196119679 -0.42296612215652868 0 0.36905142820508552 -0.42917232846767789 0 0.36195200988480669 -0.41065981681110758 0 0.34573835196119679 -0.42296612215652868 0 0.35211107663302149 -0.40015425695529971 0 0.33563788842162012 -0.39728816287537172 0 0.35211107663302149 -0.40015425695529971 0 0.35352794608594401 -0.38791341326287138 0 0.33563788842162012 -0.39728816287537172 0 0.35211107663302149 -0.40015425695529971 0 0.36816388811638329 -0.39545065246060412 0 0.35352794608594401 -0.38791341326287138 0 0.36195200988480669 -0.41065981681110758 0 0.36816388811638329 -0.39545065246060412 0 0.36876771314038492 -0.40452533678464098 0 0.36195200988480669 -0.41065981681110758 0 0.35211107663302149 -0.40015425695529971 0 0.36816388811638329 -0.39545065246060412 0 0.37505152225636262 -0.40368306209891941 0 0.36816388811638329 -0.39545065246060412 0 0.36876771314038492 -0.40452533678464098 0 0.37799680588164719 -0.40353053649882148 0 0.37505152225636262 -0.40368306209891941 0 0.36816388811638329 -0.39545065246060412 0 0.37505152225636262 -0.40368306209891941 0 0.36990343230398692 -0.40830781576793279 0 0.36876771314038492 -0.40452533678464098 0 0.38601585554704992 -0.38244526212700758 0 0.36816388811638329 -0.39545065246060412 0 0.3689120952668708 -0.37284951495870189 0 0.36816388811638329 -0.39545065246060412 0 0.35352794608594401 -0.38791341326287138 0 0.3689120952668708 -0.37284951495870189 0 0.35352794608594401 -0.38791341326287138 0 0.33563788842162012 -0.39728816287537172 0 0.34467783115022588 -0.37252705130409253 0 0.35352794608594401 -0.38791341326287138 0 0.3689120952668708 -0.37284951495870189 0 0.34467783115022588 -0.37252705130409253 0 0.33563788842162012 -0.39728816287537172 0 0.3255374248820434 -0.37161020359421471 0 0.33563788842162012 -0.39728816287537172 0 0.34467783115022588 -0.37252705130409253 0 0.3255374248820434 -0.37161020359421471 0 0.3193156137706864 -0.40941365839269389 0 0.33563788842162012 -0.39728816287537172 0 0.30534853388527528 -0.38930881101125692 0 0.33563788842162012 -0.39728816287537172 0 0.30534853388527528 -0.38930881101125692 0 0.3255374248820434 -0.37161020359421471 0 0.30534853388527528 -0.38930881101125692 0 0.3255374248820434 -0.37161020359421471 0 0.30525369772634148 -0.37164386163485291 0 0.30534853388527528 -0.38930881101125692 0 0.28783989868818821 -0.37644057584389279 0 0.30525369772634148 -0.37164386163485291 0 0.3193156137706864 -0.40941365839269389 0 0.30534853388527528 -0.38930881101125692 0 0.29937418247959258 -0.41817563384508599 0 0.30534853388527528 -0.38930881101125692 0 0.28922044672054198 -0.39637746652331562 0 0.29937418247959258 -0.41817563384508599 0 0.28922044672054198 -0.39637746652331562 0 0.27510086349567708 -0.39798721671617321 0 0.28320928432356041 -0.41012407252970262 0 0.28922044672054198 -0.39637746652331562 0 0.28783989868818821 -0.37644057584389279 0 0.27924907625512951 -0.38731579260330862 0 0.30534853388527528 -0.38930881101125692 0 0.28922044672054198 -0.39637746652331562 0 0.28783989868818821 -0.37644057584389279 0 0.30534853388527528 -0.38930881101125692 0 0.28783989868818821 -0.37644057584389279 0 0.28783989868818821 -0.37644057584389279 0 0.27447250226623809 -0.37821124143188289 0 0.27924907625512951 -0.38731579260330862 0 0.27447250226623809 -0.37821124143188289 0 0.27924907625512951 -0.38731579260330862 0 0.26961167010500181 -0.38756246250127813 0 0.27447250226623809 -0.37821124143188289 0 0.26961167010500181 -0.38756246250127813 0 0.26423397132697279 -0.37890457124200982 0 0.26961167010500181 -0.38756246250127813 0 0.26423397132697279 -0.37890457124200982 0 0.25687819372407023 -0.38903915957053298 0 0.26423397132697279 -0.37890457124200982 0 0.25687819372407023 -0.38903915957053298 0 0.24987622704845311 -0.37613765202982719 0 0.25108303853213881 -0.40002667887407228 0 0.26390234922262928 -0.39930308446362528 0 0.256136481120742 -0.41447562176841068 0 0.25687819372407023 -0.38903915957053298 0 0.25108303853213881 -0.40002667887407228 0 0.24309899287842279 -0.39271330151873202 0 0.25687819372407023 -0.38903915957053298 0 0.25108303853213881 -0.40002667887407228 0 0.26390234922262928 -0.39930308446362528 0 0.26961167010500181 -0.38756246250127813 0 0.25687819372407023 -0.38903915957053298 0 0.26390234922262928 -0.39930308446362528 0 0.26390234922262928 -0.39930308446362528 0 0.27510086349567708 -0.39798721671617321 0 0.2708804648698091 -0.41009655218672442 0 0.26961167010500181 -0.38756246250127813 0 0.26390234922262928 -0.39930308446362528 0 0.27510086349567708 -0.39798721671617321 0 0.28922044672054198 -0.39637746652331562 0 0.27924907625512951 -0.38731579260330862 0 0.27510086349567708 -0.39798721671617321 0 0.27924907625512951 -0.38731579260330862 0 0.26961167010500181 -0.38756246250127813 0 0.27510086349567708 -0.39798721671617321 0 0.27510086349567708 -0.39798721671617321 0 0.2708804648698091 -0.41009655218672442 0 0.28320928432356041 -0.41012407252970262 0 0.2708804648698091 -0.41009655218672442 0 0.256136481120742 -0.41447562176841068 0 0.27433621812851161 -0.42550461519375637 0 0.2708804648698091 -0.41009655218672442 0 0.27433621812851161 -0.42550461519375637 0 0.28320928432356041 -0.41012407252970262 0 0.26390234922262928 -0.39930308446362528 0 0.2708804648698091 -0.41009655218672442 0 0.256136481120742 -0.41447562176841068 0 0.25108303853213881 -0.40002667887407228 0 0.256136481120742 -0.41447562176841068 0 0.24629253832767661 -0.41022035877505542 0 0.256136481120742 -0.41447562176841068 0 0.25513396950241118 -0.43290986753561628 0 0.2453827316299185 -0.42192330194190181 0 0.256136481120742 -0.41447562176841068 0 0.25513396950241118 -0.43290986753561628 0 0.27433621812851161 -0.42550461519375637 0 0.25513396950241118 -0.43290986753561628 0 0.27433621812851161 -0.42550461519375637 0 0.26752346795397081 -0.44788636482661331 0 0.27433621812851161 -0.42550461519375637 0 0.29937418247959258 -0.41817563384508599 0 0.28546596250580908 -0.44246723239800262 0 0.29937418247959258 -0.41817563384508599 0 0.30480654487456732 -0.44641521679941309 0 0.28546596250580908 -0.44246723239800262 0 0.28922044672054198 -0.39637746652331562 0 0.28320928432356041 -0.41012407252970262 0 0.29937418247959258 -0.41817563384508599 0 0.27433621812851161 -0.42550461519375637 0 0.28320928432356041 -0.41012407252970262 0 0.29937418247959258 -0.41817563384508599 0 0.32126124445813709 -0.43429719032362252 0 0.29937418247959258 -0.41817563384508599 0 0.30480654487456732 -0.44641521679941309 0 0.3189449745883719 -0.46117016543644002 0 0.30480654487456732 -0.44641521679941309 0 0.28880919487484108 -0.4658549053918814 0 0.30480654487456732 -0.44641521679941309 0 0.28880919487484108 -0.4658549053918814 0 0.28546596250580908 -0.44246723239800262 0 0.27433621812851161 -0.42550461519375637 0 0.28546596250580908 -0.44246723239800262 0 0.26752346795397081 -0.44788636482661331 0 0.28880919487484108 -0.4658549053918814 0 0.28546596250580908 -0.44246723239800262 0 0.26752346795397081 -0.44788636482661331 0 0.25513396950241118 -0.43290986753561628 0 0.26752346795397081 -0.44788636482661331 0 0.24480843210435321 -0.45079661158300749 0 0.26752346795397081 -0.44788636482661331 0 0.2588368117714554 -0.46700690363883102 0 0.24480843210435321 -0.45079661158300749 0 0.28880919487484108 -0.4658549053918814 0 0.26752346795397081 -0.44788636482661331 0 0.2588368117714554 -0.46700690363883102 0 0.28880919487484108 -0.4658549053918814 0 0.2588368117714554 -0.46700690363883102 0 0.27227655507569209 -0.48076744006000099 0 0.2588368117714554 -0.46700690363883102 0 0.27227655507569209 -0.48076744006000099 0 0.25270961841775552 -0.48460016746525392 0 0.2588368117714554 -0.46700690363883102 0 0.25270961841775552 -0.48460016746525392 0 0.23949561189523169 -0.47426551941090739 0 0.25270961841775552 -0.48460016746525392 0 0.26826962257648529 -0.5 0 0.2413270925756249 -0.5 0 0.27227655507569209 -0.48076744006000099 0 0.25270961841775552 -0.48460016746525392 0 0.26826962257648529 -0.5 0 0.27227655507569209 -0.48076744006000099 0 0.26826962257648529 -0.5 0 0.29521215257734579 -0.5 0 0.28880919487484108 -0.4658549053918814 0 0.27227655507569209 -0.48076744006000099 0 0.29521215257734579 -0.5 0 0.28880919487484108 -0.4658549053918814 0 0.29521215257734579 -0.5 0 0.31005432530219129 -0.48106067464861729 0 0.3189449745883719 -0.46117016543644002 0 0.28880919487484108 -0.4658549053918814 0 0.31005432530219129 -0.48106067464861729 0 0.32215468257820618 -0.5 0 0.29521215257734579 -0.5 0 0.31005432530219129 -0.48106067464861729 0 0.33463237856908817 -0.28956894479377399 0 0.33485830675890288 -0.30442904333306592 0 0.35657459314761941 -0.2860097891906741 0 0.33463237856908817 -0.28956894479377399 0 0.32894302133540282 -0.28710755170783531 0 0.35195887039823659 -0.28200771363307098 0 0.32894302133540282 -0.28710755170783531 0 0.35195887039823659 -0.28200771363307098 0 0.32894302133540282 -0.28710755170783531 0 0.33255663915089151 -0.29722249741805129 0 0.33463237856908817 -0.28956894479377399 0 0.32894302133540282 -0.28710755170783531 0 0.33255663915089151 -0.29722249741805129 0 0.32894302133540282 -0.28710755170783531 0 0.33255663915089151 -0.29722249741805129 0 0.32301709761150521 -0.2972128627914089 0 0.33485830675890288 -0.30442904333306592 0 0.34824447571033601 -0.30253517369681238 0 0.34533870308018377 -0.31598934501886372 0 0.33485830675890288 -0.30442904333306592 0 0.33255663915089151 -0.29722249741805129 0 0.32434770264142349 -0.30499280498860082 0 0.33463237856908817 -0.28956894479377399 0 0.33485830675890288 -0.30442904333306592 0 0.33255663915089151 -0.29722249741805129 0 0.32301709761150521 -0.2972128627914089 0 0.32434770264142349 -0.30499280498860082 0 0.3171485971304504 -0.30589952111326829 0 0.32434770264142349 -0.30499280498860082 0 0.3171485971304504 -0.30589952111326829 0 0.31314202037018413 -0.32284829747545468 0 0.33485830675890288 -0.30442904333306592 0 0.32434770264142349 -0.30499280498860082 0 0.31314202037018413 -0.32284829747545468 0 0.33255663915089151 -0.29722249741805129 0 0.32301709761150521 -0.2972128627914089 0 0.32434770264142349 -0.30499280498860082 0 0.3171485971304504 -0.30589952111326829 0 0.31208952779935789 -0.2908419387292881 0 0.30833746379913463 -0.30503745501229762 0 0.32301709761150521 -0.2972128627914089 0 0.3171485971304504 -0.30589952111326829 0 0.31208952779935789 -0.2908419387292881 0 0.32894302133540282 -0.28710755170783531 0 0.31611371382327402 -0.28007222207304999 0 0.31208952779935789 -0.2908419387292881 0 0.32894302133540282 -0.28710755170783531 0 0.32301709761150521 -0.2972128627914089 0 0.31208952779935789 -0.2908419387292881 0 0.32894302133540282 -0.28710755170783531 0 0.31208952779935789 -0.2908419387292881 0 0.32894302133540282 -0.28710755170783531 0 0.32245882367699719 -0.26895751187574157 0 0.32894302133540282 -0.28710755170783531 0 0.31611371382327402 -0.28007222207304999 0 0.32245882367699719 -0.26895751187574157 0 0.31611371382327402 -0.28007222207304999 0 0.32245882367699719 -0.26895751187574157 0 0.30706455279928557 -0.27339796693147528 0 0.32245882367699719 -0.26895751187574157 0 0.30981211567343969 -0.26250129009931661 0 0.30706455279928557 -0.27339796693147528 0 0.32245882367699719 -0.26895751187574157 0 0.31597462601859122 -0.25080747204364812 0 0.32245882367699719 -0.26895751187574157 0 0.31597462601859122 -0.25080747204364812 0 0.30981211567343969 -0.26250129009931661 0 0.32245882367699719 -0.26895751187574157 0 0.31597462601859122 -0.25080747204364812 0 0.33396674820841349 -0.26640759283836002 0 0.31597462601859122 -0.25080747204364812 0 0.33396674820841349 -0.26640759283836002 0 0.33517615116993849 -0.24743488902137309 0 0.33396674820841349 -0.26640759283836002 0 0.35185333732921159 -0.25428502110151557 0 0.33517615116993849 -0.24743488902137309 0 0.31597462601859122 -0.25080747204364812 0 0.33396674820841349 -0.26640759283836002 0 0.32894302133540282 -0.28710755170783531 0 0.32245882367699719 -0.26895751187574157 0 0.33396674820841349 -0.26640759283836002 0 0.33396674820841349 -0.26640759283836002 0 0.35195887039823659 -0.28200771363307098 0 0.32894302133540282 -0.28710755170783531 0 0.33396674820841349 -0.26640759283836002 0 0.35195887039823659 -0.28200771363307098 0 0.33396674820841349 -0.26640759283836002 0 0.35159414215374007 -0.26901089914998932 0 0.35195887039823659 -0.28200771363307098 0 0.35159414215374007 -0.26901089914998932 0 0.36459381448795669 -0.2792080702757721 0 0.35195887039823659 -0.28200771363307098 0 0.36459381448795669 -0.2792080702757721 0 0.35195887039823659 -0.28200771363307098 0 0.33396674820841349 -0.26640759283836002 0 0.35159414215374007 -0.26901089914998932 0 0.35185333732921159 -0.25428502110151557 0 0.35159414215374007 -0.26901089914998932 0 0.35185333732921159 -0.25428502110151557 0 0.36435388824524378 -0.26651308148643732 0 0.37477580018058132 -0.24095111383496479 0 0.37683953433427181 -0.26882153263446662 0 0.36563983252638571 -0.25462703483095822 0 0.36075586336603621 -0.2426037127049111 0 0.35185333732921159 -0.25428502110151557 0 0.36563983252638571 -0.25462703483095822 0 0.35185333732921159 -0.25428502110151557 0 0.36563983252638571 -0.25462703483095822 0 0.36435388824524378 -0.26651308148643732 0 0.37683953433427181 -0.26882153263446662 0 0.36563983252638571 -0.25462703483095822 0 0.36435388824524378 -0.26651308148643732 0 0.36459381448795669 -0.2792080702757721 0 0.36308990924476459 -0.28048364807874221 0 0.35195887039823659 -0.28200771363307098 0 0.36459381448795669 -0.2792080702757721 0 0.36308990924476459 -0.28048364807874221 0 0.37273728942595791 -0.27740364396778311 0 0.36459381448795669 -0.2792080702757721 0 0.36308990924476459 -0.28048364807874221 0 0.35159414215374007 -0.26901089914998932 0 0.36459381448795669 -0.2792080702757721 0 0.36435388824524378 -0.26651308148643732 0 0.37683953433427181 -0.26882153263446662 0 0.36459381448795669 -0.2792080702757721 0 0.36435388824524378 -0.26651308148643732 0 0.36459381448795669 -0.2792080702757721 0 0.37273728942595791 -0.27740364396778311 0 0.37683953433427181 -0.26882153263446662 0 0.36459381448795669 -0.2792080702757721 0 0.37273728942595791 -0.27740364396778311 0 0.37683953433427181 -0.26882153263446662 0 0.36459381448795669 -0.2792080702757721 0 0.36308990924476459 -0.28048364807874221 0 0.37273728942595791 -0.27740364396778311 0 0.37795999762798671 -0.28395322059410122 0 0.37273728942595791 -0.27740364396778311 0 0.36936745264149701 -0.28627283508716472 0 0.35657459314761941 -0.2860097891906741 0 0.35620629985463748 -0.30371251724464648 0 0.37101427446782781 -0.29852975601036341 0 0.36308990924476459 -0.28048364807874221 0 0.37273728942595791 -0.27740364396778311 0 0.36936745264149701 -0.28627283508716472 0 0.37519981906117678 -0.29055939022370142 0 0.37795999762798671 -0.28395322059410122 0 0.36936745264149701 -0.28627283508716472 0 0.37519981906117678 -0.29055939022370142 0 0.36936745264149701 -0.28627283508716472 0 0.37101427446782781 -0.29852975601036341 0 0.36936745264149701 -0.28627283508716472 0 0.35657459314761941 -0.2860097891906741 0 0.37101427446782781 -0.29852975601036341 0 0.35657459314761941 -0.2860097891906741 0 0.37101427446782781 -0.29852975601036341 0 0.36308990924476459 -0.28048364807874221 0 0.36936745264149701 -0.28627283508716472 0 0.35657459314761941 -0.2860097891906741 0 0.36308990924476459 -0.28048364807874221 0 0.35657459314761941 -0.2860097891906741 0 0.36308990924476459 -0.28048364807874221 0 0.35366972758071469 -0.28349111722646431 0 0.33463237856908817 -0.28956894479377399 0 0.35366972758071469 -0.28349111722646431 0 0.33463237856908817 -0.28956894479377399 0 0.35366972758071469 -0.28349111722646431 0 0.35195887039823659 -0.28200771363307098 0 0.36308990924476459 -0.28048364807874221 0 0.35366972758071469 -0.28349111722646431 0 0.35195887039823659 -0.28200771363307098 0 0.33485830675890288 -0.30442904333306592 0 0.35657459314761941 -0.2860097891906741 0 0.36308990924476459 -0.28048364807874221 0 0.35366972758071469 -0.28349111722646431 0 0.35657459314761941 -0.2860097891906741 0 0.33463237856908817 -0.28956894479377399 0 0.35366972758071469 -0.28349111722646431 0 0.35657459314761941 -0.2860097891906741 0 0.35366972758071469 -0.28349111722646431 0 0.35657459314761941 -0.2860097891906741 0 0.35366972758071469 -0.28349111722646431 0 0.35195887039823659 -0.28200771363307098 0 0.35620629985463748 -0.30371251724464648 0 0.36380134767337091 -0.31365371592763602 0 0.34533870308018377 -0.31598934501886372 0 0.35657459314761941 -0.2860097891906741 0 0.34824447571033601 -0.30253517369681238 0 0.35620629985463748 -0.30371251724464648 0 0.33485830675890288 -0.30442904333306592 0 0.35657459314761941 -0.2860097891906741 0 0.34824447571033601 -0.30253517369681238 0 0.34824447571033601 -0.30253517369681238 0 0.35620629985463748 -0.30371251724464648 0 0.34533870308018377 -0.31598934501886372 0 0.38545395578803499 -0.31104972283005378 0 0.37101427446782781 -0.29852975601036341 0 0.36380134767337091 -0.31365371592763602 0 0.35620629985463748 -0.30371251724464648 0 0.37101427446782781 -0.29852975601036341 0 0.36380134767337091 -0.31365371592763602 0 0.38545395578803499 -0.31104972283005378 0 0.36380134767337091 -0.31365371592763602 0 0.36945761595668469 -0.32738841673247931 0 0.36380134767337091 -0.31365371592763602 0 0.36945761595668469 -0.32738841673247931 0 0.35533723689285712 -0.32525253772940937 0 0.36945761595668469 -0.32738841673247931 0 0.35618710249729552 -0.34088690244721892 0 0.35533723689285712 -0.32525253772940937 0 0.36945761595668469 -0.32738841673247931 0 0.35618710249729552 -0.34088690244721892 0 0.37368731816096312 -0.34897020548070451 0 0.35618710249729552 -0.34088690244721892 0 0.33810128782584858 -0.35072533414536311 0 0.34064131712366241 -0.33181983138849169 0 0.35618710249729552 -0.34088690244721892 0 0.35533723689285712 -0.32525253772940937 0 0.34064131712366241 -0.33181983138849169 0 0.34533870308018377 -0.31598934501886372 0 0.35533723689285712 -0.32525253772940937 0 0.34064131712366241 -0.33181983138849169 0 0.36380134767337091 -0.31365371592763602 0 0.34533870308018377 -0.31598934501886372 0 0.35533723689285712 -0.32525253772940937 0 0.3689120952668708 -0.37284951495870189 0 0.37368731816096312 -0.34897020548070451 0 0.35738528973841999 -0.35772904562383351 0 0.35618710249729552 -0.34088690244721892 0 0.37368731816096312 -0.34897020548070451 0 0.35738528973841999 -0.35772904562383351 0 0.35618710249729552 -0.34088690244721892 0 0.35738528973841999 -0.35772904562383351 0 0.33810128782584858 -0.35072533414536311 0 0.35738528973841999 -0.35772904562383351 0 0.34467783115022588 -0.37252705130409253 0 0.33810128782584858 -0.35072533414536311 0 0.3689120952668708 -0.37284951495870189 0 0.35738528973841999 -0.35772904562383351 0 0.34467783115022588 -0.37252705130409253 0 0.34467783115022588 -0.37252705130409253 0 0.33810128782584858 -0.35072533414536311 0 0.3255374248820434 -0.37161020359421471 0 0.31543696134246668 -0.34593224431305769 0 0.3255374248820434 -0.37161020359421471 0 0.30900602422585888 -0.35865430802761772 0 0.31543696134246668 -0.34593224431305769 0 0.3255374248820434 -0.37161020359421471 0 0.33810128782584858 -0.35072533414536311 0 0.31543696134246668 -0.34593224431305769 0 0.3255374248820434 -0.37161020359421471 0 0.3255374248820434 -0.37161020359421471 0 0.30525369772634148 -0.37164386163485291 0 0.30900602422585888 -0.35865430802761772 0 0.34533870308018377 -0.31598934501886372 0 0.33130220335757699 -0.32186248444176119 0 0.34064131712366241 -0.33181983138849169 0 0.33485830675890288 -0.30442904333306592 0 0.34533870308018377 -0.31598934501886372 0 0.33130220335757699 -0.32186248444176119 0 0.33810128782584858 -0.35072533414536311 0 0.34064131712366241 -0.33181983138849169 0 0.3268430880468266 -0.33457206034663262 0 0.33130220335757699 -0.32186248444176119 0 0.34064131712366241 -0.33181983138849169 0 0.3268430880468266 -0.33457206034663262 0 0.31543696134246668 -0.34593224431305769 0 0.3268430880468266 -0.33457206034663262 0 0.31314202037018413 -0.32284829747545468 0 0.33810128782584858 -0.35072533414536311 0 0.31543696134246668 -0.34593224431305769 0 0.3268430880468266 -0.33457206034663262 0 0.33130220335757699 -0.32186248444176119 0 0.3268430880468266 -0.33457206034663262 0 0.31314202037018413 -0.32284829747545468 0 0.33485830675890288 -0.30442904333306592 0 0.31314202037018413 -0.32284829747545468 0 0.3171485971304504 -0.30589952111326829 0 0.31314202037018413 -0.32284829747545468 0 0.3109911447756647 -0.31350988965823029 0 0.33485830675890288 -0.30442904333306592 0 0.33130220335757699 -0.32186248444176119 0 0.31314202037018413 -0.32284829747545468 0 0.31314202037018413 -0.32284829747545468 0 0.30533649780288991 -0.32025428503190068 0 0.3109911447756647 -0.31350988965823029 0 0.30533649780288991 -0.32025428503190068 0 0.3109911447756647 -0.31350988965823029 0 0.30833746379913463 -0.30503745501229762 0 0.31543696134246668 -0.34593224431305769 0 0.30533649780288991 -0.32025428503190068 0 0.30314188851555429 -0.3464145030398364 0 0.30533649780288991 -0.32025428503190068 0 0.29792146783109758 -0.32077626486014349 0 0.30314188851555429 -0.3464145030398364 0 0.31543696134246668 -0.34593224431305769 0 0.31314202037018413 -0.32284829747545468 0 0.30533649780288991 -0.32025428503190068 0 0.29792146783109758 -0.32077626486014349 0 0.30314188851555429 -0.3464145030398364 0 0.31543696134246668 -0.34593224431305769 0 0.30533649780288991 -0.32025428503190068 0 0.29792146783109758 -0.32077626486014349 0 0.29422135484035322 -0.33366994296298719 0 0.30314188851555429 -0.3464145030398364 0 0.29422135484035322 -0.33366994296298719 0 0.29546103181119637 -0.34185893253319311 0 0.30314188851555429 -0.3464145030398364 0 0.29422135484035322 -0.33366994296298719 0 0.29546103181119637 -0.34185893253319311 0 0.28827175492889229 -0.34275780055790278 0 0.29546103181119637 -0.34185893253319311 0 0.28827175492889229 -0.34275780055790278 0 0.29811044553331972 -0.34650788457159087 0 0.29422135484035322 -0.33366994296298719 0 0.28827175492889229 -0.34275780055790278 0 0.27955848846152698 -0.33666113426449551 0 0.29422135484035322 -0.33366994296298719 0 0.28744860979629389 -0.32474860906702402 0 0.27955848846152698 -0.33666113426449551 0 0.28744860979629389 -0.32474860906702402 0 0.29019889155513462 -0.31620785207956748 0 0.28097437988070417 -0.31138482246715898 0 0.29792146783109758 -0.32077626486014349 0 0.29019889155513462 -0.31620785207956748 0 0.29244758100571983 -0.32385066724243061 0 0.29422135484035322 -0.33366994296298719 0 0.28744860979629389 -0.32474860906702402 0 0.29244758100571983 -0.32385066724243061 0 0.29792146783109758 -0.32077626486014349 0 0.29422135484035322 -0.33366994296298719 0 0.29244758100571983 -0.32385066724243061 0 0.28744860979629389 -0.32474860906702402 0 0.29019889155513462 -0.31620785207956748 0 0.29244758100571983 -0.32385066724243061 0 0.30525369772634148 -0.37164386163485291 0 0.30031449930387721 -0.36082981960256849 0 0.30900602422585888 -0.35865430802761772 0 0.30525369772634148 -0.37164386163485291 0 0.30031449930387721 -0.36082981960256849 0 0.29483415024835152 -0.36747827247447862 0 0.30080593951138668 -0.35381036279877531 0 0.30900602422585888 -0.35865430802761772 0 0.30314188851555429 -0.3464145030398364 0 0.30080593951138668 -0.35381036279877531 0 0.29811044553331972 -0.34650788457159087 0 0.29345683997832372 -0.35664529875226292 0 0.30031449930387721 -0.36082981960256849 0 0.30080593951138668 -0.35381036279877531 0 0.30900602422585888 -0.35865430802761772 0 0.30031449930387721 -0.36082981960256849 0 0.30080593951138668 -0.35381036279877531 0 0.29345683997832372 -0.35664529875226292 0 0.31543696134246668 -0.34593224431305769 0 0.30900602422585888 -0.35865430802761772 0 0.30314188851555429 -0.3464145030398364 0 0.30080593951138668 -0.35381036279877531 0 0.30314188851555429 -0.3464145030398364 0 0.29811044553331972 -0.34650788457159087 0 0.29546103181119637 -0.34185893253319311 0 0.30314188851555429 -0.3464145030398364 0 0.29811044553331972 -0.34650788457159087 0 0.29811044553331972 -0.34650788457159087 0 0.29345683997832372 -0.35664529875226292 0 0.28122462644821988 -0.35688066365974619 0 0.28827175492889229 -0.34275780055790278 0 0.29811044553331972 -0.34650788457159087 0 0.28122462644821988 -0.35688066365974619 0 0.28827175492889229 -0.34275780055790278 0 0.28122462644821988 -0.35688066365974619 0 0.27955848846152698 -0.33666113426449551 0 0.29811044553331972 -0.34650788457159087 0 0.28122462644821988 -0.35688066365974619 0 0.29345683997832372 -0.35664529875226292 0 0.28676543400443838 -0.36101512068260139 0 0.28122462644821988 -0.35688066365974619 0 0.28676543400443838 -0.36101512068260139 0 0.28122462644821988 -0.35688066365974619 0 0.28783989868818821 -0.37644057584389279 0 0.30525369772634148 -0.37164386163485291 0 0.29483415024835152 -0.36747827247447862 0 0.28783989868818821 -0.37644057584389279 0 0.28676543400443838 -0.36101512068260139 0 0.27033126349110148 -0.36357234067652822 0 0.29357505063040601 -0.36145191270551408 0 0.28676543400443838 -0.36101512068260139 0 0.29483415024835152 -0.36747827247447862 0 0.30031449930387721 -0.36082981960256849 0 0.29357505063040601 -0.36145191270551408 0 0.29483415024835152 -0.36747827247447862 0 0.30031449930387721 -0.36082981960256849 0 0.29345683997832372 -0.35664529875226292 0 0.29357505063040601 -0.36145191270551408 0 0.29345683997832372 -0.35664529875226292 0 0.29357505063040601 -0.36145191270551408 0 0.28676543400443838 -0.36101512068260139 0 0.28783989868818821 -0.37644057584389279 0 0.28676543400443838 -0.36101512068260139 0 0.29483415024835152 -0.36747827247447862 0 0.28783989868818821 -0.37644057584389279 0 0.27033126349110148 -0.36357234067652822 0 0.28783989868818821 -0.37644057584389279 0 0.27447250226623809 -0.37821124143188289 0 0.27033126349110148 -0.36357234067652822 0 0.28676543400443838 -0.36101512068260139 0 0.27033126349110148 -0.36357234067652822 0 0.28122462644821988 -0.35688066365974619 0 0.27447250226623809 -0.37821124143188289 0 0.26423397132697279 -0.37890457124200982 0 0.27033126349110148 -0.36357234067652822 0 0.27033126349110148 -0.36357234067652822 0 0.28122462644821988 -0.35688066365974619 0 0.28122462644821988 -0.35688066365974619 0 0.26082083375001269 -0.34165569813656432 0 0.27033126349110148 -0.36357234067652822 0 0.28122462644821988 -0.35688066365974619 0 0.26082083375001269 -0.34165569813656432 0 0.28122462644821988 -0.35688066365974619 0 0.27955848846152698 -0.33666113426449551 0 0.26082083375001269 -0.34165569813656432 0 0.27033126349110148 -0.36357234067652822 0 0.25099839141978419 -0.34936335514031408 0 0.27033126349110148 -0.36357234067652822 0 0.25099839141978419 -0.34936335514031408 0 0.26082083375001269 -0.34165569813656432 0 0.27033126349110148 -0.36357234067652822 0 0.25099839141978419 -0.34936335514031408 0 0.24534349961555019 -0.36253701182870851 0 0.26423397132697279 -0.37890457124200982 0 0.27033126349110148 -0.36357234067652822 0 0.24987622704845311 -0.37613765202982719 0 0.27033126349110148 -0.36357234067652822 0 0.24534349961555019 -0.36253701182870851 0 0.24987622704845311 -0.37613765202982719 0 0.27033126349110148 -0.36357234067652822 0 0.24987622704845311 -0.37613765202982719 0 0.28744860979629389 -0.32474860906702402 0 0.26598899428458778 -0.32103793389256657 0 0.27955848846152698 -0.33666113426449551 0 0.28744860979629389 -0.32474860906702402 0 0.26598899428458778 -0.32103793389256657 0 0.28097437988070417 -0.31138482246715898 0 0.26598899428458778 -0.32103793389256657 0 0.27955848846152698 -0.33666113426449551 0 0.26082083375001269 -0.34165569813656432 0 0.26082083375001269 -0.34165569813656432 0 0.2404170410518052 -0.32643073261338312 0 0.26598899428458778 -0.32103793389256657 0 0.26082083375001269 -0.34165569813656432 0 0.2404170410518052 -0.32643073261338312 0 0.25099839141978419 -0.34936335514031408 0 0.26082083375001269 -0.34165569813656432 0 0.2404170410518052 -0.32643073261338312 0 0.26598899428458778 -0.32103793389256657 0 0.24423538898563429 -0.30587701823941071 0 0.2404170410518052 -0.32643073261338312 0 0.26846821806613752 -0.30050752245993012 0 0.24423538898563429 -0.30587701823941071 0 0.25301376652256202 -0.2892367573709661 0 0.26846821806613752 -0.30050752245993012 0 0.24423538898563429 -0.30587701823941071 0 0.26598899428458778 -0.32103793389256657 0 0.26846821806613752 -0.30050752245993012 0 0.24423538898563429 -0.30587701823941071 0 0.25301376652256202 -0.2892367573709661 0 0.26500420865911251 -0.28331687632378699 0 0.26846821806613752 -0.30050752245993012 0 0.25301376652256202 -0.2892367573709661 0 0.26500420865911251 -0.28331687632378699 0 0.2507153324002197 -0.27704953531328702 0 0.26500420865911251 -0.28331687632378699 0 0.27805302037335089 -0.28584974436810762 0 0.26846821806613752 -0.30050752245993012 0 0.27805302037335089 -0.28584974436810762 0 0.26846821806613752 -0.30050752245993012 0 0.29270104714664102 -0.29513802668045069 0 0.26500420865911251 -0.28331687632378699 0 0.27805302037335089 -0.28584974436810762 0 0.27342558025451552 -0.27498979272208851 0 0.26598899428458778 -0.32103793389256657 0 0.26846821806613752 -0.30050752245993012 0 0.28097437988070417 -0.31138482246715898 0 0.26846821806613752 -0.30050752245993012 0 0.28097437988070417 -0.31138482246715898 0 0.29270104714664102 -0.29513802668045069 0 0.26846821806613752 -0.30050752245993012 0 0.29270104714664102 -0.29513802668045069 0 0.29792146783109758 -0.32077626486014349 0 0.29270104714664102 -0.29513802668045069 0 0.29019889155513462 -0.31620785207956748 0 0.28097437988070417 -0.31138482246715898 0 0.29270104714664102 -0.29513802668045069 0 0.29792146783109758 -0.32077626486014349 0 0.29019889155513462 -0.31620785207956748 0 0.29270104714664102 -0.29513802668045069 0 0.29792146783109758 -0.32077626486014349 0 0.29270104714664102 -0.29513802668045069 0 0.29523603426331357 -0.29457632575074338 0 0.27805302037335089 -0.28584974436810762 0 0.29026987947112831 -0.28319821192468808 0 0.29270104714664102 -0.29513802668045069 0 0.27805302037335089 -0.28584974436810762 0 0.29026987947112831 -0.28319821192468808 0 0.28863308206368682 -0.27515966401439529 0 0.29026987947112831 -0.28319821192468808 0 0.29523603426331357 -0.29457632575074338 0 0.29026987947112831 -0.28319821192468808 0 0.29523603426331357 -0.29457632575074338 0 0.30320790951940702 -0.28313078900162059 0 0.29026987947112831 -0.28319821192468808 0 0.29270104714664102 -0.29513802668045069 0 0.29523603426331357 -0.29457632575074338 0 0.29026987947112831 -0.28319821192468808 0 0.29270104714664102 -0.29513802668045069 0 0.29270104714664102 -0.29513802668045069 0 0.29523603426331357 -0.29457632575074338 0 0.29523603426331357 -0.29457632575074338 0 0.31208952779935789 -0.2908419387292881 0 0.29523603426331357 -0.29457632575074338 0 0.30320790951940702 -0.28313078900162059 0 0.31208952779935789 -0.2908419387292881 0 0.29523603426331357 -0.29457632575074338 0 0.31208952779935789 -0.2908419387292881 0 0.30833746379913463 -0.30503745501229762 0 0.31611371382327402 -0.28007222207304999 0 0.30320790951940702 -0.28313078900162059 0 0.31208952779935789 -0.2908419387292881 0 0.30533649780288991 -0.32025428503190068 0 0.29523603426331357 -0.29457632575074338 0 0.30833746379913463 -0.30503745501229762 0 0.30533649780288991 -0.32025428503190068 0 0.29792146783109758 -0.32077626486014349 0 0.29523603426331357 -0.29457632575074338 0 0.30533649780288991 -0.32025428503190068 0 0.29523603426331357 -0.29457632575074338 0 0.3171485971304504 -0.30589952111326829 0 0.3109911447756647 -0.31350988965823029 0 0.30833746379913463 -0.30503745501229762 0 0.29812220868357159 -0.26533402464574418 0 0.30111904597271899 -0.2536098058489899 0 0.30981211567343969 -0.26250129009931661 0 0.31597462601859122 -0.25080747204364812 0 0.30111904597271899 -0.2536098058489899 0 0.30981211567343969 -0.26250129009931661 0 0.29812220868357159 -0.26533402464574418 0 0.30981211567343969 -0.26250129009931661 0 0.30706455279928557 -0.27339796693147528 0 0.31611371382327402 -0.28007222207304999 0 0.30320790951940702 -0.28313078900162059 0 0.30706455279928557 -0.27339796693147528 0 0.29026987947112831 -0.28319821192468808 0 0.30320790951940702 -0.28313078900162059 0 0.29755036247591721 -0.27602563541609298 0 0.30320790951940702 -0.28313078900162059 0 0.30706455279928557 -0.27339796693147528 0 0.29755036247591721 -0.27602563541609298 0 0.29812220868357159 -0.26533402464574418 0 0.30706455279928557 -0.27339796693147528 0 0.29755036247591721 -0.27602563541609298 0 0.29812220868357159 -0.26533402464574418 0 0.29755036247591721 -0.27602563541609298 0 0.28863308206368682 -0.27515966401439529 0 0.29026987947112831 -0.28319821192468808 0 0.28863308206368682 -0.27515966401439529 0 0.29026987947112831 -0.28319821192468808 0 0.29755036247591721 -0.27602563541609298 0 0.28863308206368682 -0.27515966401439529 0 0.28863308206368682 -0.27515966401439529 0 0.28456511698073272 -0.25518130134833977 0 0.29812220868357159 -0.26533402464574418 0 0.28863308206368682 -0.27515966401439529 0 0.28456511698073272 -0.25518130134833977 0 0.29812220868357159 -0.26533402464574418 0 0.30111904597271899 -0.2536098058489899 0 0.28456511698073272 -0.25518130134833977 0 0.28863308206368682 -0.27515966401439529 0 0.28456511698073272 -0.25518130134833977 0 0.27223885194073971 -0.26265851400849172 0 0.28456511698073272 -0.25518130134833977 0 0.27223885194073971 -0.26265851400849172 0 0.26629969424128969 -0.25192769388052821 0 0.27223885194073971 -0.26265851400849172 0 0.26629969424128969 -0.25192769388052821 0 0.2629172406837702 -0.26740365320709081 0 0.26500420865911251 -0.28331687632378699 0 0.27342558025451552 -0.27498979272208851 0 0.2629172406837702 -0.26740365320709081 0 0.28863308206368682 -0.27515966401439529 0 0.27223885194073971 -0.26265851400849172 0 0.27342558025451552 -0.27498979272208851 0 0.27805302037335089 -0.28584974436810762 0 0.28863308206368682 -0.27515966401439529 0 0.27342558025451552 -0.27498979272208851 0 0.27223885194073971 -0.26265851400849172 0 0.27342558025451552 -0.27498979272208851 0 0.2629172406837702 -0.26740365320709081 0 0.26500420865911251 -0.28331687632378699 0 0.2629172406837702 -0.26740365320709081 0 0.2507153324002197 -0.27704953531328702 0 0.2629172406837702 -0.26740365320709081 0 0.2507153324002197 -0.27704953531328702 0 0.2466218950091964 -0.26012473444713258 0 0.25037283077400019 -0.2416092145933311 0 0.26629969424128969 -0.25192769388052821 0 0.2466218950091964 -0.26012473444713258 0 0.26629969424128969 -0.25192769388052821 0 0.2629172406837702 -0.26740365320709081 0 0.2466218950091964 -0.26012473444713258 0 0.25037283077400019 -0.2416092145933311 0 0.2466218950091964 -0.26012473444713258 0 0.2339549802858914 -0.24933471903745599 0 0.2466218950091964 -0.26012473444713258 0 0.22717476572977791 -0.26325637954660608 0 0.2339549802858914 -0.24933471903745599 0 0.2466218950091964 -0.26012473444713258 0 0.23628574795648369 -0.27498419313581679 0 0.22717476572977791 -0.26325637954660608 0 0.2507153324002197 -0.27704953531328702 0 0.2466218950091964 -0.26012473444713258 0 0.23628574795648369 -0.27498419313581679 0 0.2507153324002197 -0.27704953531328702 0 0.23628574795648369 -0.27498419313581679 0 0.24044913557019401 -0.28723099739492908 0 0.2247339410531527 -0.27667652802353632 0 0.21554844428562811 -0.26491471108287651 0 0.21653111649902579 -0.28712771180040292 0 0.23628574795648369 -0.27498419313581679 0 0.2247339410531527 -0.27667652802353632 0 0.22717476572977791 -0.26325637954660608 0 0.2247339410531527 -0.27667652802353632 0 0.22717476572977791 -0.26325637954660608 0 0.21554844428562811 -0.26491471108287651 0 0.22717476572977791 -0.26325637954660608 0 0.22331750647786899 -0.25281133177650322 0 0.2339549802858914 -0.24933471903745599 0 0.22717476572977791 -0.26325637954660608 0 0.22331750647786899 -0.25281133177650322 0 0.21554844428562811 -0.26491471108287651 0 0.2084475354763706 -0.25511513831035743 0 0.21554844428562811 -0.26491471108287651 0 0.1982966667633215 -0.26354120971092698 0 0.21554844428562811 -0.26491471108287651 0 0.21456577207223029 -0.24270171036535029 0 0.22331750647786899 -0.25281133177650322 0 0.21554844428562811 -0.26491471108287651 0 0.21456577207223029 -0.24270171036535029 0 0.2084475354763706 -0.25511513831035743 0 0.21554844428562811 -0.26491471108287651 0 0.21336353465090491 -0.24693864317134839 0 0.21554844428562811 -0.26491471108287651 0 0.21336353465090491 -0.24693864317134839 0 0.21456577207223029 -0.24270171036535029 0 0.2084475354763706 -0.25511513831035743 0 0.1982966667633215 -0.26354120971092698 0 0.2080714594183444 -0.2424179483002232 0 0.1982966667633215 -0.26354120971092698 0 0.2080714594183444 -0.2424179483002232 0 0.21554844428562811 -0.26491471108287651 0 0.21653111649902579 -0.28712771180040292 0 0.21554844428562811 -0.26491471108287651 0 0.20859607852913339 -0.28093905456482821 0 0.21653111649902579 -0.28712771180040292 0 0.21554844428562811 -0.26491471108287651 0 0.20859607852913339 -0.28093905456482821 0 0.2011380539128553 -0.27767933622792518 0 0.21554844428562811 -0.26491471108287651 0 0.2011380539128553 -0.27767933622792518 0 0.1982966667633215 -0.26354120971092698 0 0.1982966667633215 -0.26354120971092698 0 0.18852187410829821 -0.28466447112163068 0 0.1982966667633215 -0.26354120971092698 0 0.18852187410829821 -0.28466447112163068 0 0.1845366839674035 -0.26640487959885623 0 0.2011380539128553 -0.27767933622792518 0 0.1982966667633215 -0.26354120971092698 0 0.18852187410829821 -0.28466447112163068 0 0.1982966667633215 -0.26354120971092698 0 0.2080714594183444 -0.2424179483002232 0 0.19254414318066221 -0.24961624770678509 0 0.1982966667633215 -0.26354120971092698 0 0.18706352147094041 -0.25756661524031438 0 0.1845366839674035 -0.26640487959885623 0 0.1982966667633215 -0.26354120971092698 0 0.18706352147094041 -0.25756661524031438 0 0.19254414318066221 -0.24961624770678509 0 0.18706352147094041 -0.25756661524031438 0 0.19254414318066221 -0.24961624770678509 0 0.18399505531774341 -0.24981832115951039 0 0.20249447748908611 -0.29813355613580778 0 0.1976485991634879 -0.30796138879627621 0 0.19462594870140809 -0.30164723750547567 0 0.20249447748908611 -0.29813355613580778 0 0.19462594870140809 -0.30164723750547567 0 0.19392418081794471 -0.29575522021664652 0 0.20249447748908611 -0.29813355613580778 0 0.1976485991634879 -0.30796138879627621 0 0.20782414549410869 -0.30817847155873718 0 0.1976485991634879 -0.30796138879627621 0 0.20782414549410869 -0.30817847155873718 0 0.20282381327660201 -0.31505297042611552 0 0.1976485991634879 -0.30796138879627621 0 0.19009702279388629 -0.3064242775921906 0 0.18802618722583669 -0.31833181955932999 0 0.1976485991634879 -0.30796138879627621 0 0.19009702279388629 -0.3064242775921906 0 0.19462594870140809 -0.30164723750547567 0 0.19009702279388629 -0.3064242775921906 0 0.19462594870140809 -0.30164723750547567 0 0.1880606218677118 -0.30022154946313712 0 0.19462594870140809 -0.30164723750547567 0 0.19110113081553529 -0.29631368747161629 0 0.19392418081794471 -0.29575522021664652 0 0.1880606218677118 -0.30022154946313712 0 0.19110113081553529 -0.29631368747161629 0 0.18734834214976739 -0.29514628785519947 0 0.19462594870140809 -0.30164723750547567 0 0.1880606218677118 -0.30022154946313712 0 0.19110113081553529 -0.29631368747161629 0 0.20249447748908611 -0.29813355613580778 0 0.18747516626574931 -0.28692639975368628 0 0.20249447748908611 -0.29813355613580778 0 0.19392418081794471 -0.29575522021664652 0 0.18747516626574931 -0.28692639975368628 0 0.19110113081553529 -0.29631368747161629 0 0.19392418081794471 -0.29575522021664652 0 0.18747516626574931 -0.28692639975368628 0 0.19110113081553529 -0.29631368747161629 0 0.18747516626574931 -0.28692639975368628 0 0.18734834214976739 -0.29514628785519947 0 0.18852187410829821 -0.28466447112163068 0 0.19787122383615691 -0.29172525818392958 0 0.18852187410829821 -0.28466447112163068 0 0.19731262536099689 -0.28481999283041842 0 0.19787122383615691 -0.29172525818392958 0 0.18852187410829821 -0.28466447112163068 0 0.19787122383615691 -0.29172525818392958 0 0.18747516626574931 -0.28692639975368628 0 0.18852187410829821 -0.28466447112163068 0 0.18747516626574931 -0.28692639975368628 0 0.2011380539128553 -0.27767933622792518 0 0.18852187410829821 -0.28466447112163068 0 0.19731262536099689 -0.28481999283041842 0 0.201719349586677 -0.2852109057881882 0 0.19787122383615691 -0.29172525818392958 0 0.206049533411369 -0.28982701925762389 0 0.19731262536099689 -0.28481999283041842 0 0.201719349586677 -0.2852109057881882 0 0.19787122383615691 -0.29172525818392958 0 0.2011380539128553 -0.27767933622792518 0 0.19731262536099689 -0.28481999283041842 0 0.201719349586677 -0.2852109057881882 0 0.20249447748908611 -0.29813355613580778 0 0.19787122383615691 -0.29172525818392958 0 0.18747516626574931 -0.28692639975368628 0 0.20249447748908611 -0.29813355613580778 0 0.19787122383615691 -0.29172525818392958 0 0.206049533411369 -0.28982701925762389 0 0.20249447748908611 -0.29813355613580778 0 0.206049533411369 -0.28982701925762389 0 0.20903552332543929 -0.29406903275804652 0 0.206049533411369 -0.28982701925762389 0 0.20903552332543929 -0.29406903275804652 0 0.21653111649902579 -0.28712771180040292 0 0.20249447748908611 -0.29813355613580778 0 0.20903552332543929 -0.29406903275804652 0 0.2123558614978226 -0.29827812898856709 0 0.20859607852913339 -0.28093905456482821 0 0.206049533411369 -0.28982701925762389 0 0.21653111649902579 -0.28712771180040292 0 0.20859607852913339 -0.28093905456482821 0 0.201719349586677 -0.2852109057881882 0 0.206049533411369 -0.28982701925762389 0 0.20859607852913339 -0.28093905456482821 0 0.2011380539128553 -0.27767933622792518 0 0.201719349586677 -0.2852109057881882 0 0.20903552332543929 -0.29406903275804652 0 0.21653111649902579 -0.28712771180040292 0 0.2123558614978226 -0.29827812898856709 0 0.21653111649902579 -0.28712771180040292 0 0.2175137887124228 -0.30934071251792922 0 0.21653111649902579 -0.28712771180040292 0 0.2123558614978226 -0.29827812898856709 0 0.2175137887124228 -0.30934071251792922 0 0.20249447748908611 -0.29813355613580778 0 0.2123558614978226 -0.29827812898856709 0 0.2175137887124228 -0.30934071251792922 0 0.20249447748908611 -0.29813355613580778 0 0.2175137887124228 -0.30934071251792922 0 0.20782414549410869 -0.30817847155873718 0 0.2176214393273678 -0.31177412129290383 0 0.20282381327660201 -0.31505297042611552 0 0.20249447748908611 -0.29813355613580778 0 0.20782414549410869 -0.30817847155873718 0 0.2175137887124228 -0.30934071251792922 0 0.20782414549410869 -0.30817847155873718 0 0.2175137887124228 -0.30934071251792922 0 0.2176214393273678 -0.31177412129290383 0 0.2175137887124228 -0.30934071251792922 0 0.2176214393273678 -0.31177412129290383 0 0.2175137887124228 -0.30934071251792922 0 0.2176214393273678 -0.31177412129290383 0 0.21999804566891551 -0.31122614102315033 0 0.21999804566891551 -0.31122614102315033 0 0.24423538898563429 -0.30587701823941071 0 0.2175137887124228 -0.30934071251792922 0 0.21999804566891551 -0.31122614102315033 0 0.22812963079484819 -0.29309964455197901 0 0.21999804566891551 -0.31122614102315033 0 0.22812963079484819 -0.29309964455197901 0 0.21999804566891551 -0.31122614102315033 0 0.22812963079484819 -0.29309964455197901 0 0.24423538898563429 -0.30587701823941071 0 0.2176214393273678 -0.31177412129290383 0 0.21999804566891551 -0.31122614102315033 0 0.2175137887124228 -0.30934071251792922 0 0.21999804566891551 -0.31122614102315033 0 0.23628574795648369 -0.27498419313581679 0 0.22812963079484819 -0.29309964455197901 0 0.2247339410531527 -0.27667652802353632 0 0.21653111649902579 -0.28712771180040292 0 0.22812963079484819 -0.29309964455197901 0 0.23628574795648369 -0.27498419313581679 0 0.2247339410531527 -0.27667652802353632 0 0.22812963079484819 -0.29309964455197901 0 0.21653111649902579 -0.28712771180040292 0 0.2175137887124228 -0.30934071251792922 0 0.22812963079484819 -0.29309964455197901 0 0.23628574795648369 -0.27498419313581679 0 0.22812963079484819 -0.29309964455197901 0 0.24044913557019401 -0.28723099739492908 0 0.25301376652256202 -0.2892367573709661 0 0.24044913557019401 -0.28723099739492908 0 0.24423538898563429 -0.30587701823941071 0 0.22812963079484819 -0.29309964455197901 0 0.24044913557019401 -0.28723099739492908 0 0.24423538898563429 -0.30587701823941071 0 0.25301376652256202 -0.2892367573709661 0 0.2507153324002197 -0.27704953531328702 0 0.24044913557019401 -0.28723099739492908 0 0.21999804566891551 -0.31122614102315033 0 0.24423538898563429 -0.30587701823941071 0 0.2404170410518052 -0.32643073261338312 0 0.25099839141978419 -0.34936335514031408 0 0.2316655193484673 -0.33515436960409939 0 0.25099839141978419 -0.34936335514031408 0 0.2404170410518052 -0.32643073261338312 0 0.2316655193484673 -0.33515436960409939 0 0.2404170410518052 -0.32643073261338312 0 0.2316655193484673 -0.33515436960409939 0 0.2247705650129608 -0.32491873692320528 0 0.2316655193484673 -0.33515436960409939 0 0.22208049410379579 -0.34309390150507102 0 0.22867514261462599 -0.34782526071452929 0 0.2316655193484673 -0.33515436960409939 0 0.22208049410379579 -0.34309390150507102 0 0.220555537226792 -0.33578323097752499 0 0.22208049410379579 -0.34309390150507102 0 0.220555537226792 -0.33578323097752499 0 0.21451162402718699 -0.34512658597487872 0 0.220555537226792 -0.33578323097752499 0 0.2247705650129608 -0.32491873692320528 0 0.21820242441149371 -0.32490710899175251 0 0.2316655193484673 -0.33515436960409939 0 0.220555537226792 -0.33578323097752499 0 0.2247705650129608 -0.32491873692320528 0 0.21999804566891551 -0.31122614102315033 0 0.2404170410518052 -0.32643073261338312 0 0.2247705650129608 -0.32491873692320528 0 0.21999804566891551 -0.31122614102315033 0 0.2404170410518052 -0.32643073261338312 0 0.2247705650129608 -0.32491873692320528 0 0.21780935440599439 -0.31602188338433101 0 0.21820242441149371 -0.32490710899175251 0 0.21999804566891551 -0.31122614102315033 0 0.2247705650129608 -0.32491873692320528 0 0.21780935440599439 -0.31602188338433101 0 0.21999804566891551 -0.31122614102315033 0 0.21780935440599439 -0.31602188338433101 0 0.23679608458568241 -0.3713456781615978 0 0.24534349961555019 -0.36253701182870851 0 0.24987622704845311 -0.37613765202982719 0 0.23679608458568241 -0.3713456781615978 0 0.24534349961555019 -0.36253701182870851 0 0.23133102347449649 -0.35950822589080189 0 0.25099839141978419 -0.34936335514031408 0 0.2316655193484673 -0.33515436960409939 0 0.23760271529458479 -0.35087764463569071 0 0.24534349961555019 -0.36253701182870851 0 0.23760271529458479 -0.35087764463569071 0 0.23133102347449649 -0.35950822589080189 0 0.25099839141978419 -0.34936335514031408 0 0.24534349961555019 -0.36253701182870851 0 0.23760271529458479 -0.35087764463569071 0 0.2316655193484673 -0.33515436960409939 0 0.23760271529458479 -0.35087764463569071 0 0.22867514261462599 -0.34782526071452929 0 0.22208049410379579 -0.34309390150507102 0 0.22076837523631451 -0.35267920974236072 0 0.21451162402718699 -0.34512658597487872 0 0.22208049410379579 -0.34309390150507102 0 0.22867514261462599 -0.34782526071452929 0 0.22076837523631451 -0.35267920974236072 0 0.22076837523631451 -0.35267920974236072 0 0.22341137818785181 -0.36337688942730773 0 0.21609027172906259 -0.36087537471117581 0 0.22076837523631451 -0.35267920974236072 0 0.23133102347449649 -0.35950822589080189 0 0.22341137818785181 -0.36337688942730773 0 0.22867514261462599 -0.34782526071452929 0 0.22076837523631451 -0.35267920974236072 0 0.23133102347449649 -0.35950822589080189 0 0.23760271529458479 -0.35087764463569071 0 0.22867514261462599 -0.34782526071452929 0 0.23133102347449649 -0.35950822589080189 0 0.23133102347449649 -0.35950822589080189 0 0.22341137818785181 -0.36337688942730773 0 0.22699371624108439 -0.37103399677892651 0 0.22341137818785181 -0.36337688942730773 0 0.22699371624108439 -0.37103399677892651 0 0.21663927632257499 -0.37152038636996992 0 0.22699371624108439 -0.37103399677892651 0 0.21663927632257499 -0.37152038636996992 0 0.22189277223980711 -0.38054577212349588 0 0.23679608458568241 -0.3713456781615978 0 0.22699371624108439 -0.37103399677892651 0 0.23010576568282681 -0.37607478874810818 0 0.23679608458568241 -0.3713456781615978 0 0.23133102347449649 -0.35950822589080189 0 0.22699371624108439 -0.37103399677892651 0 0.21663927632257499 -0.37152038636996992 0 0.20683644217058031 -0.36558797855932218 0 0.20576161095015591 -0.37595213443190167 0 0.22341137818785181 -0.36337688942730773 0 0.21663927632257499 -0.37152038636996992 0 0.21609027172906259 -0.36087537471117581 0 0.21609027172906259 -0.36087537471117581 0 0.20683644217058031 -0.36558797855932218 0 0.21089823393406021 -0.35324530101306001 0 0.21663927632257499 -0.37152038636996992 0 0.21609027172906259 -0.36087537471117581 0 0.20683644217058031 -0.36558797855932218 0 0.19940837682496099 -0.35689206815154528 0 0.20777431361625601 -0.33831058893907762 0 0.21089823393406021 -0.35324530101306001 0 0.19940837682496099 -0.35689206815154528 0 0.20777431361625601 -0.33831058893907762 0 0.20683644217058031 -0.36558797855932218 0 0.21089823393406021 -0.35324530101306001 0 0.19940837682496099 -0.35689206815154528 0 0.22076837523631451 -0.35267920974236072 0 0.21609027172906259 -0.36087537471117581 0 0.21089823393406021 -0.35324530101306001 0 0.21089823393406021 -0.35324530101306001 0 0.21451162402718699 -0.34512658597487872 0 0.20777431361625601 -0.33831058893907762 0 0.22076837523631451 -0.35267920974236072 0 0.21089823393406021 -0.35324530101306001 0 0.21451162402718699 -0.34512658597487872 0 0.1971616983813648 -0.34495631128618592 0 0.19940837682496099 -0.35689206815154528 0 0.20777431361625601 -0.33831058893907762 0 0.1971616983813648 -0.34495631128618592 0 0.18787137947787569 -0.35180034780069419 0 0.18864170350563411 -0.33720407153827198 0 0.1971616983813648 -0.34495631128618592 0 0.18787137947787569 -0.35180034780069419 0 0.19940837682496099 -0.35689206815154528 0 0.20683644217058031 -0.36558797855932218 0 0.20576161095015591 -0.37595213443190167 0 0.1910424400336663 -0.37547354736401328 0 0.18787137947787569 -0.35180034780069419 0 0.19940837682496099 -0.35689206815154528 0 0.1910424400336663 -0.37547354736401328 0 0.19940837682496099 -0.35689206815154528 0 0.1910424400336663 -0.37547354736401328 0 0.20683644217058031 -0.36558797855932218 0 0.19940837682496099 -0.35689206815154528 0 0.1910424400336663 -0.37547354736401328 0 0.21780935440599439 -0.31602188338433101 0 0.20777431361625601 -0.33831058893907762 0 0.21780935440599439 -0.31602188338433101 0 0.20777431361625601 -0.33831058893907762 0 0.20282381327660201 -0.31505297042611552 0 0.21780935440599439 -0.31602188338433101 0 0.21820242441149371 -0.32490710899175251 0 0.20777431361625601 -0.33831058893907762 0 0.2176214393273678 -0.31177412129290383 0 0.20282381327660201 -0.31505297042611552 0 0.2176214393273678 -0.31177412129290383 0 0.21780935440599439 -0.31602188338433101 0 0.20282381327660201 -0.31505297042611552 0 0.2176214393273678 -0.31177412129290383 0 0.21780935440599439 -0.31602188338433101 0 0.2176214393273678 -0.31177412129290383 0 0.21999804566891551 -0.31122614102315033 0 0.21780935440599439 -0.31602188338433101 0 0.21780935440599439 -0.31602188338433101 0 0.21820242441149371 -0.32490710899175251 0 0.220555537226792 -0.33578323097752499 0 0.21820242441149371 -0.32490710899175251 0 0.20777431361625601 -0.33831058893907762 0 0.220555537226792 -0.33578323097752499 0 0.21451162402718699 -0.34512658597487872 0 0.20777431361625601 -0.33831058893907762 0 0.21451162402718699 -0.34512658597487872 0 0.20777431361625601 -0.33831058893907762 0 0.1971616983813648 -0.34495631128618592 0 0.20777431361625601 -0.33831058893907762 0 0.18864170350563411 -0.33720407153827198 0 0.20777431361625601 -0.33831058893907762 0 0.18802618722583669 -0.31833181955932999 0 0.20777431361625601 -0.33831058893907762 0 0.18864170350563411 -0.33720407153827198 0 0.18802618722583669 -0.31833181955932999 0 0.20777431361625601 -0.33831058893907762 0 0.20282381327660201 -0.31505297042611552 0 0.18802618722583669 -0.31833181955932999 0 0.20282381327660201 -0.31505297042611552 0 0.18802618722583669 -0.31833181955932999 0 0.1976485991634879 -0.30796138879627621 0 0.20282381327660201 -0.31505297042611552 0 0.18802618722583669 -0.31833181955932999 0 0.18802618722583669 -0.31833181955932999 0 0.1791507244663583 -0.32983729973660558 0 0.16791254130802971 -0.3227885891963716 0 0.18802618722583669 -0.31833181955932999 0 0.17151825735526699 -0.31325416760549368 0 0.16791254130802971 -0.3227885891963716 0 0.18802618722583669 -0.31833181955932999 0 0.16791254130802971 -0.3227885891963716 0 0.18864170350563411 -0.33720407153827198 0 0.18802618722583669 -0.31833181955932999 0 0.1791507244663583 -0.32983729973660558 0 0.17202246582593331 -0.34102471865244838 0 0.1791507244663583 -0.32983729973660558 0 0.16791254130802971 -0.3227885891963716 0 0.18787137947787569 -0.35180034780069419 0 0.18864170350563411 -0.33720407153827198 0 0.17202246582593331 -0.34102471865244838 0 0.18864170350563411 -0.33720407153827198 0 0.17202246582593331 -0.34102471865244838 0 0.1791507244663583 -0.32983729973660558 0 0.17202246582593331 -0.34102471865244838 0 0.1546435437787094 -0.34381338892778002 0 0.1557586906108582 -0.32786840018592928 0 0.17202246582593331 -0.34102471865244838 0 0.16791254130802971 -0.3227885891963716 0 0.1557586906108582 -0.32786840018592928 0 0.16791254130802971 -0.3227885891963716 0 0.1557586906108582 -0.32786840018592928 0 0.1602411687519314 -0.31190927739118429 0 0.17151825735526699 -0.31325416760549368 0 0.16791254130802971 -0.3227885891963716 0 0.1602411687519314 -0.31190927739118429 0 0.18787137947787569 -0.35180034780069419 0 0.17662324672053431 -0.35795823269279659 0 0.1910424400336663 -0.37547354736401328 0 0.17662324672053431 -0.35795823269279659 0 0.17035242753357599 -0.36877211446365682 0 0.1910424400336663 -0.37547354736401328 0 0.17035242753357599 -0.36877211446365682 0 0.1910424400336663 -0.37547354736401328 0 0.1737051017910701 -0.38004230502140057 0 0.18787137947787569 -0.35180034780069419 0 0.17202246582593331 -0.34102471865244838 0 0.17662324672053431 -0.35795823269279659 0 0.17202246582593331 -0.34102471865244838 0 0.17662324672053431 -0.35795823269279659 0 0.16265844046108829 -0.35526087104265458 0 0.17202246582593331 -0.34102471865244838 0 0.16265844046108829 -0.35526087104265458 0 0.1546435437787094 -0.34381338892778002 0 0.17662324672053431 -0.35795823269279659 0 0.16265844046108829 -0.35526087104265458 0 0.17035242753357599 -0.36877211446365682 0 0.16265844046108829 -0.35526087104265458 0 0.1569593121701936 -0.36832063090657668 0 0.17035242753357599 -0.36877211446365682 0 0.1569593121701936 -0.36832063090657668 0 0.17035242753357599 -0.36877211446365682 0 0.16307541855137739 -0.37743582412871929 0 0.14536400873927011 -0.3681220756701501 0 0.1426630499740982 -0.35652090160864008 0 0.13524945632583441 -0.37311377610700652 0 0.16265844046108829 -0.35526087104265458 0 0.1569593121701936 -0.36832063090657668 0 0.1426630499740982 -0.35652090160864008 0 0.14536400873927011 -0.3681220756701501 0 0.13524945632583441 -0.37311377610700652 0 0.14973869037300869 -0.38096853745143089 0 0.1569593121701936 -0.36832063090657668 0 0.14536400873927011 -0.3681220756701501 0 0.14973869037300869 -0.38096853745143089 0 0.1569593121701936 -0.36832063090657668 0 0.14536400873927011 -0.3681220756701501 0 0.1426630499740982 -0.35652090160864008 0 0.1546435437787094 -0.34381338892778002 0 0.1426630499740982 -0.35652090160864008 0 0.1424354920479888 -0.33775294740649747 0 0.16265844046108829 -0.35526087104265458 0 0.1546435437787094 -0.34381338892778002 0 0.1426630499740982 -0.35652090160864008 0 0.13449730155472761 -0.34743155680512378 0 0.12784456261830821 -0.36308533366748658 0 0.123981461538115 -0.35128285539313481 0 0.1426630499740982 -0.35652090160864008 0 0.13449730155472761 -0.34743155680512378 0 0.1424354920479888 -0.33775294740649747 0 0.1426630499740982 -0.35652090160864008 0 0.13449730155472761 -0.34743155680512378 0 0.12784456261830821 -0.36308533366748658 0 0.13449730155472761 -0.34743155680512378 0 0.13051916655351839 -0.33696304048325831 0 0.123981461538115 -0.35128285539313481 0 0.1426630499740982 -0.35652090160864008 0 0.12784456261830821 -0.36308533366748658 0 0.13524945632583441 -0.37311377610700652 0 0.12784456261830821 -0.36308533366748658 0 0.13524945632583441 -0.37311377610700652 0 0.12609635470998201 -0.38402791619100712 0 0.14855409589738661 -0.31441038212804873 0 0.1557586906108582 -0.32786840018592928 0 0.1602411687519314 -0.31190927739118429 0 0.1445015266660287 -0.32337949759917511 0 0.14855409589738661 -0.31441038212804873 0 0.13871327718005111 -0.31332369293528212 0 0.1445015266660287 -0.32337949759917511 0 0.14855409589738661 -0.31441038212804873 0 0.1557586906108582 -0.32786840018592928 0 0.1546435437787094 -0.34381338892778002 0 0.1557586906108582 -0.32786840018592928 0 0.1424354920479888 -0.33775294740649747 0 0.1445015266660287 -0.32337949759917511 0 0.1557586906108582 -0.32786840018592928 0 0.1424354920479888 -0.33775294740649747 0 0.1445015266660287 -0.32337949759917511 0 0.1424354920479888 -0.33775294740649747 0 0.13219802669416811 -0.32498852212276208 0 0.1424354920479888 -0.33775294740649747 0 0.13051916655351839 -0.33696304048325831 0 0.13219802669416811 -0.32498852212276208 0 0.13449730155472761 -0.34743155680512378 0 0.1424354920479888 -0.33775294740649747 0 0.13051916655351839 -0.33696304048325831 0 0.13051916655351839 -0.33696304048325831 0 0.13219802669416811 -0.32498852212276208 0 0.12260601330919629 -0.33072698382653798 0 0.1445015266660287 -0.32337949759917511 0 0.13219802669416811 -0.32498852212276208 0 0.13871327718005111 -0.31332369293528212 0 0.13219802669416811 -0.32498852212276208 0 0.1265219532001009 -0.3124330460259736 0 0.1192961391526948 -0.32261879728377291 0 0.13219802669416811 -0.32498852212276208 0 0.13871327718005111 -0.31332369293528212 0 0.1265219532001009 -0.3124330460259736 0 0.1265219532001009 -0.3124330460259736 0 0.1332586495603032 -0.30031372317270688 0 0.1198701537204314 -0.30089140532399938 0 0.1332586495603032 -0.30031372317270688 0 0.1242383748246253 -0.29131174999725179 0 0.1198701537204314 -0.30089140532399938 0 0.13871327718005111 -0.31332369293528212 0 0.1265219532001009 -0.3124330460259736 0 0.1332586495603032 -0.30031372317270688 0 0.13871327718005111 -0.31332369293528212 0 0.1332586495603032 -0.30031372317270688 0 0.147245411062319 -0.30441698656302629 0 0.14855409589738661 -0.31441038212804873 0 0.13871327718005111 -0.31332369293528212 0 0.147245411062319 -0.30441698656302629 0 0.147245411062319 -0.30441698656302629 0 0.15432967412725099 -0.29846298066074151 0 0.14327492933615671 -0.29425024746867751 0 0.1332586495603032 -0.30031372317270688 0 0.147245411062319 -0.30441698656302629 0 0.14327492933615671 -0.29425024746867751 0 0.147245411062319 -0.30441698656302629 0 0.15432967412725099 -0.29846298066074151 0 0.1602411687519314 -0.31190927739118429 0 0.14855409589738661 -0.31441038212804873 0 0.147245411062319 -0.30441698656302629 0 0.1602411687519314 -0.31190927739118429 0 0.15432967412725099 -0.29846298066074151 0 0.1517600770447052 -0.28164214899084639 0 0.14327492933615671 -0.29425024746867751 0 0.1517600770447052 -0.28164214899084639 0 0.14327492933615671 -0.29425024746867751 0 0.13646338677899769 -0.28546266283427663 0 0.1332586495603032 -0.30031372317270688 0 0.14327492933615671 -0.29425024746867751 0 0.13646338677899769 -0.28546266283427663 0 0.1332586495603032 -0.30031372317270688 0 0.13646338677899769 -0.28546266283427663 0 0.1242383748246253 -0.29131174999725179 0 0.13646338677899769 -0.28546266283427663 0 0.1233023238440631 -0.28097148456094378 0 0.1242383748246253 -0.29131174999725179 0 0.1517600770447052 -0.28164214899084639 0 0.13646338677899769 -0.28546266283427663 0 0.1311170075682456 -0.27142576198599933 0 0.1517600770447052 -0.28164214899084639 0 0.1311170075682456 -0.27142576198599933 0 0.1364827709165429 -0.26618641562940759 0 0.13646338677899769 -0.28546266283427663 0 0.1311170075682456 -0.27142576198599933 0 0.1233023238440631 -0.28097148456094378 0 0.1311170075682456 -0.27142576198599933 0 0.1364827709165429 -0.26618641562940759 0 0.1212054647883809 -0.25073068226796852 0 0.1364827709165429 -0.26618641562940759 0 0.13217397618885759 -0.25462043987800831 0 0.1212054647883809 -0.25073068226796852 0 0.1364827709165429 -0.26618641562940759 0 0.1212054647883809 -0.25073068226796852 0 0.1364827709165429 -0.26618641562940759 0 0.13217397618885759 -0.25462043987800831 0 0.14275904560399111 -0.25945725309375861 0 0.13217397618885759 -0.25462043987800831 0 0.1429630926125974 -0.2502577086919005 0 0.14275904560399111 -0.25945725309375861 0 0.1429630926125974 -0.2502577086919005 0 0.16574248336044761 -0.26746108990676593 0 0.1429630926125974 -0.2502577086919005 0 0.15128247879849499 -0.26292486595599002 0 0.16574248336044761 -0.26746108990676593 0 0.1429630926125974 -0.2502577086919005 0 0.16574248336044761 -0.26746108990676593 0 0.16001236861667459 -0.2513654190734112 0 0.1429630926125974 -0.2502577086919005 0 0.14275904560399111 -0.25945725309375861 0 0.15128247879849499 -0.26292486595599002 0 0.1364827709165429 -0.26618641562940759 0 0.14275904560399111 -0.25945725309375861 0 0.15128247879849499 -0.26292486595599002 0 0.1517600770447052 -0.28164214899084639 0 0.1364827709165429 -0.26618641562940759 0 0.15128247879849499 -0.26292486595599002 0 0.1517600770447052 -0.28164214899084639 0 0.15128247879849499 -0.26292486595599002 0 0.15776774232478771 -0.26956647822523339 0 0.1517600770447052 -0.28164214899084639 0 0.1311170075682456 -0.27142576198599933 0 0.1517600770447052 -0.28164214899084639 0 0.1364827709165429 -0.26618641562940759 0 0.1517600770447052 -0.28164214899084639 0 0.16209364730358741 -0.27452888323759039 0 0.16594555478614451 -0.28284233368471318 0 0.1517600770447052 -0.28164214899084639 0 0.16209364730358741 -0.27452888323759039 0 0.15776774232478771 -0.26956647822523339 0 0.16209364730358741 -0.27452888323759039 0 0.15776774232478771 -0.26956647822523339 0 0.16574248336044761 -0.26746108990676593 0 0.15128247879849499 -0.26292486595599002 0 0.15776774232478771 -0.26956647822523339 0 0.16574248336044761 -0.26746108990676593 0 0.16209364730358741 -0.27452888323759039 0 0.16574248336044761 -0.26746108990676593 0 0.16920230535812411 -0.27329149954452342 0 0.16209364730358741 -0.27452888323759039 0 0.16920230535812411 -0.27329149954452342 0 0.16594555478614451 -0.28284233368471318 0 0.16920230535812411 -0.27329149954452342 0 0.1710222018321049 -0.28124575318360368 0 0.16594555478614451 -0.28284233368471318 0 0.16574248336044761 -0.26746108990676593 0 0.16001236861667459 -0.2513654190734112 0 0.16988601458932601 -0.2589500224365659 0 0.16574248336044761 -0.26746108990676593 0 0.16988601458932601 -0.2589500224365659 0 0.17628584543496439 -0.26683535894776161 0 0.16001236861667459 -0.2513654190734112 0 0.16988601458932601 -0.2589500224365659 0 0.16978669848249819 -0.25098739912941831 0 0.1767458594742066 -0.25730285456071711 0 0.17619278994504239 -0.24587918172992959 0 0.18399505531774341 -0.24981832115951039 0 0.16978669848249819 -0.25098739912941831 0 0.1767458594742066 -0.25730285456071711 0 0.17619278994504239 -0.24587918172992959 0 0.16988601458932601 -0.2589500224365659 0 0.16978669848249819 -0.25098739912941831 0 0.1767458594742066 -0.25730285456071711 0 0.16988601458932601 -0.2589500224365659 0 0.1767458594742066 -0.25730285456071711 0 0.17628584543496439 -0.26683535894776161 0 0.1767458594742066 -0.25730285456071711 0 0.17628584543496439 -0.26683535894776161 0 0.1845366839674035 -0.26640487959885623 0 0.1767458594742066 -0.25730285456071711 0 0.18706352147094041 -0.25756661524031438 0 0.1845366839674035 -0.26640487959885623 0 0.1767458594742066 -0.25730285456071711 0 0.18706352147094041 -0.25756661524031438 0 0.18399505531774341 -0.24981832115951039 0 0.18852187410829821 -0.28466447112163068 0 0.17628584543496439 -0.26683535894776161 0 0.1845366839674035 -0.26640487959885623 0 0.18852187410829821 -0.28466447112163068 0 0.16574248336044761 -0.26746108990676593 0 0.18852187410829821 -0.28466447112163068 0 0.16574248336044761 -0.26746108990676593 0 0.17628584543496439 -0.26683535894776161 0 0.16920230535812411 -0.27329149954452342 0 0.18747516626574931 -0.28692639975368628 0 0.17602993407772211 -0.2832030986568283 0 0.18852187410829821 -0.28466447112163068 0 0.16574248336044761 -0.26746108990676593 0 0.16920230535812411 -0.27329149954452342 0 0.16920230535812411 -0.27329149954452342 0 0.18747516626574931 -0.28692639975368628 0 0.16920230535812411 -0.27329149954452342 0 0.1710222018321049 -0.28124575318360368 0 0.17602993407772211 -0.2832030986568283 0 0.18747516626574931 -0.28692639975368628 0 0.1806905449634813 -0.28832929748571318 0 0.17602993407772211 -0.2832030986568283 0 0.18852187410829821 -0.28466447112163068 0 0.16920230535812411 -0.27329149954452342 0 0.18747516626574931 -0.28692639975368628 0 0.18747516626574931 -0.28692639975368628 0 0.1806905449634813 -0.28832929748571318 0 0.18301660310609241 -0.29114958545392738 0 0.17291101310642881 -0.28564608084835003 0 0.17864991096044419 -0.29495009963706692 0 0.16594555478614451 -0.28284233368471318 0 0.1806905449634813 -0.28832929748571318 0 0.17602993407772211 -0.2832030986568283 0 0.17673138357400531 -0.28840876668861409 0 0.17602993407772211 -0.2832030986568283 0 0.17673138357400531 -0.28840876668861409 0 0.17291101310642881 -0.28564608084835003 0 0.1710222018321049 -0.28124575318360368 0 0.17602993407772211 -0.2832030986568283 0 0.17291101310642881 -0.28564608084835003 0 0.17673138357400531 -0.28840876668861409 0 0.17291101310642881 -0.28564608084835003 0 0.17864991096044419 -0.29495009963706692 0 0.17673138357400531 -0.28840876668861409 0 0.17909088347012619 -0.29088019083727579 0 0.17864991096044419 -0.29495009963706692 0 0.1806905449634813 -0.28832929748571318 0 0.17673138357400531 -0.28840876668861409 0 0.17909088347012619 -0.29088019083727579 0 0.17909088347012619 -0.29088019083727579 0 0.17864991096044419 -0.29495009963706692 0 0.18114425154506539 -0.29221912984395187 0 0.18747516626574931 -0.28692639975368628 0 0.18734834214976739 -0.29514628785519947 0 0.1827564496500734 -0.29712351473235832 0 0.18747516626574931 -0.28692639975368628 0 0.18301660310609241 -0.29114958545392738 0 0.1827564496500734 -0.29712351473235832 0 0.18114425154506539 -0.29221912984395187 0 0.18301660310609241 -0.29114958545392738 0 0.1827564496500734 -0.29712351473235832 0 0.17864991096044419 -0.29495009963706692 0 0.18114425154506539 -0.29221912984395187 0 0.1827564496500734 -0.29712351473235832 0 0.18747516626574931 -0.28692639975368628 0 0.1827564496500734 -0.29712351473235832 0 0.1806905449634813 -0.28832929748571318 0 0.18114425154506539 -0.29221912984395187 0 0.18301660310609241 -0.29114958545392738 0 0.1806905449634813 -0.28832929748571318 0 0.17909088347012619 -0.29088019083727579 0 0.18114425154506539 -0.29221912984395187 0 0.18802618722583669 -0.31833181955932999 0 0.18221347423979239 -0.30458962683289892 0 0.1698931321352706 -0.29998698427508858 0 0.1880606218677118 -0.30022154946313712 0 0.18734834214976739 -0.29514628785519947 0 0.1827564496500734 -0.29712351473235832 0 0.19009702279388629 -0.3064242775921906 0 0.1880606218677118 -0.30022154946313712 0 0.18221347423979239 -0.30458962683289892 0 0.18802618722583669 -0.31833181955932999 0 0.17151825735526699 -0.31325416760549368 0 0.1698931321352706 -0.29998698427508858 0 0.1880606218677118 -0.30022154946313712 0 0.18221347423979239 -0.30458962683289892 0 0.1827564496500734 -0.29712351473235832 0 0.18802618722583669 -0.31833181955932999 0 0.1698931321352706 -0.29998698427508858 0 0.17864991096044419 -0.29495009963706692 0 0.1827564496500734 -0.29712351473235832 0 0.17837824174639511 -0.29916255636935318 0 0.18221347423979239 -0.30458962683289892 0 0.1827564496500734 -0.29712351473235832 0 0.17837824174639511 -0.29916255636935318 0 0.19009702279388629 -0.3064242775921906 0 0.18802618722583669 -0.31833181955932999 0 0.18221347423979239 -0.30458962683289892 0 0.18221347423979239 -0.30458962683289892 0 0.17837824174639511 -0.29916255636935318 0 0.1698931321352706 -0.29998698427508858 0 0.17864991096044419 -0.29495009963706692 0 0.17837824174639511 -0.29916255636935318 0 0.1698931321352706 -0.29998698427508858 0 0.17151825735526699 -0.31325416760549368 0 0.1698931321352706 -0.29998698427508858 0 0.1602411687519314 -0.31190927739118429 0 0.15432967412725099 -0.29846298066074151 0 0.1698931321352706 -0.29998698427508858 0 0.1602411687519314 -0.31190927739118429 0 0.1517600770447052 -0.28164214899084639 0 0.17864991096044419 -0.29495009963706692 0 0.1698931321352706 -0.29998698427508858 0 0.1517600770447052 -0.28164214899084639 0 0.1698931321352706 -0.29998698427508858 0 0.15432967412725099 -0.29846298066074151 0 0.1517600770447052 -0.28164214899084639 0 0.1698931321352706 -0.29998698427508858 0 0.1517600770447052 -0.28164214899084639 0 0.17864991096044419 -0.29495009963706692 0 0.1517600770447052 -0.28164214899084639 0 0.17864991096044419 -0.29495009963706692 0 0.16594555478614451 -0.28284233368471318 0 0.1710222018321049 -0.28124575318360368 0 0.17291101310642881 -0.28564608084835003 0 0.16594555478614451 -0.28284233368471318 0 0.21438456257476449 -0.5 0 0.2048745361024723 -0.48472171768082351 0 0.18744203257390391 -0.5 0 0.19122796324104871 -0.48466606029959602 0 0.2048745361024723 -0.48472171768082351 0 0.18744203257390391 -0.5 0 0.19122796324104871 -0.48466606029959602 0 0.20365346230900849 -0.47086657296764728 0 0.1938641377332887 -0.4633108835168005 0 0.19122796324104871 -0.48466606029959602 0 0.20365346230900849 -0.47086657296764728 0 0.2048745361024723 -0.48472171768082351 0 0.21766866328091511 -0.47157360957620892 0 0.2048745361024723 -0.48472171768082351 0 0.22288060450936709 -0.48400008360299168 0 0.20365346230900849 -0.47086657296764728 0 0.21766866328091511 -0.47157360957620892 0 0.2048745361024723 -0.48472171768082351 0 0.21438456257476449 -0.5 0 0.2048745361024723 -0.48472171768082351 0 0.22288060450936709 -0.48400008360299168 0 0.21438456257476449 -0.5 0 0.23633351028628971 -0.48712361601618398 0 0.2413270925756249 -0.5 0 0.21438456257476449 -0.5 0 0.23633351028628971 -0.48712361601618398 0 0.22288060450936709 -0.48400008360299168 0 0.25270961841775552 -0.48460016746525392 0 0.23633351028628971 -0.48712361601618398 0 0.2413270925756249 -0.5 0 0.25270961841775552 -0.48460016746525392 0 0.23633351028628971 -0.48712361601618398 0 0.23949561189523169 -0.47426551941090739 0 0.23949561189523169 -0.47426551941090739 0 0.22288060450936709 -0.48400008360299168 0 0.22545312399173489 -0.46028769725088831 0 0.21766866328091511 -0.47157360957620892 0 0.22288060450936709 -0.48400008360299168 0 0.22545312399173489 -0.46028769725088831 0 0.23633351028628971 -0.48712361601618398 0 0.23949561189523169 -0.47426551941090739 0 0.22288060450936709 -0.48400008360299168 0 0.22288060450936709 -0.48400008360299168 0 0.22545312399173489 -0.46028769725088831 0 0.21766866328091511 -0.47157360957620892 0 0.22545312399173489 -0.46028769725088831 0 0.2186728293425339 -0.44755637628226819 0 0.2588368117714554 -0.46700690363883102 0 0.23949561189523169 -0.47426551941090739 0 0.2409729068143365 -0.46262444708906358 0 0.22545312399173489 -0.46028769725088831 0 0.2409729068143365 -0.46262444708906358 0 0.24480843210435321 -0.45079661158300749 0 0.2588368117714554 -0.46700690363883102 0 0.2409729068143365 -0.46262444708906358 0 0.24480843210435321 -0.45079661158300749 0 0.23949561189523169 -0.47426551941090739 0 0.22545312399173489 -0.46028769725088831 0 0.2409729068143365 -0.46262444708906358 0 0.24480843210435321 -0.45079661158300749 0 0.22802564347410281 -0.43657531089878487 0 0.2418992233321238 -0.43333026798624508 0 0.25513396950241118 -0.43290986753561628 0 0.24480843210435321 -0.45079661158300749 0 0.2418992233321238 -0.43333026798624508 0 0.22545312399173489 -0.46028769725088831 0 0.22802564347410281 -0.43657531089878487 0 0.2186728293425339 -0.44755637628226819 0 0.21246462128442831 -0.43168381348743168 0 0.22802564347410281 -0.43657531089878487 0 0.22545312399173489 -0.46028769725088831 0 0.2186728293425339 -0.44755637628226819 0 0.22802564347410281 -0.43657531089878487 0 0.22545312399173489 -0.46028769725088831 0 0.24480843210435321 -0.45079661158300749 0 0.22802564347410281 -0.43657531089878487 0 0.20442019459899149 -0.44533796874460208 0 0.2186728293425339 -0.44755637628226819 0 0.21246462128442831 -0.43168381348743168 0 0.21766866328091511 -0.47157360957620892 0 0.20442019459899149 -0.44533796874460208 0 0.21766866328091511 -0.47157360957620892 0 0.20442019459899149 -0.44533796874460208 0 0.2186728293425339 -0.44755637628226819 0 0.20365346230900849 -0.47086657296764728 0 0.21766866328091511 -0.47157360957620892 0 0.20442019459899149 -0.44533796874460208 0 0.20365346230900849 -0.47086657296764728 0 0.20442019459899149 -0.44533796874460208 0 0.1938641377332887 -0.4633108835168005 0 0.20442019459899149 -0.44533796874460208 0 0.18484232774876749 -0.43033534366960768 0 0.18590039067086719 -0.44115637567916172 0 0.20442019459899149 -0.44533796874460208 0 0.18923595964957429 -0.45067509688328122 0 0.18590039067086719 -0.44115637567916172 0 0.20442019459899149 -0.44533796874460208 0 0.1938641377332887 -0.4633108835168005 0 0.18923595964957429 -0.45067509688328122 0 0.20442019459899149 -0.44533796874460208 0 0.1911717259170673 -0.41910232791299562 0 0.20473537155931409 -0.42802668409371708 0 0.20442019459899149 -0.44533796874460208 0 0.1911717259170673 -0.41910232791299562 0 0.20442019459899149 -0.44533796874460208 0 0.1911717259170673 -0.41910232791299562 0 0.18484232774876749 -0.43033534366960768 0 0.1911717259170673 -0.41910232791299562 0 0.21088494443676881 -0.41598262622983972 0 0.20473537155931409 -0.42802668409371708 0 0.18851111772050869 -0.41383358608972459 0 0.208966154163157 -0.40126827473642579 0 0.1911717259170673 -0.41910232791299562 0 0.21088494443676881 -0.41598262622983972 0 0.1911717259170673 -0.41910232791299562 0 0.18851111772050869 -0.41383358608972459 0 0.21088494443676881 -0.41598262622983972 0 0.18851111772050869 -0.41383358608972459 0 0.21088494443676881 -0.41598262622983972 0 0.208966154163157 -0.40126827473642579 0 0.1911717259170673 -0.41910232791299562 0 0.18851111772050869 -0.41383358608972459 0 0.21088494443676881 -0.41598262622983972 0 0.22155668588658281 -0.40529615173032069 0 0.208966154163157 -0.40126827473642579 0 0.21088494443676881 -0.41598262622983972 0 0.20473537155931409 -0.42802668409371708 0 0.21246462128442831 -0.43168381348743168 0 0.21088494443676881 -0.41598262622983972 0 0.21246462128442831 -0.43168381348743168 0 0.21959695705502991 -0.42408781639437282 0 0.20442019459899149 -0.44533796874460208 0 0.20473537155931409 -0.42802668409371708 0 0.21246462128442831 -0.43168381348743168 0 0.21246462128442831 -0.43168381348743168 0 0.21959695705502991 -0.42408781639437282 0 0.22802564347410281 -0.43657531089878487 0 0.22802564347410281 -0.43657531089878487 0 0.23614533994983331 -0.4244462479719151 0 0.23059816295646979 -0.4128629245466815 0 0.22802564347410281 -0.43657531089878487 0 0.23059816295646979 -0.4128629245466815 0 0.21959695705502991 -0.42408781639437282 0 0.22802564347410281 -0.43657531089878487 0 0.23059816295646979 -0.4128629245466815 0 0.22802564347410281 -0.43657531089878487 0 0.2418992233321238 -0.43333026798624508 0 0.23614533994983331 -0.4244462479719151 0 0.2418992233321238 -0.43333026798624508 0 0.23614533994983331 -0.4244462479719151 0 0.2453827316299185 -0.42192330194190181 0 0.25513396950241118 -0.43290986753561628 0 0.2418992233321238 -0.43333026798624508 0 0.2453827316299185 -0.42192330194190181 0 0.256136481120742 -0.41447562176841068 0 0.2453827316299185 -0.42192330194190181 0 0.24629253832767661 -0.41022035877505542 0 0.2453827316299185 -0.42192330194190181 0 0.24629253832767661 -0.41022035877505542 0 0.2366098857920339 -0.41191154353144788 0 0.23614533994983331 -0.4244462479719151 0 0.2366098857920339 -0.41191154353144788 0 0.23059816295646979 -0.4128629245466815 0 0.23614533994983331 -0.4244462479719151 0 0.2453827316299185 -0.42192330194190181 0 0.2366098857920339 -0.41191154353144788 0 0.24629253832767661 -0.41022035877505542 0 0.2366098857920339 -0.41191154353144788 0 0.2422505545635501 -0.40276464775944387 0 0.21088494443676881 -0.41598262622983972 0 0.23059816295646979 -0.4128629245466815 0 0.2366098857920339 -0.41191154353144788 0 0.23059816295646979 -0.4128629245466815 0 0.23156745731421779 -0.4039283829592023 0 0.23059816295646979 -0.4128629245466815 0 0.22155668588658281 -0.40529615173032069 0 0.23156745731421779 -0.4039283829592023 0 0.23059816295646979 -0.4128629245466815 0 0.23156745731421779 -0.4039283829592023 0 0.21088494443676881 -0.41598262622983972 0 0.23059816295646979 -0.4128629245466815 0 0.22155668588658281 -0.40529615173032069 0 0.21088494443676881 -0.41598262622983972 0 0.21959695705502991 -0.42408781639437282 0 0.23059816295646979 -0.4128629245466815 0 0.2366098857920339 -0.41191154353144788 0 0.23059816295646979 -0.4128629245466815 0 0.22155668588658281 -0.40529615173032069 0 0.22942119060580499 -0.38870296338312649 0 0.208966154163157 -0.40126827473642579 0 0.22155668588658281 -0.40529615173032069 0 0.23156745731421779 -0.4039283829592023 0 0.22942119060580499 -0.38870296338312649 0 0.22942119060580499 -0.38870296338312649 0 0.208966154163157 -0.40126827473642579 0 0.23156745731421779 -0.4039283829592023 0 0.24309899287842279 -0.39271330151873202 0 0.2422505545635501 -0.40276464775944387 0 0.2366098857920339 -0.41191154353144788 0 0.23156745731421779 -0.4039283829592023 0 0.2422505545635501 -0.40276464775944387 0 0.23156745731421779 -0.4039283829592023 0 0.24309899287842279 -0.39271330151873202 0 0.22942119060580499 -0.38870296338312649 0 0.25108303853213881 -0.40002667887407228 0 0.24629253832767661 -0.41022035877505542 0 0.2422505545635501 -0.40276464775944387 0 0.25108303853213881 -0.40002667887407228 0 0.24309899287842279 -0.39271330151873202 0 0.2422505545635501 -0.40276464775944387 0 0.24987622704845311 -0.37613765202982719 0 0.22942119060580499 -0.38870296338312649 0 0.24309899287842279 -0.39271330151873202 0 0.24987622704845311 -0.37613765202982719 0 0.22942119060580499 -0.38870296338312649 0 0.24987622704845311 -0.37613765202982719 0 0.23474048966473349 -0.38137370792841258 0 0.22942119060580499 -0.38870296338312649 0 0.25687819372407023 -0.38903915957053298 0 0.24309899287842279 -0.39271330151873202 0 0.24987622704845311 -0.37613765202982719 0 0.23679608458568241 -0.3713456781615978 0 0.24987622704845311 -0.37613765202982719 0 0.23474048966473349 -0.38137370792841258 0 0.23474048966473349 -0.38137370792841258 0 0.23010576568282681 -0.37607478874810818 0 0.22189277223980711 -0.38054577212349588 0 0.23474048966473349 -0.38137370792841258 0 0.22189277223980711 -0.38054577212349588 0 0.20961824525516401 -0.3936281247522696 0 0.23474048966473349 -0.38137370792841258 0 0.22942119060580499 -0.38870296338312649 0 0.20961824525516401 -0.3936281247522696 0 0.23679608458568241 -0.3713456781615978 0 0.23474048966473349 -0.38137370792841258 0 0.23010576568282681 -0.37607478874810818 0 0.23474048966473349 -0.38137370792841258 0 0.20961824525516401 -0.3936281247522696 0 0.22699371624108439 -0.37103399677892651 0 0.23010576568282681 -0.37607478874810818 0 0.22189277223980711 -0.38054577212349588 0 0.21663927632257499 -0.37152038636996992 0 0.22189277223980711 -0.38054577212349588 0 0.21119602619295649 -0.38157571206759561 0 0.21663927632257499 -0.37152038636996992 0 0.21119602619295649 -0.38157571206759561 0 0.20576161095015591 -0.37595213443190167 0 0.21119602619295649 -0.38157571206759561 0 0.20576161095015591 -0.37595213443190167 0 0.20229958674085519 -0.38616776423662919 0 0.21119602619295649 -0.38157571206759561 0 0.20961824525516401 -0.3936281247522696 0 0.20229958674085519 -0.38616776423662919 0 0.22189277223980711 -0.38054577212349588 0 0.21119602619295649 -0.38157571206759561 0 0.20961824525516401 -0.3936281247522696 0 0.22942119060580499 -0.38870296338312649 0 0.208966154163157 -0.40126827473642579 0 0.20961824525516401 -0.3936281247522696 0 0.20961824525516401 -0.3936281247522696 0 0.18449600084559339 -0.40588254157612419 0 0.20961824525516401 -0.3936281247522696 0 0.19262774622386039 -0.39991289132556063 0 0.20229958674085519 -0.38616776423662919 0 0.18851111772050869 -0.41383358608972459 0 0.20961824525516401 -0.3936281247522696 0 0.18449600084559339 -0.40588254157612419 0 0.19262774622386039 -0.39991289132556063 0 0.193172237845981 -0.38760648281860499 0 0.20229958674085519 -0.38616776423662919 0 0.20961824525516401 -0.3936281247522696 0 0.19262774622386039 -0.39991289132556063 0 0.18449600084559339 -0.40588254157612419 0 0.18851111772050869 -0.41383358608972459 0 0.208966154163157 -0.40126827473642579 0 0.20961824525516401 -0.3936281247522696 0 0.19262774622386039 -0.39991289132556063 0 0.18963514604776821 -0.39361523539988952 0 0.193172237845981 -0.38760648281860499 0 0.19262774622386039 -0.39991289132556063 0 0.18963514604776821 -0.39361523539988952 0 0.18221634088723479 -0.40136818287387582 0 0.18963514604776821 -0.39361523539988952 0 0.193172237845981 -0.38760648281860499 0 0.18267650324237161 -0.39405502657648112 0 0.193172237845981 -0.38760648281860499 0 0.1910424400336663 -0.37547354736401328 0 0.18267650324237161 -0.39405502657648112 0 0.20576161095015591 -0.37595213443190167 0 0.1910424400336663 -0.37547354736401328 0 0.20229958674085519 -0.38616776423662919 0 0.193172237845981 -0.38760648281860499 0 0.1910424400336663 -0.37547354736401328 0 0.20229958674085519 -0.38616776423662919 0 0.1910424400336663 -0.37547354736401328 0 0.17822948803450961 -0.38676940160015832 0 0.1737051017910701 -0.38004230502140057 0 0.1910424400336663 -0.37547354736401328 0 0.18267650324237161 -0.39405502657648112 0 0.1910424400336663 -0.37547354736401328 0 0.17822948803450961 -0.38676940160015832 0 0.18267650324237161 -0.39405502657648112 0 0.17822948803450961 -0.38676940160015832 0 0.17910183421640119 -0.39520059623836468 0 0.1646215608890387 -0.38907553280053181 0 0.17822948803450961 -0.38676940160015832 0 0.1737051017910701 -0.38004230502140057 0 0.1646215608890387 -0.38907553280053181 0 0.17822948803450961 -0.38676940160015832 0 0.18267650324237161 -0.39405502657648112 0 0.17910183421640119 -0.39520059623836468 0 0.18221634088723479 -0.40136818287387582 0 0.17910183421640119 -0.39520059623836468 0 0.15805845094365739 -0.40474493864538458 0 0.18963514604776821 -0.39361523539988952 0 0.18267650324237161 -0.39405502657648112 0 0.18221634088723479 -0.40136818287387582 0 0.18267650324237161 -0.39405502657648112 0 0.18221634088723479 -0.40136818287387582 0 0.17910183421640119 -0.39520059623836468 0 0.18221634088723479 -0.40136818287387582 0 0.17910183421640119 -0.39520059623836468 0 0.19262774622386039 -0.39991289132556063 0 0.18221634088723479 -0.40136818287387582 0 0.19262774622386039 -0.39991289132556063 0 0.18449600084559339 -0.40588254157612419 0 0.18221634088723479 -0.40136818287387582 0 0.18449600084559339 -0.40588254157612419 0 0.18221634088723479 -0.40136818287387582 0 0.17910183421640119 -0.39520059623836468 0 0.15805845094365739 -0.40474493864538458 0 0.1646215608890387 -0.38907553280053181 0 0.18221634088723479 -0.40136818287387582 0 0.15805845094365739 -0.40474493864538458 0 0.15805845094365739 -0.40474493864538458 0 0.1646215608890387 -0.38907553280053181 0 0.14706277844018539 -0.39464292458295508 0 0.1737051017910701 -0.38004230502140057 0 0.1646215608890387 -0.38907553280053181 0 0.16307541855137739 -0.37743582412871929 0 0.17035242753357599 -0.36877211446365682 0 0.1737051017910701 -0.38004230502140057 0 0.16307541855137739 -0.37743582412871929 0 0.1569593121701936 -0.36832063090657668 0 0.16307541855137739 -0.37743582412871929 0 0.14973869037300869 -0.38096853745143089 0 0.1646215608890387 -0.38907553280053181 0 0.16307541855137739 -0.37743582412871929 0 0.14973869037300869 -0.38096853745143089 0 0.1646215608890387 -0.38907553280053181 0 0.14973869037300869 -0.38096853745143089 0 0.14706277844018539 -0.39464292458295508 0 0.14973869037300869 -0.38096853745143089 0 0.1375772795987745 -0.38493757303029391 0 0.14706277844018539 -0.39464292458295508 0 0.13524945632583441 -0.37311377610700652 0 0.14973869037300869 -0.38096853745143089 0 0.1375772795987745 -0.38493757303029391 0 0.13524945632583441 -0.37311377610700652 0 0.1375772795987745 -0.38493757303029391 0 0.12609635470998201 -0.38402791619100712 0 0.1375772795987745 -0.38493757303029391 0 0.12609635470998201 -0.38402791619100712 0 0.13569313113510631 -0.39589912548093298 0 0.12645644117523869 -0.39722706905544619 0 0.13569313113510631 -0.39589912548093298 0 0.1339005610000801 -0.40812169441689322 0 0.12645644117523869 -0.39722706905544619 0 0.1339005610000801 -0.40812169441689322 0 0.1250254850364893 -0.40936224001308058 0 0.12609635470998201 -0.38402791619100712 0 0.12645644117523869 -0.39722706905544619 0 0.13569313113510631 -0.39589912548093298 0 0.1375772795987745 -0.38493757303029391 0 0.13569313113510631 -0.39589912548093298 0 0.14706277844018539 -0.39464292458295508 0 0.13569313113510631 -0.39589912548093298 0 0.14706277844018539 -0.39464292458295508 0 0.1339005610000801 -0.40812169441689322 0 0.13569313113510631 -0.39589912548093298 0 0.1339005610000801 -0.40812169441689322 0 0.15805845094365739 -0.40474493864538458 0 0.14706277844018539 -0.39464292458295508 0 0.1339005610000801 -0.40812169441689322 0 0.15805845094365739 -0.40474493864538458 0 0.1339005610000801 -0.40812169441689322 0 0.15805845094365739 -0.40474493864538458 0 0.15398562739609989 -0.414436145328195 0 0.14500783119440661 -0.41410657591589572 0 0.15805845094365739 -0.40474493864538458 0 0.14500783119440661 -0.41410657591589572 0 0.1339005610000801 -0.40812169441689322 0 0.15398562739609989 -0.414436145328195 0 0.15088002640467921 -0.42009116626417142 0 0.14500783119440661 -0.41410657591589572 0 0.15088002640467921 -0.42009116626417142 0 0.15979138776423191 -0.42406840149736191 0 0.15636365466176849 -0.41960526040447821 0 0.15398562739609989 -0.414436145328195 0 0.15088002640467921 -0.42009116626417142 0 0.15636365466176849 -0.41960526040447821 0 0.15088002640467921 -0.42009116626417142 0 0.14500783119440661 -0.41410657591589572 0 0.14354831806896931 -0.42663893719234869 0 0.14500783119440661 -0.41410657591589572 0 0.1339005610000801 -0.40812169441689322 0 0.13212255532719441 -0.42024495614079282 0 0.14500783119440661 -0.41410657591589572 0 0.13212255532719441 -0.42024495614079282 0 0.14354831806896931 -0.42663893719234869 0 0.1339005610000801 -0.40812169441689322 0 0.13212255532719441 -0.42024495614079282 0 0.13212255532719441 -0.42024495614079282 0 0.1250254850364893 -0.40936224001308058 0 0.117866085899093 -0.41583132647739651 0 0.13212255532719441 -0.42024495614079282 0 0.1250254850364893 -0.40936224001308058 0 0.1339005610000801 -0.40812169441689322 0 0.13212255532719441 -0.42024495614079282 0 0.1250254850364893 -0.40936224001308058 0 0.1339005610000801 -0.40812169441689322 0 0.1250254850364893 -0.40936224001308058 0 0.13212255532719441 -0.42024495614079282 0 0.14354831806896931 -0.42663893719234869 0 0.1460535583969573 -0.44160689079445481 0 0.13212255532719441 -0.42024495614079282 0 0.128223579302082 -0.44682997076052833 0 0.13212255532719441 -0.42024495614079282 0 0.128223579302082 -0.44682997076052833 0 0.1159996351348133 -0.43474120747525058 0 0.13212255532719441 -0.42024495614079282 0 0.1460535583969573 -0.44160689079445481 0 0.13212255532719441 -0.42024495614079282 0 0.1460535583969573 -0.44160689079445481 0 0.128223579302082 -0.44682997076052833 0 0.15088002640467921 -0.42009116626417142 0 0.14354831806896931 -0.42663893719234869 0 0.15979138776423191 -0.42406840149736191 0 0.14354831806896931 -0.42663893719234869 0 0.15979138776423191 -0.42406840149736191 0 0.14354831806896931 -0.42663893719234869 0 0.15423293294423909 -0.43386412417913311 0 0.1460535583969573 -0.44160689079445481 0 0.14354831806896931 -0.42663893719234869 0 0.15423293294423909 -0.43386412417913311 0 0.15979138776423191 -0.42406840149736191 0 0.15423293294423909 -0.43386412417913311 0 0.16088991666547389 -0.43196094602310392 0 0.16557730454712019 -0.44172028084172121 0 0.1713980071398 -0.42434598792645378 0 0.15979138776423191 -0.42406840149736191 0 0.1760344574594947 -0.42149786580237669 0 0.15423293294423909 -0.43386412417913311 0 0.16088991666547389 -0.43196094602310392 0 0.15979138776423191 -0.42406840149736191 0 0.15979138776423191 -0.42406840149736191 0 0.1760344574594947 -0.42149786580237669 0 0.16626302434537371 -0.43076979168845952 0 0.17509911994716071 -0.43336510097506958 0 0.16557730454712019 -0.44172028084172121 0 0.16088991666547389 -0.43196094602310392 0 0.16626302434537371 -0.43076979168845952 0 0.16557730454712019 -0.44172028084172121 0 0.16626302434537371 -0.43076979168845952 0 0.1713980071398 -0.42434598792645378 0 0.17509911994716071 -0.43336510097506958 0 0.16626302434537371 -0.43076979168845952 0 0.1713980071398 -0.42434598792645378 0 0.15979138776423191 -0.42406840149736191 0 0.16088991666547389 -0.43196094602310392 0 0.16626302434537371 -0.43076979168845952 0 0.15979138776423191 -0.42406840149736191 0 0.15636365466176849 -0.41960526040447821 0 0.16176651730702801 -0.41283252991975622 0 0.17042982775368151 -0.41274390099030239 0 0.18221634088723479 -0.40136818287387582 0 0.15805845094365739 -0.40474493864538458 0 0.17042982775368151 -0.41274390099030239 0 0.15979138776423191 -0.42406840149736191 0 0.15636365466176849 -0.41960526040447821 0 0.17042982775368151 -0.41274390099030239 0 0.15636365466176849 -0.41960526040447821 0 0.17042982775368151 -0.41274390099030239 0 0.15979138776423191 -0.42406840149736191 0 0.17042982775368151 -0.41274390099030239 0 0.1760344574594947 -0.42149786580237669 0 0.15398562739609989 -0.414436145328195 0 0.15636365466176849 -0.41960526040447821 0 0.16176651730702801 -0.41283252991975622 0 0.15805845094365739 -0.40474493864538458 0 0.15398562739609989 -0.414436145328195 0 0.16176651730702801 -0.41283252991975622 0 0.15805845094365739 -0.40474493864538458 0 0.16176651730702801 -0.41283252991975622 0 0.17042982775368151 -0.41274390099030239 0 0.17042982775368151 -0.41274390099030239 0 0.1760344574594947 -0.42149786580237669 0 0.17986785094481991 -0.4134894736146324 0 0.18449600084559339 -0.40588254157612419 0 0.17042982775368151 -0.41274390099030239 0 0.18449600084559339 -0.40588254157612419 0 0.18221634088723479 -0.40136818287387582 0 0.17042982775368151 -0.41274390099030239 0 0.18449600084559339 -0.40588254157612419 0 0.17042982775368151 -0.41274390099030239 0 0.17986785094481991 -0.4134894736146324 0 0.18851111772050869 -0.41383358608972459 0 0.18449600084559339 -0.40588254157612419 0 0.18851111772050869 -0.41383358608972459 0 0.18449600084559339 -0.40588254157612419 0 0.17986785094481991 -0.4134894736146324 0 0.18851111772050869 -0.41383358608972459 0 0.1760344574594947 -0.42149786580237669 0 0.1911717259170673 -0.41910232791299562 0 0.1760344574594947 -0.42149786580237669 0 0.18851111772050869 -0.41383358608972459 0 0.1760344574594947 -0.42149786580237669 0 0.17986785094481991 -0.4134894736146324 0 0.1911717259170673 -0.41910232791299562 0 0.18851111772050869 -0.41383358608972459 0 0.1760344574594947 -0.42149786580237669 0 0.1911717259170673 -0.41910232791299562 0 0.1760344574594947 -0.42149786580237669 0 0.18484232774876749 -0.43033534366960768 0 0.18484232774876749 -0.43033534366960768 0 0.17509911994716071 -0.43336510097506958 0 0.18590039067086719 -0.44115637567916172 0 0.18484232774876749 -0.43033534366960768 0 0.17509911994716071 -0.43336510097506958 0 0.17653319474121221 -0.42750765242104072 0 0.1713980071398 -0.42434598792645378 0 0.17509911994716071 -0.43336510097506958 0 0.17653319474121221 -0.42750765242104072 0 0.1760344574594947 -0.42149786580237669 0 0.18484232774876749 -0.43033534366960768 0 0.17653319474121221 -0.42750765242104072 0 0.1713980071398 -0.42434598792645378 0 0.1760344574594947 -0.42149786580237669 0 0.17653319474121221 -0.42750765242104072 0 0.1713980071398 -0.42434598792645378 0 0.1760344574594947 -0.42149786580237669 0 0.17791556380287959 -0.4455361086535346 0 0.17376504419967539 -0.46076368888843938 0 0.16557730454712019 -0.44172028084172121 0 0.17509911994716071 -0.43336510097506958 0 0.17791556380287959 -0.4455361086535346 0 0.18590039067086719 -0.44115637567916172 0 0.17509911994716071 -0.43336510097506958 0 0.17791556380287959 -0.4455361086535346 0 0.16557730454712019 -0.44172028084172121 0 0.18923595964957429 -0.45067509688328122 0 0.17791556380287959 -0.4455361086535346 0 0.18590039067086719 -0.44115637567916172 0 0.18923595964957429 -0.45067509688328122 0 0.17791556380287959 -0.4455361086535346 0 0.17376504419967539 -0.46076368888843938 0 0.1938641377332887 -0.4633108835168005 0 0.18923595964957429 -0.45067509688328122 0 0.17376504419967539 -0.46076368888843938 0 0.1938641377332887 -0.4633108835168005 0 0.17376504419967539 -0.46076368888843938 0 0.17718182015316611 -0.48165544175840053 0 0.17376504419967539 -0.46076368888843938 0 0.15550290350416551 -0.45157236434768988 0 0.1539044029471725 -0.46809795184702829 0 0.17376504419967539 -0.46076368888843938 0 0.16557730454712019 -0.44172028084172121 0 0.15550290350416551 -0.45157236434768988 0 0.15423293294423909 -0.43386412417913311 0 0.16557730454712019 -0.44172028084172121 0 0.15550290350416551 -0.45157236434768988 0 0.15423293294423909 -0.43386412417913311 0 0.15550290350416551 -0.45157236434768988 0 0.1460535583969573 -0.44160689079445481 0 0.15550290350416551 -0.45157236434768988 0 0.1460535583969573 -0.44160689079445481 0 0.14153074802588431 -0.45654190970348868 0 0.1460535583969573 -0.44160689079445481 0 0.128223579302082 -0.44682997076052833 0 0.14153074802588431 -0.45654190970348868 0 0.128223579302082 -0.44682997076052833 0 0.12432460327697011 -0.47341498538026422 0 0.128223579302082 -0.44682997076052833 0 0.14153074802588431 -0.45654190970348868 0 0.12432460327697011 -0.47341498538026422 0 0.1539044029471725 -0.46809795184702829 0 0.14153074802588431 -0.45654190970348868 0 0.12432460327697011 -0.47341498538026422 0 0.15550290350416551 -0.45157236434768988 0 0.1539044029471725 -0.46809795184702829 0 0.14153074802588431 -0.45654190970348868 0 0.1539044029471725 -0.46809795184702829 0 0.15048103374274721 -0.48484579871078243 0 0.12432460327697011 -0.47341498538026422 0 0.1404625649124509 -0.5 0 0.15048103374274721 -0.48484579871078243 0 0.12432460327697011 -0.47341498538026422 0 0.1404625649124509 -0.5 0 0.12042562725185831 -0.49999999999999989 0 0.12432460327697011 -0.47341498538026422 0 0.1404625649124509 -0.5 0 0.15048103374274721 -0.48484579871078243 0 0.16049950257304349 -0.50000000000000033 0 0.16049950257304349 -0.50000000000000033 0 0.17718182015316611 -0.48165544175840053 0 0.15048103374274721 -0.48484579871078243 0 0.16049950257304349 -0.50000000000000033 0 0.17718182015316611 -0.48165544175840053 0 0.17376504419967539 -0.46076368888843938 0 0.1539044029471725 -0.46809795184702829 0 0.17718182015316611 -0.48165544175840053 0 0.1539044029471725 -0.46809795184702829 0 0.15048103374274721 -0.48484579871078243 0 0.17718182015316611 -0.48165544175840053 0 0.1938641377332887 -0.4633108835168005 0 0.17718182015316611 -0.48165544175840053 0 0.19122796324104871 -0.48466606029959602 0 0.1938641377332887 -0.4633108835168005 0 0.17718182015316611 -0.48165544175840053 0 0.16049950257304349 -0.50000000000000033 0 0.17718182015316611 -0.48165544175840053 0 0.18744203257390391 -0.5 0 0.19122796324104871 -0.48466606029959602 0 0.17718182015316611 -0.48165544175840053 0 0.18744203257390391 -0.5 0 0.072018957471098571 -0.48629524479662273 0 0.069142552082564368 -0.5 0 0.082735946582200875 -0.4892045976485363 0 0.072018957471098571 -0.48629524479662273 0 0.079568506083734697 -0.4785915255016745 0 0.082735946582200875 -0.4892045976485363 0 0.072018957471098571 -0.48629524479662273 0 0.062670741706174135 -0.48944359682069549 0 0.064881374578912687 -0.4815757870058418 0 0.072018957471098571 -0.48629524479662273 0 0.069142552082564368 -0.5 0 0.062670741706174135 -0.48944359682069549 0 0.073180054077148754 -0.46968413697177741 0 0.079568506083734697 -0.4785915255016745 0 0.081395248040860374 -0.46160025678040811 0 0.067447632246636219 -0.45716428258124142 0 0.05849497948899289 -0.47642287528831911 0 0.061758178687080389 -0.47580514524370598 0 0.072018957471098571 -0.48629524479662273 0 0.064881374578912687 -0.4815757870058418 0 0.070673492561877091 -0.4782128222507579 0 0.064881374578912687 -0.4815757870058418 0 0.066280053791524171 -0.47680462027284459 0 0.061758178687080389 -0.47580514524370598 0 0.064881374578912687 -0.4815757870058418 0 0.066280053791524171 -0.47680462027284459 0 0.070673492561877091 -0.4782128222507579 0 0.066280053791524171 -0.47680462027284459 0 0.067807169338226503 -0.47162472659107291 0 0.061758178687080389 -0.47580514524370598 0 0.066280053791524171 -0.47680462027284459 0 0.067807169338226503 -0.47162472659107291 0 0.070673492561877091 -0.4782128222507579 0 0.067807169338226503 -0.47162472659107291 0 0.073180054077148754 -0.46968413697177741 0 0.070673492561877091 -0.4782128222507579 0 0.073180054077148754 -0.46968413697177741 0 0.070673492561877091 -0.4782128222507579 0 0.079568506083734697 -0.4785915255016745 0 0.072018957471098571 -0.48629524479662273 0 0.070673492561877091 -0.4782128222507579 0 0.079568506083734697 -0.4785915255016745 0 0.096876661376123455 -0.48080012839020431 0 0.081395248040860374 -0.46160025678040811 0 0.096876661376123455 -0.48080012839020431 0 0.095349939854524335 -0.46404107218864848 0 0.081395248040860374 -0.46160025678040811 0 0.079568506083734697 -0.4785915255016745 0 0.082735946582200875 -0.4892045976485363 0 0.096876661376123455 -0.48080012839020431 0 0.079568506083734697 -0.4785915255016745 0 0.096876661376123455 -0.48080012839020431 0 0.081395248040860374 -0.46160025678040811 0 0.090750313396975479 -0.5 0 0.082735946582200875 -0.4892045976485363 0 0.096876661376123455 -0.48080012839020431 0 0.069142552082564368 -0.5 0 0.090750313396975479 -0.5 0 0.082735946582200875 -0.4892045976485363 0 0.1123580747113867 -0.50000000000000033 0 0.1124728586670535 -0.48406595427175642 0 0.096876661376123455 -0.48080012839020431 0 0.090750313396975479 -0.5 0 0.1123580747113867 -0.50000000000000033 0 0.096876661376123455 -0.48080012839020431 0 0.1123580747113867 -0.50000000000000033 0 0.096876661376123455 -0.48080012839020431 0 0.1123580747113867 -0.50000000000000033 0 0.12042562725185831 -0.49999999999999989 0 0.1124728586670535 -0.48406595427175642 0 0.12042562725185831 -0.49999999999999989 0 0.1124728586670535 -0.48406595427175642 0 0.12432460327697011 -0.47341498538026422 0 0.12042562725185831 -0.49999999999999989 0 0.12432460327697011 -0.47341498538026422 0 0.1124728586670535 -0.48406595427175642 0 0.12432460327697011 -0.47341498538026422 0 0.1082250197838846 -0.46311527911574241 0 0.096876661376123455 -0.48080012839020431 0 0.095349939854524335 -0.46404107218864848 0 0.1082250197838846 -0.46311527911574241 0 0.1124728586670535 -0.48406595427175642 0 0.096876661376123455 -0.48080012839020431 0 0.1082250197838846 -0.46311527911574241 0 0.095349939854524335 -0.46404107218864848 0 0.1082250197838846 -0.46311527911574241 0 0.094902830217228867 -0.45064862446823939 0 0.128223579302082 -0.44682997076052833 0 0.12432460327697011 -0.47341498538026422 0 0.1082250197838846 -0.46311527911574241 0 0.128223579302082 -0.44682997076052833 0 0.1069391861142964 -0.44299064961396012 0 0.1159996351348133 -0.43474120747525058 0 0.128223579302082 -0.44682997076052833 0 0.1082250197838846 -0.46311527911574241 0 0.1069391861142964 -0.44299064961396012 0 0.1082250197838846 -0.46311527911574241 0 0.1069391861142964 -0.44299064961396012 0 0.094902830217228867 -0.45064862446823939 0 0.1069391861142964 -0.44299064961396012 0 0.091812697424993442 -0.4386357446441016 0 0.098414951810672224 -0.43233268446502993 0 0.1069391861142964 -0.44299064961396012 0 0.094902830217228867 -0.45064862446823939 0 0.091812697424993442 -0.4386357446441016 0 0.094902830217228867 -0.45064862446823939 0 0.091812697424993442 -0.4386357446441016 0 0.082434724511159588 -0.44537142502386151 0 0.094902830217228867 -0.45064862446823939 0 0.082434724511159588 -0.44537142502386151 0 0.081395248040860374 -0.46160025678040811 0 0.091812697424993442 -0.4386357446441016 0 0.082434724511159588 -0.44537142502386151 0 0.078149012167117934 -0.43357211405594609 0 0.095349939854524335 -0.46404107218864848 0 0.094902830217228867 -0.45064862446823939 0 0.081395248040860374 -0.46160025678040811 0 0.067447632246636219 -0.45716428258124142 0 0.065913834705597293 -0.44240038517061198 0 0.057068655694905858 -0.46015288389510001 0 0.067447632246636219 -0.45716428258124142 0 0.05849497948899289 -0.47642287528831911 0 0.067807169338226503 -0.47162472659107291 0 0.067447632246636219 -0.45716428258124142 0 0.061758178687080389 -0.47580514524370598 0 0.081395248040860374 -0.46160025678040811 0 0.067447632246636219 -0.45716428258124142 0 0.065913834705597293 -0.44240038517061198 0 0.073180054077148754 -0.46968413697177741 0 0.081395248040860374 -0.46160025678040811 0 0.067447632246636219 -0.45716428258124142 0 0.067807169338226503 -0.47162472659107291 0 0.073180054077148754 -0.46968413697177741 0 0.067447632246636219 -0.45716428258124142 0 0.081395248040860374 -0.46160025678040811 0 0.065913834705597293 -0.44240038517061198 0 0.082434724511159588 -0.44537142502386151 0 0.081395248040860374 -0.46160025678040811 0 0.065913834705597293 -0.44240038517061198 0 0.082434724511159588 -0.44537142502386151 0 0.065913834705597293 -0.44240038517061198 0 0.078149012167117934 -0.43357211405594609 0 0.065921365320016911 -0.4273577277455588 0 0.073982485551444349 -0.42005290588181732 0 0.078149012167117934 -0.43357211405594609 0 0.065913834705597293 -0.44240038517061198 0 0.065921365320016911 -0.4273577277455588 0 0.078149012167117934 -0.43357211405594609 0 0.073982485551444349 -0.42005290588181732 0 0.069775570718114244 -0.40426700169235308 0 0.060774245729122177 -0.41691050055794487 0 0.065921365320016911 -0.4273577277455588 0 0.073982485551444349 -0.42005290588181732 0 0.060774245729122177 -0.41691050055794487 0 0.073982485551444349 -0.42005290588181732 0 0.086447448161059384 -0.41120764722282821 0 0.069775570718114244 -0.40426700169235308 0 0.073982485551444349 -0.42005290588181732 0 0.086447448161059384 -0.41120764722282821 0 0.088692331433278357 -0.42535053834926723 0 0.086447448161059384 -0.41120764722282821 0 0.093827427438274241 -0.41775801958915132 0 0.099702730965631758 -0.41290181884877419 0 0.086447448161059384 -0.41120764722282821 0 0.088692331433278357 -0.42535053834926723 0 0.093827427438274241 -0.41775801958915132 0 0.088692331433278357 -0.42535053834926723 0 0.097645949564215143 -0.42435504664253748 0 0.093827427438274241 -0.41775801958915132 0 0.073982485551444349 -0.42005290588181732 0 0.088692331433278357 -0.42535053834926723 0 0.078149012167117934 -0.43357211405594609 0 0.091812697424993442 -0.4386357446441016 0 0.088692331433278357 -0.42535053834926723 0 0.078149012167117934 -0.43357211405594609 0 0.091812697424993442 -0.4386357446441016 0 0.088692331433278357 -0.42535053834926723 0 0.098414951810672224 -0.43233268446502993 0 0.098414951810672224 -0.43233268446502993 0 0.097645949564215143 -0.42435504664253748 0 0.1061961683754654 -0.43004895598907111 0 0.088692331433278357 -0.42535053834926723 0 0.098414951810672224 -0.43233268446502993 0 0.097645949564215143 -0.42435504664253748 0 0.1061961683754654 -0.43004895598907111 0 0.11152958735588871 -0.42539382439527612 0 0.1045809803654715 -0.42051706085107571 0 0.097645949564215143 -0.42435504664253748 0 0.1061961683754654 -0.43004895598907111 0 0.1045809803654715 -0.42051706085107571 0 0.1069391861142964 -0.44299064961396012 0 0.098414951810672224 -0.43233268446502993 0 0.1061961683754654 -0.43004895598907111 0 0.1061961683754654 -0.43004895598907111 0 0.1159996351348133 -0.43474120747525058 0 0.11152958735588871 -0.42539382439527612 0 0.13212255532719441 -0.42024495614079282 0 0.1159996351348133 -0.43474120747525058 0 0.11851153239627241 -0.42275952171654291 0 0.1069391861142964 -0.44299064961396012 0 0.1061961683754654 -0.43004895598907111 0 0.1159996351348133 -0.43474120747525058 0 0.1159996351348133 -0.43474120747525058 0 0.11152958735588871 -0.42539382439527612 0 0.11851153239627241 -0.42275952171654291 0 0.11152958735588871 -0.42539382439527612 0 0.11851153239627241 -0.42275952171654291 0 0.1123596205074209 -0.41890237594444008 0 0.1250254850364893 -0.40936224001308058 0 0.117866085899093 -0.41583132647739651 0 0.1096180349996463 -0.41151587164058129 0 0.1250254850364893 -0.40936224001308058 0 0.1096180349996463 -0.41151587164058129 0 0.13212255532719441 -0.42024495614079282 0 0.11851153239627241 -0.42275952171654291 0 0.117866085899093 -0.41583132647739651 0 0.117866085899093 -0.41583132647739651 0 0.1123596205074209 -0.41890237594444008 0 0.1096180349996463 -0.41151587164058129 0 0.11851153239627241 -0.42275952171654291 0 0.117866085899093 -0.41583132647739651 0 0.1123596205074209 -0.41890237594444008 0 0.11152958735588871 -0.42539382439527612 0 0.1123596205074209 -0.41890237594444008 0 0.1045809803654715 -0.42051706085107571 0 0.1123596205074209 -0.41890237594444008 0 0.1096180349996463 -0.41151587164058129 0 0.1065506547415149 -0.41613106226330793 0 0.1096180349996463 -0.41151587164058129 0 0.1065506547415149 -0.41613106226330793 0 0.099702730965631758 -0.41290181884877419 0 0.1096180349996463 -0.41151587164058129 0 0.099702730965631758 -0.41290181884877419 0 0.1096180349996463 -0.41151587164058129 0 0.099702730965631758 -0.41290181884877419 0 0.1041447551606165 -0.40305668800175581 0 0.1123596205074209 -0.41890237594444008 0 0.1065506547415149 -0.41613106226330793 0 0.1045809803654715 -0.42051706085107571 0 0.1065506547415149 -0.41613106226330793 0 0.1045809803654715 -0.42051706085107571 0 0.099702730965631758 -0.41290181884877419 0 0.1045809803654715 -0.42051706085107571 0 0.093827427438274241 -0.41775801958915132 0 0.099702730965631758 -0.41290181884877419 0 0.097645949564215143 -0.42435504664253748 0 0.1045809803654715 -0.42051706085107571 0 0.093827427438274241 -0.41775801958915132 0 0.086447448161059384 -0.41120764722282821 0 0.099702730965631758 -0.41290181884877419 0 0.095691580682652475 -0.39908469234235189 0 0.095691580682652475 -0.39908469234235189 0 0.1041447551606165 -0.40305668800175581 0 0.1115666739945345 -0.38872436917531578 0 0.099702730965631758 -0.41290181884877419 0 0.095691580682652475 -0.39908469234235189 0 0.1041447551606165 -0.40305668800175581 0 0.1096180349996463 -0.41151587164058129 0 0.1041447551606165 -0.40305668800175581 0 0.1115666739945345 -0.38872436917531578 0 0.1250254850364893 -0.40936224001308058 0 0.1115666739945345 -0.38872436917531578 0 0.1096180349996463 -0.41151587164058129 0 0.1115666739945345 -0.38872436917531578 0 0.1250254850364893 -0.40936224001308058 0 0.1096180349996463 -0.41151587164058129 0 0.1115666739945345 -0.38872436917531578 0 0.12645644117523869 -0.39722706905544619 0 0.1250254850364893 -0.40936224001308058 0 0.1115666739945345 -0.38872436917531578 0 0.12609635470998201 -0.38402791619100712 0 0.1115666739945345 -0.38872436917531578 0 0.113745377556003 -0.36324200547299851 0 0.1115666739945345 -0.38872436917531578 0 0.113745377556003 -0.36324200547299851 0 0.12609635470998201 -0.38402791619100712 0 0.12645644117523869 -0.39722706905544619 0 0.1115666739945345 -0.38872436917531578 0 0.1115666739945345 -0.38872436917531578 0 0.096372132326470572 -0.36542491223168638 0 0.1115666739945345 -0.38872436917531578 0 0.089853218628298884 -0.38394717958202601 0 0.096372132326470572 -0.36542491223168638 0 0.095691580682652475 -0.39908469234235189 0 0.1115666739945345 -0.38872436917531578 0 0.089853218628298884 -0.38394717958202601 0 0.089853218628298884 -0.38394717958202601 0 0.082924844884061683 -0.39714926844771359 0 0.072939106935086151 -0.38728773006234168 0 0.089853218628298884 -0.38394717958202601 0 0.072939106935086151 -0.38728773006234168 0 0.07582030708563034 -0.37256671738353597 0 0.095691580682652475 -0.39908469234235189 0 0.089853218628298884 -0.38394717958202601 0 0.082924844884061683 -0.39714926844771359 0 0.086447448161059384 -0.41120764722282821 0 0.082924844884061683 -0.39714926844771359 0 0.069775570718114244 -0.40426700169235308 0 0.086447448161059384 -0.41120764722282821 0 0.095691580682652475 -0.39908469234235189 0 0.082924844884061683 -0.39714926844771359 0 0.069775570718114244 -0.40426700169235308 0 0.072939106935086151 -0.38728773006234168 0 0.058313699768321348 -0.39007371912844929 0 0.082924844884061683 -0.39714926844771359 0 0.069775570718114244 -0.40426700169235308 0 0.072939106935086151 -0.38728773006234168 0 0.072939106935086151 -0.38728773006234168 0 0.05933500968155693 -0.37671477575793533 0 0.058313699768321348 -0.39007371912844929 0 0.072939106935086151 -0.38728773006234168 0 0.05933500968155693 -0.37671477575793533 0 0.07582030708563034 -0.37256671738353597 0 0.05933500968155693 -0.37671477575793533 0 0.043300396670470892 -0.38581293046691678 0 0.039079294002052851 -0.37065651216905859 0 0.05933500968155693 -0.37671477575793533 0 0.058313699768321348 -0.39007371912844929 0 0.043300396670470892 -0.38581293046691678 0 0.058313699768321348 -0.39007371912844929 0 0.0466875803122518 -0.39705513158652528 0 0.054373060569327003 -0.40663711634463268 0 0.069775570718114244 -0.40426700169235308 0 0.058313699768321348 -0.39007371912844929 0 0.054373060569327003 -0.40663711634463268 0 0.058313699768321348 -0.39007371912844929 0 0.054373060569327003 -0.40663711634463268 0 0.0466875803122518 -0.39705513158652528 0 0.042121557959679479 -0.40689397827368962 0 0.054373060569327003 -0.40663711634463268 0 0.058313699768321348 -0.39007371912844929 0 0.0466875803122518 -0.39705513158652528 0 0.043300396670470892 -0.38581293046691678 0 0.0466875803122518 -0.39705513158652528 0 0.032645317368698572 -0.39721328630736241 0 0.043300396670470892 -0.38581293046691678 0 0.0466875803122518 -0.39705513158652528 0 0.032645317368698572 -0.39721328630736241 0 0.042121557959679479 -0.40689397827368962 0 0.032645317368698572 -0.39721328630736241 0 0.043300396670470892 -0.38581293046691678 0 0.025542853711361019 -0.38384675294920401 0 0.043300396670470892 -0.38581293046691678 0 0.025542853711361019 -0.38384675294920401 0 0.039079294002052851 -0.37065651216905859 0 0.025542853711361019 -0.38384675294920401 0 0.009690974369139977 -0.39295199195252922 0 0.016784443680880379 -0.36713146693108112 0 -0.0064694903547723136 -0.38059021958606692 0 0.009690974369139977 -0.39295199195252922 0 0.016784443680880379 -0.36713146693108112 0 0.032645317368698572 -0.39721328630736241 0 0.009690974369139977 -0.39295199195252922 0 0.030062121183744069 -0.41560348860952728 0 0.032645317368698572 -0.39721328630736241 0 0.025542853711361019 -0.38384675294920401 0 0.009690974369139977 -0.39295199195252922 0 0.009690974369139977 -0.39295199195252922 0 0.030062121183744069 -0.41560348860952728 0 0.01224976062295041 -0.42183763890738629 0 -0.0080625817845775948 -0.40608726553411861 0 0.009690974369139977 -0.39295199195252922 0 0.01224976062295041 -0.42183763890738629 0 0.009690974369139977 -0.39295199195252922 0 0.01224976062295041 -0.42183763890738629 0 0.01224976062295041 -0.42183763890738629 0 0.01480854687676085 -0.45072328586224342 0 0.030062121183744069 -0.41560348860952728 0 0.01224976062295041 -0.42183763890738629 0 0.028535899264767479 -0.43733174884408438 0 0.01224976062295041 -0.42183763890738629 0 0.028535899264767479 -0.43733174884408438 0 0.01480854687676085 -0.45072328586224342 0 0.030062121183744069 -0.41560348860952728 0 0.028535899264767479 -0.43733174884408438 0 0.039909128579099777 -0.42893709763038412 0 0.039909128579099777 -0.42893709763038412 0 0.050432421370333713 -0.42320051356081623 0 0.04400553312424714 -0.45021417746364167 0 0.039909128579099777 -0.42893709763038412 0 0.046509667952406512 -0.41833555967385072 0 0.050432421370333713 -0.42320051356081623 0 0.032645317368698572 -0.39721328630736241 0 0.030062121183744069 -0.41560348860952728 0 0.042121557959679479 -0.40689397827368962 0 0.030062121183744069 -0.41560348860952728 0 0.039909128579099777 -0.42893709763038412 0 0.046509667952406512 -0.41833555967385072 0 0.030062121183744069 -0.41560348860952728 0 0.042121557959679479 -0.40689397827368962 0 0.046509667952406512 -0.41833555967385072 0 0.054373060569327003 -0.40663711634463268 0 0.050432421370333713 -0.42320051356081623 0 0.046509667952406512 -0.41833555967385072 0 0.054373060569327003 -0.40663711634463268 0 0.050432421370333713 -0.42320051356081623 0 0.054373060569327003 -0.40663711634463268 0 0.060774245729122177 -0.41691050055794487 0 0.050432421370333713 -0.42320051356081623 0 0.046509667952406512 -0.41833555967385072 0 0.050432421370333713 -0.42320051356081623 0 0.042121557959679479 -0.40689397827368962 0 0.046509667952406512 -0.41833555967385072 0 0.054373060569327003 -0.40663711634463268 0 0.069775570718114244 -0.40426700169235308 0 0.054373060569327003 -0.40663711634463268 0 0.060774245729122177 -0.41691050055794487 0 0.050432421370333713 -0.42320051356081623 0 0.04400553312424714 -0.45021417746364167 0 0.065913834705597293 -0.44240038517061198 0 0.050432421370333713 -0.42320051356081623 0 0.065913834705597293 -0.44240038517061198 0 0.065921365320016911 -0.4273577277455588 0 0.050432421370333713 -0.42320051356081623 0 0.065921365320016911 -0.4273577277455588 0 0.060774245729122177 -0.41691050055794487 0 0.050432421370333713 -0.42320051356081623 0 0.065913834705597293 -0.44240038517061198 0 0.050432421370333713 -0.42320051356081623 0 0.04400553312424714 -0.45021417746364167 0 0.065913834705597293 -0.44240038517061198 0 0.057068655694905858 -0.46015288389510001 0 0.04400553312424714 -0.45021417746364167 0 0.057068655694905858 -0.46015288389510001 0 0.048043393468649283 -0.46676160836513853 0 0.04400553312424714 -0.45021417746364167 0 0.067447632246636219 -0.45716428258124142 0 0.057068655694905858 -0.46015288389510001 0 0.05849497948899289 -0.47642287528831911 0 0.057068655694905858 -0.46015288389510001 0 0.048043393468649283 -0.46676160836513853 0 0.052635520687858477 -0.47072247146996382 0 0.04400553312424714 -0.45021417746364167 0 0.037578644878161642 -0.47722784136646751 0 0.048043393468649283 -0.46676160836513853 0 0.04400553312424714 -0.45021417746364167 0 0.037578644878161642 -0.47722784136646751 0 0.04400553312424714 -0.45021417746364167 0 0.030366658319331299 -0.45781827645911538 0 0.037578644878161642 -0.47722784136646751 0 0.028535899264767479 -0.43733174884408438 0 0.039909128579099777 -0.42893709763038412 0 0.04400553312424714 -0.45021417746364167 0 0.028535899264767479 -0.43733174884408438 0 0.04400553312424714 -0.45021417746364167 0 0.030366658319331299 -0.45781827645911538 0 0.028535899264767479 -0.43733174884408438 0 0.01480854687676085 -0.45072328586224342 0 0.030366658319331299 -0.45781827645911538 0 -0.008216644178786571 -0.4466179140804285 0 0.01224976062295041 -0.42183763890738629 0 0.01480854687676085 -0.45072328586224342 0 0.01480854687676085 -0.45072328586224342 0 0.017367333130571299 -0.47960893281710049 0 0.0084119176919832291 -0.471974008478943 0 -0.0021957942935651631 -0.46571035637089769 0 0.01480854687676085 -0.45072328586224342 0 0.0084119176919832291 -0.471974008478943 0 -0.008216644178786571 -0.4466179140804285 0 -0.0021957942935651631 -0.46571035637089769 0 0.01480854687676085 -0.45072328586224342 0 0.01480854687676085 -0.45072328586224342 0 0.017367333130571299 -0.47960893281710049 0 0.01480854687676085 -0.45072328586224342 0 0.030366658319331299 -0.45781827645911538 0 0.0269046674527194 -0.47359432875914009 0 0.01480854687676085 -0.45072328586224342 0 0.0269046674527194 -0.47359432875914009 0 0.017367333130571299 -0.47960893281710049 0 0.017367333130571299 -0.47960893281710049 0 0.012735562036971701 -0.48508522326900949 0 0.035615270762982369 -0.48075404927866472 0 0.012735562036971701 -0.48508522326900949 0 0.035615270762982369 -0.48075404927866472 0 0.0269046674527194 -0.47359432875914009 0 0.017367333130571299 -0.47960893281710049 0 0.035615270762982369 -0.48075404927866472 0 0.017367333130571299 -0.47960893281710049 0 0.0084119176919832291 -0.471974008478943 0 0.012735562036971701 -0.48508522326900949 0 -0.00065605929082254884 -0.47874224407546379 0 0.0084119176919832291 -0.471974008478943 0 0.012735562036971701 -0.48508522326900949 0 -0.0021957942935651631 -0.46571035637089769 0 -0.00065605929082254884 -0.47874224407546379 0 0.0084119176919832291 -0.471974008478943 0 -0.010144146689038991 -0.48941639725935437 0 -0.00065605929082254884 -0.47874224407546379 0 0.012735562036971701 -0.48508522326900949 0 -0.010144146689038991 -0.48941639725935437 0 0.012735562036971701 -0.48508522326900949 0 -0.011489863113854141 -0.5 0 0.012735562036971701 -0.48508522326900949 0 0.01802246382714956 -0.5 0 0.01802246382714956 -0.5 0 0.025329369399590369 -0.48901546815995378 0 0.047534790768153173 -0.50000000000000044 0 0.012735562036971701 -0.48508522326900949 0 0.025329369399590369 -0.48901546815995378 0 0.035615270762982369 -0.48075404927866472 0 0.012735562036971701 -0.48508522326900949 0 0.01802246382714956 -0.5 0 0.025329369399590369 -0.48901546815995378 0 0.025329369399590369 -0.48901546815995378 0 0.035615270762982369 -0.48075404927866472 0 0.047534790768153173 -0.50000000000000044 0 0.030366658319331299 -0.45781827645911538 0 0.0269046674527194 -0.47359432875914009 0 0.037578644878161642 -0.47722784136646751 0 0.0269046674527194 -0.47359432875914009 0 0.037578644878161642 -0.47722784136646751 0 0.035615270762982369 -0.48075404927866472 0 0.048043393468649283 -0.46676160836513853 0 0.037578644878161642 -0.47722784136646751 0 0.046296380844488463 -0.47463440362945558 0 0.035615270762982369 -0.48075404927866472 0 0.046296380844488463 -0.47463440362945558 0 0.049693011087844949 -0.4756354888466594 0 0.037578644878161642 -0.47722784136646751 0 0.035615270762982369 -0.48075404927866472 0 0.046296380844488463 -0.47463440362945558 0 0.057068655694905858 -0.46015288389510001 0 0.052635520687858477 -0.47072247146996382 0 0.05849497948899289 -0.47642287528831911 0 0.035615270762982369 -0.48075404927866472 0 0.049693011087844949 -0.4756354888466594 0 0.05849497948899289 -0.47642287528831911 0 0.035615270762982369 -0.48075404927866472 0 0.05849497948899289 -0.47642287528831911 0 0.048043393468649283 -0.46676160836513853 0 0.046296380844488463 -0.47463440362945558 0 0.052635520687858477 -0.47072247146996382 0 0.049693011087844949 -0.4756354888466594 0 0.052635520687858477 -0.47072247146996382 0 0.05849497948899289 -0.47642287528831911 0 0.046296380844488463 -0.47463440362945558 0 0.049693011087844949 -0.4756354888466594 0 0.052635520687858477 -0.47072247146996382 0 0.05849497948899289 -0.47642287528831911 0 0.061758178687080389 -0.47580514524370598 0 0.062670741706174135 -0.48944359682069549 0 0.064881374578912687 -0.4815757870058418 0 0.05849497948899289 -0.47642287528831911 0 0.064881374578912687 -0.4815757870058418 0 0.05849497948899289 -0.47642287528831911 0 0.061758178687080389 -0.47580514524370598 0 0.069142552082564368 -0.5 0 0.062670741706174135 -0.48944359682069549 0 0.047534790768153173 -0.50000000000000044 0 0.05849497948899289 -0.47642287528831911 0 0.047534790768153173 -0.50000000000000044 0 0.035615270762982369 -0.48075404927866472 0 0.05849497948899289 -0.47642287528831911 0 0.047534790768153173 -0.50000000000000044 0 0.062670741706174135 -0.48944359682069549 0 0.05849497948899289 -0.47642287528831911 0 0.047534790768153173 -0.50000000000000044 0 0.089727975817252392 -0.29646224842349211 0 0.069967983226982527 -0.30495776272600778 0 0.075483032258224086 -0.28815868119130272 0 0.089727975817252392 -0.29646224842349211 0 0.088503230311337153 -0.27716835087377989 0 0.101883582619993 -0.28460947857741209 0 0.089727975817252392 -0.29646224842349211 0 0.075483032258224086 -0.28815868119130272 0 0.088503230311337153 -0.27716835087377989 0 0.089727975817252392 -0.29646224842349211 0 0.086214248119208581 -0.31193359067875348 0 0.069967983226982527 -0.30495776272600778 0 0.089727975817252392 -0.29646224842349211 0 0.086214248119208581 -0.31193359067875348 0 0.10049372866807189 -0.31082656242210721 0 0.069967983226982527 -0.30495776272600778 0 0.075483032258224086 -0.28815868119130272 0 0.059449054433483903 -0.28956707473318272 0 0.075483032258224086 -0.28815868119130272 0 0.0646939085167762 -0.2722383315448984 0 0.059449054433483903 -0.28956707473318272 0 0.0646939085167762 -0.2722383315448984 0 0.077350866508299074 -0.27549126298099152 0 0.080723294946858856 -0.26439968831398508 0 0.075483032258224086 -0.28815868119130272 0 0.0646939085167762 -0.2722383315448984 0 0.077350866508299074 -0.27549126298099152 0 0.0646939085167762 -0.2722383315448984 0 0.070005134957367529 -0.25889031236374099 0 0.080723294946858856 -0.26439968831398508 0 0.070005134957367529 -0.25889031236374099 0 0.061490933840310687 -0.25382890142296882 0 0.070069103552599196 -0.24823964670048029 0 0.0646939085167762 -0.2722383315448984 0 0.070005134957367529 -0.25889031236374099 0 0.060614126731859473 -0.2624009925450973 0 0.070005134957367529 -0.25889031236374099 0 0.061490933840310687 -0.25382890142296882 0 0.060614126731859473 -0.2624009925450973 0 0.070005134957367529 -0.25889031236374099 0 0.080071368274292315 -0.25145738896057979 0 0.080723294946858856 -0.26439968831398508 0 0.070005134957367529 -0.25889031236374099 0 0.080071368274292315 -0.25145738896057979 0 0.070069103552599196 -0.24823964670048029 0 0.080071368274292315 -0.25145738896057979 0 0.080723294946858856 -0.26439968831398508 0 0.090706365013478091 -0.25245448435890872 0 0.080723294946858856 -0.26439968831398508 0 0.090706365013478091 -0.25245448435890872 0 0.095060577752172304 -0.26241188567384149 0 0.075483032258224086 -0.28815868119130272 0 0.077350866508299074 -0.27549126298099152 0 0.088503230311337153 -0.27716835087377989 0 0.077350866508299074 -0.27549126298099152 0 0.080723294946858856 -0.26439968831398508 0 0.088503230311337153 -0.27716835087377989 0 0.080723294946858856 -0.26439968831398508 0 0.088503230311337153 -0.27716835087377989 0 0.095060577752172304 -0.26241188567384149 0 0.088503230311337153 -0.27716835087377989 0 0.1016952336099234 -0.27235330725820578 0 0.101883582619993 -0.28460947857741209 0 0.088503230311337153 -0.27716835087377989 0 0.1016952336099234 -0.27235330725820578 0 0.095060577752172304 -0.26241188567384149 0 0.1016952336099234 -0.27235330725820578 0 0.1104739380917857 -0.2612093749811526 0 0.1125548392743288 -0.27636744618484282 0 0.1016952336099234 -0.27235330725820578 0 0.1125548392743288 -0.27636744618484282 0 0.101883582619993 -0.28460947857741209 0 0.090706365013478091 -0.25245448435890872 0 0.099550463170151926 -0.25262580003909579 0 0.095060577752172304 -0.26241188567384149 0 0.1016952336099234 -0.27235330725820578 0 0.095060577752172304 -0.26241188567384149 0 0.1104739380917857 -0.2612093749811526 0 0.099550463170151926 -0.25262580003909579 0 0.095060577752172304 -0.26241188567384149 0 0.1104739380917857 -0.2612093749811526 0 0.099550463170151926 -0.25262580003909579 0 0.1104739380917857 -0.2612093749811526 0 0.1078238037173969 -0.24832262031645649 0 0.1311170075682456 -0.27142576198599933 0 0.1104739380917857 -0.2612093749811526 0 0.1212054647883809 -0.25073068226796852 0 0.1104739380917857 -0.2612093749811526 0 0.1212054647883809 -0.25073068226796852 0 0.1078238037173969 -0.24832262031645649 0 0.1311170075682456 -0.27142576198599933 0 0.1104739380917857 -0.2612093749811526 0 0.1311170075682456 -0.27142576198599933 0 0.1104739380917857 -0.2612093749811526 0 0.1193620271946058 -0.27249351692823448 0 0.1104739380917857 -0.2612093749811526 0 0.1125548392743288 -0.27636744618484282 0 0.1193620271946058 -0.27249351692823448 0 0.1125548392743288 -0.27636744618484282 0 0.1193620271946058 -0.27249351692823448 0 0.1233023238440631 -0.28097148456094378 0 0.1311170075682456 -0.27142576198599933 0 0.1193620271946058 -0.27249351692823448 0 0.1233023238440631 -0.28097148456094378 0 0.1233023238440631 -0.28097148456094378 0 0.1242383748246253 -0.29131174999725179 0 0.1141297936923768 -0.28878453930630188 0 0.1242383748246253 -0.29131174999725179 0 0.1141297936923768 -0.28878453930630188 0 0.1198701537204314 -0.30089140532399938 0 0.1141297936923768 -0.28878453930630188 0 0.10622170970645189 -0.29895353846799488 0 0.1198701537204314 -0.30089140532399938 0 0.1125548392743288 -0.27636744618484282 0 0.1233023238440631 -0.28097148456094378 0 0.1141297936923768 -0.28878453930630188 0 0.1125548392743288 -0.27636744618484282 0 0.1141297936923768 -0.28878453930630188 0 0.101883582619993 -0.28460947857741209 0 0.089727975817252392 -0.29646224842349211 0 0.101883582619993 -0.28460947857741209 0 0.10622170970645189 -0.29895353846799488 0 0.1141297936923768 -0.28878453930630188 0 0.101883582619993 -0.28460947857741209 0 0.10622170970645189 -0.29895353846799488 0 0.089727975817252392 -0.29646224842349211 0 0.10049372866807189 -0.31082656242210721 0 0.10622170970645189 -0.29895353846799488 0 0.10049372866807189 -0.31082656242210721 0 0.10622170970645189 -0.29895353846799488 0 0.1134387524627216 -0.31086840579325631 0 0.10622170970645189 -0.29895353846799488 0 0.1134387524627216 -0.31086840579325631 0 0.1198701537204314 -0.30089140532399938 0 0.1265219532001009 -0.3124330460259736 0 0.1134387524627216 -0.31086840579325631 0 0.1198701537204314 -0.30089140532399938 0 0.1265219532001009 -0.3124330460259736 0 0.1134387524627216 -0.31086840579325631 0 0.1192961391526948 -0.32261879728377291 0 0.1134387524627216 -0.31086840579325631 0 0.1192961391526948 -0.32261879728377291 0 0.1082288303285789 -0.31948708523568958 0 0.1192961391526948 -0.32261879728377291 0 0.1093748658769356 -0.32997486192450581 0 0.1082288303285789 -0.31948708523568958 0 0.1192961391526948 -0.32261879728377291 0 0.1168506625355451 -0.3296807312869221 0 0.1093748658769356 -0.32997486192450581 0 0.1192961391526948 -0.32261879728377291 0 0.12260601330919629 -0.33072698382653798 0 0.1168506625355451 -0.3296807312869221 0 0.13219802669416811 -0.32498852212276208 0 0.1192961391526948 -0.32261879728377291 0 0.12260601330919629 -0.33072698382653798 0 0.13051916655351839 -0.33696304048325831 0 0.12260601330919629 -0.33072698382653798 0 0.1159240811174677 -0.33775964177068091 0 0.12260601330919629 -0.33072698382653798 0 0.1159240811174677 -0.33775964177068091 0 0.1161256318033537 -0.33540228211287182 0 0.12260601330919629 -0.33072698382653798 0 0.1168506625355451 -0.3296807312869221 0 0.1161256318033537 -0.33540228211287182 0 0.13051916655351839 -0.33696304048325831 0 0.1159240811174677 -0.33775964177068091 0 0.13051916655351839 -0.33696304048325831 0 0.1159240811174677 -0.33775964177068091 0 0.123981461538115 -0.35128285539313481 0 0.1159240811174677 -0.33775964177068091 0 0.1161256318033537 -0.33540228211287182 0 0.1168506625355451 -0.3296807312869221 0 0.1161256318033537 -0.33540228211287182 0 0.1093748658769356 -0.32997486192450581 0 0.1159240811174677 -0.33775964177068091 0 0.1161256318033537 -0.33540228211287182 0 0.1093748658769356 -0.32997486192450581 0 0.1159240811174677 -0.33775964177068091 0 0.092335912071574502 -0.33904708650077298 0 0.1159240811174677 -0.33775964177068091 0 0.1093748658769356 -0.32997486192450581 0 0.092335912071574502 -0.33904708650077298 0 0.1093748658769356 -0.32997486192450581 0 0.096347407600029022 -0.32440529872184809 0 0.092335912071574502 -0.33904708650077298 0 0.1159240811174677 -0.33775964177068091 0 0.10211321446004019 -0.35101158716873732 0 0.092335912071574502 -0.33904708650077298 0 0.086214248119208581 -0.31193359067875348 0 0.10049372866807189 -0.31082656242210721 0 0.096347407600029022 -0.32440529872184809 0 0.10049372866807189 -0.31082656242210721 0 0.1134387524627216 -0.31086840579325631 0 0.1082288303285789 -0.31948708523568958 0 0.10049372866807189 -0.31082656242210721 0 0.096347407600029022 -0.32440529872184809 0 0.1082288303285789 -0.31948708523568958 0 0.1093748658769356 -0.32997486192450581 0 0.096347407600029022 -0.32440529872184809 0 0.1082288303285789 -0.31948708523568958 0 0.12784456261830821 -0.36308533366748658 0 0.12609635470998201 -0.38402791619100712 0 0.113745377556003 -0.36324200547299851 0 0.1159240811174677 -0.33775964177068091 0 0.113745377556003 -0.36324200547299851 0 0.123981461538115 -0.35128285539313481 0 0.1159240811174677 -0.33775964177068091 0 0.113745377556003 -0.36324200547299851 0 0.1159240811174677 -0.33775964177068091 0 0.113745377556003 -0.36324200547299851 0 0.10211321446004019 -0.35101158716873732 0 0.12784456261830821 -0.36308533366748658 0 0.113745377556003 -0.36324200547299851 0 0.123981461538115 -0.35128285539313481 0 0.1115666739945345 -0.38872436917531578 0 0.113745377556003 -0.36324200547299851 0 0.096372132326470572 -0.36542491223168638 0 0.113745377556003 -0.36324200547299851 0 0.10211321446004019 -0.35101158716873732 0 0.096372132326470572 -0.36542491223168638 0 0.089853218628298884 -0.38394717958202601 0 0.096372132326470572 -0.36542491223168638 0 0.07582030708563034 -0.37256671738353597 0 0.096372132326470572 -0.36542491223168638 0 0.082110249222110576 -0.35466523699539548 0 0.07582030708563034 -0.37256671738353597 0 0.10211321446004019 -0.35101158716873732 0 0.096372132326470572 -0.36542491223168638 0 0.082110249222110576 -0.35466523699539548 0 0.082110249222110576 -0.35466523699539548 0 0.092335912071574502 -0.33904708650077298 0 0.068747743025681235 -0.34033453123086538 0 0.10211321446004019 -0.35101158716873732 0 0.082110249222110576 -0.35466523699539548 0 0.092335912071574502 -0.33904708650077298 0 0.082110249222110576 -0.35466523699539548 0 0.068747743025681235 -0.34033453123086538 0 0.057272186363266697 -0.35960658745677498 0 0.082110249222110576 -0.35466523699539548 0 0.07582030708563034 -0.37256671738353597 0 0.057272186363266697 -0.35960658745677498 0 0.05933500968155693 -0.37671477575793533 0 0.07582030708563034 -0.37256671738353597 0 0.057272186363266697 -0.35960658745677498 0 0.086214248119208581 -0.31193359067875348 0 0.096347407600029022 -0.32440529872184809 0 0.078030795921920637 -0.32434601069550512 0 0.092335912071574502 -0.33904708650077298 0 0.068747743025681235 -0.34033453123086538 0 0.078030795921920637 -0.32434601069550512 0 0.092335912071574502 -0.33904708650077298 0 0.068747743025681235 -0.34033453123086538 0 0.096347407600029022 -0.32440529872184809 0 0.092335912071574502 -0.33904708650077298 0 0.078030795921920637 -0.32434601069550512 0 0.068747743025681235 -0.34033453123086538 0 0.078030795921920637 -0.32434601069550512 0 0.053863538987460123 -0.3232816795844588 0 0.069967983226982527 -0.30495776272600778 0 0.078030795921920637 -0.32434601069550512 0 0.053863538987460123 -0.3232816795844588 0 0.086214248119208581 -0.31193359067875348 0 0.069967983226982527 -0.30495776272600778 0 0.078030795921920637 -0.32434601069550512 0 0.068747743025681235 -0.34033453123086538 0 0.045159573979787898 -0.34162197596095778 0 0.068747743025681235 -0.34033453123086538 0 0.053863538987460123 -0.3232816795844588 0 0.045159573979787898 -0.34162197596095778 0 0.053863538987460123 -0.3232816795844588 0 0.034832013842728909 -0.33032259781876938 0 0.045159573979787898 -0.34162197596095778 0 0.034832013842728909 -0.33032259781876938 0 0.045159573979787898 -0.34162197596095778 0 0.02157140493389462 -0.34290942069105018 0 0.045159573979787898 -0.34162197596095778 0 0.02157140493389462 -0.34290942069105018 0 0.053863538987460123 -0.3232816795844588 0 0.034832013842728909 -0.33032259781876938 0 0.03621734991660093 -0.31670946998547028 0 0.053863538987460123 -0.3232816795844588 0 0.03621734991660093 -0.31670946998547028 0 0.048768037075517537 -0.30442990221103089 0 0.05933500968155693 -0.37671477575793533 0 0.057272186363266697 -0.35960658745677498 0 0.039079294002052851 -0.37065651216905859 0 0.068747743025681235 -0.34033453123086538 0 0.045159573979787898 -0.34162197596095778 0 0.057272186363266697 -0.35960658745677498 0 0.045159573979787898 -0.34162197596095778 0 0.034512899630155462 -0.3545258348651717 0 0.02157140493389462 -0.34290942069105018 0 0.045159573979787898 -0.34162197596095778 0 0.057272186363266697 -0.35960658745677498 0 0.034512899630155462 -0.3545258348651717 0 0.057272186363266697 -0.35960658745677498 0 0.034512899630155462 -0.3545258348651717 0 0.039079294002052851 -0.37065651216905859 0 0.025542853711361019 -0.38384675294920401 0 0.039079294002052851 -0.37065651216905859 0 0.016784443680880379 -0.36713146693108112 0 0.034512899630155462 -0.3545258348651717 0 0.039079294002052851 -0.37065651216905859 0 0.016784443680880379 -0.36713146693108112 0 0.034512899630155462 -0.3545258348651717 0 0.016784443680880379 -0.36713146693108112 0 0.02157140493389462 -0.34290942069105018 0 -0.0043130761299947744 -0.35643483176966217 0 0.016784443680880379 -0.36713146693108112 0 0.02157140493389462 -0.34290942069105018 0 -0.0038616663111063101 -0.33241552487502413 0 -0.0043130761299947744 -0.35643483176966217 0 0.02157140493389462 -0.34290942069105018 0 -0.0043130761299947744 -0.35643483176966217 0 -0.0064694903547723136 -0.38059021958606692 0 0.016784443680880379 -0.36713146693108112 0 0.03621734991660093 -0.31670946998547028 0 0.020048637459846991 -0.32439583124448262 0 0.029165048793799431 -0.30349547286963757 0 0.034832013842728909 -0.33032259781876938 0 0.03621734991660093 -0.31670946998547028 0 0.020048637459846991 -0.32439583124448262 0 0.020048637459846991 -0.32439583124448262 0 0.0094652366165251054 -0.31053241408104548 0 0.029165048793799431 -0.30349547286963757 0 0.034832013842728909 -0.33032259781876938 0 0.020048637459846991 -0.32439583124448262 0 0.02157140493389462 -0.34290942069105018 0 -0.0038616663111063101 -0.33241552487502413 0 0.020048637459846991 -0.32439583124448262 0 0.02157140493389462 -0.34290942069105018 0 -0.0038616663111063101 -0.33241552487502413 0 0.020048637459846991 -0.32439583124448262 0 0.0094652366165251054 -0.31053241408104548 0 -0.01007927323019326 -0.3103345258507364 0 0.0094652366165251054 -0.31053241408104548 0 0.0017563221397047381 -0.2997067901486577 0 0.0094652366165251054 -0.31053241408104548 0 0.0017563221397047381 -0.2997067901486577 0 0.017453688627786131 -0.29322190620108468 0 0.0017563221397047381 -0.2997067901486577 0 0.0066437179820165657 -0.2861171845936395 0 0.017453688627786131 -0.29322190620108468 0 -0.0080748459131490501 -0.2914060437848453 0 0.0017563221397047381 -0.2997067901486577 0 0.0066437179820165657 -0.2861171845936395 0 0.0066437179820165657 -0.2861171845936395 0 0.017453688627786131 -0.29322190620108468 0 0.01908241754038794 -0.28073467218482329 0 0.017453688627786131 -0.29322190620108468 0 0.029398966714908509 -0.28692964748338379 0 0.029165048793799431 -0.30349547286963757 0 0.017453688627786131 -0.29322190620108468 0 0.029398966714908509 -0.28692964748338379 0 0.01908241754038794 -0.28073467218482329 0 0.0094652366165251054 -0.31053241408104548 0 0.017453688627786131 -0.29322190620108468 0 0.029165048793799431 -0.30349547286963757 0 0.03621734991660093 -0.31670946998547028 0 0.029165048793799431 -0.30349547286963757 0 0.048768037075517537 -0.30442990221103089 0 0.029165048793799431 -0.30349547286963757 0 0.043029943860180789 -0.28970337243015992 0 0.048768037075517537 -0.30442990221103089 0 0.029398966714908509 -0.28692964748338379 0 0.029165048793799431 -0.30349547286963757 0 0.043029943860180789 -0.28970337243015992 0 0.029398966714908509 -0.28692964748338379 0 0.043029943860180789 -0.28970337243015992 0 0.038396769586432553 -0.27977596087564799 0 0.043029943860180789 -0.28970337243015992 0 0.051749435803858171 -0.27840569125857739 0 0.038396769586432553 -0.27977596087564799 0 0.043029943860180789 -0.28970337243015992 0 0.059449054433483903 -0.28956707473318272 0 0.051749435803858171 -0.27840569125857739 0 0.043029943860180789 -0.28970337243015992 0 0.059449054433483903 -0.28956707473318272 0 0.048768037075517537 -0.30442990221103089 0 0.069967983226982527 -0.30495776272600778 0 0.059449054433483903 -0.28956707473318272 0 0.048768037075517537 -0.30442990221103089 0 0.069967983226982527 -0.30495776272600778 0 0.053863538987460123 -0.3232816795844588 0 0.048768037075517537 -0.30442990221103089 0 0.053380735395516472 -0.25867595766617779 0 0.04428054005230446 -0.26275141268032309 0 0.045372505498807933 -0.25408090721008542 0 0.053380735395516472 -0.25867595766617779 0 0.053158010572478251 -0.26777612517812432 0 0.04428054005230446 -0.26275141268032309 0 0.053380735395516472 -0.25867595766617779 0 0.045372505498807933 -0.25408090721008542 0 0.05268811686830014 -0.24901610311096159 0 0.053380735395516472 -0.25867595766617779 0 0.061490933840310687 -0.25382890142296882 0 0.05268811686830014 -0.24901610311096159 0 0.053380735395516472 -0.25867595766617779 0 0.060614126731859473 -0.2624009925450973 0 0.053158010572478251 -0.26777612517812432 0 0.053380735395516472 -0.25867595766617779 0 0.061490933840310687 -0.25382890142296882 0 0.060614126731859473 -0.2624009925450973 0 0.0646939085167762 -0.2722383315448984 0 0.060614126731859473 -0.2624009925450973 0 0.053158010572478251 -0.26777612517812432 0 0.0646939085167762 -0.2722383315448984 0 0.059449054433483903 -0.28956707473318272 0 0.051749435803858171 -0.27840569125857739 0 0.0646939085167762 -0.2722383315448984 0 0.051749435803858171 -0.27840569125857739 0 0.053158010572478251 -0.26777612517812432 0 0.053158010572478251 -0.26777612517812432 0 0.044229316934554799 -0.27218436537367241 0 0.04428054005230446 -0.26275141268032309 0 0.051749435803858171 -0.27840569125857739 0 0.053158010572478251 -0.26777612517812432 0 0.044229316934554799 -0.27218436537367241 0 0.044229316934554799 -0.27218436537367241 0 0.031885251388666561 -0.26470215361104171 0 0.04428054005230446 -0.26275141268032309 0 0.051749435803858171 -0.27840569125857739 0 0.044229316934554799 -0.27218436537367241 0 0.038396769586432553 -0.27977596087564799 0 0.044229316934554799 -0.27218436537367241 0 0.038396769586432553 -0.27977596087564799 0 0.029696712261103771 -0.27487286106778819 0 0.029398966714908509 -0.28692964748338379 0 0.038396769586432553 -0.27977596087564799 0 0.029696712261103771 -0.27487286106778819 0 0.044229316934554799 -0.27218436537367241 0 0.031885251388666561 -0.26470215361104171 0 0.029696712261103771 -0.27487286106778819 0 0.037315510146954597 -0.25849363249326118 0 0.031885251388666561 -0.26470215361104171 0 0.04428054005230446 -0.26275141268032309 0 0.037315510146954597 -0.25849363249326118 0 0.031885251388666561 -0.26470215361104171 0 0.03069464768829987 -0.25176037071845259 0 0.037315510146954597 -0.25849363249326118 0 0.04428054005230446 -0.26275141268032309 0 0.045372505498807933 -0.25408090721008542 0 0.045372505498807933 -0.25408090721008542 0 0.03069464768829987 -0.25176037071845259 0 0.042588116356466379 -0.2448823624008481 0 0.037315510146954597 -0.25849363249326118 0 0.045372505498807933 -0.25408090721008542 0 0.03069464768829987 -0.25176037071845259 0 0.031885251388666561 -0.26470215361104171 0 0.021199614426200629 -0.26114166245967918 0 0.019908913466960752 -0.27058631964059482 0 0.031885251388666561 -0.26470215361104171 0 0.03069464768829987 -0.25176037071845259 0 0.021199614426200629 -0.26114166245967918 0 0.03069464768829987 -0.25176037071845259 0 0.021199614426200629 -0.26114166245967918 0 0.016145176335298529 -0.25210595968411048 0 0.029398966714908509 -0.28692964748338379 0 0.029696712261103771 -0.27487286106778819 0 0.01908241754038794 -0.28073467218482329 0 0.031885251388666561 -0.26470215361104171 0 0.029696712261103771 -0.27487286106778819 0 0.019908913466960752 -0.27058631964059482 0 0.019908913466960752 -0.27058631964059482 0 0.01908241754038794 -0.28073467218482329 0 0.01128192931255503 -0.27464126756021451 0 0.029696712261103771 -0.27487286106778819 0 0.019908913466960752 -0.27058631964059482 0 0.01908241754038794 -0.28073467218482329 0 -0.01145854626600548 -0.26602311564559261 0 0.01128192931255503 -0.27464126756021451 0 0.0057158633005241696 -0.26337829885565528 0 0.0066437179820165657 -0.2861171845936395 0 0.01908241754038794 -0.28073467218482329 0 0.01128192931255503 -0.27464126756021451 0 0.019908913466960752 -0.27058631964059482 0 0.01128192931255503 -0.27464126756021451 0 0.0057158633005241696 -0.26337829885565528 0 -0.002848760243290064 -0.27761611820401882 0 0.0066437179820165657 -0.2861171845936395 0 0.01128192931255503 -0.27464126756021451 0 0.016145176335298529 -0.25210595968411048 0 0.0057158633005241696 -0.26337829885565528 0 0.0054759062840018038 -0.25064707341720888 0 0.021199614426200629 -0.26114166245967918 0 0.019908913466960752 -0.27058631964059482 0 0.0057158633005241696 -0.26337829885565528 0 0.021199614426200629 -0.26114166245967918 0 0.016145176335298529 -0.25210595968411048 0 0.0057158633005241696 -0.26337829885565528 0 -0.0009620894167222515 -0.25496392916579452 0 0.0057158633005241696 -0.26337829885565528 0 0.0054759062840018038 -0.25064707341720888 0 -0.0009620894167222515 -0.25496392916579452 0 -0.0029313858115674811 -0.24854412401401971 0 0.0054759062840018038 -0.25064707341720888 0 0.0054759062840018038 -0.25064707341720888 0 0.0026199421412959989 -0.2430643023623929 0 0.011589873569895199 -0.24127835128668559 0 -0.0029313858115674811 -0.24854412401401971 0 0.0054759062840018038 -0.25064707341720888 0 0.0026199421412959989 -0.2430643023623929 0 0.016145176335298529 -0.25210595968411048 0 0.0054759062840018038 -0.25064707341720888 0 0.011589873569895199 -0.24127835128668559 0 0.011589873569895199 -0.24127835128668559 0 0.010668172172219499 -0.2272828987723072 0 0.020574075722817331 -0.2351284197632682 0 0.0026199421412959989 -0.2430643023623929 0 0.011589873569895199 -0.24127835128668559 0 0.0017465435191736189 -0.23378549097037141 0 -0.00080535468136348092 -0.21995366459000901 0 0.010668172172219499 -0.2272828987723072 0 0.01016515501406726 -0.20926501301563591 0 -0.00080535468136348092 -0.21995366459000901 0 0.0017465435191736189 -0.23378549097037141 0 0.010668172172219499 -0.2272828987723072 0 0.010668172172219499 -0.2272828987723072 0 0.02170661161633574 -0.22145314359659171 0 0.01016515501406726 -0.20926501301563591 0 0.011589873569895199 -0.24127835128668559 0 0.0017465435191736189 -0.23378549097037141 0 0.010668172172219499 -0.2272828987723072 0 0.010668172172219499 -0.2272828987723072 0 0.02170661161633574 -0.22145314359659171 0 0.020574075722817331 -0.2351284197632682 0 0.02170661161633574 -0.22145314359659171 0 0.02866695829179056 -0.22960637228307629 0 0.036392787169896093 -0.22322562645731159 0 0.02170661161633574 -0.22145314359659171 0 0.02866695829179056 -0.22960637228307629 0 0.020574075722817331 -0.2351284197632682 0 0.02866695829179056 -0.22960637228307629 0 0.020574075722817331 -0.2351284197632682 0 0.032071787069821417 -0.24054619649286721 0 0.022195152742869501 -0.2444300013669817 0 0.020574075722817331 -0.2351284197632682 0 0.032071787069821417 -0.24054619649286721 0 0.03069464768829987 -0.25176037071845259 0 0.022195152742869501 -0.2444300013669817 0 0.032071787069821417 -0.24054619649286721 0 0.03069464768829987 -0.25176037071845259 0 0.016145176335298529 -0.25210595968411048 0 0.022195152742869501 -0.2444300013669817 0 0.016145176335298529 -0.25210595968411048 0 0.011589873569895199 -0.24127835128668559 0 0.022195152742869501 -0.2444300013669817 0 0.011589873569895199 -0.24127835128668559 0 0.022195152742869501 -0.2444300013669817 0 0.020574075722817331 -0.2351284197632682 0 -0.003739977245034012 -0.19168309442994089 0 0.010514116253606281 -0.1925853606064957 0 0.01016515501406726 -0.20926501301563591 0 0.010514116253606281 -0.1925853606064957 0 0.01016515501406726 -0.20926501301563591 0 0.018596641755985681 -0.20049862993462389 0 0.02170661161633574 -0.22145314359659171 0 0.01016515501406726 -0.20926501301563591 0 0.028304225500431591 -0.20785134554231141 0 0.01016515501406726 -0.20926501301563591 0 0.028304225500431591 -0.20785134554231141 0 0.018596641755985681 -0.20049862993462389 0 0.02170661161633574 -0.22145314359659171 0 0.028304225500431591 -0.20785134554231141 0 0.036392787169896093 -0.22322562645731159 0 0.028304225500431591 -0.20785134554231141 0 0.018596641755985681 -0.20049862993462389 0 0.02540307025583758 -0.19229280057405279 0 0.010514116253606281 -0.1925853606064957 0 0.018596641755985681 -0.20049862993462389 0 0.02540307025583758 -0.19229280057405279 0 0.010514116253606281 -0.1925853606064957 0 0.02540307025583758 -0.19229280057405279 0 0.015764016274472759 -0.1812646672695073 0 0.02540307025583758 -0.19229280057405279 0 0.041440672425083092 -0.19607701236864419 0 0.030421272951226121 -0.1778391783376792 0 0.028304225500431591 -0.20785134554231141 0 0.02540307025583758 -0.19229280057405279 0 0.041440672425083092 -0.19607701236864419 0 0.041440672425083092 -0.19607701236864419 0 0.042310424588804782 -0.2140630995529598 0 0.055497750511994078 -0.2086068857692274 0 0.028304225500431591 -0.20785134554231141 0 0.041440672425083092 -0.19607701236864419 0 0.042310424588804782 -0.2140630995529598 0 0.028304225500431591 -0.20785134554231141 0 0.042310424588804782 -0.2140630995529598 0 0.036392787169896093 -0.22322562645731159 0 0.042310424588804782 -0.2140630995529598 0 0.055497750511994078 -0.2086068857692274 0 0.052955454276687589 -0.2198291654371925 0 0.062338921595789062 -0.21792006704763969 0 0.055497750511994078 -0.2086068857692274 0 0.052955454276687589 -0.2198291654371925 0 0.062338921595789062 -0.21792006704763969 0 0.055497750511994078 -0.2086068857692274 0 0.067863046951983474 -0.20503048868511209 0 0.055497750511994078 -0.2086068857692274 0 0.056257937900538298 -0.19577788601322099 0 0.067863046951983474 -0.20503048868511209 0 0.041440672425083092 -0.19607701236864419 0 0.056257937900538298 -0.19577788601322099 0 0.051449240160577621 -0.1762857105508405 0 0.041440672425083092 -0.19607701236864419 0 0.055497750511994078 -0.2086068857692274 0 0.056257937900538298 -0.19577788601322099 0 0.040491861427302538 -0.2355872617630255 0 0.042588116356466379 -0.2448823624008481 0 0.052307832003780613 -0.23884346229351339 0 0.040491861427302538 -0.2355872617630255 0 0.045866106706223042 -0.22907627795895011 0 0.052307832003780613 -0.23884346229351339 0 0.03069464768829987 -0.25176037071845259 0 0.042588116356466379 -0.2448823624008481 0 0.032071787069821417 -0.24054619649286721 0 0.040491861427302538 -0.2355872617630255 0 0.042588116356466379 -0.2448823624008481 0 0.032071787069821417 -0.24054619649286721 0 0.02866695829179056 -0.22960637228307629 0 0.040491861427302538 -0.2355872617630255 0 0.032071787069821417 -0.24054619649286721 0 0.02866695829179056 -0.22960637228307629 0 0.040491861427302538 -0.2355872617630255 0 0.036392787169896093 -0.22322562645731159 0 0.042310424588804782 -0.2140630995529598 0 0.036392787169896093 -0.22322562645731159 0 0.045866106706223042 -0.22907627795895011 0 0.040491861427302538 -0.2355872617630255 0 0.036392787169896093 -0.22322562645731159 0 0.045866106706223042 -0.22907627795895011 0 0.045866106706223042 -0.22907627795895011 0 0.058764067980626958 -0.22947949685718549 0 0.052307832003780613 -0.23884346229351339 0 0.045866106706223042 -0.22907627795895011 0 0.052955454276687589 -0.2198291654371925 0 0.058764067980626958 -0.22947949685718549 0 0.042310424588804782 -0.2140630995529598 0 0.045866106706223042 -0.22907627795895011 0 0.052955454276687589 -0.2198291654371925 0 0.062338921595789062 -0.21792006704763969 0 0.058764067980626958 -0.22947949685718549 0 0.065719467571416057 -0.22489822263154319 0 0.062338921595789062 -0.21792006704763969 0 0.052955454276687589 -0.2198291654371925 0 0.058764067980626958 -0.22947949685718549 0 0.058764067980626958 -0.22947949685718549 0 0.062159259289524899 -0.2368834247622158 0 0.052307832003780613 -0.23884346229351339 0 0.062159259289524899 -0.2368834247622158 0 0.052307832003780613 -0.23884346229351339 0 0.061229972926465738 -0.2445427902389527 0 0.045372505498807933 -0.25408090721008542 0 0.042588116356466379 -0.2448823624008481 0 0.05268811686830014 -0.24901610311096159 0 0.042588116356466379 -0.2448823624008481 0 0.052307832003780613 -0.23884346229351339 0 0.05268811686830014 -0.24901610311096159 0 0.061490933840310687 -0.25382890142296882 0 0.05268811686830014 -0.24901610311096159 0 0.061229972926465738 -0.2445427902389527 0 0.052307832003780613 -0.23884346229351339 0 0.05268811686830014 -0.24901610311096159 0 0.061229972926465738 -0.2445427902389527 0 0.061490933840310687 -0.25382890142296882 0 0.061229972926465738 -0.2445427902389527 0 0.070069103552599196 -0.24823964670048029 0 0.061229972926465738 -0.2445427902389527 0 0.070069103552599196 -0.24823964670048029 0 0.069856411684105391 -0.23913895996007839 0 0.062159259289524899 -0.2368834247622158 0 0.061229972926465738 -0.2445427902389527 0 0.069856411684105391 -0.23913895996007839 0 0.062159259289524899 -0.2368834247622158 0 0.069856411684105391 -0.23913895996007839 0 0.067142239376285745 -0.23139328163069281 0 0.069856411684105391 -0.23913895996007839 0 0.077788170153509889 -0.24196191377257101 0 0.076767606518392539 -0.23187249677345001 0 0.080071368274292315 -0.25145738896057979 0 0.070069103552599196 -0.24823964670048029 0 0.077788170153509889 -0.24196191377257101 0 0.070069103552599196 -0.24823964670048029 0 0.069856411684105391 -0.23913895996007839 0 0.077788170153509889 -0.24196191377257101 0 0.080071368274292315 -0.25145738896057979 0 0.090706365013478091 -0.25245448435890872 0 0.085906732882507178 -0.24385162082211831 0 0.080071368274292315 -0.25145738896057979 0 0.077788170153509889 -0.24196191377257101 0 0.085906732882507178 -0.24385162082211831 0 0.077788170153509889 -0.24196191377257101 0 0.085906732882507178 -0.24385162082211831 0 0.083256636250354649 -0.23616880796388259 0 0.077788170153509889 -0.24196191377257101 0 0.083256636250354649 -0.23616880796388259 0 0.076767606518392539 -0.23187249677345001 0 0.085906732882507178 -0.24385162082211831 0 0.089657973372422345 -0.23730775202069579 0 0.094006026236525903 -0.2441335510050745 0 0.085906732882507178 -0.24385162082211831 0 0.083256636250354649 -0.23616880796388259 0 0.089657973372422345 -0.23730775202069579 0 0.083256636250354649 -0.23616880796388259 0 0.089657973372422345 -0.23730775202069579 0 0.089763789457938253 -0.2306791647953326 0 0.089657973372422345 -0.23730775202069579 0 0.089763789457938253 -0.2306791647953326 0 0.096012267649498176 -0.23702186761809721 0 0.089657973372422345 -0.23730775202069579 0 0.094006026236525903 -0.2441335510050745 0 0.096012267649498176 -0.23702186761809721 0 0.090706365013478091 -0.25245448435890872 0 0.085906732882507178 -0.24385162082211831 0 0.094006026236525903 -0.2441335510050745 0 0.086446736705125371 -0.22420087797706609 0 0.091303359373345411 -0.22339335178318359 0 0.089763789457938253 -0.2306791647953326 0 0.086446736705125371 -0.22420087797706609 0 0.091303359373345411 -0.22339335178318359 0 0.086853981468707001 -0.2185547472363609 0 0.091303359373345411 -0.22339335178318359 0 0.086853981468707001 -0.2185547472363609 0 0.09077468002378962 -0.21857675351640271 0 0.091303359373345411 -0.22339335178318359 0 0.09077468002378962 -0.21857675351640271 0 0.094530837428433365 -0.22086489816084981 0 0.091303359373345411 -0.22339335178318359 0 0.089763789457938253 -0.2306791647953326 0 0.098670227838192195 -0.22970514568366851 0 0.086446736705125371 -0.22420087797706609 0 0.089763789457938253 -0.2306791647953326 0 0.083020570332336119 -0.22791650227557511 0 0.083256636250354649 -0.23616880796388259 0 0.083020570332336119 -0.22791650227557511 0 0.076767606518392539 -0.23187249677345001 0 0.083256636250354649 -0.23616880796388259 0 0.089763789457938253 -0.2306791647953326 0 0.083020570332336119 -0.22791650227557511 0 0.083020570332336119 -0.22791650227557511 0 0.077930889523722374 -0.22519622511208121 0 0.076767606518392539 -0.23187249677345001 0 0.083020570332336119 -0.22791650227557511 0 0.081291982893300085 -0.22046062379487821 0 0.077930889523722374 -0.22519622511208121 0 0.086446736705125371 -0.22420087797706609 0 0.083020570332336119 -0.22791650227557511 0 0.081291982893300085 -0.22046062379487821 0 0.086446736705125371 -0.22420087797706609 0 0.081291982893300085 -0.22046062379487821 0 0.086853981468707001 -0.2185547472363609 0 0.081291982893300085 -0.22046062379487821 0 0.077930889523722374 -0.22519622511208121 0 0.073706539318973169 -0.21796036257100029 0 0.072234091795087663 -0.22574485878751241 0 0.065719467571416057 -0.22489822263154319 0 0.073706539318973169 -0.21796036257100029 0 0.077930889523722374 -0.22519622511208121 0 0.072234091795087663 -0.22574485878751241 0 0.073706539318973169 -0.21796036257100029 0 0.069856411684105391 -0.23913895996007839 0 0.076767606518392539 -0.23187249677345001 0 0.067142239376285745 -0.23139328163069281 0 0.072234091795087663 -0.22574485878751241 0 0.076767606518392539 -0.23187249677345001 0 0.067142239376285745 -0.23139328163069281 0 0.077930889523722374 -0.22519622511208121 0 0.072234091795087663 -0.22574485878751241 0 0.076767606518392539 -0.23187249677345001 0 0.058764067980626958 -0.22947949685718549 0 0.062159259289524899 -0.2368834247622158 0 0.067142239376285745 -0.23139328163069281 0 0.058764067980626958 -0.22947949685718549 0 0.067142239376285745 -0.23139328163069281 0 0.065719467571416057 -0.22489822263154319 0 0.072234091795087663 -0.22574485878751241 0 0.067142239376285745 -0.23139328163069281 0 0.065719467571416057 -0.22489822263154319 0 0.062338921595789062 -0.21792006704763969 0 0.065719467571416057 -0.22489822263154319 0 0.073706539318973169 -0.21796036257100029 0 0.062338921595789062 -0.21792006704763969 0 0.067863046951983474 -0.20503048868511209 0 0.073706539318973169 -0.21796036257100029 0 0.067863046951983474 -0.20503048868511209 0 0.073706539318973169 -0.21796036257100029 0 0.079094442607528917 -0.20913243433380641 0 0.067863046951983474 -0.20503048868511209 0 0.081482512553192915 -0.1953056794767786 0 0.079094442607528917 -0.20913243433380641 0 0.056257937900538298 -0.19577788601322099 0 0.067863046951983474 -0.20503048868511209 0 0.066040058368007956 -0.18964665730407451 0 0.067863046951983474 -0.20503048868511209 0 0.066040058368007956 -0.18964665730407451 0 0.081482512553192915 -0.1953056794767786 0 0.081482512553192915 -0.1953056794767786 0 0.095454742848087734 -0.19451486061966669 0 0.093505174579280592 -0.1731787749771625 0 0.081482512553192915 -0.1953056794767786 0 0.08833530696517819 -0.21036332105093219 0 0.095454742848087734 -0.19451486061966669 0 0.08833530696517819 -0.21036332105093219 0 0.097404311116896569 -0.21585094626217091 0 0.095454742848087734 -0.19451486061966669 0 0.081291982893300085 -0.22046062379487821 0 0.073706539318973169 -0.21796036257100029 0 0.082946926161669862 -0.2149195339015407 0 0.082946926161669862 -0.2149195339015407 0 0.079094442607528917 -0.20913243433380641 0 0.08833530696517819 -0.21036332105093219 0 0.073706539318973169 -0.21796036257100029 0 0.082946926161669862 -0.2149195339015407 0 0.079094442607528917 -0.20913243433380641 0 0.081291982893300085 -0.22046062379487821 0 0.082946926161669862 -0.2149195339015407 0 0.086853981468707001 -0.2185547472363609 0 0.081482512553192915 -0.1953056794767786 0 0.079094442607528917 -0.20913243433380641 0 0.08833530696517819 -0.21036332105093219 0 0.082946926161669862 -0.2149195339015407 0 0.08833530696517819 -0.21036332105093219 0 0.086853981468707001 -0.2185547472363609 0 0.08833530696517819 -0.21036332105093219 0 0.086853981468707001 -0.2185547472363609 0 0.09077468002378962 -0.21857675351640271 0 0.08833530696517819 -0.21036332105093219 0 0.09077468002378962 -0.21857675351640271 0 0.092213447725184278 -0.21529843562297729 0 0.08833530696517819 -0.21036332105093219 0 0.092213447725184278 -0.21529843562297729 0 0.097404311116896569 -0.21585094626217091 0 0.09077468002378962 -0.21857675351640271 0 0.094501608789943028 -0.21679829355882299 0 0.094530837428433365 -0.22086489816084981 0 0.09077468002378962 -0.21857675351640271 0 0.092213447725184278 -0.21529843562297729 0 0.094501608789943028 -0.21679829355882299 0 0.094501608789943028 -0.21679829355882299 0 0.097404311116896569 -0.21585094626217091 0 0.094530837428433365 -0.22086489816084981 0 0.092213447725184278 -0.21529843562297729 0 0.094501608789943028 -0.21679829355882299 0 0.097404311116896569 -0.21585094626217091 0 0.097404311116896569 -0.21585094626217091 0 0.095454742848087734 -0.19451486061966669 0 0.097404311116896569 -0.21585094626217091 0 0.1059898830346106 -0.20430933332548051 0 0.095454742848087734 -0.19451486061966669 0 0.097404311116896569 -0.21585094626217091 0 0.1089347031997706 -0.21297733173581901 0 0.1146171121197104 -0.21980430615730401 0 0.097404311116896569 -0.21585094626217091 0 0.1059898830346106 -0.20430933332548051 0 0.1089347031997706 -0.21297733173581901 0 0.095454742848087734 -0.19451486061966669 0 0.1128143282819509 -0.19216489626002589 0 0.10772522460311169 -0.17968171223372481 0 0.1059898830346106 -0.20430933332548051 0 0.095454742848087734 -0.19451486061966669 0 0.1128143282819509 -0.19216489626002589 0 0.1128143282819509 -0.19216489626002589 0 0.1237689835273371 -0.19605207676116951 0 0.1178461100078927 -0.20838697738218431 0 0.1059898830346106 -0.20430933332548051 0 0.1128143282819509 -0.19216489626002589 0 0.1178461100078927 -0.20838697738218431 0 0.1128143282819509 -0.19216489626002589 0 0.1237689835273371 -0.19605207676116951 0 0.1232013989280239 -0.1819146573535104 0 0.1089347031997706 -0.21297733173581901 0 0.1178461100078927 -0.20838697738218431 0 0.1146171121197104 -0.21980430615730401 0 0.1059898830346106 -0.20430933332548051 0 0.1089347031997706 -0.21297733173581901 0 0.1178461100078927 -0.20838697738218431 0 0.1178461100078927 -0.20838697738218431 0 0.1146171121197104 -0.21980430615730401 0 0.12895394136930069 -0.22163642029703709 0 0.1146171121197104 -0.21980430615730401 0 0.12018370186474731 -0.23305432747703519 0 0.12895394136930069 -0.22163642029703709 0 0.097404311116896569 -0.21585094626217091 0 0.1146171121197104 -0.21980430615730401 0 0.12018370186474731 -0.23305432747703519 0 0.1212054647883809 -0.25073068226796852 0 0.12018370186474731 -0.23305432747703519 0 0.1059281586602189 -0.23527494890652931 0 0.13217397618885759 -0.25462043987800831 0 0.1212054647883809 -0.25073068226796852 0 0.12018370186474731 -0.23305432747703519 0 0.1212054647883809 -0.25073068226796852 0 0.1059281586602189 -0.23527494890652931 0 0.1078238037173969 -0.24832262031645649 0 0.1212054647883809 -0.25073068226796852 0 0.1059281586602189 -0.23527494890652931 0 0.099550463170151926 -0.25262580003909579 0 0.1078238037173969 -0.24832262031645649 0 0.10103467245524091 -0.24298905409433241 0 0.1059281586602189 -0.23527494890652931 0 0.1078238037173969 -0.24832262031645649 0 0.10103467245524091 -0.24298905409433241 0 0.099550463170151926 -0.25262580003909579 0 0.10103467245524091 -0.24298905409433241 0 0.094006026236525903 -0.2441335510050745 0 0.090706365013478091 -0.25245448435890872 0 0.099550463170151926 -0.25262580003909579 0 0.094006026236525903 -0.2441335510050745 0 0.1059281586602189 -0.23527494890652931 0 0.10103467245524091 -0.24298905409433241 0 0.096012267649498176 -0.23702186761809721 0 0.10103467245524091 -0.24298905409433241 0 0.094006026236525903 -0.2441335510050745 0 0.096012267649498176 -0.23702186761809721 0 0.1059281586602189 -0.23527494890652931 0 0.096012267649498176 -0.23702186761809721 0 0.098670227838192195 -0.22970514568366851 0 0.089763789457938253 -0.2306791647953326 0 0.096012267649498176 -0.23702186761809721 0 0.098670227838192195 -0.22970514568366851 0 0.097404311116896569 -0.21585094626217091 0 0.12018370186474731 -0.23305432747703519 0 0.097404311116896569 -0.21585094626217091 0 0.12018370186474731 -0.23305432747703519 0 0.1059281586602189 -0.23527494890652931 0 0.097404311116896569 -0.21585094626217091 0 0.1059281586602189 -0.23527494890652931 0 0.098670227838192195 -0.22970514568366851 0 0.091303359373345411 -0.22339335178318359 0 0.098670227838192195 -0.22970514568366851 0 0.094530837428433365 -0.22086489816084981 0 0.097404311116896569 -0.21585094626217091 0 0.098670227838192195 -0.22970514568366851 0 0.094530837428433365 -0.22086489816084981 0 0.097404311116896569 -0.21585094626217091 0 0.098670227838192195 -0.22970514568366851 0 0.1071373084330472 -0.14482826815459701 0 0.1035248479174861 -0.15311019857333261 0 0.098760878024456711 -0.14050656481393209 0 0.1071373084330472 -0.14482826815459701 0 0.1035248479174861 -0.15311019857333261 0 0.1121477659277255 -0.1503271840913511 0 0.1035248479174861 -0.15311019857333261 0 0.098760878024456711 -0.14050656481393209 0 0.091560400862706559 -0.15189516094014111 0 0.098760878024456711 -0.14050656481393209 0 0.099399694252258627 -0.1328638184600745 0 0.089615627146132512 -0.13061154690311971 0 0.099399694252258627 -0.1328638184600745 0 0.099525338641528904 -0.12611341339503321 0 0.089615627146132512 -0.13061154690311971 0 0.099525338641528904 -0.12611341339503321 0 0.1096969331969164 -0.13422374872821319 0 0.1121708616464093 -0.1216807098986791 0 0.099399694252258627 -0.1328638184600745 0 0.099525338641528904 -0.12611341339503321 0 0.1096969331969164 -0.13422374872821319 0 0.098760878024456711 -0.14050656481393209 0 0.099399694252258627 -0.1328638184600745 0 0.1096969331969164 -0.13422374872821319 0 0.1071373084330472 -0.14482826815459701 0 0.098760878024456711 -0.14050656481393209 0 0.1096969331969164 -0.13422374872821319 0 0.1096969331969164 -0.13422374872821319 0 0.1155243526086871 -0.14484298486410191 0 0.12532898621889721 -0.13663811256420449 0 0.1096969331969164 -0.13422374872821319 0 0.11997683785091839 -0.1276371159963853 0 0.12532898621889721 -0.13663811256420449 0 0.1096969331969164 -0.13422374872821319 0 0.11997683785091839 -0.1276371159963853 0 0.1121708616464093 -0.1216807098986791 0 0.1217036921304827 -0.1482443959076799 0 0.1155243526086871 -0.14484298486410191 0 0.12532898621889721 -0.13663811256420449 0 0.1217036921304827 -0.1482443959076799 0 0.1155243526086871 -0.14484298486410191 0 0.1179114041550178 -0.15136128022523329 0 0.1071373084330472 -0.14482826815459701 0 0.1155243526086871 -0.14484298486410191 0 0.1121477659277255 -0.1503271840913511 0 0.1071373084330472 -0.14482826815459701 0 0.1096969331969164 -0.13422374872821319 0 0.1155243526086871 -0.14484298486410191 0 0.1035248479174861 -0.15311019857333261 0 0.1121477659277255 -0.1503271840913511 0 0.1169082366172023 -0.15609331882735419 0 0.1155243526086871 -0.14484298486410191 0 0.1121477659277255 -0.1503271840913511 0 0.1179114041550178 -0.15136128022523329 0 0.1121477659277255 -0.1503271840913511 0 0.1169082366172023 -0.15609331882735419 0 0.1179114041550178 -0.15136128022523329 0 0.1169082366172023 -0.15609331882735419 0 0.1179114041550178 -0.15136128022523329 0 0.12324902196630889 -0.15465793599018671 0 0.1217036921304827 -0.1482443959076799 0 0.1179114041550178 -0.15136128022523329 0 0.12324902196630889 -0.15465793599018671 0 0.1217036921304827 -0.1482443959076799 0 0.12324902196630889 -0.15465793599018671 0 0.12831016946945831 -0.1492440347933528 0 0.1035248479174861 -0.15311019857333261 0 0.12443417021765769 -0.1709717485187108 0 0.1227471198665283 -0.15880086614903269 0 0.12098675462827781 -0.16200852072179159 0 0.1290045142054978 -0.1612372837293575 0 0.1035248479174861 -0.15311019857333261 0 0.12443417021765769 -0.1709717485187108 0 0.12083528946942131 -0.1711597280255607 0 0.1035248479174861 -0.15311019857333261 0 0.12098675462827781 -0.16200852072179159 0 0.12443417021765769 -0.1709717485187108 0 0.1035248479174861 -0.15311019857333261 0 0.1169082366172023 -0.15609331882735419 0 0.12098675462827781 -0.16200852072179159 0 0.1169082366172023 -0.15609331882735419 0 0.1227471198665283 -0.15880086614903269 0 0.12098675462827781 -0.16200852072179159 0 0.1169082366172023 -0.15609331882735419 0 0.12324902196630889 -0.15465793599018671 0 0.1227471198665283 -0.15880086614903269 0 0.12098675462827781 -0.16200852072179159 0 0.12443417021765769 -0.1709717485187108 0 0.12715697753007521 -0.16591248018761531 0 0.1128143282819509 -0.19216489626002589 0 0.1232013989280239 -0.1819146573535104 0 0.1157139550245927 -0.18029465614444529 0 0.12083528946942131 -0.1711597280255607 0 0.1232013989280239 -0.1819146573535104 0 0.1157139550245927 -0.18029465614444529 0 0.12443417021765769 -0.1709717485187108 0 0.12083528946942131 -0.1711597280255607 0 0.1232013989280239 -0.1819146573535104 0 0.12083528946942131 -0.1711597280255607 0 0.1157139550245927 -0.18029465614444529 0 0.10772522460311169 -0.17968171223372481 0 0.1128143282819509 -0.19216489626002589 0 0.1157139550245927 -0.18029465614444529 0 0.10772522460311169 -0.17968171223372481 0 0.095454742848087734 -0.19451486061966669 0 0.10772522460311169 -0.17968171223372481 0 0.093505174579280592 -0.1731787749771625 0 0.12083528946942131 -0.1711597280255607 0 0.093505174579280592 -0.1731787749771625 0 0.095454742848087734 -0.19451486061966669 0 0.093505174579280592 -0.1731787749771625 0 0.12083528946942131 -0.1711597280255607 0 0.10772522460311169 -0.17968171223372481 0 0.093505174579280592 -0.1731787749771625 0 0.1035248479174861 -0.15311019857333261 0 0.093505174579280592 -0.1731787749771625 0 0.091560400862706559 -0.15189516094014111 0 0.1035248479174861 -0.15311019857333261 0 0.12083528946942131 -0.1711597280255607 0 0.093505174579280592 -0.1731787749771625 0 0.078133883947979807 -0.15717501910519549 0 0.093505174579280592 -0.1731787749771625 0 0.091560400862706559 -0.15189516094014111 0 0.078133883947979807 -0.15717501910519549 0 0.093505174579280592 -0.1731787749771625 0 0.072477207369929117 -0.17473224276400179 0 0.093505174579280592 -0.1731787749771625 0 0.091560400862706559 -0.15189516094014111 0 0.081482512553192915 -0.1953056794767786 0 0.093505174579280592 -0.1731787749771625 0 0.072477207369929117 -0.17473224276400179 0 0.093505174579280592 -0.1731787749771625 0 0.072477207369929117 -0.17473224276400179 0 0.066040058368007956 -0.18964665730407451 0 0.072477207369929117 -0.17473224276400179 0 0.051449240160577621 -0.1762857105508405 0 0.066040058368007956 -0.18964665730407451 0 0.081482512553192915 -0.1953056794767786 0 0.072477207369929117 -0.17473224276400179 0 0.078133883947979807 -0.15717501910519549 0 0.072477207369929117 -0.17473224276400179 0 0.063878974636528515 -0.16401540189567099 0 0.072477207369929117 -0.17473224276400179 0 0.063878974636528515 -0.16401540189567099 0 0.051449240160577621 -0.1762857105508405 0 0.078133883947979807 -0.15717501910519549 0 0.063878974636528515 -0.16401540189567099 0 0.06522271263887458 -0.15305574504012881 0 0.06522271263887458 -0.15305574504012881 0 0.069316279952888193 -0.14186668388360371 0 0.075278834721760557 -0.14616760919767161 0 0.06522271263887458 -0.15305574504012881 0 0.069316279952888193 -0.14186668388360371 0 0.05757515479497001 -0.1486962131740798 0 0.069316279952888193 -0.14186668388360371 0 0.075278834721760557 -0.14616760919767161 0 0.079765110473415279 -0.13788087003968491 0 0.078133883947979807 -0.15717501910519549 0 0.06522271263887458 -0.15305574504012881 0 0.075278834721760557 -0.14616760919767161 0 0.098760878024456711 -0.14050656481393209 0 0.091560400862706559 -0.15189516094014111 0 0.089615627146132512 -0.13061154690311971 0 0.078133883947979807 -0.15717501910519549 0 0.083611330147541921 -0.14459745320402559 0 0.091560400862706559 -0.15189516094014111 0 0.091560400862706559 -0.15189516094014111 0 0.089615627146132512 -0.13061154690311971 0 0.078133883947979807 -0.15717501910519549 0 0.075278834721760557 -0.14616760919767161 0 0.083611330147541921 -0.14459745320402559 0 0.083611330147541921 -0.14459745320402559 0 0.091560400862706559 -0.15189516094014111 0 0.089615627146132512 -0.13061154690311971 0 0.075278834721760557 -0.14616760919767161 0 0.083611330147541921 -0.14459745320402559 0 0.079765110473415279 -0.13788087003968491 0 0.099525338641528904 -0.12611341339503321 0 0.089615627146132512 -0.13061154690311971 0 0.081894058627025895 -0.12584863130967919 0 0.083611330147541921 -0.14459745320402559 0 0.089615627146132512 -0.13061154690311971 0 0.079765110473415279 -0.13788087003968491 0 0.089615627146132512 -0.13061154690311971 0 0.079765110473415279 -0.13788087003968491 0 0.081894058627025895 -0.12584863130967919 0 0.081894058627025895 -0.12584863130967919 0 0.065576399090336079 -0.13067912082877309 0 0.057907204523981459 -0.13951585418161591 0 0.081894058627025895 -0.12584863130967919 0 0.057907204523981459 -0.13951585418161591 0 0.069316279952888193 -0.14186668388360371 0 0.081894058627025895 -0.12584863130967919 0 0.057907204523981459 -0.13951585418161591 0 0.081894058627025895 -0.12584863130967919 0 0.068207364780656948 -0.12563827965844471 0 0.065576399090336079 -0.13067912082877309 0 0.069316279952888193 -0.14186668388360371 0 0.079765110473415279 -0.13788087003968491 0 0.081894058627025895 -0.12584863130967919 0 0.068207364780656948 -0.12563827965844471 0 0.065576399090336079 -0.13067912082877309 0 0.054296968429680029 -0.13171371816535249 0 0.054296968429680029 -0.13171371816535249 0 0.057907204523981459 -0.13951585418161591 0 0.034849001543539322 -0.1503583031021323 0 0.054296968429680029 -0.13171371816535249 0 0.045553716665441668 -0.12681104972785159 0 0.052448498866582129 -0.1166826243517366 0 0.065576399090336079 -0.13067912082877309 0 0.054296968429680029 -0.13171371816535249 0 0.057907204523981459 -0.13951585418161591 0 0.069316279952888193 -0.14186668388360371 0 0.057907204523981459 -0.13951585418161591 0 0.05757515479497001 -0.1486962131740798 0 0.06522271263887458 -0.15305574504012881 0 0.05757515479497001 -0.1486962131740798 0 0.052111829065281459 -0.15882829201818821 0 0.046808539919221563 -0.15014413002933799 0 0.052111829065281459 -0.15882829201818821 0 0.043031393960321331 -0.1571354857308308 0 0.05757515479497001 -0.1486962131740798 0 0.046808539919221563 -0.15014413002933799 0 0.052111829065281459 -0.15882829201818821 0 0.057907204523981459 -0.13951585418161591 0 0.05757515479497001 -0.1486962131740798 0 0.046808539919221563 -0.15014413002933799 0 0.057907204523981459 -0.13951585418161591 0 0.046808539919221563 -0.15014413002933799 0 0.033920350420936912 -0.1531830770535528 0 0.057907204523981459 -0.13951585418161591 0 0.034849001543539322 -0.1503583031021323 0 0.033920350420936912 -0.1531830770535528 0 0.054296968429680029 -0.13171371816535249 0 0.034849001543539322 -0.1503583031021323 0 0.038558521200612962 -0.14006542407622449 0 0.054296968429680029 -0.13171371816535249 0 0.034849001543539322 -0.1503583031021323 0 0.057907204523981459 -0.13951585418161591 0 0.033920350420936912 -0.1531830770535528 0 0.046808539919221563 -0.15014413002933799 0 0.040219483271594643 -0.15466785876887121 0 0.033920350420936912 -0.1531830770535528 0 0.046808539919221563 -0.15014413002933799 0 0.040219483271594643 -0.15466785876887121 0 0.043031393960321331 -0.1571354857308308 0 0.040219483271594643 -0.15466785876887121 0 0.033920350420936912 -0.1531830770535528 0 0.037117648785898759 -0.15820874226176301 0 0.034849001543539322 -0.1503583031021323 0 0.031672068294339203 -0.14528428076340441 0 0.030051573782975471 -0.15027594372919439 0 0.034849001543539322 -0.1503583031021323 0 0.033920350420936912 -0.1531830770535528 0 0.030051573782975471 -0.15027594372919439 0 0.034849001543539322 -0.1503583031021323 0 0.031672068294339203 -0.14528428076340441 0 0.038558521200612962 -0.14006542407622449 0 0.031672068294339203 -0.14528428076340441 0 0.038558521200612962 -0.14006542407622449 0 0.030566093298411881 -0.13865773310914861 0 0.054296968429680029 -0.13171371816535249 0 0.038558521200612962 -0.14006542407622449 0 0.040644455285911409 -0.1338393175667463 0 0.038558521200612962 -0.14006542407622449 0 0.040644455285911409 -0.1338393175667463 0 0.030566093298411881 -0.13865773310914861 0 0.034824944079593127 -0.12500853882757099 0 0.040644455285911409 -0.1338393175667463 0 0.030566093298411881 -0.13865773310914861 0 0.034824944079593127 -0.12500853882757099 0 0.045553716665441668 -0.12681104972785159 0 0.040644455285911409 -0.1338393175667463 0 0.054296968429680029 -0.13171371816535249 0 0.045553716665441668 -0.12681104972785159 0 0.040644455285911409 -0.1338393175667463 0 0.072477207369929117 -0.17473224276400179 0 0.051449240160577621 -0.1762857105508405 0 0.056257937900538298 -0.19577788601322099 0 0.066040058368007956 -0.18964665730407451 0 0.051449240160577621 -0.1762857105508405 0 0.063878974636528515 -0.16401540189567099 0 0.051449240160577621 -0.1762857105508405 0 0.052111829065281459 -0.15882829201818821 0 0.051449240160577621 -0.1762857105508405 0 0.052111829065281459 -0.15882829201818821 0 0.040502396519655252 -0.1663673850483231 0 0.063878974636528515 -0.16401540189567099 0 0.06522271263887458 -0.15305574504012881 0 0.052111829065281459 -0.15882829201818821 0 0.043031393960321331 -0.1571354857308308 0 0.037117648785898759 -0.15820874226176301 0 0.040502396519655252 -0.1663673850483231 0 0.052111829065281459 -0.15882829201818821 0 0.043031393960321331 -0.1571354857308308 0 0.040502396519655252 -0.1663673850483231 0 0.040219483271594643 -0.15466785876887121 0 0.043031393960321331 -0.1571354857308308 0 0.037117648785898759 -0.15820874226176301 0 0.033920350420936912 -0.1531830770535528 0 0.033509818979212957 -0.15868168045615499 0 0.027465449436243041 -0.1628752445715565 0 0.037117648785898759 -0.15820874226176301 0 0.034071859908748191 -0.1623715567021686 0 0.040502396519655252 -0.1663673850483231 0 0.033920350420936912 -0.1531830770535528 0 0.037117648785898759 -0.15820874226176301 0 0.033509818979212957 -0.15868168045615499 0 0.037117648785898759 -0.15820874226176301 0 0.033509818979212957 -0.15868168045615499 0 0.034071859908748191 -0.1623715567021686 0 0.033509818979212957 -0.15868168045615499 0 0.034071859908748191 -0.1623715567021686 0 0.027465449436243041 -0.1628752445715565 0 0.031586668938662611 -0.1691709391612749 0 0.040502396519655252 -0.1663673850483231 0 0.030421272951226121 -0.1778391783376792 0 0.034071859908748191 -0.1623715567021686 0 0.031586668938662611 -0.1691709391612749 0 0.040502396519655252 -0.1663673850483231 0 0.051449240160577621 -0.1762857105508405 0 0.040502396519655252 -0.1663673850483231 0 0.030421272951226121 -0.1778391783376792 0 0.041440672425083092 -0.19607701236864419 0 0.051449240160577621 -0.1762857105508405 0 0.030421272951226121 -0.1778391783376792 0 0.051449240160577621 -0.1762857105508405 0 0.030421272951226121 -0.1778391783376792 0 0.02540307025583758 -0.19229280057405279 0 0.015764016274472759 -0.1812646672695073 0 0.030421272951226121 -0.1778391783376792 0 0.031586668938662611 -0.1691709391612749 0 0.030421272951226121 -0.1778391783376792 0 0.021575687727073561 -0.1734893605992324 0 0.015764016274472759 -0.1812646672695073 0 0.021575687727073561 -0.1734893605992324 0 0.012676990919703311 -0.16924925594887871 0 0.015764016274472759 -0.1812646672695073 0 0.030421272951226121 -0.1778391783376792 0 0.021575687727073561 -0.1734893605992324 0 0.033920350420936912 -0.1531830770535528 0 0.009933496317892726 -0.16685029992549011 0 0.02294500892830088 -0.1542832107784407 0 0.033920350420936912 -0.1531830770535528 0 0.027465449436243041 -0.1628752445715565 0 0.009933496317892726 -0.16685029992549011 0 0.019596439448784399 -0.16744493330375371 0 0.027465449436243041 -0.1628752445715565 0 0.009933496317892726 -0.16685029992549011 0 0.033920350420936912 -0.1531830770535528 0 0.009933496317892726 -0.16685029992549011 0 0.021575687727073561 -0.1734893605992324 0 0.019596439448784399 -0.16744493330375371 0 0.012676990919703311 -0.16924925594887871 0 0.021575687727073561 -0.1734893605992324 0 0.019596439448784399 -0.16744493330375371 0 0.025540403417393751 -0.1677775419388785 0 0.031586668938662611 -0.1691709391612749 0 0.021575687727073561 -0.1734893605992324 0 0.025540403417393751 -0.1677775419388785 0 0.019596439448784399 -0.16744493330375371 0 0.025540403417393751 -0.1677775419388785 0 0.027465449436243041 -0.1628752445715565 0 0.034071859908748191 -0.1623715567021686 0 0.031586668938662611 -0.1691709391612749 0 0.027465449436243041 -0.1628752445715565 0 0.031586668938662611 -0.1691709391612749 0 0.025540403417393751 -0.1677775419388785 0 0.027465449436243041 -0.1628752445715565 0 0.009933496317892726 -0.16685029992549011 0 0.01648447247354291 -0.15404273338364399 0 0.02294500892830088 -0.1542832107784407 0 0.009933496317892726 -0.16685029992549011 0 0.01648447247354291 -0.15404273338364399 0 0.0068311679390763679 -0.1533437069849535 0 0.019596439448784399 -0.16744493330375371 0 0.009933496317892726 -0.16685029992549011 0 0.012676990919703311 -0.16924925594887871 0 0.009933496317892726 -0.16685029992549011 0 0.012676990919703311 -0.16924925594887871 0 0.0034571977838801569 -0.17702496179755631 0 0.009933496317892726 -0.16685029992549011 0 0.012676990919703311 -0.16924925594887871 0 -0.0085976242789068957 -0.177408956520272 0 0.009933496317892726 -0.16685029992549011 0 -0.0085976242789068957 -0.177408956520272 0 0.009933496317892726 -0.16685029992549011 0 0.0034571977838801569 -0.17702496179755631 0 0.015764016274472759 -0.1812646672695073 0 0.012676990919703311 -0.16924925594887871 0 0.0034571977838801569 -0.17702496179755631 0 -0.003739977245034012 -0.19168309442994089 0 0.010514116253606281 -0.1925853606064957 0 0.0034571977838801569 -0.17702496179755631 0 0.010514116253606281 -0.1925853606064957 0 0.015764016274472759 -0.1812646672695073 0 0.0034571977838801569 -0.17702496179755631 0 0.02166725362828328 -0.1398342401410575 0 0.019282665512654749 -0.1297026577714144 0 0.01241268948209219 -0.14437852502616319 0 0.034824944079593127 -0.12500853882757099 0 0.019282665512654749 -0.1297026577714144 0 0.030566093298411881 -0.13865773310914861 0 0.02166725362828328 -0.1398342401410575 0 0.019282665512654749 -0.1297026577714144 0 0.030566093298411881 -0.13865773310914861 0 0.031672068294339203 -0.14528428076340441 0 0.030566093298411881 -0.13865773310914861 0 0.024335151646156381 -0.14706399980032239 0 0.02166725362828328 -0.1398342401410575 0 0.030566093298411881 -0.13865773310914861 0 0.024335151646156381 -0.14706399980032239 0 0.031672068294339203 -0.14528428076340441 0 0.024335151646156381 -0.14706399980032239 0 0.030051573782975471 -0.15027594372919439 0 0.033920350420936912 -0.1531830770535528 0 0.030051573782975471 -0.15027594372919439 0 0.02294500892830088 -0.1542832107784407 0 0.024335151646156381 -0.14706399980032239 0 0.030051573782975471 -0.15027594372919439 0 0.02294500892830088 -0.1542832107784407 0 0.024335151646156381 -0.14706399980032239 0 0.01648447247354291 -0.15404273338364399 0 0.01241268948209219 -0.14437852502616319 0 0.024335151646156381 -0.14706399980032239 0 0.01648447247354291 -0.15404273338364399 0 0.02294500892830088 -0.1542832107784407 0 0.02166725362828328 -0.1398342401410575 0 0.024335151646156381 -0.14706399980032239 0 0.01241268948209219 -0.14437852502616319 0 -0.011505986517222349 -0.14810326960451681 0 0.01241268948209219 -0.14437852502616319 0 0.0068311679390763679 -0.1533437069849535 0 -0.011505986517222349 -0.14810326960451681 0 0.009933496317892726 -0.16685029992549011 0 0.0068311679390763679 -0.1533437069849535 0 -0.011505986517222349 -0.14810326960451681 0 0.01241268948209219 -0.14437852502616319 0 0.0027021066240326768 -0.1317064378292063 0 0.01648447247354291 -0.15404273338364399 0 0.01241268948209219 -0.14437852502616319 0 0.0068311679390763679 -0.1533437069849535 0 0.019282665512654749 -0.1297026577714144 0 0.01241268948209219 -0.14437852502616319 0 0.0027021066240326768 -0.1317064378292063 0 0.019282665512654749 -0.1297026577714144 0 0.0027021066240326768 -0.1317064378292063 0 0.005085065621477718 -0.1151057880332567 0 0.019282665512654749 -0.1297026577714144 0 0.005085065621477718 -0.1151057880332567 0 0.024129304522527751 -0.1089818526354679 0 0.034824944079593127 -0.12500853882757099 0 0.019282665512654749 -0.1297026577714144 0 0.024129304522527751 -0.1089818526354679 0 0.024129304522527751 -0.1089818526354679 0 0.01380815825635252 -0.094132232187142617 0 0.031293966725895003 -0.08518965294817829 0 -0.00044729776891663488 -0.1011528385718463 0 0.005085065621477718 -0.1151057880332567 0 0.01380815825635252 -0.094132232187142617 0 0.005085065621477718 -0.1151057880332567 0 0.024129304522527751 -0.1089818526354679 0 0.01380815825635252 -0.094132232187142617 0 0.01380815825635252 -0.094132232187142617 0 0.0042106568376920582 -0.081118225430045127 0 0.020039989671696231 -0.071989185162356889 0 -0.00044729776891663488 -0.1011528385718463 0 0.01380815825635252 -0.094132232187142617 0 0.0042106568376920582 -0.081118225430045127 0 0.0042106568376920582 -0.081118225430045127 0 0.0052181775422467033 -0.064346337314722044 0 0.020039989671696231 -0.071989185162356889 0 -0.0043762627118289626 -0.071729097412358583 0 0.0042106568376920582 -0.081118225430045127 0 0.0052181775422467033 -0.064346337314722044 0 0.0052181775422467033 -0.064346337314722044 0 0.020039989671696231 -0.071989185162356889 0 0.0052181775422467033 -0.064346337314722044 0 0.020039989671696231 -0.071989185162356889 0 0.017880224012190679 -0.058506375123621113 0 0.020039989671696231 -0.071989185162356889 0 0.017880224012190679 -0.058506375123621113 0 0.035073137211611732 -0.060365082031122411 0 0.020039989671696231 -0.071989185162356889 0 0.031293966725895003 -0.08518965294817829 0 0.035073137211611732 -0.060365082031122411 0 0.01380815825635252 -0.094132232187142617 0 0.020039989671696231 -0.071989185162356889 0 0.031293966725895003 -0.08518965294817829 0 0.031293966725895003 -0.08518965294817829 0 0.050629459546369923 -0.074776417317023003 0 0.042727201812981508 -0.099892478072297022 0 0.050629459546369923 -0.074776417317023003 0 0.042727201812981508 -0.099892478072297022 0 0.031293966725895003 -0.08518965294817829 0 0.050629459546369923 -0.074776417317023003 0 0.035073137211611732 -0.060365082031122411 0 0.050629459546369923 -0.074776417317023003 0 0.058531717279758283 -0.049660356561749108 0 0.072219385832792832 -0.066659644627356851 0 0.050629459546369923 -0.074776417317023003 0 0.042727201812981508 -0.099892478072297022 0 0.069701838591585213 -0.089386546866783212 0 0.059655618646742382 -0.10475769562984739 0 0.052448498866582129 -0.1166826243517366 0 0.042727201812981508 -0.099892478072297022 0 0.059655618646742382 -0.10475769562984739 0 0.042727201812981508 -0.099892478072297022 0 0.069701838591585213 -0.089386546866783212 0 0.054296968429680029 -0.13171371816535249 0 0.052448498866582129 -0.1166826243517366 0 0.073744935315820714 -0.1130691332285727 0 0.059655618646742382 -0.10475769562984739 0 0.052448498866582129 -0.1166826243517366 0 0.073744935315820714 -0.1130691332285727 0 0.034824944079593127 -0.12500853882757099 0 0.045553716665441668 -0.12681104972785159 0 0.052448498866582129 -0.1166826243517366 0 0.034824944079593127 -0.12500853882757099 0 0.052448498866582129 -0.1166826243517366 0 0.042727201812981508 -0.099892478072297022 0 0.034824944079593127 -0.12500853882757099 0 0.024129304522527751 -0.1089818526354679 0 0.042727201812981508 -0.099892478072297022 0 0.034824944079593127 -0.12500853882757099 0 0.042727201812981508 -0.099892478072297022 0 0.024129304522527751 -0.1089818526354679 0 0.031293966725895003 -0.08518965294817829 0 0.042727201812981508 -0.099892478072297022 0 0.034885408484197772 0.0062912350017927032 0 0.01265631079038235 -0.01012693536007268 0 0.042517259973231587 -0.011683923625132649 0 -0.00118246574067416 -0.01324232368796026 0 0.0012074066645448821 -0.00065723147797176382 0 0.01265631079038235 -0.01012693536007268 0 0.01265631079038235 -0.01012693536007268 0 0.02406773205363014 -0.026959444655171291 0 0.0015263381015913891 -0.033415212413580753 0 0.01265631079038235 -0.01012693536007268 0 0.0015263381015913891 -0.033415212413580753 0 -0.00118246574067416 -0.01324232368796026 0 0.01265631079038235 -0.01012693536007268 0 0.0015263381015913891 -0.033415212413580753 0 0.01265631079038235 -0.01012693536007268 0 0.02406773205363014 -0.026959444655171291 0 0.042517259973231587 -0.011683923625132649 0 0.02406773205363014 -0.026959444655171291 0 0.021771409900077709 -0.044354063799483319 0 0.04186734150286768 -0.035217088077587062 0 0.02406773205363014 -0.026959444655171291 0 0.021771409900077709 -0.044354063799483319 0 0.0015263381015913891 -0.033415212413580753 0 0.021771409900077709 -0.044354063799483319 0 0.0015263381015913891 -0.033415212413580753 0 0.007298405735321048 -0.051477207310420908 0 -0.0096036345872028556 -0.056703489467087059 0 0.0052181775422467033 -0.064346337314722044 0 0.007298405735321048 -0.051477207310420908 0 0.0052181775422467033 -0.064346337314722044 0 0.007298405735321048 -0.051477207310420908 0 0.017880224012190679 -0.058506375123621113 0 0.021771409900077709 -0.044354063799483319 0 0.017880224012190679 -0.058506375123621113 0 0.035073137211611732 -0.060365082031122411 0 0.021771409900077709 -0.044354063799483319 0 0.007298405735321048 -0.051477207310420908 0 0.017880224012190679 -0.058506375123621113 0 0.035073137211611732 -0.060365082031122411 0 0.058531717279758283 -0.049660356561749108 0 0.04186734150286768 -0.035217088077587062 0 0.050629459546369923 -0.074776417317023003 0 0.058531717279758283 -0.049660356561749108 0 0.050629459546369923 -0.074776417317023003 0 0.035073137211611732 -0.060365082031122411 0 0.058531717279758283 -0.049660356561749108 0 0.058531717279758283 -0.049660356561749108 0 0.066433975013146629 -0.02454429580647528 0 0.058531717279758283 -0.049660356561749108 0 0.04186734150286768 -0.035217088077587062 0 0.066433975013146629 -0.02454429580647528 0 0.021771409900077709 -0.044354063799483319 0 0.035073137211611732 -0.060365082031122411 0 0.04186734150286768 -0.035217088077587062 0 0.02406773205363014 -0.026959444655171291 0 0.04186734150286768 -0.035217088077587062 0 0.042517259973231587 -0.011683923625132649 0 0.04186734150286768 -0.035217088077587062 0 0.042517259973231587 -0.011683923625132649 0 0.066433975013146629 -0.02454429580647528 0 0.052968053050369737 0.0090809173488315582 0 0.042517259973231587 -0.011683923625132649 0 0.067492943165135169 -0.0019794682467893379 0 0.042517259973231587 -0.011683923625132649 0 0.067492943165135169 -0.0019794682467893379 0 0.066433975013146629 -0.02454429580647528 0 0.087040675587819916 -0.0096101539263870796 0 0.066433975013146629 -0.02454429580647528 0 0.098032226742104309 -0.02831505409649597 0 0.083930998993742512 0.0059737405228527038 0 0.087040675587819916 -0.0096101539263870796 0 0.067492943165135169 -0.0019794682467893379 0 0.083930998993742512 0.0059737405228527038 0 0.098495163759696414 0.0029673617968291321 0 0.087040675587819916 -0.0096101539263870796 0 0.087040675587819916 -0.0096101539263870796 0 0.067492943165135169 -0.0019794682467893379 0 0.066433975013146629 -0.02454429580647528 0 0.066433975013146629 -0.02454429580647528 0 0.080663194565618018 -0.042742664855397232 0 0.098032226742104309 -0.02831505409649597 0 0.080663194565618018 -0.042742664855397232 0 0.099119978598511321 -0.045144617550746849 0 0.098032226742104309 -0.02831505409649597 0 0.058531717279758283 -0.049660356561749108 0 0.066433975013146629 -0.02454429580647528 0 0.080663194565618018 -0.042742664855397232 0 0.058531717279758283 -0.049660356561749108 0 0.080663194565618018 -0.042742664855397232 0 0.072219385832792832 -0.066659644627356851 0 0.080663194565618018 -0.042742664855397232 0 0.091985945990252393 -0.059557823171565508 0 0.072219385832792832 -0.066659644627356851 0 0.080663194565618018 -0.042742664855397232 0 0.091985945990252393 -0.059557823171565508 0 0.099119978598511321 -0.045144617550746849 0 0.091985945990252393 -0.059557823171565508 0 0.109385226414503 -0.056941989317685793 0 0.099119978598511321 -0.045144617550746849 0 0.109385226414503 -0.056941989317685793 0 0.1174221699598199 -0.069046986946925279 0 0.12664898879935529 -0.055605769639440771 0 0.109385226414503 -0.056941989317685793 0 0.1155332992800789 -0.038165556312589707 0 0.12664898879935529 -0.055605769639440771 0 0.1155332992800789 -0.038165556312589707 0 0.12954193793015309 -0.041748568408345607 0 0.12664898879935529 -0.055605769639440771 0 0.1155332992800789 -0.038165556312589707 0 0.1294320674019063 -0.023146095115484211 0 0.12954193793015309 -0.041748568408345607 0 0.109385226414503 -0.056941989317685793 0 0.1155332992800789 -0.038165556312589707 0 0.099119978598511321 -0.045144617550746849 0 0.1155332992800789 -0.038165556312589707 0 0.099119978598511321 -0.045144617550746849 0 0.098032226742104309 -0.02831505409649597 0 0.1155332992800789 -0.038165556312589707 0 0.098032226742104309 -0.02831505409649597 0 0.1112777463759113 -0.012222875866518469 0 0.087040675587819916 -0.0096101539263870796 0 0.098032226742104309 -0.02831505409649597 0 0.1112777463759113 -0.012222875866518469 0 0.1155332992800789 -0.038165556312589707 0 0.1112777463759113 -0.012222875866518469 0 0.1294320674019063 -0.023146095115484211 0 0.1158546052028349 0.0064685721448778594 0 0.13464870039648349 0.00080453217212592717 0 0.1112777463759113 -0.012222875866518469 0 0.098495163759696414 0.0029673617968291321 0 0.087040675587819916 -0.0096101539263870796 0 0.1112777463759113 -0.012222875866518469 0 0.1158546052028349 0.0064685721448778594 0 0.098495163759696414 0.0029673617968291321 0 0.1112777463759113 -0.012222875866518469 0 0.093192902201961414 -0.094424548291792879 0 0.088899626305776192 -0.1113374325741409 0 0.073744935315820714 -0.1130691332285727 0 0.093192902201961414 -0.094424548291792879 0 0.073744935315820714 -0.1130691332285727 0 0.069701838591585213 -0.089386546866783212 0 0.093192902201961414 -0.094424548291792879 0 0.073744935315820714 -0.1130691332285727 0 0.081894058627025895 -0.12584863130967919 0 0.088899626305776192 -0.1113374325741409 0 0.09397493983509804 -0.11322330148444169 0 0.081894058627025895 -0.12584863130967919 0 0.079920122843727764 -0.11786127252462281 0 0.075141871126288284 -0.1211898929860986 0 0.081894058627025895 -0.12584863130967919 0 0.088899626305776192 -0.1113374325741409 0 0.079920122843727764 -0.11786127252462281 0 0.088899626305776192 -0.1113374325741409 0 0.079920122843727764 -0.11786127252462281 0 0.073744935315820714 -0.1130691332285727 0 0.068207364780656948 -0.12563827965844471 0 0.054296968429680029 -0.13171371816535249 0 0.073744935315820714 -0.1130691332285727 0 0.054296968429680029 -0.13171371816535249 0 0.073744935315820714 -0.1130691332285727 0 0.068207364780656948 -0.12563827965844471 0 0.073744935315820714 -0.1130691332285727 0 0.075141871126288284 -0.1211898929860986 0 0.079920122843727764 -0.11786127252462281 0 0.073744935315820714 -0.1130691332285727 0 0.075141871126288284 -0.1211898929860986 0 0.081894058627025895 -0.12584863130967919 0 0.068207364780656948 -0.12563827965844471 0 0.075141871126288284 -0.1211898929860986 0 0.059655618646742382 -0.10475769562984739 0 0.073744935315820714 -0.1130691332285727 0 0.069701838591585213 -0.089386546866783212 0 0.050629459546369923 -0.074776417317023003 0 0.069701838591585213 -0.089386546866783212 0 0.072219385832792832 -0.066659644627356851 0 0.069701838591585213 -0.089386546866783212 0 0.072219385832792832 -0.066659644627356851 0 0.089711563165187497 -0.078251462936863553 0 0.091985945990252393 -0.059557823171565508 0 0.072219385832792832 -0.066659644627356851 0 0.089711563165187497 -0.078251462936863553 0 0.093192902201961414 -0.094424548291792879 0 0.069701838591585213 -0.089386546866783212 0 0.089711563165187497 -0.078251462936863553 0 0.093192902201961414 -0.094424548291792879 0 0.089711563165187497 -0.078251462936863553 0 0.1048667032735431 -0.089595599910983495 0 0.089711563165187497 -0.078251462936863553 0 0.1048667032735431 -0.089595599910983495 0 0.1056935618466131 -0.072691272791708894 0 0.1048667032735431 -0.089595599910983495 0 0.1056935618466131 -0.072691272791708894 0 0.11564058922802831 -0.08068930143821873 0 0.091985945990252393 -0.059557823171565508 0 0.089711563165187497 -0.078251462936863553 0 0.1056935618466131 -0.072691272791708894 0 0.091985945990252393 -0.059557823171565508 0 0.109385226414503 -0.056941989317685793 0 0.1056935618466131 -0.072691272791708894 0 0.1174221699598199 -0.069046986946925279 0 0.12840026197867099 -0.078951386265116219 0 0.12664898879935529 -0.055605769639440771 0 0.109385226414503 -0.056941989317685793 0 0.1056935618466131 -0.072691272791708894 0 0.1174221699598199 -0.069046986946925279 0 0.1056935618466131 -0.072691272791708894 0 0.1174221699598199 -0.069046986946925279 0 0.11564058922802831 -0.08068930143821873 0 0.1174221699598199 -0.069046986946925279 0 0.11564058922802831 -0.08068930143821873 0 0.12840026197867099 -0.078951386265116219 0 0.1048667032735431 -0.089595599910983495 0 0.11564058922802831 -0.08068930143821873 0 0.1191358060176364 -0.092450830711447801 0 0.1191358060176364 -0.092450830711447801 0 0.12840026197867099 -0.078951386265116219 0 0.11564058922802831 -0.08068930143821873 0 0.1191358060176364 -0.092450830711447801 0 0.12840026197867099 -0.078951386265116219 0 0.1058809127300703 -0.11218140843774239 0 0.12023297736745781 -0.1110263554770618 0 0.12986776683311119 -0.098514185565799078 0 0.1058809127300703 -0.11218140843774239 0 0.12986776683311119 -0.098514185565799078 0 0.1048667032735431 -0.089595599910983495 0 0.1191358060176364 -0.092450830711447801 0 0.10987135005660249 -0.1059502751577799 0 0.10987135005660249 -0.1059502751577799 0 0.1058809127300703 -0.11218140843774239 0 0.12986776683311119 -0.098514185565799078 0 0.1191358060176364 -0.092450830711447801 0 0.10987135005660249 -0.1059502751577799 0 0.12986776683311119 -0.098514185565799078 0 0.1191358060176364 -0.092450830711447801 0 0.10987135005660249 -0.1059502751577799 0 0.093192902201961414 -0.094424548291792879 0 0.088899626305776192 -0.1113374325741409 0 0.099225161677519755 -0.1035257336162041 0 0.1048667032735431 -0.089595599910983495 0 0.10987135005660249 -0.1059502751577799 0 0.099225161677519755 -0.1035257336162041 0 0.10987135005660249 -0.1059502751577799 0 0.099225161677519755 -0.1035257336162041 0 0.1058809127300703 -0.11218140843774239 0 0.088899626305776192 -0.1113374325741409 0 0.099225161677519755 -0.1035257336162041 0 0.09397493983509804 -0.11322330148444169 0 0.093192902201961414 -0.094424548291792879 0 0.1048667032735431 -0.089595599910983495 0 0.099225161677519755 -0.1035257336162041 0 0.081894058627025895 -0.12584863130967919 0 0.1058809127300703 -0.11218140843774239 0 0.099525338641528904 -0.12611341339503321 0 0.081894058627025895 -0.12584863130967919 0 0.1058809127300703 -0.11218140843774239 0 0.081894058627025895 -0.12584863130967919 0 0.09397493983509804 -0.11322330148444169 0 0.1058809127300703 -0.11218140843774239 0 0.099225161677519755 -0.1035257336162041 0 0.09397493983509804 -0.11322330148444169 0 0.1058809127300703 -0.11218140843774239 0 0.099525338641528904 -0.12611341339503321 0 0.1058809127300703 -0.11218140843774239 0 0.1121708616464093 -0.1216807098986791 0 0.1058809127300703 -0.11218140843774239 0 0.1121708616464093 -0.1216807098986791 0 0.12023297736745781 -0.1110263554770618 0 0.11997683785091839 -0.1276371159963853 0 0.121067612134044 -0.1214532534018402 0 0.13188977167139071 -0.12546883223523481 0 0.12023297736745781 -0.1110263554770618 0 0.121067612134044 -0.1214532534018402 0 0.13188977167139071 -0.12546883223523481 0 0.11997683785091839 -0.1276371159963853 0 0.1121708616464093 -0.1216807098986791 0 0.121067612134044 -0.1214532534018402 0 0.1121708616464093 -0.1216807098986791 0 0.12023297736745781 -0.1110263554770618 0 0.121067612134044 -0.1214532534018402 0 0.12023297736745781 -0.1110263554770618 0 0.12986776683311119 -0.098514185565799078 0 0.13188977167139071 -0.12546883223523481 0 0.12986776683311119 -0.098514185565799078 0 0.13188977167139071 -0.12546883223523481 0 0.14925441928633251 -0.10969288085116551 0 0.13995942417209239 -0.1034127274713456 0 0.13188977167139071 -0.12546883223523481 0 0.14724036225017881 -0.1245170930860646 0 0.14925441928633251 -0.10969288085116551 0 0.13188977167139071 -0.12546883223523481 0 0.14925441928633251 -0.10969288085116551 0 0.15485465026004211 -0.11932571079310079 0 0.15999890680388329 -0.1096406796162286 0 0.14724036225017881 -0.1245170930860646 0 0.15485465026004211 -0.11932571079310079 0 0.15557261582888751 -0.13003178131142151 0 0.14724036225017881 -0.1245170930860646 0 0.14925441928633251 -0.10969288085116551 0 0.15485465026004211 -0.11932571079310079 0 0.14925441928633251 -0.10969288085116551 0 0.14348993397904131 -0.092765062884646393 0 0.1620153957752187 -0.097165399419701551 0 0.14348993397904131 -0.092765062884646393 0 0.1620153957752187 -0.097165399419701551 0 0.14925441928633251 -0.10969288085116551 0 0.13995942417209239 -0.1034127274713456 0 0.14348993397904131 -0.092765062884646393 0 0.13995942417209239 -0.1034127274713456 0 0.12986776683311119 -0.098514185565799078 0 0.13188977167139071 -0.12546883223523481 0 0.13995942417209239 -0.1034127274713456 0 0.12986776683311119 -0.098514185565799078 0 0.14348993397904131 -0.092765062884646393 0 0.12986776683311119 -0.098514185565799078 0 0.12840026197867099 -0.078951386265116219 0 0.1428482005174804 -0.076716741777837147 0 0.1191358060176364 -0.092450830711447801 0 0.12986776683311119 -0.098514185565799078 0 0.12840026197867099 -0.078951386265116219 0 0.12986776683311119 -0.098514185565799078 0 0.12840026197867099 -0.078951386265116219 0 0.12840026197867099 -0.078951386265116219 0 0.12664898879935529 -0.055605769639440771 0 0.12840026197867099 -0.078951386265116219 0 0.12664898879935529 -0.055605769639440771 0 0.14464694777039611 -0.055277979731059648 0 0.12840026197867099 -0.078951386265116219 0 0.1428482005174804 -0.076716741777837147 0 0.14464694777039611 -0.055277979731059648 0 0.12840026197867099 -0.078951386265116219 0 0.14464694777039611 -0.055277979731059648 0 0.1428482005174804 -0.076716741777837147 0 0.15680899227989839 -0.06637062400294011 0 0.14464694777039611 -0.055277979731059648 0 0.1428482005174804 -0.076716741777837147 0 0.15451703372532541 -0.084469533324270707 0 0.15680899227989839 -0.06637062400294011 0 0.12986776683311119 -0.098514185565799078 0 0.15451703372532541 -0.084469533324270707 0 0.12986776683311119 -0.098514185565799078 0 0.14348993397904131 -0.092765062884646393 0 0.15451703372532541 -0.084469533324270707 0 0.14348993397904131 -0.092765062884646393 0 0.15451703372532541 -0.084469533324270707 0 0.1620153957752187 -0.097165399419701551 0 0.12986776683311119 -0.098514185565799078 0 0.1428482005174804 -0.076716741777837147 0 0.15451703372532541 -0.084469533324270707 0 0.15451703372532541 -0.084469533324270707 0 0.1674193516126988 -0.088794767656503876 0 0.1620153957752187 -0.097165399419701551 0 0.15451703372532541 -0.084469533324270707 0 0.1674193516126988 -0.088794767656503876 0 0.16389165652408541 -0.076485311925560115 0 0.1674193516126988 -0.088794767656503876 0 0.16389165652408541 -0.076485311925560115 0 0.17613181446746839 -0.084287857658230353 0 0.15451703372532541 -0.084469533324270707 0 0.15680899227989839 -0.06637062400294011 0 0.16389165652408541 -0.076485311925560115 0 0.16389165652408541 -0.076485311925560115 0 0.1717227713635387 -0.067009979361705274 0 0.17613181446746839 -0.084287857658230353 0 0.15680899227989839 -0.06637062400294011 0 0.16389165652408541 -0.076485311925560115 0 0.1717227713635387 -0.067009979361705274 0 0.15680899227989839 -0.06637062400294011 0 0.1717227713635387 -0.067009979361705274 0 0.1652446184022294 -0.054500080927008407 0 0.1717227713635387 -0.067009979361705274 0 0.17613181446746839 -0.084287857658230353 0 0.1717227713635387 -0.067009979361705274 0 0.18346211879182289 -0.064955309332027283 0 0.18137547142311691 -0.085525622921553163 0 0.18346211879182289 -0.064955309332027283 0 0.18137547142311691 -0.085525622921553163 0 0.1952329782378138 -0.068464889048657496 0 0.1717227713635387 -0.067009979361705274 0 0.18137547142311691 -0.085525622921553163 0 0.1717227713635387 -0.067009979361705274 0 0.18346211879182289 -0.064955309332027283 0 0.1746283364613696 -0.057560297553190053 0 0.18137547142311691 -0.085525622921553163 0 0.17613181446746839 -0.084287857658230353 0 0.18054085757139629 -0.1015657359547559 0 0.17613181446746839 -0.084287857658230353 0 0.18054085757139629 -0.1015657359547559 0 0.1674193516126988 -0.088794767656503876 0 0.17613181446746839 -0.084287857658230353 0 0.18054085757139629 -0.1015657359547559 0 0.1717227713635387 -0.067009979361705274 0 0.18137547142311691 -0.085525622921553163 0 0.17613181446746839 -0.084287857658230353 0 0.18137547142311691 -0.085525622921553163 0 0.19100769245097829 -0.1040519139747048 0 0.18137547142311691 -0.085525622921553163 0 0.18054085757139629 -0.1015657359547559 0 0.19100769245097829 -0.1040519139747048 0 0.18054085757139629 -0.1015657359547559 0 0.1749190978293893 -0.1165979942053425 0 0.16884250162088479 -0.1080310140379921 0 0.18054085757139629 -0.1015657359547559 0 0.19100769245097829 -0.1040519139747048 0 0.18054085757139629 -0.1015657359547559 0 0.1862357176231304 -0.1238823921021804 0 0.1749190978293893 -0.1165979942053425 0 0.18054085757139629 -0.1015657359547559 0 0.1862357176231304 -0.1238823921021804 0 0.19100769245097829 -0.1040519139747048 0 0.18054085757139629 -0.1015657359547559 0 0.1862357176231304 -0.1238823921021804 0 0.1862357176231304 -0.1238823921021804 0 0.1749190978293893 -0.1165979942053425 0 0.17324983187337631 -0.13165498831909611 0 0.1749190978293893 -0.1165979942053425 0 0.16471491079178111 -0.1205264202314431 0 0.16884250162088479 -0.1080310140379921 0 0.16471491079178111 -0.1205264202314431 0 0.15999890680388329 -0.1096406796162286 0 0.16884250162088479 -0.1080310140379921 0 0.1749190978293893 -0.1165979942053425 0 0.16471491079178111 -0.1205264202314431 0 0.17324983187337631 -0.13165498831909611 0 0.15485465026004211 -0.11932571079310079 0 0.16471491079178111 -0.1205264202314431 0 0.15557261582888751 -0.13003178131142151 0 0.15485465026004211 -0.11932571079310079 0 0.16471491079178111 -0.1205264202314431 0 0.15999890680388329 -0.1096406796162286 0 0.18054085757139629 -0.1015657359547559 0 0.1620153957752187 -0.097165399419701551 0 0.1674193516126988 -0.088794767656503876 0 0.18054085757139629 -0.1015657359547559 0 0.1620153957752187 -0.097165399419701551 0 0.14925441928633251 -0.10969288085116551 0 0.15999890680388329 -0.1096406796162286 0 0.1620153957752187 -0.097165399419701551 0 0.15999890680388329 -0.1096406796162286 0 0.1620153957752187 -0.097165399419701551 0 0.16884250162088479 -0.1080310140379921 0 0.18054085757139629 -0.1015657359547559 0 0.1620153957752187 -0.097165399419701551 0 0.16884250162088479 -0.1080310140379921 0 0.13464870039648349 0.00080453217212592717 0 0.15480995508657039 -0.001084596553268768 0 0.14892696920713289 -0.018041582065753459 0 0.13464870039648349 0.00080453217212592717 0 0.1294320674019063 -0.023146095115484211 0 0.14892696920713289 -0.018041582065753459 0 0.13464870039648349 0.00080453217212592717 0 0.1112777463759113 -0.012222875866518469 0 0.1294320674019063 -0.023146095115484211 0 0.1294320674019063 -0.023146095115484211 0 0.14892696920713289 -0.018041582065753459 0 0.14270131340979469 -0.036531096068384838 0 0.14892696920713289 -0.018041582065753459 0 0.14270131340979469 -0.036531096068384838 0 0.16089363356212191 -0.031604573197003549 0 0.14270131340979469 -0.036531096068384838 0 0.14464694777039611 -0.055277979731059648 0 0.16089363356212191 -0.031604573197003549 0 0.14464694777039611 -0.055277979731059648 0 0.15561449558007559 -0.051164132387281437 0 0.16089363356212191 -0.031604573197003549 0 0.14464694777039611 -0.055277979731059648 0 0.16089363356212191 -0.031604573197003549 0 0.14270131340979469 -0.036531096068384838 0 0.12954193793015309 -0.041748568408345607 0 0.14464694777039611 -0.055277979731059648 0 0.1294320674019063 -0.023146095115484211 0 0.14270131340979469 -0.036531096068384838 0 0.12954193793015309 -0.041748568408345607 0 0.12954193793015309 -0.041748568408345607 0 0.12664898879935529 -0.055605769639440771 0 0.14464694777039611 -0.055277979731059648 0 0.15680899227989839 -0.06637062400294011 0 0.14464694777039611 -0.055277979731059648 0 0.15561449558007559 -0.051164132387281437 0 0.15680899227989839 -0.06637062400294011 0 0.15561449558007559 -0.051164132387281437 0 0.1652446184022294 -0.054500080927008407 0 0.15561449558007559 -0.051164132387281437 0 0.1652446184022294 -0.054500080927008407 0 0.1617942405007988 -0.043199732881276223 0 0.1652446184022294 -0.054500080927008407 0 0.1746283364613696 -0.057560297553190053 0 0.1617942405007988 -0.043199732881276223 0 0.1717227713635387 -0.067009979361705274 0 0.1652446184022294 -0.054500080927008407 0 0.1717227713635387 -0.067009979361705274 0 0.1652446184022294 -0.054500080927008407 0 0.1746283364613696 -0.057560297553190053 0 0.1746283364613696 -0.057560297553190053 0 0.1828119860636557 -0.050363577362968731 0 0.1617942405007988 -0.043199732881276223 0 0.18346211879182289 -0.064955309332027283 0 0.1746283364613696 -0.057560297553190053 0 0.1828119860636557 -0.050363577362968731 0 0.18346211879182289 -0.064955309332027283 0 0.1828119860636557 -0.050363577362968731 0 0.19188844298534441 -0.056659859735039647 0 0.1617942405007988 -0.043199732881276223 0 0.18853740735089011 -0.033706188378118708 0 0.1828119860636557 -0.050363577362968731 0 0.1617942405007988 -0.043199732881276223 0 0.18853740735089011 -0.033706188378118708 0 0.15561449558007559 -0.051164132387281437 0 0.16089363356212191 -0.031604573197003549 0 0.1617942405007988 -0.043199732881276223 0 0.16089363356212191 -0.031604573197003549 0 0.1617942405007988 -0.043199732881276223 0 0.18853740735089011 -0.033706188378118708 0 0.16089363356212191 -0.031604573197003549 0 0.17714031935384769 -0.0079311666629475405 0 0.14892696920713289 -0.018041582065753459 0 0.16089363356212191 -0.031604573197003549 0 0.17714031935384769 -0.0079311666629475405 0 0.16089363356212191 -0.031604573197003549 0 0.17714031935384769 -0.0079311666629475405 0 0.18853740735089011 -0.033706188378118708 0 0.1657030786406338 0.0084270166623369204 0 0.15480995508657039 -0.001084596553268768 0 0.17714031935384769 -0.0079311666629475405 0 0.15480995508657039 -0.001084596553268768 0 0.14892696920713289 -0.018041582065753459 0 0.17714031935384769 -0.0079311666629475405 0 0.21351355446813719 -0.0021103410187178909 0 0.2110126965438916 -0.012672932103663791 0 0.2228246624943325 -0.0092295053444410857 0 0.2110126965438916 -0.012672932103663791 0 0.21911622703360889 -0.015650702578479541 0 0.2228246624943325 -0.0092295053444410857 0 0.21351355446813719 -0.0021103410187178909 0 0.2110126965438916 -0.012672932103663791 0 0.19836939172364151 -0.01016904411482358 0 0.1998105265397013 0.00335350757378736 0 0.21351355446813719 -0.0021103410187178909 0 0.19836939172364151 -0.01016904411482358 0 0.1998105265397013 0.00335350757378736 0 0.17714031935384769 -0.0079311666629475405 0 0.19836939172364151 -0.01016904411482358 0 0.17714031935384769 -0.0079311666629475405 0 0.19836939172364151 -0.01016904411482358 0 0.18853740735089011 -0.033706188378118708 0 0.2110126965438916 -0.012672932103663791 0 0.19836939172364151 -0.01016904411482358 0 0.18853740735089011 -0.033706188378118708 0 0.21528057420098159 -0.024212643874961401 0 0.18853740735089011 -0.033706188378118708 0 0.2110126965438916 -0.012672932103663791 0 0.21528057420098159 -0.024212643874961401 0 0.18853740735089011 -0.033706188378118708 0 0.21528057420098159 -0.024212643874961401 0 0.20886364623554921 -0.031523512657201581 0 0.18853740735089011 -0.033706188378118708 0 0.2110126965438916 -0.012672932103663791 0 0.21528057420098159 -0.024212643874961401 0 0.21911622703360889 -0.015650702578479541 0 0.21528057420098159 -0.024212643874961401 0 0.2158000993154765 -0.027276596113623111 0 0.21360323626451261 -0.02858374534336202 0 0.21528057420098159 -0.024212643874961401 0 0.2158000993154765 -0.027276596113623111 0 0.21995729679401421 -0.029331280632926501 0 0.2158000993154765 -0.027276596113623111 0 0.21503400689837671 -0.030930810510401429 0 0.21995729679401421 -0.029331280632926501 0 0.2158000993154765 -0.027276596113623111 0 0.21503400689837671 -0.030930810510401429 0 0.21360323626451261 -0.02858374534336202 0 0.21528057420098159 -0.024212643874961401 0 0.21360323626451261 -0.02858374534336202 0 0.20886364623554921 -0.031523512657201581 0 0.21503400689837671 -0.030930810510401429 0 0.21360323626451261 -0.02858374534336202 0 0.20886364623554921 -0.031523512657201581 0 0.2128060919330283 -0.035124071741943173 0 0.2180191377477218 -0.035203133534298187 0 0.2167024847658664 -0.043974661413588162 0 0.21503400689837671 -0.030930810510401429 0 0.2128060919330283 -0.035124071741943173 0 0.20886364623554921 -0.031523512657201581 0 0.21503400689837671 -0.030930810510401429 0 0.2128060919330283 -0.035124071741943173 0 0.2180191377477218 -0.035203133534298187 0 0.21503400689837671 -0.030930810510401429 0 0.2180191377477218 -0.035203133534298187 0 0.21995729679401421 -0.029331280632926501 0 0.2167024847658664 -0.043974661413588162 0 0.20890374551960481 -0.040729144831228678 0 0.20897987019450001 -0.050060865146210963 0 0.2128060919330283 -0.035124071741943173 0 0.2167024847658664 -0.043974661413588162 0 0.20890374551960481 -0.040729144831228678 0 0.20890374551960481 -0.040729144831228678 0 0.19655169947710091 -0.043788383486002072 0 0.20897987019450001 -0.050060865146210963 0 0.2128060919330283 -0.035124071741943173 0 0.20890374551960481 -0.040729144831228678 0 0.20886364623554921 -0.031523512657201581 0 0.20890374551960481 -0.040729144831228678 0 0.20886364623554921 -0.031523512657201581 0 0.19655169947710091 -0.043788383486002072 0 0.1828119860636557 -0.050363577362968731 0 0.18853740735089011 -0.033706188378118708 0 0.19655169947710091 -0.043788383486002072 0 0.20886364623554921 -0.031523512657201581 0 0.18853740735089011 -0.033706188378118708 0 0.19655169947710091 -0.043788383486002072 0 0.19655169947710091 -0.043788383486002072 0 0.20138343235632811 -0.055727139445542639 0 0.20897987019450001 -0.050060865146210963 0 0.19655169947710091 -0.043788383486002072 0 0.19188844298534441 -0.056659859735039647 0 0.20138343235632811 -0.055727139445542639 0 0.1828119860636557 -0.050363577362968731 0 0.19655169947710091 -0.043788383486002072 0 0.19188844298534441 -0.056659859735039647 0 0.19188844298534441 -0.056659859735039647 0 0.20138343235632811 -0.055727139445542639 0 0.1952329782378138 -0.068464889048657496 0 0.20138343235632811 -0.055727139445542639 0 0.22670270369963491 -0.067064047377793826 0 0.20138343235632811 -0.055727139445542639 0 0.21577564808412511 -0.056666161138016313 0 0.22670270369963491 -0.067064047377793826 0 0.20138343235632811 -0.055727139445542639 0 0.20897987019450001 -0.050060865146210963 0 0.21577564808412511 -0.056666161138016313 0 0.2167024847658664 -0.043974661413588162 0 0.20897987019450001 -0.050060865146210963 0 0.21577564808412511 -0.056666161138016313 0 0.21577564808412511 -0.056666161138016313 0 0.23694359709532001 -0.061394592404840097 0 0.22670270369963491 -0.067064047377793826 0 0.21577564808412511 -0.056666161138016313 0 0.22648325856373289 -0.049317463857355977 0 0.23694359709532001 -0.061394592404840097 0 0.21577564808412511 -0.056666161138016313 0 0.23694359709532001 -0.061394592404840097 0 0.2167024847658664 -0.043974661413588162 0 0.21577564808412511 -0.056666161138016313 0 0.22648325856373289 -0.049317463857355977 0 0.22648325856373289 -0.049317463857355977 0 0.23694359709532001 -0.061394592404840097 0 0.23716366819637241 -0.046229271507985323 0 0.25811154610651499 -0.066123023671663908 0 0.23694359709532001 -0.061394592404840097 0 0.24870160087168189 -0.052882304334001928 0 0.23694359709532001 -0.061394592404840097 0 0.24870160087168189 -0.052882304334001928 0 0.23716366819637241 -0.046229271507985323 0 0.24870160087168189 -0.052882304334001928 0 0.23716366819637241 -0.046229271507985323 0 0.24731406762381819 -0.035960341631652723 0 0.23716366819637241 -0.046229271507985323 0 0.24731406762381819 -0.035960341631652723 0 0.23342582712955959 -0.033308149953783547 0 0.23342582712955959 -0.033308149953783547 0 0.2258308946769807 -0.038322632822349968 0 0.22548915127375299 -0.027513718828695861 0 0.22648325856373289 -0.049317463857355977 0 0.23716366819637241 -0.046229271507985323 0 0.2258308946769807 -0.038322632822349968 0 0.23716366819637241 -0.046229271507985323 0 0.23342582712955959 -0.033308149953783547 0 0.2258308946769807 -0.038322632822349968 0 0.2180191377477218 -0.035203133534298187 0 0.2167024847658664 -0.043974661413588162 0 0.2258308946769807 -0.038322632822349968 0 0.2167024847658664 -0.043974661413588162 0 0.22648325856373289 -0.049317463857355977 0 0.2258308946769807 -0.038322632822349968 0 0.2180191377477218 -0.035203133534298187 0 0.2258308946769807 -0.038322632822349968 0 0.21995729679401421 -0.029331280632926501 0 0.2258308946769807 -0.038322632822349968 0 0.22548915127375299 -0.027513718828695861 0 0.21995729679401421 -0.029331280632926501 0 0.21528057420098159 -0.024212643874961401 0 0.2313313538768734 -0.018514784978234038 0 0.22829619310998309 -0.01520182636873813 0 0.21528057420098159 -0.024212643874961401 0 0.2313313538768734 -0.018514784978234038 0 0.21528057420098159 -0.024212643874961401 0 0.22548915127375299 -0.027513718828695861 0 0.2313313538768734 -0.018514784978234038 0 0.21528057420098159 -0.024212643874961401 0 0.22548915127375299 -0.027513718828695861 0 0.21995729679401421 -0.029331280632926501 0 0.21528057420098159 -0.024212643874961401 0 0.22829619310998309 -0.01520182636873813 0 0.21528057420098159 -0.024212643874961401 0 0.21911622703360889 -0.015650702578479541 0 0.22829619310998309 -0.01520182636873813 0 0.2313313538768734 -0.018514784978234038 0 0.22829619310998309 -0.01520182636873813 0 0.23342582712955959 -0.033308149953783547 0 0.22548915127375299 -0.027513718828695861 0 0.2313313538768734 -0.018514784978234038 0 0.25508119948702751 -0.010083838205662381 0 0.2313313538768734 -0.018514784978234038 0 0.2482857443068576 -0.021714794414400052 0 0.24731406762381819 -0.035960341631652723 0 0.2313313538768734 -0.018514784978234038 0 0.2482857443068576 -0.021714794414400052 0 0.24731406762381819 -0.035960341631652723 0 0.23342582712955959 -0.033308149953783547 0 0.2313313538768734 -0.018514784978234038 0 0.24731406762381819 -0.035960341631652723 0 0.2313313538768734 -0.018514784978234038 0 0.25508119948702751 -0.010083838205662381 0 0.2313313538768734 -0.018514784978234038 0 0.24138147174972829 -0.0061427828714447699 0 0.25508119948702751 -0.010083838205662381 0 0.2313313538768734 -0.018514784978234038 0 0.24138147174972829 -0.0061427828714447699 0 0.22829619310998309 -0.01520182636873813 0 0.25446675038947358 0.0029162606258486688 0 0.2541426920980116 -0.0036136263454906951 0 0.24138147174972829 -0.0061427828714447699 0 0.25446675038947358 0.0029162606258486688 0 0.24138147174972829 -0.0061427828714447699 0 0.22999165343287109 0.0038227322559807589 0 0.24138147174972829 -0.0061427828714447699 0 0.23189167676904729 -0.0064153040848911828 0 0.22999165343287109 0.0038227322559807589 0 0.23189167676904729 -0.0064153040848911828 0 0.2228246624943325 -0.0092295053444410857 0 0.22999165343287109 0.0038227322559807589 0 0.21351355446813719 -0.0021103410187178909 0 0.2228246624943325 -0.0092295053444410857 0 0.23189167676904729 -0.0064153040848911828 0 0.22829619310998309 -0.01520182636873813 0 0.2228246624943325 -0.0092295053444410857 0 0.2313313538768734 -0.018514784978234038 0 0.24138147174972829 -0.0061427828714447699 0 0.22829619310998309 -0.01520182636873813 0 0.24138147174972829 -0.0061427828714447699 0 0.23189167676904729 -0.0064153040848911828 0 0.22829619310998309 -0.01520182636873813 0 0.21911622703360889 -0.015650702578479541 0 0.22829619310998309 -0.01520182636873813 0 0.2228246624943325 -0.0092295053444410857 0 0.22829619310998309 -0.01520182636873813 0 0.2228246624943325 -0.0092295053444410857 0 0.2084634723971549 -0.097930235578601213 0 0.21737999015654699 -0.1103161024944793 0 0.2275791846540145 -0.10054182369239011 0 0.21737999015654699 -0.1103161024944793 0 0.19100769245097829 -0.1040519139747048 0 0.2084634723971549 -0.097930235578601213 0 0.21140608144591419 -0.084503356370523836 0 0.2275791846540145 -0.10054182369239011 0 0.2084634723971549 -0.097930235578601213 0 0.21737999015654699 -0.1103161024944793 0 0.19100769245097829 -0.1040519139747048 0 0.21737999015654699 -0.1103161024944793 0 0.21277072480774051 -0.1248863227998855 0 0.20025029595199689 -0.1218288277367077 0 0.21737999015654699 -0.1103161024944793 0 0.21277072480774051 -0.1248863227998855 0 0.2239597136694004 -0.1277946194696456 0 0.1862357176231304 -0.1238823921021804 0 0.20025029595199689 -0.1218288277367077 0 0.19100769245097829 -0.1040519139747048 0 0.21737999015654699 -0.1103161024944793 0 0.20025029595199689 -0.1218288277367077 0 0.19100769245097829 -0.1040519139747048 0 0.20025029595199689 -0.1218288277367077 0 0.19100769245097829 -0.1040519139747048 0 0.2084634723971549 -0.097930235578601213 0 0.19100769245097829 -0.1040519139747048 0 0.19624682445825681 -0.08914472739044943 0 0.18137547142311691 -0.085525622921553163 0 0.19100769245097829 -0.1040519139747048 0 0.19624682445825681 -0.08914472739044943 0 0.19624682445825681 -0.08914472739044943 0 0.1952329782378138 -0.068464889048657496 0 0.21140608144591419 -0.084503356370523836 0 0.18137547142311691 -0.085525622921553163 0 0.19624682445825681 -0.08914472739044943 0 0.1952329782378138 -0.068464889048657496 0 0.20138343235632811 -0.055727139445542639 0 0.1952329782378138 -0.068464889048657496 0 0.21149591893834541 -0.070957707586151192 0 0.18346211879182289 -0.064955309332027283 0 0.19188844298534441 -0.056659859735039647 0 0.1952329782378138 -0.068464889048657496 0 0.1952329782378138 -0.068464889048657496 0 0.21140608144591419 -0.084503356370523836 0 0.20138343235632811 -0.055727139445542639 0 0.21149591893834541 -0.070957707586151192 0 0.22670270369963491 -0.067064047377793826 0 0.1952329782378138 -0.068464889048657496 0 0.21149591893834541 -0.070957707586151192 0 0.21140608144591419 -0.084503356370523836 0 0.2084634723971549 -0.097930235578601213 0 0.19624682445825681 -0.08914472739044943 0 0.21140608144591419 -0.084503356370523836 0 0.21149591893834541 -0.070957707586151192 0 0.21140608144591419 -0.084503356370523836 0 0.2227543989520358 -0.079029105688238177 0 0.21140608144591419 -0.084503356370523836 0 0.2275791846540145 -0.10054182369239011 0 0.2227543989520358 -0.079029105688238177 0 0.23449163343577681 -0.083610487294907485 0 0.2275791846540145 -0.10054182369239011 0 0.21140608144591419 -0.084503356370523836 0 0.2227543989520358 -0.079029105688238177 0 0.2275791846540145 -0.10054182369239011 0 0.2227543989520358 -0.079029105688238177 0 0.22670270369963491 -0.067064047377793826 0 0.23449163343577681 -0.083610487294907485 0 0.21149591893834541 -0.070957707586151192 0 0.2227543989520358 -0.079029105688238177 0 0.22670270369963491 -0.067064047377793826 0 0.25202197504294188 -0.078400955310045109 0 0.25811154610651499 -0.066123023671663908 0 0.23694359709532001 -0.061394592404840097 0 0.25202197504294188 -0.078400955310045109 0 0.22670270369963491 -0.067064047377793826 0 0.25202197504294188 -0.078400955310045109 0 0.22670270369963491 -0.067064047377793826 0 0.23449163343577681 -0.083610487294907485 0 0.25202197504294188 -0.078400955310045109 0 0.23694359709532001 -0.061394592404840097 0 0.22670270369963491 -0.067064047377793826 0 0.25811154610651499 -0.066123023671663908 0 0.23694359709532001 -0.061394592404840097 0 0.25202197504294188 -0.078400955310045109 0 0.23449163343577681 -0.083610487294907485 0 0.24624903761231479 -0.086847438891893419 0 0.23449163343577681 -0.083610487294907485 0 0.24292322406264641 -0.096552741650977186 0 0.2275791846540145 -0.10054182369239011 0 0.23449163343577681 -0.083610487294907485 0 0.24624903761231479 -0.086847438891893419 0 0.24292322406264641 -0.096552741650977186 0 0.25304747237378489 -0.090741332181114118 0 0.24624903761231479 -0.086847438891893419 0 0.24292322406264641 -0.096552741650977186 0 0.2275791846540145 -0.10054182369239011 0 0.24375228786211539 -0.116580291014256 0 0.24292322406264641 -0.096552741650977186 0 0.2275791846540145 -0.10054182369239011 0 0.24375228786211539 -0.116580291014256 0 0.25771864553297669 -0.099620140202181948 0 0.24292322406264641 -0.096552741650977186 0 0.24375228786211539 -0.116580291014256 0 0.21737999015654699 -0.1103161024944793 0 0.2275791846540145 -0.10054182369239011 0 0.24375228786211539 -0.116580291014256 0 0.21737999015654699 -0.1103161024944793 0 0.24375228786211539 -0.116580291014256 0 0.2239597136694004 -0.1277946194696456 0 0.21737999015654699 -0.1103161024944793 0 0.24375228786211539 -0.116580291014256 0 0.24375228786211539 -0.116580291014256 0 0.235054631712311 -0.13955626642273861 0 0.24955680073527009 -0.143898101237383 0 0.235054631712311 -0.13955626642273861 0 0.24955680073527009 -0.143898101237383 0 0.23627457688356679 -0.15840319400941011 0 0.25449645062408999 -0.16331052089379791 0 0.24955680073527009 -0.143898101237383 0 0.23627457688356679 -0.15840319400941011 0 0.235054631712311 -0.13955626642273861 0 0.22199130801810529 -0.1478171468904442 0 0.23627457688356679 -0.15840319400941011 0 0.24375228786211539 -0.116580291014256 0 0.235054631712311 -0.13955626642273861 0 0.2239597136694004 -0.1277946194696456 0 0.235054631712311 -0.13955626642273861 0 0.22199130801810529 -0.1478171468904442 0 0.2239597136694004 -0.1277946194696456 0 0.20025029595199689 -0.1218288277367077 0 0.20949289945301761 -0.1396057414987095 0 0.22199130801810529 -0.1478171468904442 0 0.2239597136694004 -0.1277946194696456 0 0.20949289945301761 -0.1396057414987095 0 0.21277072480774051 -0.1248863227998855 0 0.20025029595199689 -0.1218288277367077 0 0.20949289945301761 -0.1396057414987095 0 0.21277072480774051 -0.1248863227998855 0 0.2239597136694004 -0.1277946194696456 0 0.20949289945301761 -0.1396057414987095 0 0.22199130801810529 -0.1478171468904442 0 0.20949289945301761 -0.1396057414987095 0 0.2069794531536403 -0.1537888919124783 0 0.20949289945301761 -0.1396057414987095 0 0.2069794531536403 -0.1537888919124783 0 0.1919305776748628 -0.1461990482496055 0 0.2069794531536403 -0.1537888919124783 0 0.1919305776748628 -0.1461990482496055 0 0.19225769977326759 -0.16432491474026781 0 0.1862357176231304 -0.1238823921021804 0 0.1919305776748628 -0.1461990482496055 0 0.19714487019074359 -0.1333469628700395 0 0.20025029595199689 -0.1218288277367077 0 0.20949289945301761 -0.1396057414987095 0 0.19714487019074359 -0.1333469628700395 0 0.20949289945301761 -0.1396057414987095 0 0.1919305776748628 -0.1461990482496055 0 0.19714487019074359 -0.1333469628700395 0 0.1862357176231304 -0.1238823921021804 0 0.1919305776748628 -0.1461990482496055 0 0.1862357176231304 -0.1238823921021804 0 0.20025029595199689 -0.1218288277367077 0 0.19714487019074359 -0.1333469628700395 0 0.19629081049063871 -0.1815365299480412 0 0.19225769977326759 -0.16432491474026781 0 0.17982600751226671 -0.1762593337595659 0 0.19629081049063871 -0.1815365299480412 0 0.19225769977326759 -0.16432491474026781 0 0.22018657323669569 -0.16775416802968299 0 0.2069794531536403 -0.1537888919124783 0 0.19225769977326759 -0.16432491474026781 0 0.22018657323669569 -0.16775416802968299 0 0.22199130801810529 -0.1478171468904442 0 0.2069794531536403 -0.1537888919124783 0 0.22018657323669569 -0.16775416802968299 0 0.19629081049063871 -0.1815365299480412 0 0.22018657323669569 -0.16775416802968299 0 0.21237941264848451 -0.18810475376770611 0 0.22018657323669569 -0.16775416802968299 0 0.23934418379307471 -0.18436482883247621 0 0.22018657323669569 -0.16775416802968299 0 0.23934418379307471 -0.18436482883247621 0 0.21237941264848451 -0.18810475376770611 0 0.22018657323669569 -0.16775416802968299 0 0.23627457688356679 -0.15840319400941011 0 0.23934418379307471 -0.18436482883247621 0 0.22199130801810529 -0.1478171468904442 0 0.22018657323669569 -0.16775416802968299 0 0.23627457688356679 -0.15840319400941011 0 0.25449645062408999 -0.16331052089379791 0 0.23627457688356679 -0.15840319400941011 0 0.23934418379307471 -0.18436482883247621 0 0.25850179434945381 -0.20097548963526929 0 0.23934418379307471 -0.18436482883247621 0 0.25850179434945381 -0.20097548963526929 0 0.23934418379307471 -0.18436482883247621 0 0.23907695871134879 -0.21289681242661959 0 0.23907695871134879 -0.21289681242661959 0 0.22308479462261119 -0.20217133576560289 0 0.21722062693650279 -0.2226466586169516 0 0.23934418379307471 -0.18436482883247621 0 0.22308479462261119 -0.20217133576560289 0 0.21237941264848451 -0.18810475376770611 0 0.23934418379307471 -0.18436482883247621 0 0.23907695871134879 -0.21289681242661959 0 0.22308479462261119 -0.20217133576560289 0 0.25037283077400019 -0.2416092145933311 0 0.23239962387573149 -0.2337287944253621 0 0.2339549802858914 -0.24933471903745599 0 0.25658827463044448 -0.2222138965281123 0 0.23907695871134879 -0.21289681242661959 0 0.2446094219978813 -0.2276121794933563 0 0.25037283077400019 -0.2416092145933311 0 0.2446094219978813 -0.2276121794933563 0 0.23239962387573149 -0.2337287944253621 0 0.23907695871134879 -0.21289681242661959 0 0.2446094219978813 -0.2276121794933563 0 0.23239962387573149 -0.2337287944253621 0 0.23907695871134879 -0.21289681242661959 0 0.23239962387573149 -0.2337287944253621 0 0.21722062693650279 -0.2226466586169516 0 0.23239962387573149 -0.2337287944253621 0 0.2194561222393229 -0.23682627783696539 0 0.21722062693650279 -0.2226466586169516 0 0.23239962387573149 -0.2337287944253621 0 0.22502312889380549 -0.2426362774769398 0 0.2339549802858914 -0.24933471903745599 0 0.2194561222393229 -0.23682627783696539 0 0.22502312889380549 -0.2426362774769398 0 0.21456577207223029 -0.24270171036535029 0 0.23239962387573149 -0.2337287944253621 0 0.2194561222393229 -0.23682627783696539 0 0.22502312889380549 -0.2426362774769398 0 0.22331750647786899 -0.25281133177650322 0 0.22502312889380549 -0.2426362774769398 0 0.21456577207223029 -0.24270171036535029 0 0.22331750647786899 -0.25281133177650322 0 0.22502312889380549 -0.2426362774769398 0 0.2339549802858914 -0.24933471903745599 0 0.2084475354763706 -0.25511513831035743 0 0.2080714594183444 -0.2424179483002232 0 0.21336353465090491 -0.24693864317134839 0 0.2080714594183444 -0.2424179483002232 0 0.21336353465090491 -0.24693864317134839 0 0.2080714594183444 -0.2424179483002232 0 0.21336353465090491 -0.24693864317134839 0 0.21456577207223029 -0.24270171036535029 0 0.2194561222393229 -0.23682627783696539 0 0.2080714594183444 -0.2424179483002232 0 0.21456577207223029 -0.24270171036535029 0 0.21722062693650279 -0.2226466586169516 0 0.20244123733496699 -0.2260211367091485 0 0.19848523837712481 -0.2136299623964425 0 0.2080714594183444 -0.2424179483002232 0 0.21722062693650279 -0.2226466586169516 0 0.2194561222393229 -0.23682627783696539 0 0.2080714594183444 -0.2424179483002232 0 0.21722062693650279 -0.2226466586169516 0 0.2080714594183444 -0.2424179483002232 0 0.21722062693650279 -0.2226466586169516 0 0.20244123733496699 -0.2260211367091485 0 0.2080714594183444 -0.2424179483002232 0 0.18716213711817259 -0.22455639835484539 0 0.2080714594183444 -0.2424179483002232 0 0.20244123733496699 -0.2260211367091485 0 0.18716213711817259 -0.22455639835484539 0 0.20244123733496699 -0.2260211367091485 0 0.19848523837712481 -0.2136299623964425 0 0.18716213711817259 -0.22455639835484539 0 0.2080714594183444 -0.2424179483002232 0 0.19254414318066221 -0.24961624770678509 0 0.1866817818972302 -0.23981118877977231 0 0.2080714594183444 -0.2424179483002232 0 0.1866817818972302 -0.23981118877977231 0 0.18716213711817259 -0.22455639835484539 0 0.19254414318066221 -0.24961624770678509 0 0.18399505531774341 -0.24981832115951039 0 0.1866817818972302 -0.23981118877977231 0 0.21237941264848451 -0.18810475376770611 0 0.20793523744788639 -0.20366419955677639 0 0.19447652973028121 -0.19759128756789451 0 0.22308479462261119 -0.20217133576560289 0 0.21237941264848451 -0.18810475376770611 0 0.20793523744788639 -0.20366419955677639 0 0.22308479462261119 -0.20217133576560289 0 0.21722062693650279 -0.2226466586169516 0 0.20793523744788639 -0.20366419955677639 0 0.21722062693650279 -0.2226466586169516 0 0.20793523744788639 -0.20366419955677639 0 0.19848523837712481 -0.2136299623964425 0 0.19848523837712481 -0.2136299623964425 0 0.19447652973028121 -0.19759128756789451 0 0.1831457957419608 -0.2071674304332729 0 0.20793523744788639 -0.20366419955677639 0 0.19848523837712481 -0.2136299623964425 0 0.19447652973028121 -0.19759128756789451 0 0.19848523837712481 -0.2136299623964425 0 0.1831457957419608 -0.2071674304332729 0 0.18716213711817259 -0.22455639835484539 0 0.19629081049063871 -0.1815365299480412 0 0.19447652973028121 -0.19759128756789451 0 0.1840061663436266 -0.1900566622106199 0 0.19629081049063871 -0.1815365299480412 0 0.21237941264848451 -0.18810475376770611 0 0.19447652973028121 -0.19759128756789451 0 0.19447652973028121 -0.19759128756789451 0 0.1840061663436266 -0.1900566622106199 0 0.1831457957419608 -0.2071674304332729 0 0.1840061663436266 -0.1900566622106199 0 0.1831457957419608 -0.2071674304332729 0 0.16486725365112659 -0.18785963188663279 0 0.1831457957419608 -0.2071674304332729 0 0.16486725365112659 -0.18785963188663279 0 0.1831457957419608 -0.2071674304332729 0 0.16625281481800089 -0.2066948484094672 0 0.18716213711817259 -0.22455639835484539 0 0.16625281481800089 -0.2066948484094672 0 0.18716213711817259 -0.22455639835484539 0 0.16625281481800089 -0.2066948484094672 0 0.18716213711817259 -0.22455639835484539 0 0.16937657335138201 -0.22198425569814831 0 0.16625281481800089 -0.2066948484094672 0 0.15661990237239229 -0.21733625041789439 0 0.14909823278687431 -0.20687378182447139 0 0.16625281481800089 -0.2066948484094672 0 0.15661990237239229 -0.21733625041789439 0 0.16937657335138201 -0.22198425569814831 0 0.1831457957419608 -0.2071674304332729 0 0.16625281481800089 -0.2066948484094672 0 0.16486725365112659 -0.18785963188663279 0 0.16625281481800089 -0.2066948484094672 0 0.16486725365112659 -0.18785963188663279 0 0.14534349251782941 -0.188833298464089 0 0.17619278994504239 -0.24587918172992959 0 0.18399505531774341 -0.24981832115951039 0 0.1866817818972302 -0.23981118877977231 0 0.17619278994504239 -0.24587918172992959 0 0.17450151464944069 -0.23276490516368609 0 0.16609645978724119 -0.24143951784646769 0 0.17619278994504239 -0.24587918172992959 0 0.1866817818972302 -0.23981118877977231 0 0.17450151464944069 -0.23276490516368609 0 0.17450151464944069 -0.23276490516368609 0 0.18716213711817259 -0.22455639835484539 0 0.16937657335138201 -0.22198425569814831 0 0.1866817818972302 -0.23981118877977231 0 0.17450151464944069 -0.23276490516368609 0 0.18716213711817259 -0.22455639835484539 0 0.15661990237239229 -0.21733625041789439 0 0.1623464977989032 -0.22856887614484861 0 0.15090654410468329 -0.22688320449844629 0 0.15661990237239229 -0.21733625041789439 0 0.16937657335138201 -0.22198425569814831 0 0.1623464977989032 -0.22856887614484861 0 0.17450151464944069 -0.23276490516368609 0 0.1623464977989032 -0.22856887614484861 0 0.16609645978724119 -0.24143951784646769 0 0.17450151464944069 -0.23276490516368609 0 0.16937657335138201 -0.22198425569814831 0 0.1623464977989032 -0.22856887614484861 0 0.1623464977989032 -0.22856887614484861 0 0.16609645978724119 -0.24143951784646769 0 0.1528270009437688 -0.23836283418195289 0 0.16001236861667459 -0.2513654190734112 0 0.16609645978724119 -0.24143951784646769 0 0.1528270009437688 -0.23836283418195289 0 0.16978669848249819 -0.25098739912941831 0 0.17619278994504239 -0.24587918172992959 0 0.16609645978724119 -0.24143951784646769 0 0.16001236861667459 -0.2513654190734112 0 0.16978669848249819 -0.25098739912941831 0 0.16609645978724119 -0.24143951784646769 0 0.1429630926125974 -0.2502577086919005 0 0.16001236861667459 -0.2513654190734112 0 0.1528270009437688 -0.23836283418195289 0 0.1429630926125974 -0.2502577086919005 0 0.1528270009437688 -0.23836283418195289 0 0.13988621804673579 -0.23152362256679451 0 0.1528270009437688 -0.23836283418195289 0 0.15090654410468329 -0.22688320449844629 0 0.13988621804673579 -0.23152362256679451 0 0.1623464977989032 -0.22856887614484861 0 0.1528270009437688 -0.23836283418195289 0 0.15090654410468329 -0.22688320449844629 0 0.15661990237239229 -0.21733625041789439 0 0.15090654410468329 -0.22688320449844629 0 0.1428531013616163 -0.21862443918074129 0 0.15090654410468329 -0.22688320449844629 0 0.13988621804673579 -0.23152362256679451 0 0.1428531013616163 -0.21862443918074129 0 0.12018370186474731 -0.23305432747703519 0 0.12895394136930069 -0.22163642029703709 0 0.13988621804673579 -0.23152362256679451 0 0.12895394136930069 -0.22163642029703709 0 0.13988621804673579 -0.23152362256679451 0 0.1428531013616163 -0.21862443918074129 0 0.1429630926125974 -0.2502577086919005 0 0.12018370186474731 -0.23305432747703519 0 0.1429630926125974 -0.2502577086919005 0 0.12018370186474731 -0.23305432747703519 0 0.13988621804673579 -0.23152362256679451 0 0.13217397618885759 -0.25462043987800831 0 0.1429630926125974 -0.2502577086919005 0 0.12018370186474731 -0.23305432747703519 0 0.16625281481800089 -0.2066948484094672 0 0.14534349251782941 -0.188833298464089 0 0.16625281481800089 -0.2066948484094672 0 0.14534349251782941 -0.188833298464089 0 0.14909823278687431 -0.20687378182447139 0 0.14534349251782941 -0.188833298464089 0 0.14909823278687431 -0.20687378182447139 0 0.1346280568372662 -0.20359450925845249 0 0.15661990237239229 -0.21733625041789439 0 0.14909823278687431 -0.20687378182447139 0 0.1428531013616163 -0.21862443918074129 0 0.14909823278687431 -0.20687378182447139 0 0.1428531013616163 -0.21862443918074129 0 0.1346280568372662 -0.20359450925845249 0 0.1178461100078927 -0.20838697738218431 0 0.12895394136930069 -0.22163642029703709 0 0.1346280568372662 -0.20359450925845249 0 0.12895394136930069 -0.22163642029703709 0 0.1428531013616163 -0.21862443918074129 0 0.1346280568372662 -0.20359450925845249 0 0.14534349251782941 -0.188833298464089 0 0.1346280568372662 -0.20359450925845249 0 0.13128332926409281 -0.18787359724935929 0 0.1237689835273371 -0.19605207676116951 0 0.1178461100078927 -0.20838697738218431 0 0.1346280568372662 -0.20359450925845249 0 0.1237689835273371 -0.19605207676116951 0 0.1346280568372662 -0.20359450925845249 0 0.13128332926409281 -0.18787359724935929 0 0.1237689835273371 -0.19605207676116951 0 0.1232013989280239 -0.1819146573535104 0 0.13128332926409281 -0.18787359724935929 0 0.12443417021765769 -0.1709717485187108 0 0.14534349251782941 -0.188833298464089 0 0.12443417021765769 -0.1709717485187108 0 0.1232013989280239 -0.1819146573535104 0 0.13128332926409281 -0.18787359724935929 0 0.12443417021765769 -0.1709717485187108 0 0.14534349251782941 -0.188833298464089 0 0.13128332926409281 -0.18787359724935929 0 0.12443417021765769 -0.1709717485187108 0 0.14534349251782941 -0.188833298464089 0 0.13540865390058859 -0.1688207667960602 0 0.14534349251782941 -0.188833298464089 0 0.14658871156029241 -0.16855183333999291 0 0.13540865390058859 -0.1688207667960602 0 0.16486725365112659 -0.18785963188663279 0 0.14658871156029241 -0.16855183333999291 0 0.16486725365112659 -0.18785963188663279 0 0.14534349251782941 -0.188833298464089 0 0.14658871156029241 -0.16855183333999291 0 0.14658871156029241 -0.16855183333999291 0 0.13391177650968769 -0.15242347890466901 0 0.14971917460686079 -0.1530450482394467 0 0.14658871156029241 -0.16855183333999291 0 0.14971917460686079 -0.1530450482394467 0 0.16192904395431579 -0.15800089119817939 0 0.14658871156029241 -0.16855183333999291 0 0.13391177650968769 -0.15242347890466901 0 0.12831016946945831 -0.1492440347933528 0 0.14658871156029241 -0.16855183333999291 0 0.12831016946945831 -0.1492440347933528 0 0.14658871156029241 -0.16855183333999291 0 0.13540865390058859 -0.1688207667960602 0 0.1290045142054978 -0.1612372837293575 0 0.14658871156029241 -0.16855183333999291 0 0.1290045142054978 -0.1612372837293575 0 0.12831016946945831 -0.1492440347933528 0 0.13540865390058859 -0.1688207667960602 0 0.12715697753007521 -0.16591248018761531 0 0.1290045142054978 -0.1612372837293575 0 0.12443417021765769 -0.1709717485187108 0 0.13540865390058859 -0.1688207667960602 0 0.12715697753007521 -0.16591248018761531 0 0.12098675462827781 -0.16200852072179159 0 0.12715697753007521 -0.16591248018761531 0 0.1290045142054978 -0.1612372837293575 0 0.12324902196630889 -0.15465793599018671 0 0.1227471198665283 -0.15880086614903269 0 0.1290045142054978 -0.1612372837293575 0 0.13391177650968769 -0.15242347890466901 0 0.12831016946945831 -0.1492440347933528 0 0.12532898621889721 -0.13663811256420449 0 0.12324902196630889 -0.15465793599018671 0 0.1290045142054978 -0.1612372837293575 0 0.12831016946945831 -0.1492440347933528 0 0.1217036921304827 -0.1482443959076799 0 0.12831016946945831 -0.1492440347933528 0 0.12532898621889721 -0.13663811256420449 0 0.13391177650968769 -0.15242347890466901 0 0.13188977167139071 -0.12546883223523481 0 0.13391177650968769 -0.15242347890466901 0 0.13188977167139071 -0.12546883223523481 0 0.1446303542042412 -0.1380662602394005 0 0.13391177650968769 -0.15242347890466901 0 0.13188977167139071 -0.12546883223523481 0 0.12532898621889721 -0.13663811256420449 0 0.11997683785091839 -0.1276371159963853 0 0.13188977167139071 -0.12546883223523481 0 0.12532898621889721 -0.13663811256420449 0 0.1446303542042412 -0.1380662602394005 0 0.15557261582888751 -0.13003178131142151 0 0.1621281360659286 -0.14191921566573409 0 0.14724036225017881 -0.1245170930860646 0 0.13188977167139071 -0.12546883223523481 0 0.1446303542042412 -0.1380662602394005 0 0.14724036225017881 -0.1245170930860646 0 0.1446303542042412 -0.1380662602394005 0 0.15557261582888751 -0.13003178131142151 0 0.13391177650968769 -0.15242347890466901 0 0.1446303542042412 -0.1380662602394005 0 0.14971917460686079 -0.1530450482394467 0 0.1446303542042412 -0.1380662602394005 0 0.14971917460686079 -0.1530450482394467 0 0.1621281360659286 -0.14191921566573409 0 0.1621281360659286 -0.14191921566573409 0 0.17324983187337631 -0.13165498831909611 0 0.17651024624945799 -0.1485415537171802 0 0.14971917460686079 -0.1530450482394467 0 0.1621281360659286 -0.14191921566573409 0 0.16192904395431579 -0.15800089119817939 0 0.1621281360659286 -0.14191921566573409 0 0.17651024624945799 -0.1485415537171802 0 0.16192904395431579 -0.15800089119817939 0 0.16471491079178111 -0.1205264202314431 0 0.15557261582888751 -0.13003178131142151 0 0.1639163736399934 -0.1310331013819237 0 0.15557261582888751 -0.13003178131142151 0 0.1621281360659286 -0.14191921566573409 0 0.1639163736399934 -0.1310331013819237 0 0.1621281360659286 -0.14191921566573409 0 0.1639163736399934 -0.1310331013819237 0 0.17324983187337631 -0.13165498831909611 0 0.16471491079178111 -0.1205264202314431 0 0.1639163736399934 -0.1310331013819237 0 0.17324983187337631 -0.13165498831909611 0 0.1862357176231304 -0.1238823921021804 0 0.1919305776748628 -0.1461990482496055 0 0.17324983187337631 -0.13165498831909611 0 0.1919305776748628 -0.1461990482496055 0 0.17324983187337631 -0.13165498831909611 0 0.17651024624945799 -0.1485415537171802 0 0.1919305776748628 -0.1461990482496055 0 0.19225769977326759 -0.16432491474026781 0 0.17651024624945799 -0.1485415537171802 0 0.19225769977326759 -0.16432491474026781 0 0.17526083145963689 -0.16308053239281189 0 0.17982600751226671 -0.1762593337595659 0 0.19225769977326759 -0.16432491474026781 0 0.17651024624945799 -0.1485415537171802 0 0.17526083145963689 -0.16308053239281189 0 0.17526083145963689 -0.16308053239281189 0 0.17982600751226671 -0.1762593337595659 0 0.16627328335530381 -0.17069773137902189 0 0.1840061663436266 -0.1900566622106199 0 0.16486725365112659 -0.18785963188663279 0 0.17982600751226671 -0.1762593337595659 0 0.19629081049063871 -0.1815365299480412 0 0.1840061663436266 -0.1900566622106199 0 0.17982600751226671 -0.1762593337595659 0 0.16486725365112659 -0.18785963188663279 0 0.14658871156029241 -0.16855183333999291 0 0.16627328335530381 -0.17069773137902189 0 0.16486725365112659 -0.18785963188663279 0 0.17982600751226671 -0.1762593337595659 0 0.16627328335530381 -0.17069773137902189 0 0.14658871156029241 -0.16855183333999291 0 0.16192904395431579 -0.15800089119817939 0 0.16627328335530381 -0.17069773137902189 0 0.17526083145963689 -0.16308053239281189 0 0.16192904395431579 -0.15800089119817939 0 0.16627328335530381 -0.17069773137902189 0 0.17651024624945799 -0.1485415537171802 0 0.17526083145963689 -0.16308053239281189 0 0.16192904395431579 -0.15800089119817939 0 
</DataArray>
</Points>
<Cells>
<DataArray type="UInt32" Name="connectivity" format="ascii">
0 1 2 3 4 5 6 7 8 9 10 11 12 13 14 15 16 17 18 19 20 21 22 23 24 25 26 27 28 29 30 31 32 33 34 35 36 37 38 39 40 41 42 43 44 45 46 47 48 49 50 51 52 53 54 55 56 57 58 59 60 61 62 63 64 65 66 67 68 69 70 71 72 73 74 75 76 77 78 79 80 81 82 83 84 85 86 87 88 89 90 91 92 93 94 95 96 97 98 99 100 101 102 103 104 105 106 107 108 109 110 111 112 113 114 115 116 117 118 119 120 121 122 123 124 125 126 127 128 129 130 131 132 133 134 135 136 137 138 139 140 141 142 143 144 145 146 147 148 149 150 151 152 153 154 155 156 157 158 159 160 161 162 163 164 165 166 167 168 169 170 171 172 173 174 175 176 177 178 179 180 181 182 183 184 185 186 187 188 189 190 191 192 193 194 195 196 197 198 199 200 201 202 203 204 205 206 207 208 209 210 211 212 213 214 215 216 217 218 219 220 221 222 223 224 225 226 227 228 229 230 231 232 233 234 235 236 237 238 239 240 241 242 243 244 245 246 247 248 249 250 251 252 253 254 255 256 257 258 259 260 261 262 263 264 265 266 267 268 269 270 271 272 273 274 275 276 277 278 279 280 281 282 283 284 285 286 287 288 289 290 291 292 293 294 295 296 297 298 299 300 301 302 303 304 305 306 307 308 309 310 311 312 313 314 315 316 317 318 319 320 321 322 323 324 325 326 327 328 329 330 331 332 333 334 335 336 337 338 339 340 341 342 343 344 345 346 347 348 349 350 351 352 353 354 355 356 357 358 359 360 361 362 363 364 365 366 367 368 369 370 371 372 373 374 375 376 377 378 379 380 381 382 383 384 385 386 387 388 389 390 391 392 393 394 395 396 397 398 399 400 401 402 403 404 405 406 407 408 409 410 411 412 413 414 415 416 417 418 419 420 421 422 423 424 425 426 427 428 429 430 431 432 433 434 435 436 437 438 439 440 441 442 443 444 445 446 447 448 449 450 451 452 453 454 455 456 457 458 459 460 461 462 463 464 465 466 467 468 469 470 471 472 473 474 475 476 477 478 479 480 481 482 483 484 485 486 487 488 489 490 491 492 493 494 495 496 497 498 499 500 501 502 503 504 505 506 507 508 509 510 511 512 513 514 515 516 517 518 519 520 521 522 523 524 525 526 527 528 529 530 531 532 533 534 535 536 537 538 539 540 541 542 543 544 545 546 547 548 549 550 551 552 553 554 555 556 557 558 559 560 561 562 563 564 565 566 567 568 569 570 571 572 573 574 575 576 577 578 579 580 581 582 583 584 585 586 587 588 589 590 591 592 593 594 595 596 597 598 599 600 601 602 603 604 605 606 607 608 609 610 611 612 613 614 615 616 617 618 619 620 621 622 623 624 625 626 627 628 629 630 631 632 633 634 635 636 637 638 639 640 641 642 643 644 645 646 647 648 649 650 651 652 653 654 655 656 657 658 659 660 661 662 663 664 665 666 667 668 669 670 671 672 673 674 675 676 677 678 679 680 681 682 683 684 685 686 687 688 689 690 691 692 693 694 695 696 697 698 699 700 701 702 703 704 705 706 707 708 709 710 711 712 713 714 715 716 717 718 719 720 721 722 723 724 725 726 727 728 729 730 731 732 733 734 735 736 737 738 739 740 741 742 743 744 745 746 747 748 749 750 751 752 753 754 755 756 757 758 759 760 761 762 763 764 765 766 767 768 769 770 771 772 773 774 775 776 777 778 779 780 781 782 783 784 785 786 787 788 789 790 791 792 793 794 795 796 797 798 799 800 801 802 803 804 805 806 807 808 809 810 811 812 813 814 815 816 817 818 819 820 821 822 823 824 825 826 827 828 829 830 831 832 833 834 835 836 837 838 839 840 841 842 843 844 845 846 847 848 849 850 851 852 853 854 855 856 857 858 859 860 861 862 863 864 865 866 867 868 869 870 871 872 873 874 875 876 877 878 879 880 881 882 883 884 885 886 887 888 889 890 891 892 893 894 895 896 897 898 899 900 901 902 903 904 905 906 907 908 909 910 911 912 913 914 915 916 917 918 919 920 921 922 923 924 925 926 927 928 929 930 931 932 933 934 935 936 937 938 939 940 941 942 943 944 945 946 947 948 949 950 951 952 953 954 955 956 957 958 959 960 961 962 963 964 965 966 967 968 969 970 971 972 973 974 975 976 977 978 979 980 981 982 983 984 985 986 987 988 989 990 991 992 993 994 995 996 997 998 999 1000 1001 1002 1003 1004 1005 1006 1007 1008 1009 1010 1011 1012 1013 1014 1015 1016 1017 1018 1019 1020 1021 1022 1023 1024 1025 1026 1027 1028 1029 1030 1031 1032 1033 1034 1035 1036 1037 1038 1039 1040 1041 1042 1043 1044 1045 1046 1047 1048 1049 1050 1051 1052 1053 1054 1055 1056 1057 1058 1059 1060 1061 1062 1063 1064 1065 1066 1067 1068 1069 1070 1071 1072 1073 1074 1075 1076 1077 1078 1079 1080 1081 1082 1083 1084 1085 1086 1087 1088 1089 1090 1091 1092 1093 1094 1095 1096 1097 1098 1099 1100 1101 1102 1103 1104 1105 1106 1107 1108 1109 1110 1111 1112 1113 1114 1115 1116 1117 1118 1119 1120 1121 1122 1123 1124 1125 1126 1127 1128 1129 1130 1131 1132 1133 1134 1135 1136 1137 1138 1139 1140 1141 1142 1143 1144 1145 1146 1147 1148 1149 1150 1151 1152 1153 1154 1155 1156 1157 1158 1159 1160 1161 1162 1163 1164 1165 1166 1167 1168 1169 1170 1171 1172 1173 1174 1175 1176 1177 1178 1179 1180 1181 1182 1183 1184 1185 1186 1187 1188 1189 1190 1191 1192 1193 1194 1195 1196 1197 1198 1199 1200 1201 1202 1203 1204 1205 1206 1207 1208 1209 1210 1211 1212 1213 1214 1215 1216 1217 1218 1219 1220 1221 1222 1223 1224 1225 1226 1227 1228 1229 1230 1231 1232 1233 1234 1235 1236 1237 1238 1239 1240 1241 1242 1243 1244 1245 1246 1247 1248 1249 1250 1251 1252 1253 1254 1255 1256 1257 1258 1259 1260 1261 1262 1263 1264 1265 1266 1267 1268 1269 1270 1271 1272 1273 1274 1275 1276 1277 1278 1279 1280 1281 1282 1283 1284 1285 1286 1287 1288 1289 1290 1291 1292 1293 1294 1295 1296 1297 1298 1299 1300 1301 1302 1303 1304 1305 1306 1307 1308 1309 1310 1311 1312 1313 1314 1315 1316 1317 1318 1319 1320 1321 1322 1323 1324 1325 1326 1327 1328 1329 1330 1331 1332 1333 1334 1335 1336 1337 1338 1339 1340 1341 1342 1343 1344 1345 1346 1347 1348 1349 1350 1351 1352 1353 1354 1355 1356 1357 1358 1359 1360 1361 1362 1363 1364 1365 1366 1367 1368 1369 1370 1371 1372 1373 1374 1375 1376 1377 1378 1379 1380 1381 1382 1383 1384 1385 1386 1387 1388 1389 1390 1391 1392 1393 1394 1395 1396 1397 1398 1399 1400 1401 1402 1403 1404 1405 1406 1407 1408 1409 1410 1411 1412 1413 1414 1415 1416 1417 1418 1419 1420 1421 1422 1423 1424 1425 1426 1427 1428 1429 1430 1431 1432 1433 1434 1435 1436 1437 1438 1439 1440 1441 1442 1443 1444 1445 1446 1447 1448 1449 1450 1451 1452 1453 1454 1455 1456 1457 1458 1459 1460 1461 1462 1463 1464 1465 1466 1467 1468 1469 1470 1471 1472 1473 1474 1475 1476 1477 1478 1479 1480 1481 1482 1483 1484 1485 1486 1487 1488 1489 1490 1491 1492 1493 1494 1495 1496 1497 1498 1499 1500 1501 1502 1503 1504 1505 1506 1507 1508 1509 1510 1511 1512 1513 1514 1515 1516 1517 1518 1519 1520 1521 1522 1523 1524 1525 1526 1527 1528 1529 1530 1531 1532 1533 1534 1535 1536 1537 1538 1539 1540 1541 1542 1543 1544 1545 1546 1547 1548 1549 1550 1551 1552 1553 1554 1555 1556 1557 1558 1559 1560 1561 1562 1563 1564 1565 1566 1567 1568 1569 1570 1571 1572 1573 1574 1575 1576 1577 1578 1579 1580 1581 1582 1583 1584 1585 1586 1587 1588 1589 1590 1591 1592 1593 1594 1595 1596 1597 1598 1599 1600 1601 1602 1603 1604 1605 1606 1607 1608 1609 1610 1611 1612 1613 1614 1615 1616 1617 1618 1619 1620 1621 1622 1623 1624 1625 1626 1627 1628 1629 1630 1631 1632 1633 1634 1635 1636 1637 1638 1639 1640 1641 1642 1643 1644 1645 1646 1647 1648 1649 1650 1651 1652 1653 1654 1655 1656 1657 1658 1659 1660 1661 1662 1663 1664 1665 1666 1667 1668 1669 1670 1671 1672 1673 1674 1675 1676 1677 1678 1679 1680 1681 1682 1683 1684 1685 1686 1687 1688 1689 1690 1691 1692 1693 1694 1695 1696 1697 1698 1699 1700 1701 1702 1703 1704 1705 1706 1707 1708 1709 1710 1711 1712 1713 1714 1715 1716 1717 1718 1719 1720 1721 1722 1723 1724 1725 1726 1727 1728 1729 1730 1731 1732 1733 1734 1735 1736 1737 1738 1739 1740 1741 1742 1743 1744 1745 1746 1747 1748 1749 1750 1751 1752 1753 1754 1755 1756 1757 1758 1759 1760 1761 1762 1763 1764 1765 1766 1767 1768 1769 1770 1771 1772 1773 1774 1775 1776 1777 1778 1779 1780 1781 1782 1783 1784 1785 1786 1787 1788 1789 1790 1791 1792 1793 1794 1795 1796 1797 1798 1799 1800 1801 1802 1803 1804 1805 1806 1807 1808 1809 1810 1811 1812 1813 1814 1815 1816 1817 1818 1819 1820 1821 1822 1823 1824 1825 1826 1827 1828 1829 1830 1831 1832 1833 1834 1835 1836 1837 1838 1839 1840 1841 1842 1843 1844 1845 1846 1847 1848 1849 1850 1851 1852 1853 1854 1855 1856 1857 1858 1859 1860 1861 1862 1863 1864 1865 1866 1867 1868 1869 1870 1871 1872 1873 1874 1875 1876 1877 1878 1879 1880 1881 1882 1883 1884 1885 1886 1887 1888 1889 1890 1891 1892 1893 1894 1895 1896 1897 1898 1899 1900 1901 1902 1903 1904 1905 1906 1907 1908 1909 1910 1911 1912 1913 1914 1915 1916 1917 1918 1919 1920 1921 1922 1923 1924 1925 1926 1927 1928 1929 1930 1931 1932 1933 1934 1935 1936 1937 1938 1939 1940 1941 1942 1943 1944 1945 1946 1947 1948 1949 1950 1951 1952 1953 1954 1955 1956 1957 1958 1959 1960 1961 1962 1963 1964 1965 1966 1967 1968 1969 1970 1971 1972 1973 1974 1975 1976 1977 1978 1979 1980 1981 1982 1983 1984 1985 1986 1987 1988 1989 1990 1991 1992 1993 1994 1995 1996 1997 1998 1999 2000 2001 2002 2003 2004 2005 2006 2007 2008 2009 2010 2011 2012 2013 2014 2015 2016 2017 2018 2019 2020 2021 2022 2023 2024 2025 2026 2027 2028 2029 2030 2031 2032 2033 2034 2035 2036 2037 2038 2039 2040 2041 2042 2043 2044 2045 2046 2047 2048 2049 2050 2051 2052 2053 2054 2055 2056 2057 2058 2059 2060 2061 2062 2063 2064 2065 2066 2067 2068 2069 2070 2071 2072 2073 2074 2075 2076 2077 2078 2079 2080 2081 2082 2083 2084 2085 2086 2087 2088 2089 2090 2091 2092 2093 2094 2095 2096 2097 2098 2099 2100 2101 2102 2103 2104 2105 2106 2107 2108 2109 2110 2111 2112 2113 2114 2115 2116 2117 2118 2119 2120 2121 2122 2123 2124 2125 2126 2127 2128 2129 2130 2131 2132 2133 2134 2135 2136 2137 2138 2139 2140 2141 2142 2143 2144 2145 2146 2147 2148 2149 2150 2151 2152 2153 2154 2155 2156 2157 2158 2159 2160 2161 2162 2163 2164 2165 2166 2167 2168 2169 2170 2171 2172 2173 2174 2175 2176 2177 2178 2179 2180 2181 2182 2183 2184 2185 2186 2187 2188 2189 2190 2191 2192 2193 2194 2195 2196 2197 2198 2199 2200 2201 2202 2203 2204 2205 2206 2207 2208 2209 2210 2211 2212 2213 2214 2215 2216 2217 2218 2219 2220 2221 2222 2223 2224 2225 2226 2227 2228 2229 2230 2231 2232 2233 2234 2235 2236 2237 2238 2239 2240 2241 2242 2243 2244 2245 2246 2247 2248 2249 2250 2251 2252 2253 2254 2255 2256 2257 2258 2259 2260 2261 2262 2263 2264 2265 2266 2267 2268 2269 2270 2271 2272 2273 2274 2275 2276 2277 2278 2279 2280 2281 2282 2283 2284 2285 2286 2287 2288 2289 2290 2291 2292 2293 2294 2295 2296 2297 2298 2299 2300 2301 2302 2303 2304 2305 2306 2307 2308 2309 2310 2311 2312 2313 2314 2315 2316 2317 2318 2319 2320 2321 2322 2323 2324 2325 2326 2327 2328 2329 2330 2331 2332 2333 2334 2335 2336 2337 2338 2339 2340 2341 2342 2343 2344 2345 2346 2347 2348 2349 2350 2351 2352 2353 2354 2355 2356 2357 2358 2359 2360 2361 2362 2363 2364 2365 2366 2367 2368 2369 2370 2371 2372 2373 2374 2375 2376 2377 2378 2379 2380 2381 2382 2383 2384 2385 2386 2387 2388 2389 2390 2391 2392 2393 2394 2395 2396 2397 2398 2399 2400 2401 2402 2403 2404 2405 2406 2407 2408 2409 2410 2411 2412 2413 2414 2415 2416 2417 2418 2419 2420 2421 2422 2423 2424 2425 2426 2427 2428 2429 2430 2431 2432 2433 2434 2435 2436 2437 2438 2439 2440 2441 2442 2443 2444 2445 2446 2447 2448 2449 2450 2451 2452 2453 2454 2455 2456 2457 2458 2459 2460 2461 2462 2463 2464 2465 2466 2467 2468 2469 2470 2471 2472 2473 2474 2475 2476 2477 2478 2479 2480 2481 2482 2483 2484 2485 2486 2487 2488 2489 2490 2491 2492 2493 2494 2495 2496 2497 2498 2499 2500 2501 2502 2503 2504 2505 2506 2507 2508 2509 2510 2511 2512 2513 2514 2515 2516 2517 2518 2519 2520 2521 2522 2523 2524 2525 2526 2527 2528 2529 2530 2531 2532 2533 2534 2535 2536 2537 2538 2539 2540 2541 2542 2543 2544 2545 2546 2547 2548 2549 2550 2551 2552 2553 2554 2555 2556 2557 2558 2559 2560 2561 2562 2563 2564 2565 2566 2567 2568 2569 2570 2571 2572 2573 2574 2575 2576 2577 2578 2579 2580 2581 2582 2583 2584 2585 2586 2587 2588 2589 2590 2591 2592 2593 2594 2595 2596 2597 2598 2599 2600 2601 2602 2603 2604 2605 2606 2607 2608 2609 2610 2611 2612 2613 2614 2615 2616 2617 2618 2619 2620 2621 2622 2623 2624 2625 2626 2627 2628 2629 2630 2631 2632 2633 2634 2635 2636 2637 2638 2639 2640 2641 2642 2643 2644 2645 2646 2647 2648 2649 2650 2651 2652 2653 2654 2655 2656 2657 2658 2659 2660 2661 2662 2663 2664 2665 2666 2667 2668 2669 2670 2671 2672 2673 2674 2675 2676 2677 2678 2679 2680 2681 2682 2683 2684 2685 2686 2687 2688 2689 2690 2691 2692 2693 2694 2695 2696 2697 2698 2699 2700 2701 2702 2703 2704 2705 2706 2707 2708 2709 2710 2711 2712 2713 2714 2715 2716 2717 2718 2719 2720 2721 2722 2723 2724 2725 2726 2727 2728 2729 2730 2731 2732 2733 2734 2735 2736 2737 2738 2739 2740 2741 2742 2743 2744 2745 2746 2747 2748 2749 2750 2751 2752 2753 2754 2755 2756 2757 2758 2759 2760 2761 2762 2763 2764 2765 2766 2767 2768 2769 2770 2771 2772 2773 2774 2775 2776 2777 2778 2779 2780 2781 2782 2783 2784 2785 2786 2787 2788 2789 2790 2791 2792 2793 2794 2795 2796 2797 2798 2799 2800 2801 2802 2803 2804 2805 2806 2807 2808 2809 2810 2811 2812 2813 2814 2815 2816 2817 2818 2819 2820 2821 2822 2823 2824 2825 2826 2827 2828 2829 2830 2831 2832 2833 2834 2835 2836 2837 2838 2839 2840 2841 2842 2843 2844 2845 2846 2847 2848 2849 2850 2851 2852 2853 2854 2855 2856 2857 2858 2859 2860 2861 2862 2863 2864 2865 2866 2867 2868 2869 2870 2871 2872 2873 2874 2875 2876 2877 2878 2879 2880 2881 2882 2883 2884 2885 2886 2887 2888 2889 2890 2891 2892 2893 2894 2895 2896 2897 2898 2899 2900 2901 2902 2903 2904 2905 2906 2907 2908 2909 2910 2911 2912 2913 2914 2915 2916 2917 2918 2919 2920 2921 2922 2923 2924 2925 2926 2927 2928 2929 2930 2931 2932 2933 2934 2935 2936 2937 2938 2939 2940 2941 2942 2943 2944 2945 2946 2947 2948 2949 2950 2951 2952 2953 2954 2955 2956 2957 2958 2959 2960 2961 2962 2963 2964 2965 2966 2967 2968 2969 2970 2971 2972 2973 2974 2975 2976 2977 2978 2979 2980 2981 2982 2983 2984 2985 2986 2987 2988 2989 2990 2991 2992 2993 2994 2995 2996 2997 2998 2999 3000 3001 3002 3003 3004 3005 3006 3007 3008 3009 3010 3011 3012 3013 3014 3015 3016 3017 3018 3019 3020 3021 3022 3023 3024 3025 3026 3027 3028 3029 3030 3031 3032 3033 3034 3035 3036 3037 3038 3039 3040 3041 3042 3043 3044 3045 3046 3047 3048 3049 3050 3051 3052 3053 3054 3055 3056 3057 3058 3059 3060 3061 3062 3063 3064 3065 3066 3067 3068 3069 3070 3071 3072 3073 3074 3075 3076 3077 3078 3079 3080 3081 3082 3083 3084 3085 3086 3087 3088 3089 3090 3091 3092 3093 3094 3095 3096 3097 3098 3099 3100 3101 3102 3103 3104 3105 3106 3107 3108 3109 3110 3111 3112 3113 3114 3115 3116 3117 3118 3119 3120 3121 3122 3123 3124 3125 3126 3127 3128 3129 3130 3131 3132 3133 3134 3135 3136 3137 3138 3139 3140 3141 3142 3143 3144 3145 3146 3147 3148 3149 3150 3151 3152 3153 3154 3155 3156 3157 3158 3159 3160 3161 3162 3163 3164 3165 3166 3167 3168 3169 3170 3171 3172 3173 3174 3175 3176 3177 3178 3179 3180 3181 3182 3183 3184 3185 3186 3187 3188 3189 3190 3191 3192 3193 3194 3195 3196 3197 3198 3199 3200 3201 3202 3203 3204 3205 3206 3207 3208 3209 3210 3211 3212 3213 3214 3215 3216 3217 3218 3219 3220 3221 3222 3223 3224 3225 3226 3227 3228 3229 3230 3231 3232 3233 3234 3235 3236 3237 3238 3239 3240 3241 3242 3243 3244 3245 3246 3247 3248 3249 3250 3251 3252 3253 3254 3255 3256 3257 3258 3259 3260 3261 3262 3263 3264 3265 3266 3267 3268 3269 3270 3271 3272 3273 3274 3275 3276 3277 3278 3279 3280 3281 3282 3283 3284 3285 3286 3287 3288 3289 3290 3291 3292 3293 3294 3295 3296 3297 3298 3299 3300 3301 3302 3303 3304 3305 3306 3307 3308 3309 3310 3311 3312 3313 3314 3315 3316 3317 3318 3319 3320 3321 3322 3323 3324 3325 3326 3327 3328 3329 3330 3331 3332 3333 3334 3335 3336 3337 3338 3339 3340 3341 3342 3343 3344 3345 3346 3347 3348 3349 3350 3351 3352 3353 3354 3355 3356 3357 3358 3359 3360 3361 3362 3363 3364 3365 3366 3367 3368 3369 3370 3371 3372 3373 3374 3375 3376 3377 3378 3379 3380 3381 3382 3383 3384 3385 3386 3387 3388 3389 3390 3391 3392 3393 3394 3395 3396 3397 3398 3399 3400 3401 3402 3403 3404 3405 3406 3407 3408 3409 3410 3411 3412 3413 3414 3415 3416 3417 3418 3419 3420 3421 3422 3423 3424 3425 3426 3427 3428 3429 3430 3431 3432 3433 3434 3435 3436 3437 3438 3439 3440 3441 3442 3443 3444 3445 3446 3447 3448 3449 3450 3451 3452 3453 3454 3455 3456 3457 3458 3459 3460 3461 3462 3463 3464 3465 3466 3467 3468 3469 3470 3471 3472 3473 3474 3475 3476 3477 3478 3479 3480 3481 3482 3483 3484 3485 3486 3487 3488 3489 3490 3491 3492 3493 3494 3495 3496 3497 3498 3499 3500 3501 3502 3503 3504 3505 3506 3507 3508 3509 3510 3511 3512 3513 3514 3515 3516 3517 3518 3519 3520 3521 3522 3523 3524 3525 3526 3527 3528 3529 3530 3531 3532 3533 3534 3535 3536 3537 3538 3539 3540 3541 3542 3543 3544 3545 3546 3547 3548 3549 3550 3551 3552 3553 3554 3555 3556 3557 3558 3559 3560 3561 3562 3563 3564 3565 3566 3567 3568 3569 3570 3571 3572 3573 3574 3575 3576 3577 3578 3579 3580 3581 3582 3583 3584 3585 3586 3587 3588 3589 3590 3591 3592 3593 3594 3595 3596 3597 3598 3599 3600 3601 3602 3603 3604 3605 3606 3607 3608 3609 3610 3611 3612 3613 3614 3615 3616 3617 3618 3619 3620 3621 3622 3623 3624 3625 3626 3627 3628 3629 3630 3631 3632 3633 3634 3635 3636 3637 3638 3639 3640 3641 3642 3643 3644 3645 3646 3647 3648 3649 3650 3651 3652 3653 3654 3655 3656 3657 3658 3659 3660 3661 3662 3663 3664 3665 3666 3667 3668 3669 3670 3671 3672 3673 3674 3675 3676 3677 3678 3679 3680 3681 3682 3683 3684 3685 3686 3687 3688 3689 3690 3691 3692 3693 3694 3695 3696 3697 3698 3699 3700 3701 3702 3703 3704 3705 3706 3707 3708 3709 3710 3711 3712 3713 3714 3715 3716 3717 3718 3719 3720 3721 3722 3723 3724 3725 3726 3727 3728 3729 3730 3731 3732 3733 3734 3735 3736 3737 3738 3739 3740 3741 3742 3743 3744 3745 3746 3747 3748 3749 3750 3751 3752 3753 3754 3755 3756 3757 3758 3759 3760 3761 3762 3763 3764 3765 3766 3767 3768 3769 3770 3771 3772 3773 3774 3775 3776 3777 3778 3779 3780 3781 3782 3783 3784 3785 3786 3787 3788 3789 3790 3791 3792 3793 3794 3795 3796 3797 3798 3799 3800 3801 3802 3803 3804 3805 3806 3807 3808 3809 3810 3811 3812 3813 3814 3815 3816 3817 3818 3819 3820 3821 3822 3823 3824 3825 3826 3827 3828 3829 3830 3831 3832 3833 3834 3835 3836 3837 3838 3839 3840 3841 3842 3843 3844 3845 3846 3847 3848 3849 3850 3851 3852 3853 3854 3855 3856 3857 3858 3859 3860 3861 3862 3863 3864 3865 3866 3867 3868 3869 3870 3871 3872 3873 3874 3875 3876 3877 3878 3879 3880 3881 3882 3883 3884 3885 3886 3887 3888 3889 3890 3891 3892 3893 3894 3895 3896 3897 3898 3899 3900 3901 3902 3903 3904 3905 3906 3907 3908 3909 3910 3911 3912 3913 3914 3915 3916 3917 3918 3919 3920 3921 3922 3923 3924 3925 3926 3927 3928 3929 3930 3931 3932 3933 3934 3935 3936 3937 3938 3939 3940 3941 3942 3943 3944 3945 3946 3947 3948 3949 3950 3951 3952 3953 3954 3955 3956 3957 3958 3959 3960 3961 3962 3963 3964 3965 3966 3967 3968 3969 3970 3971 3972 3973 3974 3975 3976 3977 3978 3979 3980 3981 3982 3983 3984 3985 3986 3987 3988 3989 3990 3991 3992 3993 3994 3995 3996 3997 3998 3999 4000 4001 4002 4003 4004 4005 4006 4007 4008 4009 4010 4011 4012 4013 4014 4015 4016 4017 4018 4019 4020 4021 4022 4023 4024 4025 4026 4027 4028 4029 4030 4031 4032 4033 4034 4035 4036 4037 4038 4039 4040 4041 4042 4043 4044 4045 4046 4047 4048 4049 4050 4051 4052 4053 4054 4055 4056 4057 4058 4059 4060 4061 4062 4063 4064 4065 4066 4067 4068 4069 4070 4071 4072 4073 4074 4075 4076 4077 4078 4079 4080 4081 4082 4083 4084 4085 4086 4087 4088 4089 4090 4091 4092 4093 4094 4095 4096 4097 4098 4099 4100 4101 4102 4103 4104 4105 4106 4107 4108 4109 4110 4111 4112 4113 4114 4115 4116 4117 4118 4119 4120 4121 4122 4123 4124 4125 4126 4127 4128 4129 4130 4131 4132 4133 4134 4135 4136 4137 4138 4139 4140 4141 4142 4143 4144 4145 4146 4147 4148 4149 4150 4151 4152 4153 4154 4155 4156 4157 4158 4159 4160 4161 4162 4163 4164 4165 4166 4167 4168 4169 4170 4171 4172 4173 4174 4175 4176 4177 4178 4179 4180 4181 4182 4183 4184 4185 4186 4187 4188 4189 4190 4191 4192 4193 4194 4195 4196 4197 4198 4199 4200 4201 4202 4203 4204 4205 4206 4207 4208 4209 4210 4211 4212 4213 4214 4215 4216 4217 4218 4219 4220 4221 4222 4223 4224 4225 4226 4227 4228 4229 4230 4231 4232 4233 4234 4235 4236 4237 4238 4239 4240 4241 4242 4243 4244 4245 4246 4247 4248 4249 4250 4251 4252 4253 4254 4255 4256 4257 4258 4259 4260 4261 4262 4263 4264 4265 4266 4267 4268 4269 4270 4271 4272 4273 4274 4275 4276 4277 4278 4279 4280 4281 4282 4283 4284 4285 4286 4287 4288 4289 4290 4291 4292 4293 4294 4295 4296 4297 4298 4299 4300 4301 4302 4303 4304 4305 4306 4307 4308 4309 4310 4311 4312 4313 4314 4315 4316 4317 4318 4319 4320 4321 4322 4323 4324 4325 4326 4327 4328 4329 4330 4331 4332 4333 4334 4335 4336 4337 4338 4339 4340 4341 4342 4343 4344 4345 4346 4347 4348 4349 4350 4351 4352 4353 4354 4355 4356 4357 4358 4359 4360 4361 4362 4363 4364 4365 4366 4367 4368 4369 4370 4371 4372 4373 4374 4375 4376 4377 4378 4379 4380 4381 4382 4383 4384 4385 4386 4387 4388 4389 4390 4391 4392 4393 4394 4395 4396 4397 4398 4399 4400 4401 4402 4403 4404 4405 4406 4407 4408 4409 4410 4411 4412 4413 4414 4415 4416 4417 4418 4419 4420 4421 4422 4423 4424 4425 4426 4427 4428 4429 4430 4431 4432 4433 4434 4435 4436 4437 4438 4439 4440 4441 4442 4443 4444 4445 4446 4447 4448 4449 4450 4451 4452 4453 4454 4455 4456 4457 4458 4459 4460 4461 4462 4463 4464 4465 4466 4467 4468 4469 4470 4471 4472 4473 4474 4475 4476 4477 4478 4479 4480 4481 4482 4483 4484 4485 4486 4487 4488 4489 4490 4491 4492 4493 4494 4495 4496 4497 4498 4499 4500 4501 4502 4503 4504 4505 4506 4507 4508 4509 4510 4511 4512 4513 4514 4515 4516 4517 4518 4519 4520 4521 4522 4523 4524 4525 4526 4527 4528 4529 4530 4531 4532 4533 4534 4535 4536 4537 4538 4539 4540 4541 4542 4543 4544 4545 4546 4547 4548 4549 4550 4551 4552 4553 4554 4555 4556 4557 4558 4559 4560 4561 4562 4563 4564 4565 4566 4567 4568 4569 4570 4571 4572 4573 4574 4575 4576 4577 4578 4579 4580 4581 4582 4583 4584 4585 4586 4587 4588 4589 4590 4591 4592 4593 4594 4595 4596 4597 4598 4599 4600 4601 4602 4603 4604 4605 4606 4607 4608 4609 4610 4611 4612 4613 4614 4615 4616 4617 4618 4619 4620 4621 4622 4623 4624 4625 4626 4627 4628 4629 4630 4631 4632 4633 4634 4635 4636 4637 4638 4639 4640 4641 4642 4643 4644 4645 4646 4647 4648 4649 4650 4651 4652 4653 4654 4655 4656 4657 4658 4659 4660 4661 4662 4663 4664 4665 4666 4667 4668 4669 4670 4671 4672 4673 4674 4675 4676 4677 4678 4679 4680 4681 4682 4683 4684 4685 4686 4687 4688 4689 4690 4691 4692 4693 4694 4695 4696 4697 4698 4699 4700 4701 4702 4703 4704 4705 4706 4707 4708 4709 4710 4711 4712 4713 4714 4715 4716 4717 4718 4719 4720 4721 4722 4723 4724 4725 4726 4727 4728 4729 4730 4731 4732 4733 4734 4735 4736 4737 4738 4739 4740 4741 4742 4743 4744 4745 4746 4747 4748 4749 4750 4751 4752 4753 4754 4755 4756 4757 4758 4759 4760 4761 4762 4763 4764 4765 4766 4767 4768 4769 4770 4771 4772 4773 4774 4775 4776 4777 4778 4779 4780 4781 4782 4783 4784 4785 4786 4787 4788 4789 4790 4791 4792 4793 4794 4795 4796 4797 4798 4799 4800 4801 4802 4803 4804 4805 4806 4807 4808 4809 4810 4811 4812 4813 4814 4815 4816 4817 4818 4819 4820 4821 4822 4823 4824 4825 4826 4827 4828 4829 4830 4831 4832 4833 4834 4835 4836 4837 4838 4839 4840 4841 4842 4843 4844 4845 4846 4847 4848 4849 4850 4851 4852 4853 4854 4855 4856 4857 4858 4859 4860 4861 4862 4863 4864 4865 4866 4867 4868 4869 4870 4871 4872 4873 4874 4875 4876 4877 4878 4879 4880 4881 4882 4883 4884 4885 4886 4887 4888 4889 4890 4891 4892 4893 4894 4895 4896 4897 4898 4899 4900 4901 4902 4903 4904 4905 4906 4907 4908 4909 4910 4911 4912 4913 4914 4915 4916 4917 4918 4919 4920 4921 4922 4923 4924 4925 4926 4927 4928 4929 4930 4931 4932 4933 4934 4935 4936 4937 4938 4939 4940 4941 4942 4943 4944 4945 4946 4947 4948 4949 4950 4951 4952 4953 4954 4955 4956 4957 4958 4959 4960 4961 4962 4963 4964 4965 4966 4967 4968 4969 4970 4971 4972 4973 4974 4975 4976 4977 4978 4979 4980 4981 4982 4983 4984 4985 4986 4987 4988 4989 4990 4991 4992 4993 4994 4995 4996 4997 4998 4999 5000 5001 5002 5003 5004 5005 5006 5007 5008 5009 5010 5011 5012 5013 5014 5015 5016 5017 5018 5019 5020 5021 5022 5023 5024 5025 5026 5027 5028 5029 5030 5031 5032 5033 5034 5035 5036 5037 5038 5039 5040 5041 5042 5043 5044 5045 5046 5047 5048 5049 5050 5051 5052 5053 5054 5055 5056 5057 5058 5059 5060 5061 5062 5063 5064 5065 5066 5067 5068 5069 5070 5071 5072 5073 5074 5075 5076 5077 5078 5079 5080 5081 5082 5083 5084 5085 5086 5087 5088 5089 5090 5091 5092 5093 5094 5095 5096 5097 5098 5099 5100 5101 5102 5103 5104 5105 5106 5107 5108 5109 5110 5111 5112 5113 5114 5115 5116 5117 5118 5119 5120 5121 5122 5123 5124 5125 5126 5127 5128 5129 5130 5131 5132 5133 5134 5135 5136 5137 5138 5139 5140 5141 5142 5143 5144 5145 5146 5147 5148 5149 5150 5151 5152 5153 5154 5155 5156 5157 5158 5159 5160 5161 5162 5163 5164 5165 5166 5167 5168 5169 5170 5171 5172 5173 5174 5175 5176 5177 5178 5179 5180 5181 5182 5183 5184 5185 5186 5187 5188 5189 5190 5191 5192 5193 5194 5195 5196 5197 5198 5199 5200 5201 5202 5203 5204 5205 5206 5207 5208 5209 5210 5211 5212 5213 5214 5215 5216 5217 5218 5219 5220 5221 5222 5223 5224 5225 5226 5227 5228 5229 5230 5231 5232 5233 5234 5235 5236 5237 5238 5239 5240 5241 5242 5243 5244 5245 5246 5247 5248 5249 5250 5251 5252 5253 5254 5255 5256 5257 5258 5259 5260 5261 5262 5263 5264 5265 5266 5267 5268 5269 5270 5271 5272 5273 5274 5275 5276 5277 5278 5279 5280 5281 5282 5283 5284 5285 5286 5287 5288 5289 5290 5291 5292 5293 5294 5295 5296 5297 5298 5299 5300 5301 5302 5303 5304 5305 5306 5307 5308 5309 5310 5311 5312 5313 5314 5315 5316 5317 5318 5319 5320 5321 5322 5323 5324 5325 5326 5327 5328 5329 5330 5331 5332 5333 5334 5335 5336 5337 5338 5339 5340 5341 5342 5343 5344 5345 5346 5347 5348 5349 5350 5351 5352 5353 5354 5355 5356 5357 5358 5359 5360 5361 5362 5363 5364 5365 5366 5367 5368 5369 5370 5371 5372 5373 5374 5375 5376 5377 5378 5379 5380 5381 5382 5383 5384 5385 5386 5387 5388 5389 5390 5391 5392 5393 5394 5395 5396 5397 5398 5399 5400 5401 5402 5403 5404 5405 5406 5407 5408 5409 5410 5411 5412 5413 5414 5415 5416 5417 5418 5419 5420 5421 5422 5423 5424 5425 5426 5427 5428 5429 5430 5431 5432 5433 5434 5435 5436 5437 5438 5439 5440 5441 5442 5443 5444 5445 5446 5447 5448 5449 5450 5451 5452 5453 5454 5455 5456 5457 5458 5459 5460 5461 5462 5463 5464 5465 5466 5467 5468 5469 5470 5471 5472 5473 5474 5475 5476 5477 5478 5479 5480 5481 5482 5483 5484 5485 5486 5487 5488 5489 5490 5491 5492 5493 5494 5495 5496 5497 5498 5499 5500 5501 5502 5503 5504 5505 5506 5507 5508 5509 5510 5511 5512 5513 5514 5515 5516 5517 5518 5519 5520 5521 5522 5523 5524 5525 5526 5527 5528 5529 5530 5531 5532 5533 5534 5535 5536 5537 5538 5539 5540 5541 5542 5543 5544 5545 5546 5547 5548 5549 5550 5551 5552 5553 5554 5555 5556 5557 5558 5559 5560 5561 5562 5563 5564 5565 5566 5567 5568 5569 5570 5571 5572 5573 5574 5575 5576 5577 5578 5579 5580 5581 5582 5583 5584 5585 5586 5587 5588 5589 5590 5591 5592 5593 5594 5595 5596 5597 5598 5599 5600 5601 5602 5603 5604 5605 5606 5607 5608 5609 5610 5611 5612 5613 5614 5615 5616 5617 5618 5619 5620 5621 5622 5623 5624 5625 5626 5627 5628 5629 5630 5631 5632 5633 5634 5635 5636 5637 5638 5639 5640 5641 5642 5643 5644 5645 5646 5647 5648 5649 5650 5651 5652 5653 5654 5655 5656 5657 5658 5659 5660 5661 5662 5663 5664 5665 5666 5667 5668 5669 5670 5671 5672 5673 5674 5675 5676 5677 5678 5679 5680 5681 5682 5683 5684 5685 5686 5687 5688 5689 5690 5691 5692 5693 5694 5695 5696 5697 5698 5699 5700 5701 5702 5703 5704 5705 5706 5707 5708 5709 5710 5711 5712 5713 5714 5715 5716 5717 5718 5719 5720 5721 5722 5723 5724 5725 5726 5727 5728 5729 5730 5731 5732 5733 5734 5735 5736 5737 5738 5739 5740 5741 5742 5743 5744 5745 5746 5747 5748 5749 5750 5751 5752 5753 5754 5755 5756 5757 5758 5759 5760 5761 5762 5763 5764 5765 5766 5767 5768 5769 5770 5771 5772 5773 5774 5775 5776 5777 5778 5779 5780 5781 5782 5783 5784 5785 5786 5787 5788 5789 5790 5791 5792 5793 5794 5795 5796 5797 5798 5799 5800 5801 5802 5803 5804 5805 5806 5807 5808 5809 5810 5811 5812 5813 5814 5815 5816 5817 5818 5819 5820 5821 5822 5823 5824 5825 5826 5827 5828 5829 5830 5831 5832 5833 5834 5835 5836 5837 5838 5839 5840 5841 5842 5843 5844 5845 5846 5847 5848 5849 5850 5851 5852 5853 5854 5855 5856 5857 5858 5859 5860 5861 5862 5863 5864 5865 5866 5867 5868 5869 5870 5871 5872 5873 5874 5875 5876 5877 5878 5879 5880 5881 5882 5883 5884 5885 5886 5887 5888 5889 5890 5891 5892 5893 5894 5895 5896 5897 5898 5899 5900 5901 5902 5903 5904 5905 5906 5907 5908 5909 5910 5911 5912 5913 5914 5915 5916 5917 5918 5919 5920 5921 5922 5923 5924 5925 5926 5927 5928 5929 5930 5931 5932 5933 5934 5935 5936 5937 5938 5939 5940 5941 5942 5943 5944 5945 5946 5947 5948 5949 5950 5951 5952 5953 5954 5955 5956 5957 5958 5959 5960 5961 5962 5963 5964 5965 5966 5967 5968 5969 5970 5971 5972 5973 5974 5975 5976 5977 5978 5979 5980 5981 5982 5983 5984 5985 5986 5987 5988 5989 5990 5991 5992 5993 5994 5995 5996 5997 5998 5999 6000 6001 6002 6003 6004 6005 6006 6007 6008 6009 6010 6011 6012 6013 6014 6015 6016 6017 6018 6019 6020 6021 6022 6023 6024 6025 6026 6027 6028 6029 6030 6031 6032 6033 6034 6035 6036 6037 6038 6039 6040 6041 6042 6043 6044 6045 6046 6047 6048 6049 6050 6051 6052 6053 6054 6055 6056 6057 6058 6059 6060 6061 6062 6063 6064 6065 6066 6067 6068 6069 6070 6071 6072 6073 6074 6075 6076 6077 6078 6079 6080 6081 6082 6083 6084 6085 6086 6087 6088 6089 6090 6091 6092 6093 6094 6095 6096 6097 6098 6099 6100 6101 6102 6103 6104 6105 6106 6107 6108 6109 6110 6111 6112 6113 6114 6115 6116 6117 6118 6119 6120 6121 6122 6123 6124 6125 6126 6127 6128 6129 6130 6131 6132 6133 6134 6135 6136 6137 6138 6139 6140 6141 6142 6143 6144 6145 6146 6147 6148 6149 6150 6151 6152 6153 6154 6155 6156 6157 6158 6159 6160 6161 6162 6163 6164 6165 6166 6167 6168 6169 6170 6171 6172 6173 6174 6175 6176 6177 6178 6179 6180 6181 6182 6183 6184 6185 6186 6187 6188 6189 6190 6191 6192 6193 6194 6195 6196 6197 6198 6199 6200 6201 6202 6203 6204 6205 6206 6207 6208 6209 6210 6211 6212 6213 6214 6215 6216 6217 6218 6219 6220 6221 6222 6223 6224 6225 6226 6227 6228 6229 6230 6231 6232 6233 6234 6235 6236 6237 6238 6239 6240 6241 6242 6243 6244 6245 6246 6247 6248 6249 6250 6251 6252 6253 6254 6255 6256 6257 6258 6259 6260 6261 6262 6263 6264 6265 6266 6267 6268 6269 6270 6271 6272 6273 6274 6275 6276 6277 6278 6279 6280 6281 6282 6283 6284 6285 6286 6287 6288 6289 6290 6291 6292 6293 6294 6295 6296 6297 6298 6299 6300 6301 6302 6303 6304 6305 6306 6307 6308 6309 6310 6311 6312 6313 6314 6315 6316 6317 6318 6319 6320 6321 6322 6323 6324 6325 6326 6327 6328 6329 6330 6331 6332 6333 6334 6335 6336 6337 6338 6339 6340 6341 6342 6343 6344 6345 6346 6347 6348 6349 6350 6351 6352 6353 6354 6355 6356 6357 6358 6359 6360 6361 6362 6363 6364 6365 6366 6367 6368 6369 6370 6371 6372 6373 6374 6375 6376 6377 6378 6379 6380 6381 6382 6383 6384 6385 6386 6387 6388 6389 6390 6391 6392 6393 6394 6395 6396 6397 6398 6399 6400 6401 6402 6403 6404 6405 6406 6407 6408 6409 6410 6411 6412 6413 6414 6415 6416 6417 6418 6419 6420 6421 6422 6423 6424 6425 6426 6427 6428 6429 6430 6431 6432 6433 6434 6435 6436 6437 6438 6439 6440 6441 6442 6443 6444 6445 6446 6447 6448 6449 6450 6451 6452 6453 6454 6455 6456 6457 6458 6459 6460 6461 6462 6463 6464 6465 6466 6467 6468 6469 6470 6471 6472 6473 6474 6475 6476 6477 6478 6479 6480 6481 6482 6483 6484 6485 6486 6487 6488 6489 6490 6491 6492 6493 6494 6495 6496 6497 6498 6499 6500 6501 6502 6503 6504 6505 6506 6507 6508 6509 6510 6511 6512 6513 6514 6515 6516 6517 6518 6519 6520 6521 6522 6523 6524 6525 6526 6527 6528 6529 6530 6531 6532 6533 6534 6535 6536 6537 6538 6539 6540 6541 6542 6543 6544 6545 6546 6547 6548 6549 6550 6551 6552 6553 6554 6555 6556 6557 6558 6559 6560 6561 6562 6563 6564 6565 6566 6567 6568 6569 6570 6571 6572 6573 6574 6575 6576 6577 6578 6579 6580 6581 6582 6583 6584 6585 6586 6587 6588 6589 6590 6591 6592 6593 6594 6595 6596 6597 6598 6599 6600 6601 6602 6603 6604 6605 6606 6607 6608 6609 6610 6611 6612 6613 6614 6615 6616 6617 6618 6619 6620 6621 6622 6623 6624 6625 6626 6627 6628 6629 6630 6631 6632 6633 6634 6635 6636 6637 6638 6639 6640 6641 6642 6643 6644 6645 6646 6647 6648 6649 6650 6651 6652 6653 6654 6655 6656 6657 6658 6659 6660 6661 6662 6663 6664 6665 6666 6667 6668 6669 6670 6671 6672 6673 6674 6675 6676 6677 6678 6679 6680 6681 6682 6683 6684 6685 6686 6687 6688 6689 6690 6691 6692 6693 6694 6695 6696 6697 6698 6699 6700 6701 6702 6703 6704 6705 6706 6707 6708 6709 6710 6711 6712 6713 6714 6715 6716 6717 6718 6719 6720 6721 6722 6723 6724 6725 6726 6727 6728 6729 6730 6731 6732 6733 6734 6735 6736 6737 6738 6739 6740 6741 6742 6743 6744 6745 6746 6747 6748 6749 6750 6751 6752 6753 6754 6755 6756 6757 6758 6759 6760 6761 6762 6763 6764 6765 6766 6767 6768 6769 6770 6771 6772 6773 6774 6775 6776 6777 6778 6779 6780 6781 6782 6783 6784 6785 6786 6787 6788 6789 6790 6791 6792 6793 6794 6795 6796 6797 6798 6799 6800 6801 6802 6803 6804 6805 6806 6807 6808 6809 6810 6811 6812 6813 6814 6815 6816 6817 6818 6819 6820 6821 6822 6823 6824 6825 6826 6827 6828 6829 6830 6831 6832 6833 6834 6835 6836 6837 6838 6839 6840 6841 6842 6843 6844 6845 6846 6847 6848 6849 6850 6851 6852 6853 6854 6855 6856 6857 6858 6859 6860 6861 6862 6863 6864 6865 6866 6867 6868 6869 6870 6871 6872 6873 6874 6875 6876 6877 6878 6879 6880 6881 6882 6883 6884 6885 6886 6887 6888 6889 6890 6891 6892 6893 6894 6895 6896 6897 6898 6899 6900 6901 6902 6903 6904 6905 6906 6907 6908 6909 6910 6911 6912 6913 6914 6915 6916 6917 6918 6919 6920 6921 6922 6923 6924 6925 6926 6927 6928 6929 6930 6931 6932 6933 6934 6935 6936 6937 6938 6939 6940 6941 6942 6943 6944 6945 6946 6947 6948 6949 6950 6951 6952 6953 6954 6955 6956 6957 6958 6959 6960 6961 6962 6963 6964 6965 6966 6967 6968 6969 6970 6971 6972 6973 6974 6975 6976 6977 6978 6979 6980 6981 6982 6983 6984 6985 6986 6987 6988 6989 6990 6991 6992 6993 6994 6995 6996 6997 6998 6999 7000 7001 7002 7003 7004 7005 7006 7007 7008 7009 7010 7011 7012 7013 7014 7015 7016 7017 7018 7019 7020 7021 7022 7023 7024 7025 7026 7027 7028 7029 7030 7031 7032 7033 7034 7035 7036 7037 7038 7039 7040 7041 7042 7043 7044 7045 7046 7047 7048 7049 7050 7051 7052 7053 7054 7055 7056 7057 7058 7059 7060 7061 7062 7063 7064 7065 7066 7067 7068 7069 7070 7071 7072 7073 7074 7075 7076 7077 7078 7079 7080 7081 7082 7083 7084 7085 7086 7087 7088 7089 7090 7091 7092 7093 7094 7095 7096 7097 7098 7099 7100 7101 7102 7103 7104 7105 7106 7107 7108 7109 7110 7111 7112 7113 7114 7115 7116 7117 7118 7119 7120 7121 7122 7123 7124 7125 7126 7127 7128 7129 7130 7131 7132 7133 7134 7135 7136 7137 7138 7139 7140 7141 7142 7143 7144 7145 7146 7147 7148 7149 7150 7151 7152 7153 7154 7155 7156 7157 7158 7159 7160 7161 7162 7163 7164 7165 7166 7167 7168 7169 7170 7171 7172 7173 7174 7175 7176 7177 7178 7179 7180 7181 7182 7183 7184 7185 7186 7187 7188 7189 7190 7191 7192 7193 7194 7195 7196 7197 7198 7199 7200 7201 7202 7203 7204 7205 7206 7207 7208 7209 7210 7211 7212 7213 7214 7215 7216 7217 7218 7219 7220 7221 7222 7223 7224 7225 7226 7227 7228 7229 7230 7231 7232 7233 7234 7235 7236 7237 7238 7239 7240 7241 7242 7243 7244 7245 7246 7247 7248 7249 7250 7251 7252 7253 7254 7255 7256 7257 7258 7259 7260 7261 7262 7263 7264 7265 7266 7267 7268 7269 7270 7271 7272 7273 7274 7275 7276 7277 7278 7279 7280 7281 7282 7283 7284 7285 7286 7287 7288 7289 7290 7291 7292 7293 7294 7295 7296 7297 7298 7299 7300 7301 7302 7303 7304 7305 7306 7307 7308 7309 7310 7311 7312 7313 7314 7315 7316 7317 7318 7319 7320 7321 7322 7323 7324 7325 7326 7327 7328 7329 7330 7331 7332 7333 7334 7335 7336 7337 7338 7339 7340 7341 7342 7343 7344 7345 7346 7347 7348 7349 7350 7351 7352 7353 7354 7355 7356 7357 7358 7359 7360 7361 7362 7363 7364 7365 7366 7367 7368 7369 7370 7371 7372 7373 7374 7375 7376 7377 7378 7379 7380 7381 7382 7383 7384 7385 7386 7387 7388 7389 7390 7391 7392 7393 7394 7395 7396 7397 7398 7399 7400 7401 7402 7403 7404 7405 7406 7407 7408 7409 7410 7411 7412 7413 7414 7415 7416 7417 7418 7419 7420 7421 7422 7423 7424 7425 7426 7427 7428 7429 7430 7431 7432 7433 7434 7435 7436 7437 7438 7439 7440 7441 7442 7443 7444 7445 7446 7447 7448 7449 7450 7451 7452 7453 7454 7455 7456 7457 7458 7459 7460 7461 7462 7463 7464 7465 7466 7467 7468 7469 7470 7471 7472 7473 7474 7475 7476 7477 7478 7479 7480 7481 7482 7483 7484 7485 7486 7487 7488 7489 7490 7491 7492 7493 7494 7495 7496 7497 7498 7499 7500 7501 7502 7503 7504 7505 7506 7507 7508 7509 7510 7511 7512 7513 7514 7515 7516 7517 7518 7519 7520 7521 7522 7523 7524 7525 7526 7527 7528 7529 7530 7531 7532 7533 7534 7535 7536 7537 7538 7539 7540 7541 7542 7543 7544 7545 7546 7547 7548 7549 7550 7551 7552 7553 7554 7555 7556 7557 7558 7559 7560 7561 7562 7563 7564 7565 7566 7567 7568 7569 7570 7571 7572 7573 7574 7575 7576 7577 7578 7579 7580 7581 7582 7583 7584 7585 7586 7587 7588 7589 7590 7591 7592 7593 7594 7595 7596 7597 7598 7599 7600 7601 7602 7603 7604 7605 7606 7607 7608 7609 7610 7611 7612 7613 7614 7615 7616 7617 7618 7619 7620 7621 7622 7623 7624 7625 7626 7627 7628 7629 7630 7631 7632 7633 7634 7635 7636 7637 7638 7639 7640 7641 7642 7643 7644 7645 7646 7647 7648 7649 7650 7651 7652 7653 7654 7655 7656 7657 7658 7659 7660 7661 7662 7663 7664 7665 7666 7667 7668 7669 7670 7671 7672 7673 7674 7675 7676 7677 7678 7679 7680 7681 7682 7683 7684 7685 7686 7687 7688 7689 7690 7691 7692 7693 7694 7695 7696 7697 7698 7699 7700 7701 7702 7703 7704 7705 7706 7707 7708 7709 7710 7711 7712 7713 7714 7715 7716 7717 7718 7719 7720 7721 7722 7723 7724 7725 7726 7727 7728 7729 7730 7731 7732 7733 7734 7735 7736 7737 7738 7739 7740 7741 7742 7743 7744 7745 7746 7747 7748 7749 7750 7751 7752 7753 7754 7755 7756 7757 7758 7759 7760 7761 7762 7763 7764 7765 7766 7767 7768 7769 7770 7771 7772 7773 7774 7775 7776 7777 7778 7779 7780 7781 7782 7783 7784 7785 7786 7787 7788 7789 7790 7791 7792 7793 7794 7795 7796 7797 7798 7799 7800 7801 7802 7803 7804 7805 7806 7807 7808 7809 7810 7811 7812 7813 7814 7815 7816 7817 7818 7819 7820 7821 7822 7823 7824 7825 7826 7827 7828 7829 7830 7831 7832 7833 7834 7835 7836 7837 7838 7839 7840 7841 7842 7843 7844 7845 7846 7847 7848 7849 7850 7851 7852 7853 7854 7855 7856 7857 7858 7859 7860 7861 7862 7863 7864 7865 7866 7867 7868 7869 7870 7871 7872 7873 7874 7875 7876 7877 7878 7879 7880 7881 7882 7883 7884 7885 7886 7887 7888 7889 7890 7891 7892 7893 7894 7895 7896 7897 7898 7899 7900 7901 7902 7903 7904 7905 7906 7907 7908 7909 7910 7911 7912 7913 7914 7915 7916 7917 7918 7919 7920 7921 7922 7923 7924 7925 7926 7927 7928 7929 7930 7931 7932 7933 7934 7935 7936 7937 7938 7939 7940 7941 7942 7943 7944 7945 7946 7947 7948 7949 7950 7951 7952 7953 7954 7955 7956 7957 7958 7959 7960 7961 7962 7963 7964 7965 7966 7967 7968 7969 7970 7971 7972 7973 7974 7975 7976 7977 7978 7979 7980 7981 7982 7983 7984 7985 7986 7987 7988 7989 7990 7991 7992 7993 7994 7995 7996 7997 7998 7999 8000 8001 8002 8003 8004 8005 8006 8007 8008 8009 8010 8011 8012 8013 8014 8015 8016 8017 8018 8019 8020 8021 8022 8023 8024 8025 8026 8027 8028 8029 8030 8031 8032 8033 8034 8035 8036 8037 8038 8039 8040 8041 8042 8043 8044 8045 8046 8047 8048 8049 8050 8051 8052 8053 8054 8055 8056 8057 8058 8059 8060 8061 8062 8063 8064 8065 8066 8067 8068 8069 8070 8071 8072 8073 8074 8075 8076 8077 8078 8079 8080 8081 8082 8083 8084 8085 8086 8087 8088 8089 8090 8091 8092 8093 8094 8095 8096 8097 8098 8099 8100 8101 8102 8103 8104 8105 8106 8107 8108 8109 8110 8111 8112 8113 8114 8115 8116 8117 8118 8119 8120 8121 8122 8123 8124 8125 8126 8127 8128 8129 8130 8131 8132 8133 8134 8135 8136 8137 8138 8139 8140 8141 8142 8143 8144 8145 8146 8147 8148 8149 8150 8151 8152 8153 8154 8155 8156 8157 8158 8159 8160 8161 8162 8163 8164 8165 8166 8167 8168 8169 8170 8171 8172 8173 8174 8175 8176 8177 8178 8179 8180 8181 8182 8183 8184 8185 8186 8187 8188 8189 8190 8191 8192 8193 8194 8195 8196 8197 8198 8199 8200 8201 8202 8203 8204 8205 8206 8207 8208 8209 8210 8211 8212 8213 8214 8215 8216 8217 8218 8219 8220 8221 8222 8223 8224 8225 8226 8227 8228 8229 8230 8231 8232 8233 8234 8235 8236 8237 8238 8239 8240 8241 8242 8243 8244 8245 8246 8247 8248 8249 8250 8251 8252 8253 8254 8255 8256 8257 8258 8259 8260 8261 8262 8263 8264 8265 8266 8267 8268 8269 8270 8271 8272 8273 8274 8275 8276 8277 8278 8279 8280 8281 8282 8283 8284 8285 8286 8287 8288 8289 8290 8291 8292 8293 8294 8295 8296 8297 8298 8299 8300 8301 8302 8303 8304 8305 8306 8307 8308 8309 8310 8311 8312 8313 8314 8315 8316 8317 8318 8319 8320 8321 8322 8323 8324 8325 8326 8327 8328 8329 8330 8331 8332 8333 8334 8335 8336 8337 8338 8339 8340 8341 8342 8343 8344 8345 8346 8347 8348 8349 8350 8351 8352 8353 8354 8355 8356 8357 8358 8359 8360 8361 8362 8363 8364 8365 8366 8367 8368 8369 8370 8371 8372 8373 8374 8375 8376 8377 8378 8379 8380 8381 8382 8383 8384 8385 8386 8387 8388 8389 8390 8391 8392 8393 8394 8395 8396 8397 8398 8399 8400 8401 8402 8403 8404 8405 8406 8407 8408 8409 8410 8411 8412 8413 8414 8415 8416 8417 8418 8419 8420 8421 8422 8423 8424 8425 8426 8427 8428 8429 8430 8431 8432 8433 8434 8435 8436 8437 8438 8439 8440 8441 8442 8443 8444 8445 8446 8447 8448 8449 8450 8451 8452 8453 8454 8455 8456 8457 8458 8459 8460 8461 8462 8463 8464 8465 8466 8467 8468 8469 8470 8471 8472 8473 8474 8475 8476 8477 8478 8479 8480 8481 8482 8483 8484 8485 8486 8487 8488 8489 8490 8491 8492 8493 8494 8495 8496 8497 8498 8499 8500 8501 8502 8503 8504 8505 8506 8507 8508 8509 8510 8511 8512 8513 8514 8515 8516 8517 8518 8519 8520 8521 8522 8523 8524 8525 8526 8527 8528 8529 8530 8531 8532 8533 8534 8535 8536 8537 8538 8539 8540 8541 8542 8543 8544 8545 8546 8547 8548 8549 8550 8551 8552 8553 8554 8555 8556 8557 8558 8559 8560 8561 8562 8563 8564 8565 8566 8567 8568 8569 8570 8571 8572 8573 8574 8575 8576 8577 8578 8579 8580 8581 8582 8583 8584 8585 8586 8587 8588 8589 8590 8591 8592 8593 8594 8595 8596 8597 8598 8599 8600 8601 8602 8603 8604 8605 8606 8607 8608 8609 8610 8611 8612 8613 8614 8615 8616 8617 8618 8619 8620 8621 8622 8623 8624 8625 8626 8627 8628 8629 8630 8631 8632 8633 8634 8635 8636 8637 8638 8639 8640 8641 8642 8643 8644 8645 8646 8647 8648 8649 8650 8651 8652 8653 8654 8655 8656 8657 8658 8659 8660 8661 8662 8663 8664 8665 8666 8667 8668 8669 8670 8671 8672 8673 8674 8675 8676 8677 8678 8679 8680 8681 8682 8683 8684 8685 8686 8687 8688 8689 8690 8691 8692 8693 8694 8695 8696 8697 8698 8699 8700 8701 8702 8703 8704 8705 8706 8707 8708 8709 8710 8711 8712 8713 8714 8715 8716 8717 8718 8719 8720 8721 8722 8723 8724 8725 8726 8727 8728 8729 8730 8731 8732 8733 8734 8735 8736 8737 8738 8739 8740 8741 8742 8743 8744 8745 8746 8747 8748 8749 8750 8751 8752 8753 8754 8755 8756 8757 8758 8759 8760 8761 8762 8763 8764 8765 8766 8767 8768 8769 8770 8771 8772 8773 8774 8775 8776 8777 8778 8779 8780 8781 8782 8783 8784 8785 8786 8787 8788 8789 8790 8791 8792 8793 8794 8795 8796 8797 8798 8799 8800 8801 8802 8803 8804 8805 8806 8807 8808 8809 8810 8811 8812 8813 8814 8815 8816 8817 8818 8819 8820 8821 8822 8823 8824 8825 8826 8827 8828 8829 8830 8831 8832 8833 8834 8835 8836 8837 8838 8839 8840 8841 8842 8843 8844 8845 8846 8847 8848 8849 8850 8851 8852 8853 8854 8855 8856 8857 8858 8859 8860 8861 8862 8863 8864 8865 8866 8867 8868 8869 8870 8871 8872 8873 8874 8875 8876 8877 8878 8879 8880 8881 8882 8883 8884 8885 8886 8887 8888 8889 8890 8891 8892 8893 8894 8895 8896 8897 8898 8899 8900 8901 8902 8903 8904 8905 8906 8907 8908 8909 8910 8911 8912 8913 8914 8915 8916 8917 8918 8919 8920 8921 8922 8923 8924 8925 8926 8927 8928 8929 8930 8931 8932 8933 8934 8935 8936 8937 8938 8939 8940 8941 8942 8943 8944 8945 8946 8947 8948 8949 8950 8951 8952 8953 8954 8955 8956 8957 8958 8959 8960 8961 8962 8963 8964 8965 8966 8967 8968 8969 8970 8971 8972 8973 8974 8975 8976 8977 8978 8979 8980 8981 8982 8983 8984 8985 8986 8987 8988 8989 8990 8991 8992 8993 8994 8995 8996 8997 8998 8999 9000 9001 9002 9003 9004 9005 9006 9007 9008 9009 9010 9011 9012 9013 9014 9015 9016 9017 9018 9019 9020 9021 9022 9023 9024 9025 9026 9027 9028 9029 9030 9031 9032 9033 9034 9035 9036 9037 9038 9039 9040 9041 9042 9043 9044 9045 9046 9047 9048 9049 9050 9051 9052 9053 9054 9055 9056 9057 9058 9059 9060 9061 9062 9063 9064 9065 9066 9067 9068 9069 9070 9071 9072 9073 9074 9075 9076 9077 9078 9079 9080 9081 9082 9083 9084 9085 9086 9087 9088 9089 9090 9091 9092 9093 9094 9095 9096 9097 9098 9099 9100 9101 9102 9103 9104 9105 9106 9107 9108 9109 9110 9111 9112 9113 9114 9115 9116 9117 9118 9119 9120 9121 9122 9123 9124 9125 9126 9127 9128 9129 9130 9131 9132 9133 9134 9135 9136 9137 9138 9139 9140 9141 9142 9143 9144 9145 9146 9147 9148 9149 9150 9151 9152 9153 9154 9155 9156 9157 9158 9159 9160 9161 9162 9163 9164 9165 9166 9167 9168 9169 9170 9171 9172 9173 9174 9175 9176 9177 9178 9179 9180 9181 9182 9183 9184 9185 9186 9187 9188 9189 9190 9191 9192 9193 9194 9195 9196 9197 9198 9199 9200 9201 9202 9203 9204 9205 9206 9207 9208 9209 9210 9211 9212 9213 9214 9215 9216 9217 9218 9219 9220 9221 9222 9223 9224 9225 9226 9227 9228 9229 9230 9231 9232 9233 9234 9235 9236 9237 9238 9239 9240 9241 9242 9243 9244 9245 9246 9247 9248 9249 9250 9251 9252 9253 9254 9255 9256 9257 9258 9259 9260 9261 9262 9263 9264 9265 9266 9267 9268 9269 9270 9271 9272 9273 9274 9275 9276 9277 9278 9279 9280 9281 9282 9283 9284 9285 9286 9287 9288 9289 9290 9291 9292 9293 9294 9295 9296 9297 9298 9299 9300 9301 9302 9303 9304 9305 9306 9307 9308 9309 9310 9311 9312 9313 9314 9315 9316 9317 9318 9319 9320 9321 9322 9323 9324 9325 9326 9327 9328 9329 9330 9331 9332 9333 9334 9335 9336 9337 9338 9339 9340 9341 9342 9343 9344 9345 9346 9347 9348 9349 9350 9351 9352 9353 9354 9355 9356 9357 9358 9359 9360 9361 9362 9363 9364 9365 9366 9367 9368 9369 9370 9371 9372 9373 9374 9375 9376 9377 9378 9379 9380 9381 9382 9383 9384 9385 9386 9387 9388 9389 9390 9391 9392 9393 9394 9395 9396 9397 9398 9399 9400 9401 9402 9403 9404 9405 9406 9407 9408 9409 9410 9411 9412 9413 9414 9415 9416 9417 9418 9419 9420 9421 9422 9423 9424 9425 9426 9427 9428 9429 9430 9431 9432 9433 9434 9435 9436 9437 9438 9439 9440 9441 9442 9443 9444 9445 9446 9447 9448 9449 9450 9451 9452 9453 9454 9455 9456 9457 9458 9459 9460 9461 9462 9463 9464 9465 9466 9467 9468 9469 9470 9471 9472 9473 9474 9475 9476 9477 9478 9479 9480 9481 9482 9483 9484 9485 9486 9487 9488 9489 9490 9491 9492 9493 9494 9495 9496 9497 9498 9499 9500 9501 9502 9503 9504 9505 9506 9507 9508 9509 9510 9511 9512 9513 9514 9515 9516 9517 9518 9519 9520 9521 9522 9523 9524 9525 9526 9527 9528 9529 9530 9531 9532 9533 9534 9535 9536 9537 9538 9539 9540 9541 9542 9543 9544 9545 9546 9547 9548 9549 9550 9551 9552 9553 9554 9555 9556 9557 9558 9559 9560 9561 9562 9563 9564 9565 9566 9567 9568 9569 9570 9571 9572 9573 9574 9575 9576 9577 9578 9579 9580 9581 9582 9583 9584 9585 9586 9587 9588 9589 9590 9591 9592 9593 9594 9595 9596 9597 9598 9599 9600 9601 9602 9603 9604 9605 9606 9607 9608 9609 9610 9611 9612 9613 9614 9615 9616 9617 9618 9619 9620 9621 9622 9623 9624 9625 9626 9627 9628 9629 9630 9631 9632 9633 9634 9635 9636 9637 9638 9639 9640 9641 9642 9643 9644 9645 9646 9647 9648 9649 9650 9651 9652 9653 9654 9655 9656 9657 9658 9659 9660 9661 9662 9663 9664 9665 9666 9667 9668 9669 9670 9671 9672 9673 9674 9675 9676 9677 9678 9679 9680 9681 9682 9683 9684 9685 9686 9687 9688 9689 9690 9691 9692 9693 9694 9695 9696 9697 9698 9699 9700 9701 9702 9703 9704 9705 9706 9707 9708 9709 9710 9711 9712 9713 9714 9715 9716 9717 9718 9719 9720 9721 9722 9723 9724 9725 9726 9727 9728 9729 9730 9731 9732 9733 9734 9735 9736 9737 9738 9739 9740 9741 9742 9743 9744 9745 9746 9747 9748 9749 9750 9751 9752 9753 9754 9755 9756 9757 9758 9759 9760 9761 9762 9763 9764 9765 9766 9767 9768 9769 9770 9771 9772 9773 9774 9775 9776 9777 9778 9779 9780 9781 9782 9783 9784 9785 9786 9787 9788 9789 9790 9791 9792 9793 9794 9795 9796 9797 9798 9799 9800 9801 9802 9803 9804 9805 9806 9807 9808 9809 9810 9811 9812 9813 9814 9815 9816 9817 9818 9819 9820 9821 9822 9823 9824 9825 9826 9827 9828 9829 9830 9831 9832 9833 9834 9835 9836 9837 9838 9839 9840 9841 9842 9843 9844 9845 9846 9847 9848 9849 9850 9851 9852 9853 9854 9855 9856 9857 9858 9859 9860 9861 9862 9863 9864 9865 9866 9867 9868 9869 9870 9871 9872 9873 9874 9875 9876 9877 9878 9879 9880 9881 9882 9883 9884 9885 9886 9887 9888 9889 9890 9891 9892 9893 9894 9895 9896 9897 9898 9899 9900 9901 9902 9903 9904 9905 9906 9907 9908 9909 9910 9911 9912 9913 9914 9915 9916 9917 9918 9919 9920 9921 9922 9923 9924 9925 9926 9927 9928 9929 9930 9931 9932 9933 9934 9935 9936 9937 9938 9939 9940 9941 9942 9943 9944 9945 9946 9947 9948 9949 9950 9951 9952 9953 9954 9955 9956 9957 9958 9959 9960 9961 9962 9963 9964 9965 9966 9967 9968 9969 9970 9971 9972 9973 9974 9975 9976 9977 9978 9979 9980 9981 9982 9983 9984 9985 9986 9987 9988 9989 9990 9991 9992 9993 9994 9995 9996 9997 9998 9999 10000 10001 10002 10003 10004 10005 10006 10007 10008 10009 10010 10011 10012 10013 10014 10015 10016 10017 10018 10019 10020 10021 10022 10023 10024 10025 10026 10027 10028 10029 10030 10031 10032 10033 10034 10035 10036 10037 10038 10039 10040 10041 10042 10043 10044 10045 10046 10047 10048 10049 10050 10051 10052 10053 10054 10055 10056 10057 10058 10059 10060 10061 10062 10063 10064 10065 10066 10067 10068 10069 10070 10071 10072 10073 10074 10075 10076 10077 10078 10079 10080 10081 10082 10083 10084 10085 10086 10087 10088 10089 10090 10091 10092 10093 10094 10095 10096 10097 10098 10099 10100 10101 10102 10103 10104 10105 10106 10107 10108 10109 10110 10111 10112 10113 10114 10115 10116 10117 10118 10119 10120 10121 10122 10123 10124 10125 10126 10127 10128 10129 10130 10131 10132 10133 10134 10135 10136 10137 10138 10139 10140 10141 10142 10143 10144 10145 10146 10147 10148 10149 10150 10151 10152 10153 10154 10155 10156 10157 10158 10159 10160 10161 10162 10163 10164 10165 10166 10167 10168 10169 10170 10171 10172 10173 10174 10175 10176 10177 10178 10179 10180 10181 10182 10183 10184 10185 10186 10187 10188 10189 10190 10191 10192 10193 10194 10195 10196 10197 10198 10199 10200 10201 10202 10203 10204 10205 10206 10207 10208 10209 10210 10211 10212 10213 10214 10215 10216 10217 10218 10219 10220 10221 10222 10223 10224 10225 10226 10227 10228 10229 10230 10231 10232 10233 10234 10235 10236 10237 10238 10239 10240 10241 10242 10243 10244 10245 10246 10247 10248 10249 10250 10251 10252 10253 10254 10255 10256 10257 10258 10259 10260 10261 10262 10263 10264 10265 10266 10267 10268 10269 10270 10271 10272 10273 10274 10275 10276 10277 10278 10279 10280 10281 10282 10283 10284 10285 10286 10287 10288 10289 10290 10291 10292 10293 10294 10295 10296 10297 10298 10299 10300 10301 10302 10303 10304 10305 10306 10307 10308 10309 10310 10311 10312 10313 10314 10315 10316 10317 10318 10319 10320 10321 10322 10323 10324 10325 10326 10327 10328 10329 10330 10331 10332 10333 10334 10335 10336 10337 10338 10339 10340 10341 10342 10343 10344 10345 10346 10347 10348 10349 10350 10351 10352 10353 10354 10355 10356 10357 10358 10359 10360 10361 10362 10363 10364 10365 10366 10367 10368 10369 10370 10371 10372 10373 10374 10375 10376 10377 10378 10379 10380 10381 10382 10383 10384 10385 10386 10387 10388 10389 10390 10391 10392 10393 10394 10395 10396 10397 10398 10399 10400 10401 10402 10403 10404 10405 10406 10407 10408 10409 10410 10411 10412 10413 10414 10415 10416 10417 10418 10419 10420 10421 10422 10423 10424 10425 10426 10427 10428 10429 10430 10431 10432 10433 10434 10435 10436 10437 10438 10439 10440 10441 10442 10443 10444 10445 10446 10447 10448 10449 10450 10451 10452 10453 10454 10455 10456 10457 10458 10459 10460 10461 10462 10463 10464 10465 10466 10467 10468 10469 10470 10471 10472 10473 10474 10475 10476 10477 10478 10479 10480 10481 10482 10483 10484 10485 10486 10487 10488 10489 10490 10491 10492 10493 10494 10495 10496 10497 10498 10499 10500 10501 10502 10503 10504 10505 10506 10507 10508 10509 10510 10511 10512 10513 10514 10515 10516 10517 10518 10519 10520 10521 10522 10523 10524 10525 10526 10527 10528 10529 10530 10531 10532 10533 10534 10535 10536 10537 10538 10539 10540 10541 10542 10543 10544 10545 10546 10547 10548 10549 10550 10551 10552 10553 10554 10555 10556 10557 10558 10559 10560 10561 10562 10563 10564 10565 10566 10567 10568 10569 10570 10571 10572 10573 10574 10575 10576 10577 10578 10579 10580 10581 10582 10583 10584 10585 10586 10587 10588 10589 10590 10591 10592 10593 10594 10595 10596 10597 10598 10599 10600 10601 10602 10603 10604 10605 10606 10607 10608 10609 10610 10611 10612 10613 10614 10615 10616 10617 10618 10619 10620 10621 10622 10623 10624 10625 10626 10627 10628 10629 10630 10631 10632 10633 10634 10635 10636 10637 10638 10639 10640 10641 10642 10643 10644 10645 10646 10647 10648 10649 10650 10651 10652 10653 10654 10655 10656 10657 10658 10659 10660 10661 10662 10663 10664 10665 10666 10667 10668 10669 10670 10671 10672 10673 10674 10675 10676 10677 10678 10679 10680 10681 10682 10683 10684 10685 10686 10687 10688 10689 10690 10691 10692 10693 10694 10695 10696 10697 10698 10699 10700 10701 10702 10703 10704 10705 10706 10707 10708 10709 10710 10711 10712 10713 10714 10715 10716 10717 10718 10719 10720 10721 10722 10723 10724 10725 10726 10727 10728 10729 10730 10731 10732 10733 10734 10735 10736 10737 10738 10739 10740 10741 10742 10743 10744 10745 10746 10747 10748 10749 10750 10751 10752 10753 10754 10755 10756 10757 10758 10759 10760 10761 10762 10763 10764 10765 10766 10767 10768 10769 10770 10771 10772 10773 10774 10775 10776 10777 10778 10779 10780 10781 10782 10783 10784 10785 10786 10787 10788 10789 10790 10791 10792 10793 10794 10795 10796 10797 10798 10799 10800 10801 10802 10803 10804 10805 10806 10807 10808 10809 10810 10811 10812 10813 10814 10815 10816 10817 10818 10819 10820 10821 10822 10823 10824 10825 10826 10827 10828 10829 10830 10831 10832 10833 10834 10835 10836 10837 10838 10839 10840 10841 10842 10843 10844 10845 10846 10847 10848 10849 10850 10851 10852 10853 10854 10855 10856 10857 10858 10859 10860 10861 10862 10863 10864 10865 10866 10867 10868 10869 10870 10871 10872 10873 10874 10875 10876 10877 10878 10879 10880 10881 10882 10883 10884 10885 10886 10887 10888 10889 10890 10891 10892 10893 10894 10895 10896 10897 10898 10899 10900 10901 10902 10903 10904 10905 10906 10907 10908 10909 10910 10911 10912 10913 10914 10915 10916 10917 10918 10919 10920 10921 10922 10923 10924 10925 10926 10927 10928 10929 10930 10931 10932 10933 10934 10935 10936 10937 10938 10939 10940 10941 10942 10943 10944 10945 10946 10947 10948 10949 10950 10951 10952 10953 10954 10955 10956 10957 10958 10959 10960 10961 10962 10963 10964 10965 10966 10967 10968 10969 10970 10971 10972 10973 10974 10975 10976 10977 10978 10979 10980 10981 10982 10983 10984 10985 10986 10987 10988 10989 10990 10991 10992 10993 10994 10995 10996 10997 10998 10999 11000 11001 11002 11003 11004 11005 11006 11007 11008 11009 11010 11011 11012 11013 11014 11015 11016 11017 11018 11019 11020 11021 11022 11023 11024 11025 11026 11027 11028 11029 11030 11031 11032 11033 11034 11035 11036 11037 11038 11039 11040 11041 11042 11043 11044 11045 11046 11047 11048 11049 11050 11051 11052 11053 11054 11055 11056 11057 11058 11059 11060 11061 11062 11063 11064 11065 11066 11067 11068 11069 11070 11071 11072 11073 11074 11075 11076 11077 11078 11079 11080 11081 11082 11083 11084 11085 11086 11087 11088 11089 11090 11091 11092 11093 11094 11095 11096 11097 11098 11099 11100 11101 11102 11103 11104 11105 11106 11107 11108 11109 11110 11111 11112 11113 11114 11115 11116 11117 11118 11119 11120 11121 11122 11123 11124 11125 11126 11127 11128 11129 11130 11131 11132 11133 11134 11135 11136 11137 11138 11139 11140 11141 11142 11143 11144 11145 11146 11147 11148 11149 11150 11151 11152 11153 11154 11155 11156 11157 11158 11159 11160 11161 11162 11163 11164 11165 11166 11167 11168 11169 11170 11171 11172 11173 11174 11175 11176 11177 11178 11179 11180 11181 11182 11183 11184 11185 11186 11187 11188 11189 11190 11191 11192 11193 11194 11195 11196 11197 11198 11199 11200 11201 11202 11203 11204 11205 11206 11207 11208 11209 11210 11211 11212 11213 11214 11215 11216 11217 11218 11219 11220 11221 11222 11223 11224 11225 11226 11227 11228 11229 11230 11231 11232 11233 11234 11235 11236 11237 11238 11239 11240 11241 11242 11243 11244 11245 11246 11247 11248 11249 11250 11251 11252 11253 11254 11255 11256 11257 11258 11259 11260 11261 11262 11263 11264 11265 11266 11267 11268 11269 11270 11271 11272 11273 11274 11275 11276 11277 11278 11279 11280 11281 11282 11283 11284 11285 11286 11287 11288 11289 11290 11291 11292 11293 11294 11295 11296 11297 11298 11299 11300 11301 11302 11303 11304 11305 11306 11307 11308 11309 11310 11311 11312 11313 11314 11315 11316 11317 11318 11319 11320 11321 11322 11323 11324 11325 11326 11327 11328 11329 11330 11331 11332 11333 11334 11335 11336 11337 11338 11339 11340 11341 11342 11343 11344 11345 11346 11347 11348 11349 11350 11351 11352 11353 11354 11355 11356 11357 11358 11359 11360 11361 11362 11363 11364 11365 11366 11367 11368 11369 11370 11371 11372 11373 11374 11375 11376 11377 11378 11379 11380 11381 11382 11383 11384 11385 11386 11387 11388 11389 11390 11391 11392 11393 11394 11395 11396 11397 11398 11399 11400 11401 11402 11403 11404 11405 11406 11407 11408 11409 11410 11411 11412 11413 11414 11415 11416 11417 11418 11419 11420 11421 11422 11423 11424 11425 11426 11427 11428 11429 11430 11431 11432 11433 11434 11435 11436 11437 11438 11439 11440 11441 11442 11443 11444 11445 11446 11447 11448 11449 11450 11451 11452 11453 11454 11455 11456 11457 11458 11459 11460 11461 11462 11463 11464 11465 11466 11467 11468 11469 11470 11471 11472 11473 11474 11475 11476 11477 11478 11479 11480 11481 11482 11483 11484 11485 11486 11487 11488 11489 11490 11491 11492 11493 11494 11495 11496 11497 11498 11499 11500 11501 11502 11503 11504 11505 11506 11507 11508 11509 11510 11511 11512 11513 11514 11515 11516 11517 11518 11519 11520 11521 11522 11523 11524 11525 11526 11527 11528 11529 11530 11531 11532 11533 11534 11535 11536 11537 11538 11539 11540 11541 11542 11543 11544 11545 11546 11547 11548 11549 11550 11551 11552 11553 11554 11555 11556 11557 11558 11559 11560 11561 11562 11563 11564 11565 11566 11567 11568 11569 11570 11571 11572 11573 11574 11575 11576 11577 11578 11579 11580 11581 11582 11583 11584 11585 11586 11587 11588 11589 11590 11591 11592 11593 11594 11595 11596 11597 11598 11599 11600 11601 11602 11603 11604 11605 11606 11607 11608 11609 11610 11611 11612 11613 11614 11615 11616 11617 11618 11619 11620 11621 11622 11623 11624 11625 11626 11627 11628 11629 11630 11631 11632 11633 11634 11635 11636 11637 11638 11639 11640 11641 11642 11643 11644 11645 11646 11647 11648 11649 11650 11651 11652 11653 11654 11655 11656 11657 11658 11659 11660 11661 11662 11663 11664 11665 11666 11667 11668 11669 11670 11671 11672 11673 11674 11675 11676 11677 11678 11679 11680 11681 11682 11683 11684 11685 11686 11687 11688 11689 11690 11691 11692 11693 11694 11695 11696 11697 11698 11699 11700 11701 11702 11703 11704 11705 11706 11707 11708 11709 11710 11711 11712 11713 11714 11715 11716 11717 11718 11719 11720 11721 11722 11723 11724 11725 11726 11727 11728 11729 11730 11731 11732 11733 11734 11735 11736 11737 11738 11739 11740 11741 11742 11743 11744 11745 11746 11747 11748 11749 11750 11751 11752 11753 11754 11755 11756 11757 11758 11759 11760 11761 11762 11763 11764 11765 11766 11767 11768 11769 11770 11771 11772 11773 11774 11775 11776 11777 11778 11779 11780 11781 11782 11783 11784 11785 11786 11787 11788 11789 11790 11791 11792 11793 11794 11795 11796 11797 11798 11799 11800 11801 11802 11803 11804 11805 11806 11807 11808 11809 11810 11811 11812 11813 11814 11815 11816 11817 11818 11819 11820 11821 11822 11823 11824 11825 11826 11827 11828 11829 11830 11831 11832 11833 11834 11835 11836 11837 11838 11839 11840 11841 11842 11843 11844 11845 11846 11847 11848 11849 11850 11851 11852 11853 11854 11855 11856 11857 11858 11859 11860 11861 11862 11863 11864 11865 11866 11867 11868 11869 11870 11871 11872 11873 11874 11875 11876 11877 11878 11879 11880 11881 11882 11883 11884 11885 11886 11887 11888 11889 11890 11891 11892 11893 11894 11895 11896 11897 11898 11899 11900 11901 11902 11903 11904 11905 11906 11907 11908 11909 11910 11911 11912 11913 11914 11915 11916 11917 11918 11919 11920 11921 11922 11923 11924 11925 11926 11927 11928 11929 11930 11931 11932 11933 11934 11935 11936 11937 11938 11939 11940 11941 11942 11943 11944 11945 11946 11947 11948 11949 11950 11951 11952 11953 11954 11955 11956 11957 11958 11959 11960 11961 11962 11963 11964 11965 11966 11967 11968 11969 11970 11971 11972 11973 11974 11975 11976 11977 11978 11979 11980 11981 11982 11983 11984 11985 11986 11987 11988 11989 11990 11991 11992 11993 11994 11995 11996 11997 11998 11999 12000 12001 12002 12003 12004 12005 12006 12007 12008 12009 12010 12011 12012 12013 12014 12015 12016 12017 12018 12019 12020 12021 12022 12023 12024 12025 12026 12027 12028 12029 12030 12031 12032 12033 12034 12035 12036 12037 12038 12039 12040 12041 12042 12043 12044 12045 12046 12047 12048 12049 12050 12051 12052 12053 12054 12055 12056 12057 12058 12059 12060 12061 12062 12063 12064 12065 12066 12067 12068 12069 12070 12071 12072 12073 12074 12075 12076 12077 12078 12079 12080 12081 12082 12083 12084 12085 12086 12087 12088 12089 12090 12091 12092 12093 12094 12095 12096 12097 12098 12099 12100 12101 12102 12103 12104 12105 12106 12107 12108 12109 12110 12111 12112 12113 12114 12115 12116 12117 12118 12119 12120 12121 12122 12123 12124 12125 12126 12127 12128 12129 12130 12131 12132 12133 12134 12135 12136 12137 12138 12139 12140 12141 12142 12143 12144 12145 12146 12147 12148 12149 12150 12151 12152 12153 12154 12155 12156 12157 12158 12159 12160 12161 12162 12163 12164 12165 12166 12167 12168 12169 12170 12171 12172 12173 12174 12175 12176 12177 12178 12179 12180 12181 12182 12183 12184 12185 12186 12187 12188 12189 12190 12191 12192 12193 12194 12195 12196 12197 12198 12199 12200 12201 12202 12203 12204 12205 12206 12207 12208 12209 12210 12211 12212 12213 12214 12215 12216 12217 12218 12219 12220 12221 12222 12223 12224 12225 12226 12227 12228 12229 12230 12231 12232 12233 12234 12235 12236 12237 12238 12239 12240 12241 12242 12243 12244 12245 12246 12247 12248 12249 12250 12251 12252 12253 12254 12255 12256 12257 12258 12259 12260 12261 12262 12263 12264 12265 12266 12267 12268 12269 12270 12271 12272 12273 12274 12275 12276 12277 12278 12279 12280 12281 12282 12283 12284 12285 12286 12287 12288 12289 12290 12291 12292 12293 12294 12295 12296 12297 12298 12299 12300 12301 12302 12303 12304 12305 12306 12307 12308 12309 12310 12311 12312 12313 12314 12315 12316 12317 12318 12319 12320 12321 12322 12323 12324 12325 12326 12327 12328 12329 12330 12331 12332 12333 12334 12335 12336 12337 12338 12339 12340 12341 12342 12343 12344 12345 12346 12347 12348 12349 12350 12351 12352 12353 12354 12355 12356 12357 12358 12359 12360 12361 12362 12363 12364 12365 12366 12367 12368 12369 12370 12371 12372 12373 12374 12375 12376 12377 12378 12379 12380 12381 12382 12383 12384 12385 12386 12387 12388 12389 12390 12391 12392 12393 12394 12395 12396 12397 12398 12399 12400 12401 12402 12403 12404 12405 12406 12407 12408 12409 12410 12411 12412 12413 12414 12415 12416 12417 12418 12419 12420 12421 12422 12423 12424 12425 12426 12427 12428 12429 12430 12431 12432 12433 12434 12435 12436 12437 12438 12439 12440 12441 12442 12443 12444 12445 12446 12447 12448 12449 12450 12451 12452 12453 12454 12455 12456 12457 12458 12459 12460 12461 12462 12463 12464 12465 12466 12467 12468 12469 12470 12471 12472 12473 12474 12475 12476 12477 12478 12479 12480 12481 12482 12483 12484 12485 12486 12487 12488 12489 12490 12491 12492 12493 12494 12495 12496 12497 12498 12499 12500 12501 12502 12503 12504 12505 12506 12507 12508 12509 12510 12511 12512 12513 12514 12515 12516 12517 12518 12519 12520 12521 12522 12523 12524 12525 12526 12527 12528 12529 12530 12531 12532 12533 12534 12535 12536 12537 12538 12539 12540 12541 12542 12543 12544 12545 12546 12547 12548 12549 12550 12551 12552 12553 12554 12555 12556 12557 12558 12559 12560 12561 12562 12563 12564 12565 12566 12567 12568 12569 12570 12571 12572 12573 12574 12575 12576 12577 12578 12579 12580 12581 12582 12583 12584 12585 12586 12587 12588 12589 12590 12591 12592 12593 12594 12595 12596 12597 12598 12599 12600 12601 12602 12603 12604 12605 12606 12607 12608 12609 12610 12611 12612 12613 12614 12615 12616 12617 12618 12619 12620 12621 12622 12623 12624 12625 12626 12627 12628 12629 12630 12631 12632 12633 12634 12635 12636 12637 12638 12639 12640 12641 12642 12643 12644 12645 12646 12647 12648 12649 12650 12651 12652 12653 12654 12655 12656 12657 12658 12659 12660 12661 12662 12663 12664 12665 12666 12667 12668 12669 12670 12671 12672 12673 12674 12675 12676 12677 12678 12679 12680 12681 12682 12683 12684 12685 12686 12687 12688 12689 12690 12691 12692 12693 12694 12695 12696 12697 12698 12699 12700 12701 12702 12703 12704 12705 12706 12707 12708 12709 12710 12711 12712 12713 12714 12715 12716 12717 12718 12719 12720 12721 12722 12723 12724 12725 12726 12727 12728 12729 12730 12731 12732 12733 12734 12735 12736 12737 12738 12739 12740 12741 12742 12743 12744 12745 12746 12747 12748 12749 12750 12751 12752 12753 12754 12755 12756 12757 12758 12759 12760 12761 12762 12763 12764 12765 12766 12767 12768 12769 12770 12771 12772 12773 12774 12775 12776 12777 12778 12779 12780 12781 12782 12783 12784 12785 12786 12787 12788 12789 12790 12791 12792 12793 12794 12795 12796 12797 12798 12799 12800 12801 12802 12803 12804 12805 12806 12807 12808 12809 12810 12811 12812 12813 12814 12815 12816 12817 12818 12819 12820 12821 12822 12823 12824 12825 12826 12827 12828 12829 12830 12831 12832 12833 12834 12835 12836 12837 12838 12839 12840 12841 12842 12843 12844 12845 12846 12847 12848 12849 12850 12851 12852 12853 12854 12855 12856 12857 12858 12859 12860 12861 12862 12863 12864 12865 12866 12867 12868 12869 12870 12871 12872 12873 12874 12875 12876 12877 12878 12879 12880 12881 12882 12883 12884 12885 12886 12887 12888 12889 12890 12891 12892 12893 12894 12895 12896 12897 12898 12899 12900 12901 12902 12903 12904 12905 12906 12907 12908 12909 12910 12911 12912 12913 12914 12915 12916 12917 12918 12919 12920 12921 12922 12923 12924 12925 12926 12927 12928 12929 12930 12931 12932 12933 12934 12935 12936 12937 12938 12939 12940 12941 12942 12943 12944 12945 12946 12947 12948 12949 12950 12951 12952 12953 12954 12955 12956 12957 12958 12959 12960 12961 12962 12963 12964 12965 12966 12967 12968 12969 12970 12971 12972 12973 12974 12975 12976 12977 12978 12979 12980 12981 12982 12983 12984 12985 12986 12987 12988 12989 12990 12991 12992 12993 12994 12995 12996 12997 12998 12999 13000 13001 13002 13003 13004 13005 13006 13007 13008 13009 13010 13011 13012 13013 13014 13015 13016 13017 13018 13019 13020 13021 13022 13023 13024 13025 13026 13027 13028 13029 13030 13031 13032 13033 13034 13035 13036 13037 13038 13039 13040 13041 13042 13043 13044 13045 13046 13047 13048 13049 13050 13051 13052 13053 13054 13055 13056 13057 13058 13059 13060 13061 13062 13063 13064 13065 13066 13067 13068 13069 13070 13071 13072 13073 13074 13075 13076 13077 13078 13079 13080 13081 13082 13083 13084 13085 13086 13087 13088 13089 13090 13091 13092 13093 13094 13095 13096 13097 13098 13099 13100 13101 13102 13103 13104 13105 13106 13107 13108 13109 13110 13111 13112 13113 13114 13115 13116 13117 13118 13119 13120 13121 13122 13123 13124 13125 13126 13127 13128 13129 13130 13131 13132 13133 13134 13135 13136 13137 13138 13139 13140 13141 13142 13143 13144 13145 13146 13147 13148 13149 13150 13151 13152 13153 13154 13155 13156 13157 13158 13159 13160 13161 13162 13163 13164 13165 13166 13167 13168 13169 13170 13171 13172 13173 13174 13175 13176 13177 13178 13179 13180 13181 13182 13183 13184 13185 13186 13187 13188 13189 13190 13191 13192 13193 13194 13195 13196 13197 13198 13199 13200 13201 13202 13203 13204 13205 13206 13207 13208 13209 13210 13211 13212 13213 13214 13215 13216 13217 13218 13219 13220 13221 13222 13223 13224 13225 13226 13227 13228 13229 13230 13231 13232 13233 13234 13235 13236 13237 13238 13239 13240 13241 13242 13243 13244 13245 13246 13247 13248 13249 13250 13251 13252 13253 13254 13255 13256 13257 13258 13259 13260 13261 13262 13263 13264 13265 13266 13267 13268 13269 13270 13271 13272 13273 13274 13275 13276 13277 13278 13279 13280 13281 13282 13283 13284 13285 13286 13287 13288 13289 13290 13291 13292 13293 13294 13295 13296 13297 13298 13299 13300 13301 13302 13303 13304 13305 13306 13307 13308 13309 13310 13311 13312 13313 13314 13315 13316 13317 13318 13319 13320 13321 13322 13323 13324 13325 13326 13327 13328 13329 13330 13331 13332 13333 13334 13335 13336 13337 13338 13339 13340 13341 13342 13343 13344 13345 13346 13347 13348 13349 13350 13351 13352 13353 13354 13355 13356 13357 13358 13359 13360 13361 13362 13363 13364 13365 13366 13367 13368 13369 13370 13371 13372 13373 13374 13375 13376 13377 13378 13379 13380 13381 13382 13383 13384 13385 13386 13387 13388 13389 13390 13391 13392 13393 13394 13395 13396 13397 13398 13399 13400 13401 13402 13403 13404 13405 13406 13407 13408 13409 13410 13411 13412 13413 13414 13415 13416 13417 13418 13419 13420 13421 13422 13423 13424 13425 13426 13427 13428 13429 13430 13431 13432 13433 13434 13435 13436 13437 13438 13439 13440 13441 13442 13443 13444 13445 13446 13447 13448 13449 13450 13451 13452 13453 13454 13455 13456 13457 13458 13459 13460 13461 13462 13463 13464 13465 13466 13467 13468 13469 13470 13471 13472 13473 13474 13475 13476 13477 13478 13479 13480 13481 13482 13483 13484 13485 13486 13487 13488 13489 13490 13491 13492 13493 13494 13495 13496 13497 13498 13499 13500 13501 13502 13503 13504 13505 13506 13507 13508 13509 13510 13511 13512 13513 13514 13515 13516 13517 13518 13519 13520 13521 13522 13523 13524 13525 13526 13527 13528 13529 13530 13531 13532 13533 13534 13535 13536 13537 13538 13539 13540 13541 13542 13543 13544 13545 13546 13547 13548 13549 13550 13551 13552 13553 13554 13555 13556 13557 13558 13559 13560 13561 13562 13563 13564 13565 13566 13567 13568 13569 13570 13571 13572 13573 13574 13575 13576 13577 13578 13579 13580 13581 13582 13583 13584 13585 13586 13587 13588 13589 13590 13591 13592 13593 13594 13595 13596 13597 13598 13599 13600 13601 13602 13603 13604 13605 13606 13607 13608 13609 13610 13611 13612 13613 13614 13615 13616 13617 13618 13619 13620 13621 13622 13623 13624 13625 13626 13627 13628 13629 13630 13631 13632 13633 13634 13635 13636 13637 13638 13639 13640 13641 13642 13643 13644 13645 13646 13647 13648 13649 13650 13651 13652 13653 13654 13655 13656 13657 13658 13659 13660 13661 13662 13663 13664 13665 13666 13667 13668 13669 13670 13671 13672 13673 13674 13675 13676 13677 13678 13679 13680 13681 13682 13683 13684 13685 13686 13687 13688 13689 13690 13691 13692 13693 13694 13695 13696 13697 13698 13699 13700 13701 13702 13703 13704 13705 13706 13707 13708 13709 13710 13711 13712 13713 13714 13715 13716 13717 13718 13719 13720 13721 13722 13723 13724 13725 13726 13727 13728 13729 13730 13731 13732 13733 13734 13735 13736 13737 13738 13739 13740 13741 13742 13743 13744 13745 13746 13747 13748 13749 13750 13751 13752 13753 13754 13755 13756 13757 13758 13759 13760 13761 13762 13763 13764 13765 13766 13767 13768 13769 13770 13771 13772 13773 13774 13775 13776 13777 13778 13779 13780 13781 13782 13783 13784 13785 13786 13787 13788 13789 13790 13791 13792 13793 13794 13795 13796 13797 13798 13799 13800 13801 13802 13803 13804 13805 13806 13807 13808 13809 13810 13811 13812 13813 13814 13815 13816 13817 13818 13819 13820 13821 13822 13823 13824 13825 13826 13827 13828 13829 13830 13831 13832 13833 13834 13835 13836 13837 13838 13839 13840 13841 13842 13843 13844 13845 13846 13847 13848 13849 13850 13851 13852 13853 13854 13855 13856 13857 13858 13859 13860 13861 13862 13863 13864 13865 13866 13867 13868 13869 13870 13871 13872 13873 13874 13875 13876 13877 13878 13879 13880 13881 13882 13883 13884 13885 13886 13887 13888 13889 13890 13891 13892 13893 13894 13895 13896 13897 13898 13899 13900 13901 13902 13903 13904 13905 13906 13907 13908 13909 13910 13911 13912 13913 13914 13915 13916 13917 13918 13919 13920 13921 13922 13923 13924 13925 13926 13927 13928 13929 13930 13931 13932 13933 13934 13935 13936 13937 13938 13939 13940 13941 13942 13943 13944 13945 13946 13947 13948 13949 13950 13951 13952 13953 13954 13955 13956 13957 13958 13959 13960 13961 13962 13963 13964 13965 13966 13967 13968 13969 13970 13971 13972 13973 13974 13975 13976 13977 13978 13979 13980 13981 13982 13983 13984 13985 13986 13987 13988 13989 13990 13991 13992 13993 13994 13995 13996 13997 13998 13999 14000 14001 14002 14003 14004 14005 14006 14007 14008 14009 14010 14011 14012 14013 14014 14015 14016 14017 14018 14019 14020 14021 14022 14023 14024 14025 14026 14027 14028 14029 14030 14031 14032 14033 14034 14035 14036 14037 14038 14039 14040 14041 14042 14043 14044 14045 14046 14047 14048 14049 14050 14051 14052 14053 14054 14055 14056 14057 14058 14059 14060 14061 14062 14063 14064 14065 14066 14067 14068 14069 14070 14071 14072 14073 14074 14075 14076 14077 14078 14079 14080 14081 14082 14083 14084 14085 14086 14087 14088 14089 14090 14091 14092 14093 14094 14095 14096 14097 14098 14099 14100 14101 14102 14103 14104 14105 14106 14107 14108 14109 14110 14111 14112 14113 14114 14115 14116 14117 14118 14119 14120 14121 14122 14123 14124 14125 14126 14127 14128 14129 14130 14131 14132 14133 14134 14135 14136 14137 14138 14139 14140 14141 14142 14143 14144 14145 14146 14147 14148 14149 14150 14151 14152 14153 14154 14155 14156 14157 14158 14159 14160 14161 14162 14163 14164 14165 14166 14167 14168 14169 14170 14171 14172 14173 14174 14175 14176 14177 14178 14179 14180 14181 14182 14183 14184 14185 14186 14187 14188 14189 14190 14191 14192 14193 14194 14195 14196 14197 14198 14199 14200 14201 14202 14203 14204 14205 14206 14207 14208 14209 14210 14211 14212 14213 14214 14215 14216 14217 14218 14219 14220 14221 14222 14223 14224 14225 14226 14227 14228 14229 14230 14231 14232 14233 14234 14235 14236 14237 14238 14239 14240 14241 14242 14243 14244 14245 14246 14247 14248 14249 14250 14251 14252 14253 14254 14255 14256 14257 14258 14259 14260 14261 14262 14263 14264 14265 14266 14267 14268 14269 14270 14271 14272 14273 14274 14275 14276 14277 14278 14279 14280 14281 14282 14283 14284 14285 14286 14287 14288 14289 14290 14291 14292 14293 14294 14295 14296 14297 14298 14299 14300 14301 14302 14303 14304 14305 14306 14307 14308 14309 14310 14311 14312 14313 14314 14315 14316 14317 14318 14319 14320 14321 14322 14323 14324 14325 14326 14327 14328 14329 14330 14331 14332 14333 14334 14335 14336 14337 14338 14339 14340 14341 14342 14343 14344 14345 14346 14347 14348 14349 14350 14351 14352 14353 14354 14355 14356 14357 14358 14359 14360 14361 14362 14363 14364 14365 14366 14367 14368 14369 14370 14371 14372 14373 14374 14375 14376 14377 14378 14379 14380 14381 14382 14383 14384 14385 14386 14387 14388 14389 14390 14391 14392 14393 14394 14395 14396 14397 14398 14399 14400 14401 14402 14403 14404 14405 14406 14407 14408 14409 14410 14411 14412 14413 14414 14415 14416 14417 14418 14419 14420 14421 14422 14423 14424 14425 14426 14427 14428 14429 14430 14431 14432 14433 14434 14435 14436 14437 14438 14439 14440 14441 14442 14443 14444 14445 14446 14447 14448 14449 14450 14451 14452 14453 14454 14455 14456 14457 14458 14459 14460 14461 14462 14463 14464 14465 14466 14467 14468 14469 14470 14471 14472 14473 14474 14475 14476 14477 14478 14479 14480 14481 14482 14483 14484 14485 14486 14487 14488 14489 14490 14491 14492 14493 14494 14495 14496 14497 14498 14499 14500 14501 14502 14503 14504 14505 14506 14507 14508 14509 14510 14511 14512 14513 14514 14515 14516 14517 14518 14519 14520 14521 14522 14523 14524 14525 14526 14527 14528 14529 14530 14531 14532 14533 14534 14535 14536 14537 14538 14539 14540 14541 14542 14543 14544 14545 14546 14547 14548 14549 14550 14551 14552 14553 14554 14555 14556 14557 14558 14559 14560 14561 14562 14563 14564 14565 14566 14567 14568 14569 14570 14571 14572 14573 14574 14575 14576 14577 14578 14579 14580 14581 14582 14583 14584 14585 14586 14587 14588 14589 14590 14591 14592 14593 14594 14595 14596 14597 14598 14599 14600 14601 14602 14603 14604 14605 14606 14607 14608 14609 14610 14611 14612 14613 14614 14615 14616 14617 14618 14619 14620 14621 14622 14623 14624 14625 14626 14627 14628 14629 14630 14631 14632 14633 14634 14635 14636 14637 14638 14639 14640 14641 14642 14643 14644 14645 14646 14647 14648 14649 14650 14651 14652 14653 14654 14655 14656 14657 14658 14659 14660 14661 14662 14663 14664 14665 14666 14667 14668 14669 14670 14671 14672 14673 14674 14675 14676 14677 14678 14679 14680 14681 14682 14683 14684 14685 14686 14687 14688 14689 14690 14691 14692 14693 14694 14695 14696 14697 14698 14699 14700 14701 14702 14703 14704 14705 14706 14707 14708 14709 14710 14711 14712 14713 14714 14715 14716 14717 14718 14719 14720 14721 14722 14723 14724 14725 14726 14727 14728 14729 14730 14731 14732 14733 14734 14735 14736 14737 14738 14739 14740 14741 14742 14743 14744 14745 14746 14747 14748 14749 14750 14751 14752 14753 14754 14755 14756 14757 14758 14759 14760 14761 14762 14763 14764 14765 14766 14767 14768 14769 14770 14771 14772 14773 14774 14775 14776 14777 14778 14779 14780 14781 14782 14783 14784 14785 14786 14787 14788 14789 14790 14791 14792 14793 14794 14795 14796 14797 14798 14799 14800 14801 14802 14803 14804 14805 14806 14807 14808 14809 14810 14811 14812 14813 14814 14815 14816 14817 14818 14819 14820 14821 14822 14823 14824 14825 14826 14827 14828 14829 14830 14831 14832 14833 14834 14835 14836 14837 14838 14839 14840 14841 14842 14843 14844 14845 14846 14847 14848 14849 14850 14851 14852 14853 14854 14855 14856 14857 14858 14859 14860 14861 14862 14863 14864 14865 14866 14867 14868 14869 14870 14871 14872 14873 14874 14875 14876 14877 14878 14879 14880 14881 14882 14883 14884 14885 14886 14887 14888 14889 14890 14891 14892 14893 14894 14895 14896 14897 14898 14899 14900 14901 14902 14903 14904 14905 14906 14907 14908 14909 14910 14911 14912 14913 14914 14915 14916 14917 14918 14919 14920 14921 14922 14923 14924 14925 14926 14927 14928 14929 14930 14931 14932 14933 14934 14935 14936 14937 14938 14939 14940 14941 14942 14943 14944 14945 14946 14947 14948 14949 14950 14951 14952 14953 14954 14955 14956 14957 14958 14959 14960 14961 14962 14963 14964 14965 14966 14967 14968 14969 14970 14971 14972 14973 14974 14975 14976 14977 14978 14979 14980 14981 14982 14983 14984 14985 14986 14987 14988 14989 14990 14991 14992 14993 14994 14995 14996 14997 14998 14999 15000 15001 15002 15003 15004 15005 15006 15007 15008 15009 15010 15011 15012 15013 15014 15015 15016 15017 15018 15019 15020 15021 15022 15023 15024 15025 15026 15027 15028 15029 15030 15031 15032 15033 15034 15035 15036 15037 15038 15039 15040 15041 15042 15043 15044 15045 15046 15047 15048 15049 15050 15051 15052 15053 15054 15055 15056 15057 15058 15059 15060 15061 15062 15063 15064 15065 15066 15067 15068 15069 15070 15071 15072 15073 15074 15075 15076 15077 15078 15079 15080 15081 15082 15083 15084 15085 15086 15087 15088 15089 15090 15091 15092 15093 15094 15095 15096 15097 15098 15099 15100 15101 15102 15103 15104 15105 15106 15107 15108 15109 15110 15111 15112 15113 15114 15115 15116 15117 15118 15119 15120 15121 15122 15123 15124 15125 15126 15127 15128 15129 15130 15131 15132 15133 15134 15135 15136 15137 15138 15139 15140 15141 15142 15143 15144 15145 15146 15147 15148 15149 15150 15151 15152 15153 15154 15155 15156 15157 15158 15159 15160 15161 15162 15163 15164 15165 15166 15167 15168 15169 15170 15171 15172 15173 15174 15175 15176 15177 15178 15179 15180 15181 15182 15183 15184 15185 15186 15187 15188 15189 15190 15191 15192 15193 15194 15195 15196 15197 15198 15199 15200 15201 15202 15203 15204 15205 15206 15207 15208 15209 15210 15211 15212 15213 15214 15215 15216 15217 15218 15219 15220 15221 15222 15223 15224 15225 15226 15227 15228 15229 15230 15231 15232 15233 15234 15235 15236 15237 15238 15239 15240 15241 15242 15243 15244 15245 15246 15247 15248 15249 15250 15251 15252 15253 15254 15255 15256 15257 15258 15259 15260 15261 15262 15263 15264 15265 15266 15267 15268 15269 15270 15271 15272 15273 15274 15275 15276 15277 15278 15279 15280 15281 15282 15283 15284 15285 15286 15287 15288 15289 15290 15291 15292 15293 15294 15295 15296 15297 15298 15299 15300 15301 15302 15303 15304 15305 15306 15307 15308 15309 15310 15311 15312 15313 15314 15315 15316 15317 15318 15319 15320 15321 15322 15323 15324 15325 15326 15327 15328 15329 15330 15331 15332 15333 15334 15335 15336 15337 15338 15339 15340 15341 15342 15343 15344 15345 15346 15347 15348 15349 15350 15351 15352 15353 15354 15355 15356 15357 15358 15359 15360 15361 15362 15363 15364 15365 15366 15367 15368 15369 15370 15371 15372 15373 15374 15375 15376 15377 15378 15379 15380 15381 15382 15383 15384 15385 15386 15387 15388 15389 15390 15391 15392 15393 15394 15395 15396 15397 15398 15399 15400 15401 15402 15403 15404 15405 15406 15407 15408 15409 15410 15411 15412 15413 15414 15415 15416 15417 15418 15419 15420 15421 15422 15423 15424 15425 15426 15427 15428 15429 15430 15431 15432 15433 15434 15435 15436 15437 15438 15439 15440 15441 15442 15443 15444 15445 15446 15447 15448 15449 15450 15451 15452 15453 15454 15455 15456 15457 15458 15459 15460 15461 15462 15463 15464 15465 15466 15467 15468 15469 15470 15471 15472 15473 15474 15475 15476 15477 15478 15479 15480 15481 15482 15483 15484 15485 15486 15487 15488 15489 15490 15491 15492 15493 15494 15495 15496 15497 15498 15499 15500 15501 15502 15503 15504 15505 15506 15507 15508 15509 15510 15511 15512 15513 15514 15515 15516 15517 15518 15519 15520 15521 15522 15523 15524 15525 15526 15527 15528 15529 15530 15531 15532 15533 15534 15535 15536 15537 15538 15539 15540 15541 15542 15543 15544 15545 15546 15547 15548 15549 15550 15551 15552 15553 15554 15555 15556 15557 15558 15559 15560 15561 15562 15563 15564 15565 15566 15567 15568 15569 15570 15571 15572 15573 15574 15575 15576 15577 15578 15579 15580 15581 15582 15583 15584 15585 15586 15587 15588 15589 15590 15591 15592 15593 15594 15595 15596 15597 15598 15599 15600 15601 15602 15603 15604 15605 15606 15607 15608 15609 15610 15611 15612 15613 15614 15615 15616 15617 15618 15619 15620 15621 15622 15623 15624 15625 15626 15627 15628 15629 15630 15631 15632 15633 15634 15635 15636 15637 15638 15639 15640 15641 15642 15643 15644 15645 15646 15647 15648 15649 15650 15651 15652 15653 15654 15655 15656 15657 15658 15659 15660 15661 15662 15663 15664 15665 15666 15667 15668 15669 15670 15671 15672 15673 15674 15675 15676 15677 15678 15679 15680 15681 15682 15683 15684 15685 15686 15687 15688 15689 15690 15691 15692 15693 15694 15695 15696 15697 15698 15699 15700 15701 15702 15703 15704 15705 15706 15707 15708 15709 15710 15711 15712 15713 15714 15715 15716 15717 15718 15719 15720 15721 15722 15723 15724 15725 15726 15727 15728 15729 15730 15731 15732 15733 15734 15735 15736 15737 15738 15739 15740 15741 15742 15743 15744 15745 15746 15747 15748 15749 15750 15751 15752 15753 15754 15755 15756 15757 15758 15759 15760 15761 15762 15763 15764 15765 15766 15767 15768 15769 15770 15771 15772 15773 15774 15775 15776 15777 15778 15779 15780 15781 15782 15783 15784 15785 15786 15787 15788 15789 15790 15791 15792 15793 15794 15795 15796 15797 15798 15799 15800 15801 15802 15803 15804 15805 15806 15807 15808 15809 15810 15811 15812 15813 15814 15815 15816 15817 15818 15819 15820 15821 15822 15823 15824 15825 15826 15827 15828 15829 15830 15831 15832 15833 15834 15835 15836 15837 15838 15839 15840 15841 15842 15843 15844 15845 15846 15847 15848 15849 15850 15851 15852 15853 15854 15855 15856 15857 15858 15859 15860 15861 15862 15863 15864 15865 15866 15867 15868 15869 15870 15871 15872 15873 15874 15875 15876 15877 15878 15879 15880 15881 15882 15883 15884 15885 15886 15887 15888 15889 15890 15891 15892 15893 15894 15895 15896 15897 15898 15899 15900 15901 15902 15903 15904 15905 15906 15907 15908 15909 15910 15911 15912 15913 15914 15915 15916 15917 15918 15919 15920 15921 15922 15923 15924 15925 15926 15927 15928 15929 15930 15931 15932 15933 15934 15935 15936 15937 15938 15939 15940 15941 15942 15943 15944 15945 15946 15947 15948 15949 15950 15951 15952 15953 15954 15955 15956 15957 15958 15959 15960 15961 15962 15963 15964 15965 15966 15967 15968 15969 15970 15971 15972 15973 15974 15975 15976 15977 15978 15979 15980 15981 15982 15983 15984 15985 15986 15987 15988 15989 15990 15991 15992 15993 15994 15995 15996 15997 15998 15999 16000 16001 16002 16003 16004 16005 16006 16007 16008 16009 16010 16011 16012 16013 16014 16015 16016 16017 16018 16019 16020 16021 16022 16023 16024 16025 16026 16027 16028 16029 16030 16031 16032 16033 16034 16035 16036 16037 16038 16039 16040 16041 16042 16043 16044 16045 16046 16047 16048 16049 16050 16051 16052 16053 16054 16055 16056 16057 16058 16059 16060 16061 16062 16063 16064 16065 16066 16067 16068 16069 16070 16071 16072 16073 16074 16075 16076 16077 16078 16079 16080 16081 16082 16083 16084 16085 16086 16087 16088 16089 16090 16091 16092 16093 16094 16095 16096 16097 16098 16099 16100 16101 16102 16103 16104 16105 16106 16107 16108 16109 16110 16111 16112 16113 16114 16115 16116 16117 16118 16119 16120 16121 16122 16123 16124 16125 16126 16127 16128 16129 16130 16131 16132 16133 16134 16135 16136 16137 16138 16139 16140 16141 16142 16143 16144 16145 16146 16147 16148 16149 16150 16151 16152 16153 16154 16155 16156 16157 16158 16159 16160 16161 16162 16163 16164 16165 16166 16167 16168 16169 16170 16171 16172 16173 16174 16175 16176 16177 16178 16179 16180 16181 16182 16183 16184 16185 16186 16187 16188 16189 16190 16191 16192 16193 16194 16195 16196 16197 16198 16199 16200 16201 16202 16203 16204 16205 16206 16207 16208 16209 16210 16211 16212 16213 16214 16215 16216 16217 16218 16219 16220 16221 16222 16223 16224 16225 16226 16227 16228 16229 16230 16231 16232 16233 16234 16235 16236 16237 16238 16239 16240 16241 16242 16243 16244 16245 16246 16247 16248 16249 16250 16251 16252 16253 16254 16255 16256 16257 16258 16259 16260 16261 16262 16263 16264 16265 16266 16267 16268 16269 16270 16271 16272 16273 16274 16275 16276 16277 16278 16279 16280 16281 16282 16283 16284 16285 16286 16287 16288 16289 16290 16291 16292 16293 16294 16295 16296 16297 16298 16299 16300 16301 16302 16303 16304 16305 16306 16307 16308 16309 16310 16311 16312 16313 16314 16315 16316 16317 16318 16319 16320 16321 16322 16323 16324 16325 16326 16327 16328 16329 16330 16331 16332 16333 16334 16335 16336 16337 16338 16339 16340 16341 16342 16343 16344 16345 16346 16347 16348 16349 16350 16351 16352 16353 16354 16355 16356 16357 16358 16359 16360 16361 16362 16363 16364 16365 16366 16367 16368 16369 16370 16371 16372 16373 16374 16375 16376 16377 16378 16379 16380 16381 16382 16383 16384 16385 16386 16387 16388 16389 16390 16391 16392 16393 16394 16395 16396 16397 16398 16399 16400 16401 16402 16403 16404 16405 16406 16407 16408 16409 16410 16411 16412 16413 16414 16415 16416 16417 16418 16419 16420 16421 16422 16423 16424 16425 16426 16427 16428 16429 16430 16431 16432 16433 16434 16435 16436 16437 16438 16439 16440 16441 16442 16443 16444 16445 16446 16447 16448 16449 16450 16451 16452 16453 16454 16455 16456 16457 16458 16459 16460 16461 16462 16463 16464 16465 16466 16467 16468 16469 16470 16471 16472 16473 16474 16475 16476 16477 16478 16479 16480 16481 16482 16483 16484 16485 16486 16487 16488 16489 16490 16491 16492 16493 16494 16495 16496 16497 16498 16499 16500 16501 16502 16503 16504 16505 16506 16507 16508 16509 16510 16511 16512 16513 16514 16515 16516 16517 16518 16519 16520 16521 16522 16523 16524 16525 16526 16527 16528 16529 16530 16531 16532 16533 16534 16535 16536 16537 16538 16539 16540 16541 16542 16543 16544 16545 16546 16547 16548 16549 16550 16551 16552 16553 16554 16555 16556 16557 16558 16559 16560 16561 16562 16563 16564 16565 16566 16567 16568 16569 16570 16571 16572 16573 16574 16575 16576 16577 16578 16579 16580 16581 16582 16583 16584 16585 16586 16587 16588 16589 16590 16591 16592 16593 16594 16595 16596 16597 16598 16599 16600 16601 16602 16603 16604 16605 16606 16607 16608 16609 16610 16611 16612 16613 16614 16615 16616 16617 16618 16619 16620 16621 16622 16623 16624 16625 16626 16627 16628 16629 16630 16631 16632 16633 16634 16635 16636 16637 16638 16639 16640 16641 16642 16643 16644 16645 16646 16647 16648 16649 16650 16651 16652 16653 16654 16655 16656 16657 16658 16659 16660 16661 16662 16663 16664 16665 16666 16667 16668 16669 16670 16671 16672 16673 16674 16675 16676 16677 16678 16679 16680 16681 16682 16683 16684 16685 16686 16687 16688 16689 16690 16691 16692 16693 16694 16695 16696 16697 16698 16699 16700 16701 16702 16703 16704 16705 16706 16707 16708 16709 16710 16711 16712 16713 16714 16715 16716 16717 16718 16719 16720 16721 16722 16723 16724 16725 16726 16727 16728 16729 16730 16731 16732 16733 16734 16735 16736 16737 16738 16739 16740 16741 16742 16743 16744 16745 16746 16747 16748 16749 16750 16751 16752 16753 16754 16755 16756 16757 16758 16759 16760 16761 16762 16763 16764 16765 16766 16767 16768 16769 16770 16771 16772 16773 16774 16775 16776 16777 16778 16779 16780 16781 16782 16783 16784 16785 16786 16787 16788 16789 16790 16791 16792 16793 16794 16795 16796 16797 16798 16799 16800 16801 16802 16803 16804 16805 16806 16807 16808 16809 16810 16811 16812 16813 16814 16815 16816 16817 16818 16819 16820 16821 16822 16823 16824 16825 16826 16827 16828 16829 16830 16831 16832 16833 16834 16835 16836 16837 16838 16839 16840 16841 16842 16843 16844 16845 16846 16847 16848 16849 16850 16851 16852 16853 16854 16855 16856 16857 16858 16859 16860 16861 16862 16863 16864 16865 16866 16867 16868 16869 16870 16871 16872 16873 16874 16875 16876 16877 16878 16879 16880 16881 16882 16883 16884 16885 16886 16887 16888 16889 16890 16891 16892 16893 16894 16895 16896 16897 16898 16899 16900 16901 16902 16903 16904 16905 16906 16907 16908 16909 16910 16911 16912 16913 16914 16915 16916 16917 16918 16919 16920 16921 16922 16923 16924 16925 16926 16927 16928 16929 16930 16931 16932 16933 16934 16935 16936 16937 16938 16939 16940 16941 16942 16943 16944 16945 16946 16947 16948 16949 16950 16951 16952 16953 16954 16955 16956 16957 16958 16959 16960 16961 16962 16963 16964 16965 16966 16967 16968 16969 16970 16971 16972 16973 16974 16975 16976 16977 16978 16979 16980 16981 16982 16983 16984 16985 16986 16987 16988 16989 16990 16991 16992 16993 16994 16995 16996 16997 16998 16999 17000 17001 17002 17003 17004 17005 17006 17007 17008 17009 17010 17011 17012 17013 17014 17015 17016 17017 17018 17019 17020 17021 17022 17023 17024 17025 17026 17027 17028 17029 17030 17031 17032 17033 17034 17035 17036 17037 17038 17039 17040 17041 17042 17043 17044 17045 17046 17047 17048 17049 17050 17051 17052 17053 17054 17055 17056 17057 17058 17059 17060 17061 17062 17063 17064 17065 17066 17067 17068 17069 17070 17071 17072 17073 17074 17075 17076 17077 17078 17079 17080 17081 17082 17083 17084 17085 17086 17087 17088 17089 17090 17091 17092 17093 17094 17095 17096 17097 17098 17099 17100 17101 17102 17103 17104 17105 17106 17107 17108 17109 17110 17111 17112 17113 17114 17115 17116 17117 17118 17119 17120 17121 17122 17123 17124 17125 17126 17127 17128 17129 17130 17131 17132 17133 17134 17135 17136 17137 17138 17139 17140 17141 17142 17143 17144 17145 17146 17147 17148 17149 17150 17151 17152 17153 17154 17155 17156 17157 17158 17159 17160 17161 17162 17163 17164 17165 17166 17167 17168 17169 17170 17171 17172 17173 17174 17175 17176 17177 17178 17179 17180 17181 17182 17183 17184 17185 17186 17187 17188 17189 17190 17191 17192 17193 17194 17195 17196 17197 17198 17199 17200 17201 17202 17203 17204 17205 17206 17207 17208 17209 17210 17211 17212 17213 17214 17215 17216 17217 17218 17219 17220 17221 17222 17223 17224 17225 17226 17227 17228 17229 17230 17231 17232 17233 17234 17235 17236 17237 17238 17239 17240 17241 17242 17243 17244 17245 17246 17247 17248 17249 17250 17251 17252 17253 17254 17255 17256 17257 17258 17259 17260 17261 17262 17263 17264 17265 17266 17267 17268 17269 17270 17271 17272 17273 17274 17275 17276 17277 17278 17279 17280 17281 17282 17283 17284 17285 17286 17287 17288 17289 17290 17291 17292 17293 17294 17295 17296 17297 17298 17299 17300 17301 17302 17303 17304 17305 17306 17307 17308 17309 17310 17311 17312 17313 17314 17315 17316 17317 17318 17319 17320 17321 17322 17323 17324 17325 17326 17327 17328 17329 17330 17331 17332 17333 17334 17335 17336 17337 17338 17339 17340 17341 17342 17343 17344 17345 17346 17347 17348 17349 17350 17351 17352 17353 17354 17355 17356 17357 17358 17359 17360 17361 17362 17363 17364 17365 17366 17367 17368 17369 17370 17371 17372 17373 17374 17375 17376 17377 17378 17379 17380 17381 17382 17383 17384 17385 17386 17387 17388 17389 17390 17391 17392 17393 17394 17395 17396 17397 17398 17399 17400 17401 17402 17403 17404 17405 17406 17407 17408 17409 17410 17411 17412 17413 17414 17415 17416 17417 17418 17419 17420 17421 17422 17423 17424 17425 17426 17427 17428 17429 17430 17431 17432 17433 17434 17435 17436 17437 17438 17439 17440 17441 17442 17443 17444 17445 17446 17447 17448 17449 17450 17451 17452 17453 17454 17455 17456 17457 17458 17459 17460 17461 17462 17463 17464 17465 17466 17467 17468 17469 17470 17471 17472 17473 17474 17475 17476 17477 17478 17479 17480 17481 17482 17483 17484 17485 17486 17487 17488 17489 17490 17491 17492 17493 17494 17495 17496 17497 17498 17499 17500 17501 17502 17503 17504 17505 17506 17507 17508 17509 17510 17511 17512 17513 17514 17515 17516 17517 17518 17519 17520 17521 17522 17523 17524 17525 17526 17527 17528 17529 17530 17531 17532 17533 17534 17535 17536 17537 17538 17539 17540 17541 17542 17543 17544 17545 17546 17547 17548 17549 17550 17551 17552 17553 17554 17555 17556 17557 17558 17559 17560 17561 17562 17563 17564 17565 17566 17567 17568 17569 17570 17571 17572 17573 17574 17575 17576 17577 17578 17579 17580 17581 17582 17583 17584 17585 17586 17587 17588 17589 17590 17591 17592 17593 17594 17595 17596 17597 17598 17599 17600 17601 17602 17603 17604 17605 17606 17607 17608 17609 17610 17611 17612 17613 17614 17615 17616 17617 17618 17619 17620 17621 17622 17623 17624 17625 17626 17627 17628 17629 17630 17631 17632 17633 17634 17635 17636 17637 17638 17639 17640 17641 17642 17643 17644 17645 17646 17647 17648 17649 17650 17651 17652 17653 17654 17655 17656 17657 17658 17659 17660 17661 17662 17663 17664 17665 17666 17667 17668 17669 17670 17671 17672 17673 17674 17675 17676 17677 17678 17679 17680 17681 17682 17683 17684 17685 17686 17687 17688 17689 17690 17691 17692 17693 17694 17695 17696 17697 17698 17699 17700 17701 17702 17703 17704 17705 17706 17707 17708 17709 17710 17711 17712 17713 17714 17715 17716 17717 17718 17719 17720 17721 17722 17723 17724 17725 17726 17727 17728 17729 17730 17731 17732 17733 17734 17735 17736 17737 17738 17739 17740 17741 17742 17743 17744 17745 17746 17747 17748 17749 17750 17751 17752 17753 17754 17755 17756 17757 17758 17759 17760 17761 17762 17763 17764 17765 17766 17767 17768 17769 17770 17771 17772 17773 17774 17775 17776 17777 17778 17779 17780 17781 17782 17783 17784 17785 17786 17787 17788 17789 17790 17791 17792 17793 17794 17795 17796 17797 17798 17799 17800 17801 17802 17803 17804 17805 17806 17807 17808 17809 17810 17811 17812 17813 17814 17815 17816 17817 17818 17819 17820 17821 17822 17823 17824 17825 17826 17827 17828 17829 17830 17831 17832 17833 17834 17835 17836 17837 17838 17839 17840 17841 17842 17843 17844 17845 17846 17847 17848 17849 17850 17851 17852 17853 17854 17855 17856 17857 17858 17859 17860 17861 17862 17863 17864 17865 17866 17867 17868 17869 17870 17871 17872 17873 17874 17875 17876 17877 17878 17879 17880 17881 17882 17883 17884 17885 17886 17887 17888 17889 17890 17891 17892 17893 17894 17895 17896 17897 17898 17899 17900 17901 17902 17903 17904 17905 17906 17907 17908 17909 17910 17911 17912 17913 17914 17915 17916 17917 17918 17919 17920 17921 17922 17923 17924 17925 17926 17927 17928 17929 17930 17931 17932 17933 17934 17935 17936 17937 17938 17939 17940 17941 17942 17943 17944 17945 17946 17947 17948 17949 17950 17951 17952 17953 17954 17955 17956 17957 17958 17959 17960 17961 17962 17963 17964 17965 17966 17967 17968 17969 17970 17971 17972 17973 17974 17975 17976 17977 17978 17979 17980 17981 17982 17983 17984 17985 17986 17987 17988 17989 17990 17991 17992 17993 17994 17995 17996 17997 17998 17999 18000 18001 18002 18003 18004 18005 18006 18007 18008 18009 18010 18011 18012 18013 18014 18015 18016 18017 18018 18019 18020 18021 18022 18023 18024 18025 18026 18027 18028 18029 18030 18031 18032 18033 18034 18035 18036 18037 18038 18039 18040 18041 18042 18043 18044 18045 18046 18047 18048 18049 18050 18051 18052 18053 18054 18055 18056 18057 18058 18059 18060 18061 18062 18063 18064 18065 18066 18067 18068 18069 18070 18071 18072 18073 18074 18075 18076 18077 18078 18079 18080 18081 18082 18083 18084 18085 18086 18087 18088 18089 18090 18091 18092 18093 18094 18095 18096 18097 18098 18099 18100 18101 18102 18103 18104 18105 18106 18107 18108 18109 18110 18111 18112 18113 18114 18115 18116 18117 18118 18119 18120 18121 18122 18123 18124 18125 18126 18127 18128 18129 18130 18131 18132 18133 18134 18135 18136 18137 18138 18139 18140 18141 18142 18143 18144 18145 18146 18147 18148 18149 18150 18151 18152 18153 18154 18155 18156 18157 18158 18159 18160 18161 18162 18163 18164 18165 18166 18167 18168 18169 18170 18171 18172 18173 18174 18175 18176 18177 18178 18179 18180 18181 18182 18183 18184 18185 18186 18187 18188 18189 18190 18191 18192 18193 18194 18195 18196 18197 18198 18199 18200 18201 18202 18203 18204 18205 18206 18207 18208 18209 18210 18211 18212 18213 18214 18215 18216 18217 18218 18219 18220 18221 18222 18223 18224 18225 18226 18227 18228 18229 18230 18231 18232 18233 18234 18235 18236 18237 18238 18239 18240 18241 18242 18243 18244 18245 18246 18247 18248 18249 18250 18251 18252 18253 18254 18255 18256 18257 18258 18259 18260 18261 18262 18263 18264 18265 18266 18267 18268 18269 18270 18271 18272 18273 18274 18275 18276 18277 18278 18279 18280 18281 18282 18283 18284 18285 18286 18287 18288 18289 18290 18291 18292 18293 18294 18295 18296 18297 18298 18299 18300 18301 18302 18303 18304 18305 18306 18307 18308 18309 18310 18311 18312 18313 18314 18315 18316 18317 18318 18319 18320 18321 18322 18323 18324 18325 18326 18327 18328 18329 18330 18331 18332 18333 18334 18335 18336 18337 18338 18339 18340 18341 18342 18343 18344 18345 18346 18347 18348 18349 18350 18351 18352 18353 18354 18355 18356 18357 18358 18359 18360 18361 18362 18363 18364 18365 18366 18367 18368 18369 18370 18371 18372 18373 18374 18375 18376 18377 18378 18379 18380 18381 18382 18383 18384 18385 18386 18387 18388 18389 18390 18391 18392 18393 18394 18395 18396 18397 18398 18399 18400 18401 18402 18403 18404 18405 18406 18407 18408 18409 18410 18411 18412 18413 18414 18415 18416 18417 18418 18419 18420 18421 18422 18423 18424 18425 18426 18427 18428 18429 18430 18431 18432 18433 18434 18435 18436 18437 18438 18439 18440 18441 18442 18443 18444 18445 18446 18447 18448 18449 18450 18451 18452 18453 18454 18455 18456 18457 18458 18459 18460 18461 18462 18463 18464 18465 18466 18467 18468 18469 18470 18471 18472 18473 18474 18475 18476 18477 18478 18479 18480 18481 18482 18483 18484 18485 18486 18487 18488 18489 18490 18491 18492 18493 18494 18495 18496 18497 18498 18499 18500 18501 18502 18503 18504 18505 18506 18507 18508 18509 18510 18511 18512 18513 18514 18515 18516 18517 18518 18519 18520 18521 18522 18523 18524 18525 18526 18527 18528 18529 18530 18531 18532 18533 18534 18535 18536 18537 18538 18539 18540 18541 18542 18543 18544 18545 18546 18547 18548 18549 18550 18551 18552 18553 18554 18555 18556 18557 18558 18559 18560 18561 18562 18563 18564 18565 18566 18567 18568 18569 18570 18571 18572 18573 18574 18575 18576 18577 18578 18579 18580 18581 18582 18583 18584 18585 18586 18587 18588 18589 18590 18591 18592 18593 18594 18595 18596 18597 18598 18599 18600 18601 18602 18603 18604 18605 18606 18607 18608 18609 18610 18611 18612 18613 18614 18615 18616 18617 18618 18619 18620 18621 18622 18623 18624 18625 18626 18627 18628 18629 18630 18631 18632 18633 18634 18635 18636 18637 18638 18639 18640 18641 18642 18643 18644 18645 18646 18647 18648 18649 18650 18651 18652 18653 18654 18655 18656 18657 18658 18659 18660 18661 18662 18663 18664 18665 18666 18667 18668 18669 18670 18671 18672 18673 18674 18675 18676 18677 18678 18679 18680 18681 18682 18683 18684 18685 18686 18687 18688 18689 18690 18691 18692 18693 18694 18695 18696 18697 18698 18699 18700 18701 18702 18703 18704 18705 18706 18707 18708 18709 18710 18711 18712 18713 18714 18715 18716 18717 18718 18719 18720 18721 18722 18723 18724 18725 18726 18727 18728 18729 18730 18731 18732 18733 18734 18735 18736 18737 18738 18739 18740 18741 18742 18743 18744 18745 18746 18747 18748 18749 18750 18751 18752 18753 18754 18755 18756 18757 18758 18759 18760 18761 18762 18763 18764 18765 18766 18767 18768 18769 18770 18771 18772 18773 18774 18775 18776 18777 18778 18779 18780 18781 18782 18783 18784 18785 18786 18787 18788 18789 18790 18791 18792 18793 18794 18795 18796 18797 18798 18799 18800 18801 18802 18803 18804 18805 18806 18807 18808 18809 18810 18811 18812 18813 18814 18815 18816 18817 18818 18819 18820 18821 18822 18823 18824 18825 18826 18827 18828 18829 18830 18831 18832 18833 18834 18835 18836 18837 18838 18839 18840 18841 18842 18843 18844 18845 18846 18847 18848 18849 18850 18851 18852 18853 18854 18855 18856 18857 18858 18859 18860 18861 18862 18863 18864 18865 18866 18867 18868 18869 18870 18871 18872 18873 18874 18875 18876 18877 18878 18879 18880 18881 18882 18883 18884 18885 18886 18887 18888 18889 18890 18891 18892 18893 18894 18895 18896 18897 18898 18899 18900 18901 18902 18903 18904 18905 18906 18907 18908 18909 18910 18911 18912 18913 18914 18915 18916 18917 18918 18919 18920 18921 18922 18923 18924 18925 18926 18927 18928 18929 18930 18931 18932 18933 18934 18935 18936 18937 18938 18939 18940 18941 18942 18943 18944 18945 18946 18947 18948 18949 18950 18951 18952 18953 18954 18955 18956 18957 18958 18959 18960 18961 18962 18963 18964 18965 18966 18967 18968 18969 18970 18971 18972 18973 18974 18975 18976 18977 18978 18979 18980 18981 18982 18983 18984 18985 18986 18987 18988 18989 18990 18991 18992 18993 18994 18995 18996 18997 18998 18999 19000 19001 19002 19003 19004 19005 19006 19007 19008 19009 19010 19011 19012 19013 19014 19015 19016 19017 19018 19019 19020 19021 19022 19023 19024 19025 19026 19027 19028 19029 19030 19031 19032 19033 19034 19035 19036 19037 19038 19039 19040 19041 19042 19043 19044 19045 19046 19047 19048 19049 19050 19051 19052 19053 19054 19055 19056 19057 19058 19059 19060 19061 19062 19063 19064 19065 19066 19067 19068 19069 19070 19071 19072 19073 19074 19075 19076 19077 19078 19079 19080 19081 19082 19083 19084 19085 19086 19087 19088 19089 19090 19091 19092 19093 19094 19095 19096 19097 19098 19099 19100 19101 19102 19103 19104 19105 19106 19107 19108 19109 19110 19111 19112 19113 19114 19115 19116 19117 19118 19119 19120 19121 19122 19123 19124 19125 19126 19127 19128 19129 19130 19131 19132 19133 19134 19135 19136 19137 19138 19139 19140 19141 19142 19143 19144 19145 19146 19147 19148 19149 19150 19151 19152 19153 19154 19155 19156 19157 19158 19159 19160 19161 19162 19163 19164 19165 19166 19167 19168 19169 19170 19171 19172 19173 19174 19175 19176 19177 19178 19179 19180 19181 19182 19183 19184 19185 19186 19187 19188 19189 19190 19191 19192 19193 19194 19195 19196 19197 19198 19199 19200 19201 19202 19203 19204 19205 19206 19207 19208 19209 19210 19211 19212 19213 19214 19215 19216 19217 19218 19219 19220 19221 19222 19223 19224 19225 19226 19227 19228 19229 19230 19231 19232 19233 19234 19235 19236 19237 19238 19239 19240 19241 19242 19243 19244 19245 19246 19247 19248 19249 19250 19251 19252 19253 19254 19255 19256 19257 19258 19259 19260 19261 19262 19263 19264 19265 19266 19267 19268 19269 19270 19271 19272 19273 19274 19275 19276 19277 19278 19279 19280 19281 19282 19283 19284 19285 19286 19287 19288 19289 19290 19291 19292 19293 19294 19295 19296 19297 19298 19299 19300 19301 19302 19303 19304 19305 19306 19307 19308 19309 19310 19311 19312 19313 19314 19315 19316 19317 19318 19319 19320 19321 19322 19323 19324 19325 19326 19327 19328 19329 19330 19331 19332 19333 19334 19335 19336 19337 19338 19339 19340 19341 19342 19343 19344 19345 19346 19347 19348 19349 19350 19351 19352 19353 19354 19355 19356 19357 19358 19359 19360 19361 19362 19363 19364 19365 19366 19367 19368 19369 19370 19371 19372 19373 19374 19375 19376 19377 19378 19379 19380 19381 19382 19383 19384 19385 19386 19387 19388 19389 19390 19391 19392 19393 19394 19395 19396 19397 19398 19399 19400 19401 19402 19403 19404 19405 19406 19407 19408 19409 19410 19411 19412 19413 19414 19415 19416 19417 19418 19419 19420 19421 19422 19423 19424 19425 19426 19427 19428 19429 19430 19431 19432 19433 19434 19435 19436 19437 19438 19439 19440 19441 19442 19443 19444 19445 19446 19447 19448 19449 19450 19451 19452 19453 19454 19455 19456 19457 19458 19459 19460 19461 19462 19463 19464 19465 19466 19467 19468 19469 19470 19471 19472 19473 19474 19475 19476 19477 19478 19479 19480 19481 19482 19483 19484 19485 19486 19487 19488 19489 19490 19491 19492 19493 19494 19495 19496 19497 19498 19499 19500 19501 19502 19503 19504 19505 19506 19507 19508 19509 19510 19511 19512 19513 19514 19515 19516 19517 19518 19519 19520 19521 19522 19523 19524 19525 19526 19527 19528 19529 19530 19531 19532 19533 19534 19535 19536 19537 19538 19539 19540 19541 19542 19543 19544 19545 19546 19547 19548 19549 19550 19551 19552 19553 19554 19555 19556 19557 19558 19559 19560 19561 19562 19563 19564 19565 19566 19567 19568 19569 19570 19571 19572 19573 19574 19575 19576 19577 19578 19579 19580 19581 19582 19583 19584 19585 19586 19587 19588 19589 19590 19591 19592 19593 19594 19595 19596 19597 19598 19599 19600 19601 19602 19603 19604 19605 19606 19607 19608 19609 19610 19611 19612 19613 19614 19615 19616 19617 19618 19619 19620 19621 19622 19623 19624 19625 19626 19627 19628 19629 19630 19631 19632 19633 19634 19635 19636 19637 19638 19639 19640 19641 19642 19643 19644 19645 19646 19647 19648 19649 19650 19651 19652 19653 19654 19655 19656 19657 19658 19659 19660 19661 19662 19663 19664 19665 19666 19667 19668 19669 19670 19671 19672 19673 19674 19675 19676 19677 19678 19679 19680 19681 19682 19683 19684 19685 19686 19687 19688 19689 19690 19691 19692 19693 19694 19695 19696 19697 19698 19699 19700 19701 19702 19703 19704 19705 19706 19707 19708 19709 19710 19711 19712 19713 19714 19715 19716 19717 19718 19719 19720 19721 19722 19723 19724 19725 19726 19727 19728 19729 19730 19731 19732 19733 19734 19735 19736 19737 19738 19739 19740 19741 19742 19743 19744 19745 19746 19747 19748 19749 19750 19751 19752 19753 19754 19755 19756 19757 19758 19759 19760 19761 19762 19763 19764 19765 19766 19767 19768 19769 19770 19771 19772 19773 19774 19775 19776 19777 19778 19779 19780 19781 19782 19783 19784 19785 19786 19787 19788 19789 19790 19791 19792 19793 19794 19795 19796 19797 19798 19799 19800 19801 19802 19803 19804 19805 19806 19807 19808 19809 19810 19811 19812 19813 19814 19815 19816 19817 19818 19819 19820 19821 19822 19823 19824 19825 19826 19827 19828 19829 19830 19831 19832 19833 19834 19835 19836 19837 19838 19839 19840 19841 19842 19843 19844 19845 19846 19847 19848 19849 19850 19851 19852 19853 19854 19855 19856 19857 19858 19859 19860 19861 19862 19863 19864 19865 19866 19867 19868 19869 19870 19871 19872 19873 19874 19875 19876 19877 19878 19879 19880 19881 19882 19883 19884 19885 19886 19887 19888 19889 19890 19891 19892 19893 19894 19895 19896 19897 19898 19899 19900 19901 19902 19903 19904 19905 19906 19907 19908 19909 19910 19911 19912 19913 19914 19915 19916 19917 19918 19919 19920 19921 19922 19923 19924 19925 19926 19927 19928 19929 19930 19931 19932 19933 19934 19935 19936 19937 19938 19939 19940 19941 19942 19943 19944 19945 19946 19947 19948 19949 19950 19951 19952 19953 19954 19955 19956 19957 19958 19959 19960 19961 19962 19963 19964 19965 19966 19967 19968 19969 19970 19971 19972 19973 19974 19975 19976 19977 19978 19979 19980 19981 19982 19983 19984 19985 19986 19987 19988 19989 19990 19991 19992 19993 19994 19995 19996 19997 19998 19999 20000 20001 20002 20003 20004 20005 20006 20007 20008 20009 20010 20011 20012 20013 20014 20015 20016 20017 20018 20019 20020 20021 20022 20023 20024 20025 20026 20027 20028 20029 20030 20031 20032 20033 20034 20035 20036 20037 20038 20039 20040 20041 20042 20043 20044 20045 20046 20047 20048 20049 20050 20051 20052 20053 20054 20055 20056 20057 20058 20059 20060 20061 20062 20063 20064 20065 20066 20067 20068 20069 20070 20071 20072 20073 20074 20075 20076 20077 20078 20079 20080 20081 20082 20083 20084 20085 20086 20087 20088 20089 20090 20091 20092 20093 20094 20095 20096 20097 20098 20099 20100 20101 20102 20103 20104 20105 20106 20107 20108 20109 20110 20111 20112 20113 20114 20115 20116 20117 20118 20119 20120 20121 20122 20123 20124 20125 20126 20127 20128 20129 20130 20131 20132 20133 20134 20135 20136 20137 20138 20139 20140 20141 20142 20143 20144 20145 20146 20147 20148 20149 20150 20151 20152 20153 20154 20155 20156 20157 20158 20159 20160 20161 20162 20163 20164 20165 20166 20167 20168 20169 20170 20171 20172 20173 20174 20175 20176 20177 20178 20179 20180 20181 20182 20183 20184 20185 20186 20187 20188 20189 20190 20191 20192 20193 20194 20195 20196 20197 20198 20199 20200 20201 20202 20203 20204 20205 20206 20207 20208 20209 20210 20211 20212 20213 20214 20215 20216 20217 20218 20219 20220 20221 20222 20223 20224 20225 20226 20227 20228 20229 20230 20231 20232 20233 20234 20235 20236 20237 20238 20239 20240 20241 20242 20243 20244 20245 20246 20247 20248 20249 20250 20251 20252 20253 20254 20255 20256 20257 20258 20259 20260 20261 20262 20263 20264 20265 20266 20267 20268 20269 20270 20271 20272 20273 20274 20275 20276 20277 20278 20279 20280 20281 20282 20283 20284 20285 20286 20287 20288 20289 20290 20291 20292 20293 20294 20295 20296 20297 20298 20299 20300 20301 20302 20303 20304 20305 20306 20307 20308 20309 20310 20311 20312 20313 20314 20315 20316 20317 20318 20319 20320 20321 20322 20323 20324 20325 20326 20327 20328 20329 20330 20331 20332 20333 20334 20335 20336 20337 20338 20339 20340 20341 20342 20343 20344 20345 20346 20347 20348 20349 20350 20351 20352 20353 20354 20355 20356 20357 20358 20359 20360 20361 20362 20363 20364 20365 20366 20367 20368 20369 20370 20371 20372 20373 20374 20375 20376 20377 20378 20379 20380 20381 20382 20383 20384 20385 20386 20387 20388 20389 20390 20391 20392 20393 20394 20395 20396 20397 20398 20399 20400 20401 20402 20403 20404 20405 20406 20407 20408 20409 20410 20411 20412 20413 20414 20415 20416 20417 20418 20419 20420 20421 20422 20423 20424 20425 20426 20427 20428 20429 20430 20431 20432 20433 20434 20435 20436 20437 20438 20439 20440 20441 20442 20443 20444 20445 20446 20447 20448 20449 20450 20451 20452 20453 20454 20455 20456 20457 20458 20459 20460 20461 20462 20463 20464 20465 20466 20467 20468 20469 20470 20471 20472 20473 20474 20475 20476 20477 20478 20479 20480 20481 20482 20483 20484 20485 20486 20487 20488 20489 20490 20491 20492 20493 20494 20495 20496 20497 20498 20499 20500 20501 20502 20503 20504 20505 20506 20507 20508 20509 20510 20511 20512 20513 20514 20515 20516 20517 20518 20519 20520 20521 20522 20523 20524 20525 20526 20527 20528 20529 20530 20531 20532 20533 20534 20535 20536 20537 20538 20539 20540 20541 20542 20543 20544 20545 20546 20547 20548 20549 20550 20551 20552 20553 20554 20555 20556 20557 20558 20559 20560 20561 20562 20563 20564 20565 20566 20567 20568 20569 20570 20571 20572 20573 20574 20575 20576 20577 20578 20579 20580 20581 20582 20583 20584 20585 20586 20587 20588 20589 20590 20591 20592 20593 20594 20595 20596 20597 20598 20599 20600 20601 20602 20603 20604 20605 20606 20607 20608 20609 20610 20611 20612 20613 20614 20615 20616 20617 20618 20619 20620 20621 20622 20623 20624 20625 20626 20627 20628 20629 20630 20631 20632 20633 20634 20635 20636 20637 20638 20639 20640 20641 20642 20643 20644 20645 20646 20647 20648 20649 20650 20651 20652 20653 20654 20655 20656 20657 20658 20659 20660 20661 20662 20663 20664 20665 20666 20667 20668 20669 20670 20671 20672 20673 20674 20675 20676 20677 20678 20679 20680 20681 20682 20683 20684 20685 20686 20687 20688 20689 20690 20691 20692 20693 20694 20695 20696 20697 20698 20699 20700 20701 20702 20703 20704 20705 20706 20707 20708 20709 20710 20711 20712 20713 20714 20715 20716 20717 20718 20719 20720 20721 20722 20723 20724 20725 20726 20727 20728 20729 20730 20731 20732 20733 20734 20735 20736 20737 20738 20739 20740 20741 20742 20743 20744 20745 20746 20747 20748 20749 20750 20751 20752 20753 20754 20755 20756 20757 20758 20759 20760 20761 20762 20763 20764 20765 20766 20767 20768 20769 20770 20771 20772 20773 20774 20775 20776 20777 20778 20779 20780 20781 20782 20783 20784 20785 20786 20787 20788 20789 20790 20791 20792 20793 20794 20795 20796 20797 20798 20799 20800 20801 20802 20803 20804 20805 20806 20807 20808 20809 20810 20811 20812 20813 20814 20815 20816 20817 20818 20819 20820 20821 20822 20823 20824 20825 20826 20827 20828 20829 20830 20831 20832 20833 20834 20835 20836 20837 20838 20839 20840 20841 20842 20843 20844 20845 20846 20847 20848 20849 20850 20851 20852 20853 20854 20855 20856 20857 20858 20859 20860 20861 20862 20863 20864 20865 20866 20867 20868 20869 20870 20871 20872 20873 20874 20875 20876 20877 20878 20879 20880 20881 20882 20883 20884 20885 20886 20887 20888 20889 20890 20891 20892 20893 20894 20895 20896 20897 20898 20899 20900 20901 20902 20903 20904 20905 20906 20907 20908 20909 20910 20911 20912 20913 20914 20915 20916 20917 20918 20919 20920 20921 20922 20923 20924 20925 20926 20927 20928 20929 20930 20931 20932 20933 20934 20935 20936 20937 20938 20939 20940 20941 20942 20943 20944 20945 20946 20947 20948 20949 20950 20951 20952 20953 20954 20955 20956 20957 20958 20959 20960 20961 20962 20963 20964 20965 20966 20967 20968 20969 20970 20971 20972 20973 20974 20975 20976 20977 20978 20979 20980 20981 20982 20983 20984 20985 20986 20987 20988 20989 20990 20991 20992 20993 20994 20995 20996 20997 20998 20999 21000 21001 21002 21003 21004 21005 21006 21007 21008 21009 21010 21011 21012 21013 21014 21015 21016 21017 21018 21019 21020 21021 21022 21023 21024 21025 21026 21027 21028 21029 21030 21031 21032 21033 21034 21035 21036 21037 21038 21039 21040 21041 21042 21043 21044 21045 21046 21047 21048 21049 21050 21051 21052 21053 21054 21055 21056 21057 21058 21059 21060 21061 21062 21063 21064 21065 21066 21067 21068 21069 21070 21071 21072 21073 21074 21075 21076 21077 21078 21079 21080 21081 21082 21083 21084 21085 21086 21087 21088 21089 21090 21091 21092 21093 21094 21095 21096 21097 21098 21099 21100 21101 21102 21103 21104 21105 21106 21107 21108 21109 21110 21111 21112 21113 21114 21115 21116 21117 21118 21119 21120 21121 21122 21123 21124 21125 21126 21127 21128 21129 21130 21131 21132 21133 21134 21135 21136 21137 21138 21139 21140 21141 21142 21143 21144 21145 21146 21147 21148 21149 21150 21151 21152 21153 21154 21155 21156 21157 21158 21159 21160 21161 21162 21163 21164 21165 21166 21167 21168 21169 21170 21171 21172 21173 21174 21175 21176 21177 21178 21179 21180 21181 21182 21183 21184 21185 21186 21187 21188 21189 21190 21191 21192 21193 21194 21195 21196 21197 21198 21199 21200 21201 21202 21203 21204 21205 21206 21207 21208 21209 21210 21211 21212 21213 21214 21215 21216 21217 21218 21219 21220 21221 21222 21223 21224 21225 21226 21227 21228 21229 21230 21231 21232 21233 21234 21235 21236 21237 21238 21239 21240 21241 21242 21243 21244 21245 21246 21247 21248 21249 21250 21251 21252 21253 21254 21255 21256 21257 21258 21259 21260 21261 21262 21263 21264 21265 21266 21267 21268 21269 21270 21271 21272 21273 21274 21275 21276 21277 21278 21279 21280 21281 21282 21283 21284 21285 21286 21287 21288 21289 21290 21291 21292 21293 21294 21295 21296 21297 21298 21299 21300 21301 21302 21303 21304 21305 21306 21307 21308 21309 21310 21311 21312 21313 21314 21315 21316 21317 21318 21319 21320 21321 21322 21323 21324 21325 21326 21327 21328 21329 21330 21331 21332 21333 21334 21335 21336 21337 21338 21339 21340 21341 21342 21343 21344 21345 21346 21347 21348 21349 21350 21351 21352 21353 21354 21355 21356 21357 21358 21359 21360 21361 21362 21363 21364 21365 21366 21367 21368 21369 21370 21371 21372 21373 21374 21375 21376 21377 21378 21379 21380 21381 21382 21383 21384 21385 21386 21387 21388 21389 21390 21391 21392 21393 21394 21395 21396 21397 21398 21399 21400 21401 21402 21403 21404 21405 21406 21407 21408 21409 21410 21411 21412 21413 21414 21415 21416 21417 21418 21419 21420 21421 21422 21423 21424 21425 21426 21427 21428 21429 21430 21431 21432 21433 21434 21435 21436 21437 21438 21439 21440 21441 21442 21443 21444 21445 21446 21447 21448 21449 21450 21451 21452 21453 21454 21455 21456 21457 21458 21459 21460 21461 21462 21463 21464 21465 21466 21467 21468 21469 21470 21471 21472 21473 21474 21475 21476 21477 21478 21479 21480 21481 21482 21483 21484 21485 21486 21487 21488 21489 21490 21491 21492 21493 21494 21495 21496 21497 21498 21499 21500 21501 21502 21503 21504 21505 21506 21507 21508 21509 21510 21511 21512 21513 21514 21515 21516 21517 21518 21519 21520 21521 21522 21523 21524 21525 21526 21527 21528 21529 21530 21531 21532 21533 21534 21535 21536 21537 21538 21539 21540 21541 21542 21543 21544 21545 21546 21547 21548 21549 21550 21551 21552 21553 21554 21555 21556 21557 21558 21559 21560 21561 21562 21563 21564 21565 21566 21567 21568 21569 21570 21571 21572 21573 21574 21575 21576 21577 21578 21579 21580 21581 21582 21583 21584 21585 21586 21587 21588 21589 21590 21591 21592 21593 21594 21595 21596 21597 21598 21599 21600 21601 21602 21603 21604 21605 21606 21607 21608 21609 21610 21611 21612 21613 21614 21615 21616 21617 21618 21619 21620 21621 21622 21623 21624 21625 21626 21627 21628 21629 21630 21631 21632 21633 21634 21635 21636 21637 21638 21639 21640 21641 21642 21643 21644 21645 21646 21647 21648 21649 21650 21651 21652 21653 21654 21655 21656 21657 21658 21659 21660 21661 21662 21663 21664 21665 21666 21667 21668 21669 21670 21671 21672 21673 21674 21675 21676 21677 21678 21679 21680 21681 21682 21683 21684 21685 21686 21687 21688 21689 21690 21691 21692 21693 21694 21695 21696 21697 21698 21699 21700 21701 21702 21703 21704 21705 21706 21707 21708 21709 21710 21711 21712 21713 21714 21715 21716 21717 21718 21719 21720 21721 21722 21723 21724 21725 21726 21727 21728 21729 21730 21731 21732 21733 21734 21735 21736 21737 21738 21739 21740 21741 21742 21743 21744 21745 21746 21747 21748 21749 21750 21751 21752 21753 21754 21755 21756 21757 21758 21759 21760 21761 21762 21763 21764 21765 21766 21767 21768 21769 21770 21771 21772 21773 21774 21775 21776 21777 21778 21779 21780 21781 21782 21783 21784 21785 21786 21787 21788 21789 21790 21791 21792 21793 21794 21795 21796 21797 21798 21799 21800 21801 21802 21803 21804 21805 21806 21807 21808 21809 21810 21811 21812 21813 21814 21815 21816 21817 21818 21819 21820 21821 21822 21823 21824 21825 21826 21827 21828 21829 21830 21831 21832 21833 21834 21835 21836 21837 21838 21839 21840 21841 21842 21843 21844 21845 21846 21847 21848 21849 21850 21851 21852 21853 21854 21855 21856 21857 21858 21859 21860 21861 21862 21863 21864 21865 21866 21867 21868 21869 21870 21871 21872 21873 21874 21875 21876 21877 21878 21879 21880 21881 21882 21883 21884 21885 21886 21887 21888 21889 21890 21891 21892 21893 21894 21895 21896 21897 21898 21899 21900 21901 21902 21903 21904 21905 21906 21907 21908 21909 21910 21911 21912 21913 21914 21915 21916 21917 21918 21919 21920 21921 21922 21923 21924 21925 21926 21927 21928 21929 21930 21931 21932 21933 21934 21935 21936 21937 21938 21939 21940 21941 21942 21943 21944 21945 21946 21947 21948 21949 21950 21951 21952 21953 21954 21955 21956 21957 21958 21959 21960 21961 21962 21963 21964 21965 21966 21967 21968 21969 21970 21971 21972 21973 21974 21975 21976 21977 21978 21979 21980 21981 21982 21983 21984 21985 21986 21987 21988 21989 21990 21991 21992 21993 21994 21995 21996 21997 21998 21999 22000 22001 22002 22003 22004 22005 22006 22007 22008 22009 22010 22011 22012 22013 22014 22015 22016 22017 22018 22019 22020 22021 22022 22023 22024 22025 22026 22027 22028 22029 22030 22031 22032 22033 22034 22035 22036 22037 22038 22039 22040 22041 22042 22043 22044 22045 22046 22047 22048 22049 22050 22051 22052 22053 22054 22055 22056 22057 22058 22059 22060 22061 22062 22063 22064 22065 22066 22067 22068 22069 22070 22071 22072 22073 22074 22075 22076 22077 22078 22079 22080 22081 22082 22083 22084 22085 22086 22087 22088 22089 22090 22091 22092 22093 22094 22095 22096 22097 22098 22099 22100 22101 22102 22103 22104 22105 22106 22107 22108 22109 22110 22111 22112 22113 22114 22115 22116 22117 22118 22119 22120 22121 22122 22123 22124 22125 22126 22127 22128 22129 22130 22131 22132 22133 22134 22135 22136 22137 22138 22139 22140 22141 22142 22143 22144 22145 22146 22147 22148 22149 22150 22151 22152 22153 22154 22155 22156 22157 22158 22159 22160 22161 22162 22163 22164 22165 22166 22167 22168 22169 22170 22171 22172 22173 22174 22175 22176 22177 22178 22179 22180 22181 22182 22183 22184 22185 22186 22187 22188 22189 22190 22191 22192 22193 22194 22195 22196 22197 22198 22199 22200 22201 22202 22203 22204 22205 22206 22207 22208 22209 22210 22211 22212 22213 22214 22215 22216 22217 22218 22219 22220 22221 22222 22223 22224 22225 22226 22227 22228 22229 22230 22231 22232 22233 22234 22235 22236 22237 22238 22239 22240 22241 22242 22243 22244 22245 22246 22247 22248 22249 22250 22251 22252 22253 22254 22255 22256 22257 22258 22259 22260 22261 22262 22263 22264 22265 22266 22267 22268 22269 22270 22271 22272 22273 22274 22275 22276 22277 22278 22279 22280 22281 22282 22283 22284 22285 22286 22287 22288 22289 22290 22291 22292 22293 22294 22295 22296 22297 22298 22299 22300 22301 22302 22303 22304 22305 22306 22307 22308 22309 22310 22311 22312 22313 22314 22315 22316 22317 22318 22319 22320 22321 22322 22323 22324 22325 22326 22327 22328 22329 22330 22331 22332 22333 22334 22335 22336 22337 22338 22339 22340 22341 22342 22343 22344 22345 22346 22347 22348 22349 22350 22351 22352 22353 22354 22355 22356 22357 22358 22359 22360 22361 22362 22363 22364 22365 22366 22367 22368 22369 22370 22371 22372 22373 22374 22375 22376 22377 22378 22379 22380 22381 22382 22383 22384 22385 22386 22387 22388 22389 22390 22391 22392 22393 22394 22395 22396 22397 22398 22399 22400 22401 22402 22403 22404 22405 22406 22407 22408 22409 22410 22411 22412 22413 22414 22415 22416 22417 22418 22419 22420 22421 22422 22423 22424 22425 22426 22427 22428 22429 22430 22431 22432 22433 22434 22435 22436 22437 22438 22439 22440 22441 22442 22443 22444 22445 22446 22447 22448 22449 22450 22451 22452 22453 22454 22455 22456 22457 22458 22459 22460 22461 22462 22463 22464 22465 22466 22467 22468 22469 22470 22471 22472 22473 22474 22475 22476 22477 22478 22479 22480 22481 22482 22483 22484 22485 22486 22487 22488 22489 22490 22491 22492 22493 22494 22495 22496 22497 22498 22499 22500 22501 22502 22503 22504 22505 22506 22507 22508 22509 22510 22511 22512 22513 22514 22515 22516 22517 22518 22519 22520 22521 22522 22523 22524 22525 22526 22527 22528 22529 22530 22531 22532 22533 22534 22535 22536 22537 22538 22539 22540 22541 22542 22543 22544 22545 22546 22547 22548 22549 22550 22551 22552 22553 22554 22555 22556 22557 22558 22559 22560 22561 22562 22563 22564 22565 22566 22567 22568 22569 22570 22571 22572 22573 22574 22575 22576 22577 22578 22579 22580 22581 22582 22583 22584 22585 22586 22587 22588 22589 22590 22591 22592 22593 22594 22595 22596 22597 22598 22599 22600 22601 22602 22603 22604 22605 22606 22607 22608 22609 22610 22611 22612 22613 22614 22615 22616 22617 22618 22619 22620 22621 22622 22623 22624 22625 22626 22627 22628 22629 22630 22631 22632 22633 22634 22635 22636 22637 22638 22639 22640 22641 22642 22643 22644 22645 22646 22647 22648 22649 22650 22651 22652 22653 22654 22655 22656 22657 22658 22659 22660 22661 22662 22663 22664 22665 22666 22667 22668 22669 22670 22671 22672 22673 22674 22675 22676 22677 22678 22679 22680 22681 22682 22683 22684 22685 22686 22687 22688 22689 22690 22691 22692 22693 22694 22695 22696 22697 22698 22699 22700 22701 22702 22703 22704 22705 22706 22707 22708 22709 22710 22711 22712 22713 22714 22715 22716 22717 22718 22719 22720 22721 22722 22723 22724 22725 22726 22727 22728 22729 22730 22731 22732 22733 22734 22735 22736 22737 22738 22739 22740 22741 22742 22743 22744 22745 22746 22747 22748 22749 22750 22751 22752 22753 22754 22755 22756 22757 22758 22759 22760 22761 22762 22763 22764 22765 22766 22767 22768 22769 22770 22771 22772 22773 22774 22775 22776 22777 22778 22779 22780 22781 22782 22783 22784 22785 22786 22787 22788 22789 22790 22791 22792 22793 22794 22795 22796 22797 22798 22799 22800 22801 22802 22803 22804 22805 22806 22807 22808 22809 22810 22811 22812 22813 22814 22815 22816 22817 22818 22819 22820 22821 22822 22823 22824 22825 22826 22827 22828 22829 22830 22831 22832 22833 22834 22835 22836 22837 22838 22839 22840 22841 22842 22843 22844 22845 22846 22847 22848 22849 22850 22851 22852 22853 22854 22855 22856 22857 22858 22859 22860 22861 22862 22863 22864 22865 22866 22867 22868 22869 22870 22871 22872 22873 22874 22875 22876 22877 22878 22879 22880 22881 22882 22883 22884 22885 22886 22887 22888 22889 22890 22891 22892 22893 22894 22895 22896 22897 22898 22899 22900 22901 22902 22903 22904 22905 22906 22907 22908 22909 22910 22911 22912 22913 22914 22915 22916 22917 22918 22919 22920 22921 22922 22923 22924 22925 22926 22927 22928 22929 22930 22931 22932 22933 22934 22935 22936 22937 22938 22939 22940 22941 22942 22943 22944 22945 22946 22947 22948 22949 22950 22951 22952 22953 22954 22955 22956 22957 22958 22959 22960 22961 22962 22963 22964 22965 22966 22967 22968 22969 22970 22971 22972 22973 22974 22975 22976 22977 22978 22979 22980 22981 22982 22983 22984 22985 22986 22987 22988 22989 22990 22991 22992 22993 22994 22995 22996 22997 22998 22999 23000 23001 23002 23003 23004 23005 23006 23007 23008 23009 23010 23011 23012 23013 23014 23015 23016 23017 23018 23019 23020 23021 23022 23023 23024 23025 23026 23027 23028 23029 23030 23031 23032 23033 23034 23035 23036 23037 23038 23039 23040 23041 23042 23043 23044 23045 23046 23047 23048 23049 23050 23051 23052 23053 23054 23055 23056 23057 23058 23059 23060 23061 23062 23063 23064 23065 23066 23067 23068 23069 23070 23071 23072 23073 23074 23075 23076 23077 23078 23079 23080 23081 23082 23083 23084 23085 23086 23087 23088 23089 23090 23091 23092 23093 23094 23095 23096 23097 23098 23099 23100 23101 23102 23103 23104 23105 23106 23107 23108 23109 23110 23111 23112 23113 23114 23115 23116 23117 23118 23119 23120 23121 23122 23123 23124 23125 23126 23127 23128 23129 23130 23131 23132 23133 23134 23135 23136 23137 23138 23139 23140 23141 23142 23143 23144 23145 23146 23147 23148 23149 23150 23151 23152 23153 23154 23155 23156 23157 23158 23159 23160 23161 23162 23163 23164 23165 23166 23167 23168 23169 23170 23171 23172 23173 23174 23175 23176 23177 23178 23179 23180 23181 23182 23183 23184 23185 23186 23187 23188 23189 23190 23191 23192 23193 23194 23195 23196 23197 23198 23199 23200 23201 23202 23203 23204 23205 23206 23207 23208 23209 23210 23211 23212 23213 23214 23215 23216 23217 23218 23219 23220 23221 23222 23223 23224 23225 23226 23227 23228 23229 23230 23231 23232 23233 23234 23235 23236 23237 23238 23239 23240 23241 23242 23243 23244 23245 23246 23247 23248 23249 23250 23251 23252 23253 23254 23255 23256 23257 23258 23259 23260 23261 23262 23263 23264 23265 23266 23267 23268 23269 23270 23271 23272 23273 23274 23275 23276 23277 23278 23279 23280 23281 23282 23283 23284 23285 23286 23287 23288 23289 23290 23291 23292 23293 23294 23295 23296 23297 23298 23299 23300 23301 23302 23303 23304 23305 23306 23307 23308 23309 23310 23311 23312 23313 23314 23315 23316 23317 23318 23319 23320 23321 23322 23323 23324 23325 23326 23327 23328 23329 23330 23331 23332 23333 23334 23335 23336 23337 23338 23339 23340 23341 23342 23343 23344 23345 23346 23347 23348 23349 23350 23351 23352 23353 23354 23355 23356 23357 23358 23359 23360 23361 23362 23363 23364 23365 23366 23367 23368 23369 23370 23371 23372 23373 23374 23375 23376 23377 23378 23379 23380 23381 23382 23383 23384 23385 23386 23387 23388 23389 23390 23391 23392 23393 23394 23395 23396 23397 23398 23399 23400 23401 23402 23403 23404 23405 23406 23407 23408 23409 23410 23411 23412 23413 23414 23415 23416 23417 23418 23419 23420 23421 23422 23423 23424 23425 23426 23427 23428 23429 23430 23431 23432 23433 23434 23435 23436 23437 23438 23439 23440 23441 23442 23443 23444 23445 23446 23447 23448 23449 23450 23451 23452 23453 23454 23455 23456 23457 23458 23459 23460 23461 23462 23463 23464 23465 23466 23467 23468 23469 23470 23471 23472 23473 23474 23475 23476 23477 23478 23479 23480 23481 23482 23483 23484 23485 23486 23487 23488 23489 23490 23491 23492 23493 23494 23495 23496 23497 23498 23499 23500 23501 23502 23503 23504 23505 23506 23507 23508 23509 23510 23511 23512 23513 23514 23515 23516 23517 23518 23519 23520 23521 23522 23523 23524 23525 23526 23527 23528 23529 23530 23531 23532 23533 23534 23535 23536 23537 23538 23539 23540 23541 23542 23543 23544 23545 23546 23547 23548 23549 23550 23551 23552 23553 23554 23555 23556 23557 23558 23559 23560 23561 23562 23563 23564 23565 23566 23567 23568 23569 23570 23571 23572 23573 23574 23575 23576 23577 23578 23579 23580 23581 23582 23583 23584 23585 23586 23587 23588 23589 23590 23591 23592 23593 23594 23595 23596 23597 23598 23599 23600 23601 23602 23603 23604 23605 23606 23607 23608 23609 23610 23611 23612 23613 23614 23615 23616 23617 23618 23619 23620 23621 23622 23623 23624 23625 23626 23627 23628 23629 23630 23631 23632 23633 23634 23635 23636 23637 23638 23639 23640 23641 23642 23643 23644 23645 23646 23647 23648 23649 23650 23651 23652 23653 23654 23655 23656 23657 23658 23659 23660 23661 23662 23663 23664 23665 23666 23667 23668 23669 23670 23671 23672 23673 23674 23675 23676 23677 23678 23679 23680 23681 23682 23683 23684 23685 23686 23687 23688 23689 23690 23691 23692 23693 23694 23695 23696 23697 23698 23699 23700 23701 23702 23703 23704 23705 23706 23707 23708 23709 23710 23711 23712 23713 23714 23715 23716 23717 23718 23719 23720 23721 23722 23723 23724 23725 23726 23727 23728 23729 23730 23731 23732 23733 23734 23735 23736 23737 23738 23739 23740 23741 23742 23743 23744 23745 23746 23747 23748 23749 23750 23751 23752 23753 23754 23755 23756 23757 23758 23759 23760 23761 23762 23763 23764 23765 23766 23767 23768 23769 23770 23771 23772 23773 23774 23775 23776 23777 23778 23779 23780 23781 23782 23783 23784 23785 23786 23787 23788 23789 23790 23791 23792 23793 23794 23795 23796 23797 23798 23799 23800 23801 23802 23803 23804 23805 23806 23807 23808 23809 23810 23811 23812 23813 23814 23815 23816 23817 23818 23819 23820 23821 23822 23823 23824 23825 23826 23827 23828 23829 23830 23831 23832 23833 23834 23835 23836 23837 23838 23839 23840 23841 23842 23843 23844 23845 23846 23847 23848 23849 23850 23851 23852 23853 23854 23855 23856 23857 23858 23859 23860 23861 23862 23863 23864 23865 23866 23867 23868 23869 23870 23871 23872 23873 23874 23875 23876 23877 23878 23879 23880 23881 23882 23883 23884 23885 23886 23887 23888 23889 23890 23891 23892 23893 23894 23895 23896 23897 23898 23899 23900 23901 23902 23903 23904 23905 23906 23907 23908 23909 23910 23911 23912 23913 23914 23915 23916 23917 23918 23919 23920 23921 23922 23923 23924 23925 23926 23927 23928 23929 23930 23931 23932 23933 23934 23935 23936 23937 23938 23939 23940 23941 23942 23943 23944 23945 23946 23947 23948 23949 23950 23951 23952 23953 23954 23955 23956 23957 23958 23959 23960 23961 23962 23963 23964 23965 23966 23967 23968 23969 23970 23971 23972 23973 23974 23975 23976 23977 23978 23979 23980 23981 23982 23983 23984 23985 23986 23987 23988 23989 23990 23991 23992 23993 23994 23995 23996 23997 23998 23999 24000 24001 24002 24003 24004 24005 24006 24007 24008 24009 24010 24011 24012 24013 24014 24015 24016 24017 24018 24019 24020 24021 24022 24023 24024 24025 24026 24027 24028 24029 24030 24031 24032 24033 24034 24035 24036 24037 24038 24039 24040 24041 24042 24043 24044 24045 24046 24047 24048 24049 24050 24051 24052 24053 24054 24055 24056 24057 24058 24059 24060 24061 24062 24063 24064 24065 24066 24067 24068 24069 24070 24071 24072 24073 24074 24075 24076 24077 24078 24079 24080 24081 24082 24083 24084 24085 24086 24087 24088 24089 24090 24091 24092 24093 24094 24095 24096 24097 24098 24099 24100 24101 24102 24103 24104 24105 24106 24107 24108 24109 24110 24111 24112 24113 24114 24115 24116 24117 24118 24119 24120 24121 24122 24123 24124 24125 24126 24127 24128 24129 24130 24131 24132 24133 24134 24135 24136 24137 24138 24139 24140 24141 24142 24143 24144 24145 24146 24147 24148 24149 24150 24151 24152 24153 24154 24155 24156 24157 24158 24159 24160 24161 24162 24163 24164 24165 24166 24167 24168 24169 24170 24171 24172 24173 24174 24175 24176 24177 24178 24179 24180 24181 24182 24183 24184 24185 24186 24187 24188 24189 24190 24191 24192 24193 24194 24195 24196 24197 24198 24199 24200 24201 24202 24203 24204 24205 24206 24207 24208 24209 24210 24211 24212 24213 24214 24215 24216 24217 24218 24219 24220 24221 24222 24223 24224 24225 24226 24227 24228 24229 24230 24231 24232 24233 24234 24235 24236 24237 24238 24239 24240 24241 24242 24243 24244 24245 24246 24247 24248 24249 24250 24251 24252 24253 24254 24255 24256 24257 24258 24259 24260 24261 24262 24263 24264 24265 24266 24267 24268 24269 24270 24271 24272 24273 24274 24275 24276 24277 24278 24279 24280 24281 24282 24283 24284 24285 24286 24287 24288 24289 24290 24291 24292 24293 24294 24295 24296 24297 24298 24299 24300 24301 24302 24303 24304 24305 24306 24307 24308 24309 24310 24311 24312 24313 24314 24315 24316 24317 24318 24319 24320 24321 24322 24323 24324 24325 24326 24327 24328 24329 24330 24331 24332 24333 24334 24335 24336 24337 24338 24339 24340 24341 24342 24343 24344 24345 24346 24347 24348 24349 24350 24351 24352 24353 24354 24355 24356 24357 24358 24359 24360 24361 24362 24363 24364 24365 24366 24367 24368 24369 24370 24371 24372 24373 24374 24375 24376 24377 24378 24379 24380 24381 24382 24383 24384 24385 24386 24387 24388 24389 24390 24391 24392 24393 24394 24395 24396 24397 24398 24399 24400 24401 24402 24403 24404 24405 24406 24407 24408 24409 24410 24411 24412 24413 24414 24415 24416 24417 24418 24419 24420 24421 24422 24423 24424 24425 24426 24427 24428 24429 24430 24431 24432 24433 24434 24435 24436 24437 24438 24439 24440 24441 24442 24443 24444 24445 24446 24447 24448 24449 24450 24451 24452 24453 24454 24455 24456 24457 24458 24459 24460 24461 24462 24463 24464 24465 24466 24467 24468 24469 24470 24471 24472 24473 24474 24475 24476 24477 24478 24479 24480 24481 24482 24483 24484 24485 24486 24487 24488 24489 24490 24491 24492 24493 24494 24495 24496 24497 24498 24499 24500 24501 24502 24503 24504 24505 24506 24507 24508 24509 24510 24511 24512 24513 24514 24515 24516 24517 24518 24519 24520 24521 24522 24523 24524 24525 24526 24527 24528 24529 24530 24531 24532 24533 24534 24535 24536 24537 24538 24539 24540 24541 24542 24543 24544 24545 24546 24547 24548 24549 24550 24551 24552 24553 24554 24555 24556 24557 24558 24559 24560 24561 24562 24563 24564 24565 24566 24567 24568 24569 24570 24571 24572 24573 24574 24575 24576 24577 24578 24579 24580 24581 24582 24583 24584 24585 24586 24587 24588 24589 24590 24591 24592 24593 24594 24595 24596 24597 24598 24599 24600 24601 24602 24603 24604 24605 24606 24607 24608 24609 24610 24611 24612 24613 24614 24615 24616 24617 24618 24619 24620 24621 24622 24623 24624 24625 24626 24627 24628 24629 24630 24631 24632 24633 24634 24635 24636 24637 24638 24639 24640 24641 24642 24643 24644 24645 24646 24647 24648 24649 24650 24651 24652 24653 24654 24655 24656 24657 24658 24659 24660 24661 24662 24663 24664 24665 24666 24667 24668 24669 24670 24671 24672 24673 24674 24675 24676 24677 24678 24679 24680 24681 24682 24683 24684 24685 24686 24687 24688 24689 24690 24691 24692 24693 24694 24695 24696 24697 24698 24699 24700 24701 24702 24703 24704 24705 24706 24707 24708 24709 24710 24711 24712 24713 24714 24715 24716 24717 24718 24719 24720 24721 24722 24723 24724 24725 24726 24727 24728 24729 24730 24731 24732 24733 24734 24735 24736 24737 24738 24739 24740 24741 24742 24743 24744 24745 24746 24747 24748 24749 24750 24751 24752 24753 24754 24755 24756 24757 24758 24759 24760 24761 24762 24763 24764 24765 24766 24767 24768 24769 24770 24771 24772 24773 24774 24775 24776 24777 24778 24779 24780 24781 24782 24783 24784 24785 24786 24787 24788 24789 24790 24791 24792 24793 24794 24795 24796 24797 24798 24799 24800 24801 24802 24803 24804 24805 24806 24807 24808 24809 24810 24811 24812 24813 24814 24815 24816 24817 24818 24819 24820 24821 24822 24823 24824 24825 24826 24827 24828 24829 24830 24831 24832 24833 24834 24835 24836 24837 24838 24839 24840 24841 24842 24843 24844 24845 24846 24847 24848 24849 24850 24851 24852 24853 24854 24855 24856 24857 24858 24859 24860 24861 24862 24863 24864 24865 24866 24867 24868 24869 24870 24871 24872 24873 24874 24875 24876 24877 24878 24879 24880 24881 24882 24883 24884 24885 24886 24887 24888 24889 24890 24891 24892 24893 24894 24895 24896 24897 24898 24899 24900 24901 24902 24903 24904 24905 24906 24907 24908 24909 24910 24911 24912 24913 24914 24915 24916 24917 24918 24919 24920 24921 24922 24923 24924 24925 24926 24927 24928 24929 24930 24931 24932 24933 24934 24935 24936 24937 24938 24939 24940 24941 24942 24943 24944 24945 24946 24947 24948 24949 24950 24951 24952 24953 24954 24955 24956 24957 24958 24959 24960 24961 24962 24963 24964 24965 24966 24967 24968 24969 24970 24971 24972 24973 24974 24975 24976 24977 24978 24979 24980 24981 24982 24983 24984 24985 24986 24987 24988 24989 24990 24991 24992 24993 24994 24995 24996 24997 24998 24999 25000 25001 25002 25003 25004 25005 25006 25007 25008 25009 25010 25011 25012 25013 25014 25015 25016 25017 25018 25019 25020 25021 25022 25023 25024 25025 25026 25027 25028 25029 25030 25031 25032 25033 25034 25035 25036 25037 25038 25039 25040 25041 25042 25043 25044 25045 25046 25047 25048 25049 25050 25051 25052 25053 25054 25055 25056 25057 25058 25059 25060 25061 25062 25063 25064 25065 25066 25067 25068 25069 25070 25071 25072 25073 25074 25075 25076 25077 25078 25079 25080 25081 25082 25083 25084 25085 25086 25087 25088 25089 25090 25091 25092 25093 25094 25095 25096 25097 25098 25099 25100 25101 25102 25103 25104 25105 25106 25107 25108 25109 25110 25111 25112 25113 25114 25115 25116 25117 25118 25119 25120 25121 25122 25123 25124 25125 25126 25127 25128 25129 25130 25131 25132 25133 25134 25135 25136 25137 25138 25139 25140 25141 25142 25143 25144 25145 25146 25147 25148 25149 25150 25151 25152 25153 25154 25155 25156 25157 25158 25159 25160 25161 25162 25163 25164 25165 25166 25167 25168 25169 25170 25171 25172 25173 25174 25175 25176 25177 25178 25179 25180 25181 25182 25183 25184 25185 25186 25187 25188 25189 25190 25191 25192 25193 25194 25195 25196 25197 25198 25199 25200 25201 25202 25203 25204 25205 25206 25207 25208 25209 25210 25211 25212 25213 25214 25215 25216 25217 25218 25219 25220 25221 25222 25223 25224 25225 25226 25227 25228 25229 25230 25231 25232 25233 25234 25235 25236 25237 25238 25239 25240 25241 25242 25243 25244 25245 25246 25247 25248 25249 25250 25251 25252 25253 25254 25255 25256 25257 25258 25259 25260 25261 25262 25263 25264 25265 25266 25267 25268 25269 25270 25271 25272 25273 25274 25275 25276 25277 25278 25279 25280 25281 25282 25283 25284 25285 25286 25287 25288 25289 25290 25291 25292 25293 25294 25295 25296 25297 25298 25299 25300 25301 25302 25303 25304 25305 25306 25307 25308 25309 25310 25311 25312 25313 25314 25315 25316 25317 25318 25319 25320 25321 25322 25323 25324 25325 25326 25327 25328 25329 25330 25331 25332 25333 25334 25335 25336 25337 25338 25339 25340 25341 25342 25343 25344 25345 25346 25347 25348 25349 25350 25351 25352 25353 25354 25355 25356 25357 25358 25359 25360 25361 25362 25363 25364 25365 25366 25367 25368 25369 25370 25371 25372 25373 25374 25375 25376 25377 25378 25379 25380 25381 25382 25383 25384 25385 25386 25387 25388 25389 25390 25391 25392 25393 25394 25395 25396 25397 25398 25399 25400 25401 25402 25403 25404 25405 25406 25407 25408 25409 25410 25411 25412 25413 25414 25415 25416 25417 25418 25419 25420 25421 25422 25423 25424 25425 25426 25427 25428 25429 25430 25431 25432 25433 25434 25435 25436 25437 25438 25439 25440 25441 25442 25443 25444 25445 25446 25447 25448 25449 25450 25451 25452 25453 25454 25455 25456 25457 25458 25459 25460 25461 25462 25463 25464 25465 25466 25467 25468 25469 25470 25471 25472 25473 25474 25475 25476 25477 25478 25479 25480 25481 25482 25483 25484 25485 25486 25487 25488 25489 25490 25491 25492 25493 25494 25495 25496 25497 25498 25499 25500 25501 25502 25503 25504 25505 25506 25507 25508 25509 25510 25511 25512 25513 25514 25515 25516 25517 25518 25519 25520 25521 25522 25523 25524 25525 25526 25527 25528 25529 25530 25531 25532 25533 25534 25535 25536 25537 25538 25539 25540 25541 25542 25543 25544 25545 25546 25547 25548 25549 25550 25551 25552 25553 25554 25555 25556 25557 25558 25559 25560 25561 25562 25563 25564 25565 25566 25567 25568 25569 25570 25571 25572 25573 25574 25575 25576 25577 25578 25579 25580 25581 25582 25583 25584 25585 25586 25587 25588 25589 25590 25591 25592 25593 25594 25595 25596 25597 25598 25599 25600 25601 25602 25603 25604 25605 25606 25607 25608 25609 25610 25611 25612 25613 25614 25615 25616 25617 25618 25619 25620 25621 25622 25623 25624 25625 25626 25627 25628 25629 25630 25631 25632 25633 25634 25635 25636 25637 25638 25639 25640 25641 25642 25643 25644 25645 25646 25647 25648 25649 25650 25651 25652 25653 25654 25655 25656 25657 25658 25659 25660 25661 25662 25663 25664 25665 25666 25667 25668 25669 25670 25671 25672 25673 25674 25675 25676 25677 25678 25679 25680 25681 25682 25683 25684 25685 25686 25687 25688 25689 25690 25691 25692 25693 25694 25695 25696 25697 25698 25699 25700 25701 25702 25703 25704 25705 25706 25707 25708 25709 25710 25711 25712 25713 25714 25715 25716 25717 25718 25719 25720 25721 25722 25723 25724 25725 25726 25727 25728 25729 25730 25731 25732 25733 25734 25735 25736 25737 25738 25739 25740 25741 25742 25743 25744 25745 25746 25747 25748 25749 25750 25751 25752 25753 25754 25755 25756 25757 25758 25759 25760 25761 25762 25763 25764 25765 25766 25767 25768 25769 25770 25771 25772 25773 25774 25775 25776 25777 25778 25779 25780 25781 25782 25783 25784 25785 25786 25787 25788 25789 25790 25791 25792 25793 25794 25795 25796 25797 25798 25799 25800 25801 25802 25803 25804 25805 25806 25807 25808 25809 25810 25811 25812 25813 25814 25815 25816 25817 25818 25819 25820 25821 25822 25823 25824 25825 25826 25827 25828 25829 25830 25831 25832 25833 25834 25835 25836 25837 25838 25839 25840 25841 25842 25843 25844 25845 25846 25847 25848 25849 25850 25851 25852 25853 25854 25855 25856 25857 25858 25859 25860 25861 25862 25863 25864 25865 25866 25867 25868 25869 25870 25871 25872 25873 25874 25875 25876 25877 25878 25879 25880 25881 25882 25883 25884 25885 25886 25887 25888 25889 25890 25891 25892 25893 25894 25895 25896 25897 25898 25899 25900 25901 25902 25903 25904 25905 25906 25907 25908 25909 25910 25911 25912 25913 25914 25915 25916 25917 25918 25919 25920 25921 25922 25923 25924 25925 25926 25927 25928 25929 25930 25931 25932 25933 25934 25935 25936 25937 25938 25939 25940 25941 25942 25943 25944 25945 25946 25947 25948 25949 25950 25951 25952 25953 25954 25955 25956 25957 25958 25959 25960 25961 25962 25963 25964 25965 25966 25967 25968 25969 25970 25971 25972 25973 25974 25975 25976 25977 25978 25979 25980 25981 25982 25983 25984 25985 25986 25987 25988 25989 25990 25991 25992 25993 25994 25995 25996 25997 25998 25999 26000 26001 26002 26003 26004 26005 26006 26007 26008 26009 26010 26011 26012 26013 26014 26015 26016 26017 26018 26019 26020 26021 26022 26023 26024 26025 26026 26027 26028 26029 26030 26031 26032 26033 26034 26035 26036 26037 26038 26039 26040 26041 26042 26043 26044 26045 26046 26047 26048 26049 26050 26051 26052 26053 26054 26055 26056 26057 26058 26059 26060 26061 26062 26063 26064 26065 26066 26067 26068 26069 26070 26071 26072 26073 26074 26075 26076 26077 26078 26079 26080 26081 26082 26083 26084 26085 26086 26087 26088 26089 26090 26091 26092 26093 26094 26095 26096 26097 26098 26099 26100 26101 26102 26103 26104 26105 26106 26107 26108 26109 26110 26111 26112 26113 26114 26115 26116 26117 26118 26119 26120 26121 26122 26123 26124 26125 26126 26127 26128 26129 26130 26131 26132 26133 26134 26135 26136 26137 26138 26139 26140 26141 26142 26143 26144 26145 26146 26147 26148 26149 26150 26151 26152 26153 26154 26155 26156 26157 26158 26159 26160 26161 26162 26163 26164 26165 26166 26167 26168 26169 26170 26171 26172 26173 26174 26175 26176 26177 26178 26179 26180 26181 26182 26183 26184 26185 26186 26187 26188 26189 26190 26191 26192 26193 26194 26195 26196 26197 26198 26199 26200 26201 26202 26203 26204 26205 26206 26207 26208 26209 26210 26211 26212 26213 26214 26215 26216 26217 26218 26219 26220 26221 26222 26223 26224 26225 26226 26227 26228 26229 26230 26231 26232 26233 26234 26235 26236 26237 26238 26239 26240 26241 26242 26243 26244 26245 26246 26247 26248 26249 26250 26251 26252 26253 26254 26255 26256 26257 26258 26259 26260 26261 26262 26263 26264 26265 26266 26267 26268 26269 26270 26271 26272 26273 26274 26275 26276 26277 26278 26279 26280 26281 26282 26283 26284 26285 26286 26287 26288 26289 26290 26291 26292 26293 26294 26295 26296 26297 26298 26299 26300 26301 26302 26303 26304 26305 26306 26307 26308 26309 26310 26311 26312 26313 26314 26315 26316 26317 26318 26319 26320 26321 26322 26323 26324 26325 26326 26327 26328 26329 26330 26331 26332 26333 26334 26335 26336 26337 26338 26339 26340 26341 26342 26343 26344 26345 26346 26347 26348 26349 26350 26351 26352 26353 26354 26355 26356 26357 26358 26359 26360 26361 26362 26363 26364 26365 26366 26367 26368 26369 26370 26371 26372 26373 26374 26375 26376 26377 26378 26379 26380 26381 26382 26383 26384 26385 26386 26387 26388 26389 26390 26391 26392 26393 26394 26395 26396 26397 26398 26399 26400 26401 26402 26403 26404 26405 26406 26407 26408 26409 26410 26411 26412 26413 26414 26415 26416 26417 26418 26419 26420 26421 26422 26423 26424 26425 26426 26427 26428 26429 26430 26431 26432 26433 26434 26435 26436 26437 26438 26439 26440 26441 26442 26443 26444 26445 26446 26447 26448 26449 26450 26451 26452 26453 26454 26455 26456 26457 26458 26459 26460 26461 26462 26463 26464 26465 26466 26467 26468 26469 26470 26471 26472 26473 26474 26475 26476 26477 26478 26479 26480 26481 26482 26483 26484 26485 26486 26487 26488 26489 26490 26491 26492 26493 26494 26495 26496 26497 26498 26499 26500 26501 26502 26503 26504 26505 26506 26507 26508 26509 26510 26511 26512 26513 26514 26515 26516 26517 26518 26519 26520 26521 26522 26523 26524 26525 26526 26527 26528 26529 26530 26531 26532 26533 26534 26535 26536 26537 26538 26539 26540 26541 26542 26543 26544 26545 26546 26547 26548 26549 26550 26551 26552 26553 26554 26555 26556 26557 26558 26559 26560 26561 26562 26563 26564 26565 26566 26567 26568 26569 26570 26571 26572 26573 26574 26575 26576 26577 26578 26579 26580 26581 26582 26583 26584 26585 26586 26587 26588 26589 26590 26591 26592 26593 26594 26595 26596 26597 26598 26599 26600 26601 26602 26603 26604 26605 26606 26607 26608 26609 26610 26611 26612 26613 26614 26615 26616 26617 26618 26619 26620 26621 26622 26623 26624 26625 26626 26627 26628 26629 26630 26631 26632 26633 26634 26635 26636 26637 26638 26639 26640 26641 26642 26643 26644 26645 26646 26647 26648 26649 26650 26651 26652 26653 26654 26655 26656 26657 26658 26659 26660 26661 26662 26663 26664 26665 26666 26667 26668 26669 26670 26671 26672 26673 26674 26675 26676 26677 26678 26679 26680 26681 26682 26683 26684 26685 26686 26687 26688 26689 26690 26691 26692 26693 26694 26695 26696 26697 26698 26699 26700 26701 26702 26703 26704 26705 26706 26707 26708 26709 26710 26711 26712 26713 26714 26715 26716 26717 26718 26719 26720 26721 26722 26723 26724 26725 26726 26727 26728 26729 26730 26731 26732 26733 26734 26735 26736 26737 26738 26739 26740 26741 26742 26743 26744 26745 26746 26747 26748 26749 26750 26751 26752 26753 26754 26755 26756 26757 26758 26759 26760 26761 26762 26763 26764 26765 26766 26767 26768 26769 26770 26771 26772 26773 26774 26775 26776 26777 26778 26779 26780 26781 26782 26783 26784 26785 26786 26787 26788 26789 26790 26791 26792 26793 26794 26795 26796 26797 26798 26799 26800 26801 26802 26803 26804 26805 26806 26807 26808 26809 26810 26811 26812 26813 26814 26815 26816 26817 26818 26819 26820 26821 26822 26823 26824 26825 26826 26827 26828 26829 26830 26831 26832 26833 26834 26835 26836 26837 26838 26839 26840 26841 26842 26843 26844 26845 26846 26847 26848 26849 26850 26851 26852 26853 26854 26855 26856 26857 26858 26859 26860 26861 26862 26863 26864 26865 26866 26867 26868 26869 26870 26871 26872 26873 26874 26875 26876 26877 26878 26879 26880 26881 26882 26883 26884 26885 26886 26887 26888 26889 26890 26891 26892 26893 26894 26895 26896 26897 26898 26899 26900 26901 26902 26903 26904 26905 26906 26907 26908 26909 26910 26911 26912 26913 26914 26915 26916 26917 26918 26919 26920 26921 26922 26923 26924 26925 26926 26927 26928 26929 26930 26931 26932 26933 26934 26935 26936 26937 26938 26939 26940 26941 26942 26943 26944 26945 26946 26947 26948 26949 26950 26951 26952 26953 26954 26955 26956 26957 26958 26959 26960 26961 26962 26963 26964 26965 26966 26967 26968 26969 26970 26971 26972 26973 26974 26975 26976 26977 26978 26979 26980 26981 26982 26983 26984 26985 26986 26987 26988 26989 26990 26991 26992 26993 26994 26995 26996 26997 26998 26999 27000 27001 27002 27003 27004 27005 27006 27007 27008 27009 27010 27011 27012 27013 27014 27015 27016 27017 27018 27019 27020 27021 27022 27023 27024 27025 27026 27027 27028 27029 27030 27031 27032 27033 27034 27035 27036 27037 27038 27039 27040 27041 27042 27043 27044 27045 27046 27047 27048 27049 27050 27051 27052 27053 27054 27055 27056 27057 27058 27059 27060 27061 27062 27063 27064 27065 27066 27067 27068 27069 27070 27071 27072 27073 27074 27075 27076 27077 27078 27079 27080 27081 27082 27083 27084 27085 27086 27087 27088 27089 27090 27091 27092 27093 27094 27095 27096 27097 27098 27099 27100 27101 27102 27103 27104 27105 27106 27107 27108 27109 27110 27111 27112 27113 27114 27115 27116 27117 27118 27119 27120 27121 27122 27123 27124 27125 27126 27127 27128 27129 27130 27131 27132 27133 27134 27135 27136 27137 27138 27139 27140 27141 27142 27143 27144 27145 27146 27147 27148 27149 27150 27151 27152 27153 27154 27155 27156 27157 27158 27159 27160 27161 27162 27163 27164 27165 27166 27167 27168 27169 27170 27171 27172 27173 27174 27175 27176 27177 27178 27179 27180 27181 27182 27183 27184 27185 27186 27187 27188 27189 27190 27191 27192 27193 27194 27195 27196 27197 27198 27199 27200 27201 27202 27203 27204 27205 27206 27207 27208 27209 27210 27211 27212 27213 27214 27215 27216 27217 27218 27219 27220 27221 27222 27223 27224 27225 27226 27227 27228 27229 27230 27231 27232 27233 27234 27235 27236 27237 27238 27239 27240 27241 27242 27243 27244 27245 27246 27247 27248 27249 27250 27251 27252 27253 27254 27255 27256 27257 27258 27259 27260 27261 27262 27263 27264 27265 27266 27267 27268 27269 27270 27271 27272 27273 27274 27275 27276 27277 27278 27279 27280 27281 27282 27283 27284 27285 27286 27287 27288 27289 27290 27291 27292 27293 27294 27295 27296 27297 27298 27299 27300 27301 27302 27303 27304 27305 27306 27307 27308 27309 27310 27311 27312 27313 27314 27315 27316 27317 27318 27319 27320 27321 27322 27323 27324 27325 27326 27327 27328 27329 27330 27331 27332 27333 27334 27335 27336 27337 27338 27339 27340 27341 27342 27343 27344 27345 27346 27347 27348 27349 27350 27351 27352 27353 27354 27355 27356 27357 27358 27359 27360 27361 27362 27363 27364 27365 27366 27367 27368 27369 27370 27371 27372 27373 27374 27375 27376 27377 27378 27379 27380 27381 27382 27383 27384 27385 27386 27387 27388 27389 27390 27391 27392 27393 27394 27395 27396 27397 27398 27399 27400 27401 27402 27403 27404 27405 27406 27407 27408 27409 27410 27411 27412 27413 27414 27415 27416 27417 27418 27419 27420 27421 27422 27423 27424 27425 27426 27427 27428 27429 27430 27431 27432 27433 27434 27435 27436 27437 27438 27439 27440 27441 27442 27443 27444 27445 27446 27447 27448 27449 27450 27451 27452 27453 27454 27455 27456 27457 27458 27459 27460 27461 27462 27463 27464 27465 27466 27467 27468 27469 27470 27471 27472 27473 27474 27475 27476 27477 27478 27479 27480 27481 27482 27483 27484 27485 27486 27487 27488 27489 27490 27491 27492 27493 27494 27495 27496 27497 27498 27499 27500 27501 27502 27503 27504 27505 27506 27507 27508 27509 27510 27511 27512 27513 27514 27515 27516 27517 27518 27519 27520 27521 27522 27523 27524 27525 27526 27527 27528 27529 27530 27531 27532 27533 27534 27535 27536 27537 27538 27539 27540 27541 27542 27543 27544 27545 27546 27547 27548 27549 27550 27551 27552 27553 27554 27555 27556 27557 27558 27559 27560 27561 27562 27563 27564 27565 27566 27567 27568 27569 27570 27571 27572 27573 27574 27575 27576 27577 27578 27579 27580 27581 27582 27583 27584 27585 27586 27587 27588 27589 27590 27591 27592 27593 27594 27595 27596 27597 27598 27599 27600 27601 27602 27603 27604 27605 27606 27607 27608 27609 27610 27611 27612 27613 27614 27615 27616 27617 27618 27619 27620 27621 27622 27623 27624 27625 27626 27627 27628 27629 27630 27631 27632 27633 27634 27635 27636 27637 27638 27639 27640 27641 27642 27643 27644 27645 27646 27647 27648 27649 27650 27651 27652 27653 27654 27655 27656 27657 27658 27659 27660 27661 27662 27663 27664 27665 27666 27667 27668 27669 27670 27671 27672 27673 27674 27675 27676 27677 27678 27679 27680 27681 27682 27683 27684 27685 27686 27687 27688 27689 27690 27691 27692 27693 27694 27695 27696 27697 27698 27699 27700 27701 27702 27703 27704 27705 27706 27707 27708 27709 27710 27711 27712 27713 27714 27715 27716 27717 27718 27719 27720 27721 27722 27723 27724 27725 27726 27727 27728 27729 27730 27731 27732 27733 27734 27735 27736 27737 27738 27739 27740 27741 27742 27743 27744 27745 27746 27747 27748 27749 27750 27751 27752 27753 27754 27755 27756 27757 27758 27759 27760 27761 27762 27763 27764 27765 27766 27767 27768 27769 27770 27771 27772 27773 27774 27775 27776 27777 27778 27779 27780 27781 27782 27783 27784 27785 27786 27787 27788 27789 27790 27791 27792 27793 27794 27795 27796 27797 27798 27799 27800 27801 27802 27803 27804 27805 27806 27807 27808 27809 27810 27811 27812 27813 27814 27815 27816 27817 27818 27819 27820 27821 27822 27823 27824 27825 27826 27827 27828 27829 27830 27831 27832 27833 27834 27835 27836 27837 27838 27839 27840 27841 27842 27843 27844 27845 27846 27847 27848 27849 27850 27851 27852 27853 27854 27855 27856 27857 27858 27859 27860 27861 27862 27863 27864 27865 27866 27867 27868 27869 27870 27871 27872 27873 27874 27875 27876 27877 27878 27879 27880 27881 27882 27883 27884 27885 27886 27887 27888 27889 27890 27891 27892 27893 27894 27895 27896 27897 27898 27899 27900 27901 27902 27903 27904 27905 27906 27907 27908 27909 27910 27911 27912 27913 27914 27915 27916 27917 27918 27919 27920 27921 27922 27923 27924 27925 27926 27927 27928 27929 27930 27931 27932 27933 27934 27935 27936 27937 27938 27939 27940 27941 27942 27943 27944 27945 27946 27947 27948 27949 27950 27951 27952 27953 27954 27955 27956 27957 27958 27959 27960 27961 27962 27963 27964 27965 27966 27967 27968 27969 27970 27971 27972 27973 27974 27975 27976 27977 27978 27979 27980 27981 27982 27983 27984 27985 27986 27987 27988 27989 27990 27991 27992 27993 27994 27995 27996 27997 27998 27999 28000 28001 28002 28003 28004 28005 28006 28007 28008 28009 28010 28011 28012 28013 28014 28015 28016 28017 28018 28019 28020 28021 28022 28023 28024 28025 28026 28027 28028 28029 28030 28031 28032 28033 28034 28035 28036 28037 28038 28039 28040 28041 28042 28043 28044 28045 28046 28047 28048 28049 28050 28051 28052 28053 28054 28055 28056 28057 28058 28059 28060 28061 28062 28063 28064 28065 28066 28067 28068 28069 28070 28071 28072 28073 28074 28075 28076 28077 28078 28079 28080 28081 28082 28083 28084 28085 28086 28087 28088 28089 28090 28091 28092 28093 28094 28095 28096 28097 28098 28099 28100 28101 28102 28103 28104 28105 28106 28107 28108 28109 28110 28111 28112 28113 28114 28115 28116 28117 28118 28119 28120 28121 28122 28123 28124 28125 28126 28127 28128 28129 28130 28131 28132 28133 28134 28135 28136 28137 28138 28139 28140 28141 28142 28143 28144 28145 28146 28147 28148 28149 28150 28151 28152 28153 28154 28155 28156 28157 28158 28159 28160 28161 28162 28163 28164 28165 28166 28167 28168 28169 28170 28171 28172 28173 28174 28175 28176 28177 28178 28179 28180 28181 28182 28183 28184 28185 28186 28187 28188 28189 28190 28191 28192 28193 28194 28195 28196 28197 28198 28199 28200 28201 28202 28203 28204 28205 28206 28207 28208 28209 28210 28211 28212 28213 28214 28215 28216 28217 28218 28219 28220 28221 28222 28223 28224 28225 28226 28227 28228 28229 28230 28231 28232 28233 28234 28235 28236 28237 28238 28239 28240 28241 28242 28243 28244 28245 28246 28247 28248 28249 28250 28251 28252 28253 28254 28255 28256 28257 28258 28259 28260 28261 28262 28263 28264 28265 28266 28267 28268 28269 28270 28271 28272 28273 28274 28275 28276 28277 28278 28279 28280 28281 28282 28283 28284 28285 28286 28287 28288 28289 28290 28291 28292 28293 28294 28295 28296 28297 28298 28299 28300 28301 28302 28303 28304 28305 28306 28307 28308 28309 28310 28311 28312 28313 28314 28315 28316 28317 28318 28319 28320 28321 28322 28323 28324 28325 28326 28327 28328 28329 28330 28331 28332 28333 28334 28335 28336 28337 28338 28339 28340 28341 28342 28343 28344 28345 28346 28347 28348 28349 28350 28351 28352 28353 28354 28355 28356 28357 28358 28359 28360 28361 28362 28363 28364 28365 28366 28367 28368 28369 28370 28371 28372 28373 28374 28375 28376 28377 28378 28379 28380 28381 28382 28383 28384 28385 28386 28387 28388 28389 28390 28391 28392 28393 28394 28395 28396 28397 28398 28399 28400 28401 28402 28403 28404 28405 28406 28407 28408 28409 28410 28411 28412 28413 28414 28415 28416 28417 28418 28419 28420 28421 28422 28423 28424 28425 28426 28427 28428 28429 28430 28431 28432 28433 28434 28435 28436 28437 28438 28439 28440 28441 28442 28443 28444 28445 28446 28447 28448 28449 28450 28451 28452 28453 28454 28455 28456 28457 28458 28459 28460 28461 28462 28463 28464 28465 28466 28467 28468 28469 28470 28471 28472 28473 28474 28475 28476 28477 28478 28479 28480 28481 28482 28483 28484 28485 28486 28487 28488 28489 28490 28491 28492 28493 28494 28495 28496 28497 28498 28499 28500 28501 28502 28503 28504 28505 28506 28507 28508 28509 28510 28511 28512 28513 28514 28515 28516 28517 28518 28519 28520 28521 28522 28523 28524 28525 28526 28527 28528 28529 28530 28531 28532 28533 28534 28535 28536 28537 28538 28539 28540 28541 28542 28543 28544 28545 28546 28547 28548 28549 28550 28551 28552 28553 28554 28555 28556 28557 28558 28559 28560 28561 28562 28563 28564 28565 28566 28567 28568 28569 28570 28571 28572 28573 28574 28575 28576 28577 28578 28579 28580 28581 28582 28583 28584 28585 28586 28587 28588 28589 28590 28591 28592 28593 28594 28595 28596 28597 28598 28599 28600 28601 28602 28603 28604 28605 28606 28607 28608 28609 28610 28611 28612 28613 28614 28615 28616 28617 28618 28619 28620 28621 28622 28623 28624 28625 28626 28627 28628 28629 28630 28631 28632 28633 28634 28635 28636 28637 28638 28639 28640 28641 28642 28643 28644 28645 28646 28647 28648 28649 28650 28651 28652 28653 28654 28655 28656 28657 28658 28659 28660 28661 28662 28663 28664 28665 28666 28667 28668 28669 28670 28671 28672 28673 28674 28675 28676 28677 28678 28679 28680 28681 28682 28683 28684 28685 28686 28687 28688 28689 28690 28691 28692 28693 28694 28695 28696 28697 28698 28699 28700 28701 28702 28703 28704 28705 28706 28707 28708 28709 28710 28711 28712 28713 28714 28715 28716 28717 28718 28719 28720 28721 28722 28723 28724 28725 28726 28727 28728 28729 28730 28731 28732 28733 28734 28735 28736 28737 28738 28739 28740 28741 28742 28743 28744 28745 28746 28747 28748 28749 28750 28751 28752 28753 28754 28755 28756 28757 28758 28759 28760 28761 28762 28763 28764 28765 28766 28767 28768 28769 28770 28771 28772 28773 28774 28775 28776 28777 28778 28779 28780 28781 28782 28783 28784 28785 28786 28787 28788 28789 28790 28791 28792 28793 28794 28795 28796 28797 28798 28799 28800 28801 28802 28803 28804 28805 28806 28807 28808 28809 28810 28811 28812 28813 28814 28815 28816 28817 28818 28819 28820 28821 28822 28823 28824 28825 28826 28827 28828 28829 28830 28831 28832 28833 28834 28835 28836 28837 28838 28839 28840 28841 28842 28843 28844 28845 28846 28847 28848 28849 28850 28851 28852 28853 28854 28855 28856 28857 28858 28859 28860 28861 28862 28863 28864 28865 28866 28867 28868 28869 28870 28871 28872 28873 28874 28875 28876 28877 28878 28879 28880 28881 28882 28883 28884 28885 28886 28887 28888 28889 28890 28891 28892 28893 28894 28895 28896 28897 28898 28899 28900 28901 28902 28903 28904 28905 28906 28907 28908 28909 28910 28911 28912 28913 28914 28915 28916 28917 28918 28919 28920 28921 28922 28923 28924 28925 28926 28927 28928 28929 28930 28931 28932 28933 28934 28935 28936 28937 28938 28939 28940 28941 28942 28943 28944 28945 28946 28947 28948 28949 28950 28951 28952 28953 28954 28955 28956 28957 28958 28959 28960 28961 28962 28963 28964 28965 28966 28967 28968 28969 28970 28971 28972 28973 28974 28975 28976 28977 28978 28979 28980 28981 28982 28983 28984 28985 28986 28987 28988 28989 28990 28991 28992 28993 28994 28995 28996 28997 28998 28999 29000 29001 29002 29003 29004 29005 29006 29007 29008 29009 29010 29011 29012 29013 29014 29015 29016 29017 29018 29019 29020 29021 29022 29023 29024 29025 29026 29027 29028 29029 29030 29031 29032 29033 29034 29035 29036 29037 29038 29039 29040 29041 29042 29043 29044 29045 29046 29047 29048 29049 29050 29051 29052 29053 29054 29055 29056 29057 29058 29059 29060 29061 29062 29063 29064 29065 29066 29067 29068 29069 29070 29071 29072 29073 29074 29075 29076 29077 29078 29079 29080 29081 29082 29083 29084 29085 29086 29087 29088 29089 29090 29091 29092 29093 29094 29095 29096 29097 29098 29099 29100 29101 29102 29103 29104 29105 29106 29107 29108 29109 29110 29111 29112 29113 29114 29115 29116 29117 29118 29119 29120 29121 29122 29123 29124 29125 29126 29127 29128 29129 29130 29131 29132 29133 29134 29135 29136 29137 29138 29139 29140 29141 29142 29143 29144 29145 29146 29147 29148 29149 29150 29151 29152 29153 29154 29155 29156 29157 29158 29159 29160 29161 29162 29163 29164 29165 29166 29167 29168 29169 29170 29171 29172 29173 29174 29175 29176 29177 29178 29179 29180 29181 29182 29183 29184 29185 29186 29187 29188 29189 29190 29191 29192 29193 29194 29195 29196 29197 29198 29199 29200 29201 29202 29203 29204 29205 29206 29207 29208 29209 29210 29211 29212 29213 29214 29215 29216 29217 29218 29219 29220 29221 29222 29223 29224 29225 29226 29227 29228 29229 29230 29231 29232 29233 29234 29235 29236 29237 29238 29239 29240 29241 29242 29243 29244 29245 29246 29247 29248 29249 29250 29251 29252 29253 29254 29255 29256 29257 29258 29259 29260 29261 29262 29263 29264 29265 29266 29267 29268 29269 29270 29271 29272 29273 29274 29275 29276 29277 29278 29279 29280 29281 29282 29283 29284 29285 29286 29287 29288 29289 29290 29291 29292 29293 29294 29295 29296 29297 29298 29299 29300 29301 29302 29303 29304 29305 29306 29307 29308 29309 29310 29311 29312 29313 29314 29315 29316 29317 29318 29319 29320 29321 29322 29323 29324 29325 29326 29327 29328 29329 29330 29331 29332 29333 29334 29335 29336 29337 29338 29339 29340 29341 29342 29343 29344 29345 29346 29347 29348 29349 29350 29351 29352 29353 29354 29355 29356 29357 29358 29359 29360 29361 29362 29363 29364 29365 29366 29367 29368 29369 29370 29371 29372 29373 29374 29375 29376 29377 29378 29379 29380 29381 29382 29383 29384 29385 29386 29387 29388 29389 29390 29391 29392 29393 29394 29395 29396 29397 29398 29399 29400 29401 29402 29403 29404 29405 29406 29407 29408 29409 29410 29411 29412 29413 29414 29415 29416 29417 29418 29419 29420 29421 29422 29423 29424 29425 29426 29427 29428 29429 29430 29431 29432 29433 29434 29435 29436 29437 29438 29439 29440 29441 29442 29443 29444 29445 29446 29447 29448 29449 29450 29451 29452 29453 29454 29455 29456 29457 29458 29459 29460 29461 29462 29463 29464 29465 29466 29467 29468 29469 29470 29471 29472 29473 29474 29475 29476 29477 29478 29479 29480 29481 29482 29483 29484 29485 29486 29487 29488 29489 29490 29491 29492 29493 29494 29495 29496 29497 29498 29499 29500 29501 29502 29503 29504 29505 29506 29507 29508 29509 29510 29511 29512 29513 29514 29515 29516 29517 29518 29519 29520 29521 29522 29523 29524 29525 29526 29527 29528 29529 29530 29531 29532 29533 29534 29535 29536 29537 29538 29539 29540 29541 29542 29543 29544 29545 29546 29547 29548 29549 29550 29551 29552 29553 29554 29555 29556 29557 29558 29559 29560 29561 29562 29563 29564 29565 29566 29567 29568 29569 29570 29571 29572 29573 29574 29575 29576 29577 29578 29579 29580 29581 29582 29583 29584 29585 29586 29587 29588 29589 29590 29591 29592 29593 29594 29595 29596 29597 29598 29599 29600 29601 29602 29603 29604 29605 29606 29607 29608 29609 29610 29611 29612 29613 29614 29615 29616 29617 29618 29619 29620 29621 29622 29623 29624 29625 29626 29627 29628 29629 29630 29631 29632 29633 29634 29635 29636 29637 29638 29639 29640 29641 29642 29643 29644 29645 29646 29647 29648 29649 29650 29651 29652 29653 29654 29655 29656 29657 29658 29659 29660 29661 29662 29663 29664 29665 29666 29667 29668 29669 29670 29671 29672 29673 29674 29675 29676 29677 29678 29679 29680 29681 29682 29683 29684 29685 29686 29687 29688 29689 29690 29691 29692 29693 29694 29695 29696 29697 29698 29699 29700 29701 29702 29703 29704 29705 29706 29707 29708 29709 29710 29711 29712 29713 29714 29715 29716 29717 29718 29719 29720 29721 29722 29723 29724 29725 29726 29727 29728 29729 29730 29731 29732 29733 29734 29735 29736 29737 29738 29739 29740 29741 29742 29743 29744 29745 29746 29747 29748 29749 29750 29751 29752 29753 29754 29755 29756 29757 29758 29759 29760 29761 29762 29763 29764 29765 29766 29767 29768 29769 29770 29771 29772 29773 29774 29775 29776 29777 29778 29779 29780 29781 29782 29783 29784 29785 29786 29787 29788 29789 29790 29791 29792 29793 29794 29795 29796 29797 29798 29799 29800 29801 29802 29803 29804 29805 29806 29807 29808 29809 29810 29811 29812 29813 29814 29815 29816 29817 29818 29819 29820 29821 29822 29823 29824 29825 29826 29827 29828 29829 29830 29831 29832 29833 29834 29835 29836 29837 29838 29839 29840 29841 29842 29843 29844 29845 29846 29847 29848 29849 29850 29851 29852 29853 29854 29855 29856 29857 29858 29859 29860 29861 29862 29863 29864 29865 29866 29867 29868 29869 29870 29871 29872 29873 29874 29875 29876 29877 29878 29879 29880 29881 29882 29883 29884 29885 29886 29887 29888 29889 29890 29891 29892 29893 29894 29895 29896 29897 29898 29899 29900 29901 29902 29903 29904 29905 29906 29907 29908 29909 29910 29911 29912 29913 29914 29915 29916 29917 29918 29919 29920 29921 29922 29923 29924 29925 29926 29927 29928 29929 29930 29931 29932 29933 29934 29935 29936 29937 29938 29939 29940 29941 29942 29943 29944 29945 29946 29947 29948 29949 29950 29951 29952 29953 29954 29955 29956 29957 29958 29959 29960 29961 29962 29963 29964 29965 29966 29967 29968 29969 29970 29971 29972 29973 29974 29975 29976 29977 29978 29979 29980 29981 29982 29983 29984 29985 29986 29987 29988 29989 29990 29991 29992 29993 29994 29995 29996 29997 29998 29999 30000 30001 30002 30003 30004 30005 30006 30007 30008 30009 30010 30011 30012 30013 30014 30015 30016 30017 30018 30019 30020 30021 30022 30023 30024 30025 30026 30027 30028 30029 30030 30031 30032 30033 30034 30035 30036 30037 30038 30039 30040 30041 30042 30043 30044 30045 30046 30047 30048 30049 30050 30051 30052 30053 30054 30055 30056 30057 30058 30059 30060 30061 30062 30063 30064 30065 30066 30067 30068 30069 30070 30071 30072 30073 30074 30075 30076 30077 30078 30079 30080 30081 30082 30083 30084 30085 30086 30087 30088 30089 30090 30091 30092 30093 30094 30095 30096 30097 30098 30099 30100 30101 30102 30103 30104 30105 30106 30107 30108 30109 30110 30111 30112 30113 30114 30115 30116 30117 30118 30119 30120 30121 30122 30123 30124 30125 30126 30127 30128 30129 30130 30131 30132 30133 30134 30135 30136 30137 30138 30139 30140 30141 30142 30143 30144 30145 30146 30147 30148 30149 30150 30151 30152 30153 30154 30155 30156 30157 30158 30159 30160 30161 30162 30163 30164 30165 30166 30167 30168 30169 30170 30171 30172 30173 30174 30175 30176 30177 30178 30179 30180 30181 30182 30183 30184 30185 30186 30187 30188 30189 30190 30191 30192 30193 30194 30195 30196 30197 30198 30199 30200 30201 30202 30203 30204 30205 30206 30207 30208 30209 30210 30211 30212 30213 30214 30215 30216 30217 30218 30219 30220 30221 30222 30223 30224 30225 30226 30227 30228 30229 30230 30231 30232 30233 30234 30235 30236 30237 30238 30239 30240 30241 30242 30243 30244 30245 30246 30247 30248 30249 30250 30251 30252 30253 30254 30255 30256 30257 30258 30259 30260 30261 30262 30263 30264 30265 30266 30267 30268 30269 30270 30271 30272 30273 30274 30275 30276 30277 30278 30279 30280 30281 30282 30283 30284 30285 30286 30287 30288 30289 30290 30291 30292 30293 30294 30295 30296 30297 30298 30299 30300 30301 30302 30303 30304 30305 30306 30307 30308 30309 30310 30311 30312 30313 30314 30315 30316 30317 30318 30319 30320 30321 30322 30323 30324 30325 30326 30327 30328 30329 30330 30331 30332 30333 30334 30335 30336 30337 30338 30339 30340 30341 30342 30343 30344 30345 30346 30347 30348 30349 30350 30351 30352 30353 30354 30355 30356 30357 30358 30359 30360 30361 30362 30363 30364 30365 30366 30367 30368 30369 30370 30371 30372 30373 30374 30375 30376 30377 30378 30379 30380 30381 30382 30383 30384 30385 30386 30387 30388 30389 30390 30391 30392 30393 30394 30395 30396 30397 30398 30399 30400 30401 30402 30403 30404 30405 30406 30407 30408 30409 30410 30411 30412 30413 30414 30415 30416 30417 30418 30419 30420 30421 30422 30423 30424 30425 30426 30427 30428 30429 30430 30431 30432 30433 30434 30435 30436 30437 30438 30439 30440 30441 30442 30443 30444 30445 30446 30447 30448 30449 30450 30451 30452 30453 30454 30455 30456 30457 30458 30459 30460 30461 30462 30463 30464 30465 30466 30467 30468 30469 30470 30471 30472 30473 30474 30475 30476 30477 30478 30479 30480 30481 30482 30483 30484 30485 30486 30487 30488 30489 30490 30491 30492 30493 30494 30495 30496 30497 30498 30499 30500 30501 30502 30503 30504 30505 30506 30507 30508 30509 30510 30511 30512 30513 30514 30515 30516 30517 30518 30519 30520 30521 30522 30523 30524 30525 30526 30527 30528 30529 30530 30531 30532 30533 30534 30535 30536 30537 30538 30539 30540 30541 30542 30543 30544 30545 30546 30547 30548 30549 30550 30551 30552 30553 30554 30555 30556 30557 30558 30559 30560 30561 30562 30563 30564 30565 30566 30567 30568 30569 30570 30571 30572 30573 30574 30575 30576 30577 30578 30579 30580 30581 30582 30583 30584 30585 30586 30587 30588 30589 30590 30591 30592 30593 30594 30595 30596 30597 30598 30599 30600 30601 30602 30603 30604 30605 30606 30607 30608 30609 30610 30611 30612 30613 30614 30615 30616 30617 30618 30619 30620 30621 30622 30623 30624 30625 30626 30627 30628 30629 30630 30631 30632 30633 30634 30635 30636 30637 30638 30639 30640 30641 30642 30643 30644 30645 30646 30647 30648 30649 30650 30651 30652 30653 30654 30655 30656 30657 30658 30659 30660 30661 30662 30663 30664 30665 30666 30667 30668 30669 30670 30671 30672 30673 30674 30675 30676 30677 30678 30679 30680 30681 30682 30683 30684 30685 30686 30687 30688 30689 30690 30691 30692 30693 30694 30695 30696 30697 30698 30699 30700 30701 30702 30703 30704 30705 30706 30707 30708 30709 30710 30711 30712 30713 30714 30715 30716 30717 30718 30719 30720 30721 30722 30723 30724 30725 30726 30727 30728 30729 30730 30731 30732 30733 30734 30735 30736 30737 30738 30739 30740 30741 30742 30743 30744 30745 30746 30747 30748 30749 30750 30751 30752 30753 30754 30755 30756 30757 30758 30759 30760 30761 30762 30763 30764 30765 30766 30767 30768 30769 30770 30771 30772 30773 30774 30775 30776 30777 30778 30779 30780 30781 30782 30783 30784 30785 30786 30787 30788 30789 30790 30791 30792 30793 30794 30795 30796 30797 30798 30799 30800 30801 30802 30803 30804 30805 30806 30807 30808 30809 30810 30811 30812 30813 30814 30815 30816 30817 30818 30819 30820 30821 30822 30823 30824 30825 30826 30827 30828 30829 30830 30831 30832 30833 30834 30835 30836 30837 30838 30839 30840 30841 30842 30843 30844 30845 30846 30847 30848 30849 30850 30851 30852 30853 30854 30855 30856 30857 30858 30859 30860 30861 30862 30863 30864 30865 30866 30867 30868 30869 30870 30871 30872 30873 30874 30875 30876 30877 30878 30879 30880 30881 30882 30883 30884 30885 30886 30887 30888 30889 30890 30891 30892 30893 30894 30895 30896 30897 30898 30899 30900 30901 30902 30903 30904 30905 30906 30907 30908 30909 30910 30911 30912 30913 30914 30915 30916 30917 30918 30919 30920 30921 30922 30923 30924 30925 30926 30927 30928 30929 30930 30931 30932 30933 30934 30935 30936 30937 30938 30939 30940 30941 30942 30943 30944 30945 30946 30947 30948 30949 30950 30951 30952 30953 30954 30955 30956 30957 30958 30959 30960 30961 30962 30963 30964 30965 30966 30967 30968 30969 30970 30971 30972 30973 30974 30975 30976 30977 30978 30979 30980 30981 30982 30983 30984 30985 30986 30987 30988 30989 30990 30991 30992 30993 30994 30995 30996 30997 30998 30999 31000 31001 31002 31003 31004 31005 31006 31007 31008 31009 31010 31011 31012 31013 31014 31015 31016 31017 31018 31019 31020 31021 31022 31023 31024 31025 31026 31027 31028 31029 31030 31031 31032 31033 31034 31035 31036 31037 31038 31039 31040 31041 31042 31043 31044 31045 31046 31047 31048 31049 31050 31051 31052 31053 31054 31055 31056 31057 31058 31059 31060 31061 31062 31063 31064 31065 31066 31067 31068 31069 31070 31071 31072 31073 31074 31075 31076 31077 31078 31079 31080 31081 31082 31083 31084 31085 31086 31087 31088 31089 31090 31091 31092 31093 31094 31095 31096 31097 31098 31099 31100 31101 31102 31103 31104 31105 31106 31107 31108 31109 31110 31111 31112 31113 31114 31115 31116 31117 31118 31119 31120 31121 31122 31123 31124 31125 31126 31127 31128 31129 31130 31131 31132 31133 31134 31135 31136 31137 31138 31139 31140 31141 31142 31143 31144 31145 31146 31147 31148 31149 31150 31151 31152 31153 31154 31155 31156 31157 31158 31159 31160 31161 31162 31163 31164 31165 31166 31167 31168 31169 31170 31171 31172 31173 31174 31175 31176 31177 31178 31179 31180 31181 31182 31183 31184 31185 31186 31187 31188 31189 31190 31191 31192 31193 31194 31195 31196 31197 31198 31199 31200 31201 31202 31203 31204 31205 31206 31207 31208 31209 31210 31211 31212 31213 31214 31215 31216 31217 31218 31219 31220 31221 31222 31223 31224 31225 31226 31227 31228 31229 31230 31231 31232 31233 31234 31235 31236 31237 31238 31239 31240 31241 31242 31243 31244 31245 31246 31247 31248 31249 31250 31251 31252 31253 31254 31255 31256 31257 31258 31259 31260 31261 31262 31263 31264 31265 31266 31267 31268 31269 31270 31271 31272 31273 31274 31275 31276 31277 31278 31279 31280 31281 31282 31283 31284 31285 31286 31287 31288 31289 31290 31291 31292 31293 31294 31295 31296 31297 31298 31299 31300 31301 31302 31303 31304 31305 31306 31307 31308 31309 31310 31311 31312 31313 31314 31315 31316 31317 31318 31319 31320 31321 31322 31323 31324 31325 31326 31327 31328 31329 31330 31331 31332 31333 31334 31335 31336 31337 31338 31339 31340 31341 31342 31343 31344 31345 31346 31347 31348 31349 31350 31351 31352 31353 31354 31355 31356 31357 31358 31359 31360 31361 31362 31363 31364 31365 31366 31367 31368 31369 31370 31371 31372 31373 31374 31375 31376 31377 31378 31379 31380 31381 31382 31383 31384 31385 31386 31387 31388 31389 31390 31391 31392 31393 31394 31395 31396 31397 31398 31399 31400 31401 31402 31403 31404 31405 31406 31407 31408 31409 31410 31411 31412 31413 31414 31415 31416 31417 31418 31419 31420 31421 31422 31423 31424 31425 31426 31427 31428 31429 31430 31431 31432 31433 31434 31435 31436 31437 31438 31439 31440 31441 31442 31443 31444 31445 31446 31447 31448 31449 31450 31451 31452 31453 31454 31455 31456 31457 31458 31459 31460 31461 31462 31463 31464 31465 31466 31467 31468 31469 31470 31471 31472 31473 31474 31475 31476 31477 31478 31479 31480 31481 31482 31483 31484 31485 31486 31487 31488 31489 31490 31491 31492 31493 31494 31495 31496 31497 31498 31499 31500 31501 31502 31503 31504 31505 31506 31507 31508 31509 31510 31511 31512 31513 31514 31515 31516 31517 31518 31519 31520 31521 31522 31523 31524 31525 31526 31527 31528 31529 31530 31531 31532 31533 31534 31535 31536 31537 31538 31539 31540 31541 31542 31543 31544 31545 31546 31547 31548 31549 31550 31551 31552 31553 31554 31555 31556 31557 31558 31559 31560 31561 31562 31563 31564 31565 31566 31567 31568 31569 31570 31571 31572 31573 31574 31575 31576 31577 31578 31579 31580 31581 31582 31583 31584 31585 31586 31587 31588 31589 31590 31591 31592 31593 31594 31595 31596 31597 31598 31599 31600 31601 31602 31603 31604 31605 31606 31607 31608 31609 31610 31611 31612 31613 31614 31615 31616 31617 31618 31619 31620 31621 31622 31623 31624 31625 31626 31627 31628 31629 31630 31631 31632 31633 31634 31635 31636 31637 31638 31639 31640 31641 31642 31643 31644 31645 31646 31647 31648 31649 31650 31651 31652 31653 31654 31655 31656 31657 31658 31659 31660 31661 31662 31663 31664 31665 31666 31667 31668 31669 31670 31671 31672 31673 31674 31675 31676 31677 31678 31679 31680 31681 31682 31683 31684 31685 31686 31687 31688 31689 31690 31691 31692 31693 31694 31695 31696 31697 31698 31699 31700 31701 31702 31703 31704 31705 31706 31707 31708 31709 31710 31711 31712 31713 31714 31715 31716 31717 31718 31719 31720 31721 31722 31723 31724 31725 31726 31727 31728 31729 31730 31731 31732 31733 31734 31735 31736 31737 31738 31739 31740 31741 31742 31743 31744 31745 31746 31747 31748 31749 31750 31751 31752 31753 31754 31755 31756 31757 31758 31759 31760 31761 31762 31763 31764 31765 31766 31767 31768 31769 31770 31771 31772 31773 31774 31775 31776 31777 31778 31779 31780 31781 31782 31783 31784 31785 31786 31787 31788 31789 31790 31791 31792 31793 31794 31795 31796 31797 31798 31799 31800 31801 31802 31803 31804 31805 31806 31807 31808 31809 31810 31811 31812 31813 31814 31815 31816 31817 31818 31819 31820 31821 31822 31823 31824 31825 31826 31827 31828 31829 31830 31831 31832 31833 31834 31835 31836 31837 31838 31839 31840 31841 31842 31843 31844 31845 31846 31847 31848 31849 31850 31851 31852 31853 31854 31855 31856 31857 31858 31859 31860 31861 31862 31863 31864 31865 31866 31867 31868 31869 31870 31871 31872 31873 31874 31875 31876 31877 31878 31879 31880 31881 31882 31883 31884 31885 31886 31887 31888 31889 31890 31891 31892 31893 31894 31895 31896 31897 
</DataArray>
<DataArray type="UInt32" Name="offsets" format="ascii">
3 6 9 12 15 17 20 23 26 29 32 35 38 40 43 46 49 52 54 57 60 62 65 68 71 74 76 79 82 85 88 90 93 96 99 102 105 108 111 114 117 120 123 126 129 131 134 137 139 142 145 148 151 154 156 159 162 165 168 171 174 177 179 182 185 188 191 193 196 199 202 205 208 211 214 217 220 222 225 228 230 233 236 238 241 244 247 250 252 255 258 261 264 267 270 273 275 277 279 282 285 287 290 293 296 299 302 304 307 310 313 316 319 322 325 328 331 334 337 340 343 345 348 351 354 356 359 362 365 368 371 374 376 379 382 385 388 391 394 397 400 403 406 409 412 415 418 421 424 427 430 433 436 439 442 445 448 451 453 456 459 462 464 467 470 472 475 478 481 484 487 490 493 496 499 502 505 507 510 513 516 519 522 525 528 531 533 536 539 542 545 548 551 554 557 559 562 565 568 571 574 577 580 583 586 588 591 594 597 600 603 606 609 612 615 618 621 624 627 630 633 636 639 642 645 648 651 654 657 659 662 665 668 670 673 675 678 680 683 686 688 691 694 697 699 702 704 707 709 712 714 716 719 721 724 727 729 732 734 737 740 743 745 748 750 752 755 758 760 763 766 769 771 774 776 778 780 783 785 788 791 794 796 799 801 803 805 808 811 813 815 818 821 824 827 829 832 834 837 840 842 845 848 851 853 856 858 860 862 865 868 871 873 876 878 880 882 884 887 890 893 895 897 900 903 905 907 909 912 914 917 920 923 926 928 931 934 937 940 943 946 949 951 954 957 960 963 966 969 971 973 976 979 982 984 987 990 993 995 998 1000 1003 1005 1007 1010 1013 1016 1019 1021 1024 1027 1029 1032 1035 1038 1041 1043 1046 1048 1051 1054 1057 1060 1063 1065 1067 1070 1073 1076 1079 1082 1085 1088 1091 1093 1096 1099 1102 1104 1107 1110 1112 1115 1117 1120 1123 1126 1129 1132 1135 1138 1141 1144 1147 1150 1152 1155 1157 1160 1162 1165 1168 1171 1173 1176 1178 1181 1183 1186 1189 1192 1195 1198 1201 1203 1206 1208 1211 1214 1217 1219 1222 1225 1228 1230 1233 1235 1237 1240 1243 1246 1249 1251 1254 1257 1260 1263 1265 1267 1270 1273 1275 1278 1280 1283 1285 1287 1290 1293 1296 1298 1301 1304 1307 1310 1312 1315 1318 1321 1324 1327 1330 1333 1336 1339 1342 1345 1347 1350 1353 1356 1359 1361 1364 1367 1370 1372 1375 1377 1379 1381 1384 1387 1390 1392 1394 1397 1399 1402 1405 1407 1410 1413 1416 1419 1421 1424 1427 1430 1433 1436 1439 1442 1445 1448 1451 1454 1456 1458 1461 1464 1466 1469 1472 1475 1477 1480 1483 1486 1489 1492 1495 1497 1500 1503 1506 1508 1511 1514 1517 1519 1522 1525 1528 1531 1534 1537 1540 1543 1546 1549 1552 1554 1557 1560 1563 1565 1568 1571 1574 1577 1580 1583 1586 1588 1591 1594 1597 1600 1603 1605 1608 1611 1614 1617 1620 1623 1626 1629 1632 1635 1638 1641 1644 1647 1650 1653 1656 1659 1662 1664 1667 1670 1673 1676 1678 1681 1684 1686 1689 1692 1695 1698 1701 1704 1707 1709 1712 1715 1718 1721 1724 1727 1730 1733 1735 1738 1740 1743 1746 1748 1751 1754 1757 1759 1762 1765 1767 1770 1773 1776 1778 1781 1783 1786 1789 1791 1794 1796 1799 1802 1805 1808 1811 1814 1817 1820 1823 1826 1829 1832 1835 1838 1841 1844 1847 1850 1853 1856 1859 1862 1864 1867 1869 1872 1874 1877 1880 1883 1886 1889 1892 1895 1898 1901 1904 1907 1910 1913 1916 1919 1921 1924 1927 1930 1933 1936 1939 1942 1945 1948 1950 1953 1956 1959 1962 1965 1968 1971 1974 1977 1980 1983 1986 1989 1992 1995 1998 2001 2004 2007 2010 2013 2016 2019 2022 2025 2028 2031 2034 2037 2039 2042 2045 2047 2050 2053 2056 2058 2060 2063 2065 2068 2071 2074 2077 2080 2082 2085 2088 2091 2094 2097 2099 2102 2105 2108 2111 2114 2117 2120 2123 2126 2129 2132 2135 2138 2141 2144 2147 2150 2153 2156 2159 2162 2165 2168 2171 2174 2177 2180 2183 2186 2189 2192 2195 2198 2201 2204 2207 2210 2213 2216 2219 2222 2225 2228 2231 2234 2237 2240 2243 2246 2248 2251 2254 2257 2260 2263 2266 2269 2272 2275 2278 2281 2284 2287 2290 2293 2295 2298 2301 2304 2307 2309 2312 2315 2318 2321 2324 2327 2330 2333 2336 2339 2342 2345 2348 2351 2354 2357 2360 2363 2366 2369 2372 2375 2378 2381 2384 2387 2390 2392 2395 2398 2400 2403 2405 2407 2409 2411 2414 2417 2419 2422 2425 2428 2431 2434 2437 2440 2443 2446 2449 2452 2455 2458 2461 2464 2467 2470 2472 2475 2478 2480 2483 2485 2488 2491 2494 2497 2499 2502 2504 2507 2510 2513 2516 2518 2521 2524 2527 2529 2532 2535 2538 2541 2544 2546 2549 2551 2554 2557 2559 2561 2564 2566 2569 2572 2575 2578 2581 2584 2587 2590 2593 2596 2599 2601 2604 2607 2610 2612 2615 2618 2621 2623 2626 2629 2631 2633 2635 2638 2641 2644 2647 2650 2653 2656 2659 2662 2665 2668 2670 2673 2676 2679 2682 2685 2688 2691 2694 2696 2698 2700 2703 2706 2709 2712 2715 2718 2721 2724 2726 2728 2731 2734 2737 2739 2742 2745 2747 2750 2753 2756 2759 2762 2765 2768 2771 2774 2777 2780 2782 2785 2788 2791 2794 2797 2800 2803 2806 2808 2811 2814 2817 2820 2823 2826 2829 2832 2835 2838 2840 2843 2845 2847 2849 2852 2855 2858 2861 2864 2867 2870 2872 2874 2877 2879 2882 2885 2888 2891 2894 2896 2899 2901 2903 2906 2909 2912 2914 2917 2919 2922 2925 2928 2931 2933 2936 2939 2942 2945 2948 2951 2954 2957 2960 2963 2966 2969 2972 2975 2978 2981 2984 2986 2989 2992 2995 2997 3000 3003 3006 3009 3012 3014 3017 3020 3023 3026 3029 3032 3034 3037 3039 3042 3045 3048 3051 3054 3057 3060 3063 3065 3068 3071 3074 3076 3079 3082 3085 3088 3091 3094 3097 3100 3103 3106 3109 3112 3115 3118 3121 3124 3127 3130 3133 3136 3139 3142 3145 3148 3151 3153 3155 3157 3160 3163 3166 3169 3171 3174 3177 3180 3183 3185 3188 3191 3194 3197 3200 3203 3206 3208 3211 3214 3217 3220 3223 3226 3229 3232 3234 3237 3240 3243 3246 3249 3252 3255 3258 3261 3264 3267 3270 3272 3275 3278 3281 3284 3287 3290 3292 3295 3298 3301 3304 3307 3310 3313 3316 3318 3321 3324 3327 3329 3332 3335 3338 3341 3344 3347 3350 3353 3356 3359 3362 3365 3367 3370 3373 3376 3379 3382 3385 3388 3391 3394 3397 3400 3403 3406 3409 3412 3415 3418 3421 3424 3427 3430 3433 3436 3439 3442 3445 3448 3451 3454 3457 3460 3463 3466 3469 3472 3475 3478 3481 3484 3487 3490 3493 3496 3499 3502 3505 3508 3510 3513 3516 3519 3522 3525 3528 3531 3534 3537 3540 3543 3546 3549 3552 3555 3558 3561 3564 3567 3570 3573 3576 3579 3582 3584 3587 3590 3593 3596 3599 3602 3605 3608 3611 3614 3616 3619 3622 3624 3627 3630 3633 3636 3639 3642 3645 3648 3651 3653 3656 3658 3661 3664 3667 3670 3672 3675 3678 3680 3683 3685 3688 3691 3694 3697 3700 3702 3705 3708 3711 3714 3717 3720 3723 3726 3728 3731 3734 3737 3740 3743 3746 3749 3752 3755 3758 3761 3764 3767 3770 3772 3775 3777 3779 3782 3785 3788 3791 3794 3796 3799 3802 3805 3808 3811 3814 3817 3820 3823 3826 3829 3832 3835 3838 3841 3843 3846 3849 3852 3855 3858 3861 3864 3867 3870 3873 3876 3879 3882 3885 3888 3891 3893 3896 3899 3902 3905 3908 3910 3912 3915 3918 3920 3923 3926 3929 3932 3935 3938 3941 3944 3947 3950 3952 3955 3958 3961 3964 3967 3970 3973 3976 3979 3981 3984 3986 3989 3992 3995 3998 4001 4003 4006 4009 4012 4015 4017 4020 4023 4026 4028 4031 4034 4037 4039 4042 4045 4047 4050 4053 4056 4059 4062 4065 4068 4071 4074 4077 4080 4083 4086 4089 4092 4095 4097 4100 4103 4106 4109 4112 4115 4118 4120 4123 4126 4129 4132 4135 4138 4141 4144 4147 4150 4153 4156 4159 4162 4165 4168 4171 4174 4177 4180 4183 4186 4189 4192 4195 4198 4201 4203 4206 4209 4212 4215 4217 4220 4223 4226 4228 4231 4234 4237 4240 4243 4246 4249 4252 4255 4257 4260 4262 4265 4268 4271 4274 4277 4280 4283 4286 4289 4292 4295 4298 4301 4304 4307 4310 4313 4316 4318 4320 4323 4326 4329 4331 4334 4337 4339 4342 4345 4347 4350 4353 4356 4358 4361 4364 4366 4369 4372 4375 4378 4381 4384 4387 4390 4393 4396 4399 4402 4405 4408 4411 4414 4417 4420 4423 4426 4428 4431 4433 4436 4439 4442 4445 4448 4451 4454 4457 4460 4463 4466 4468 4471 4473 4476 4479 4482 4484 4487 4490 4493 4496 4499 4501 4504 4507 4510 4513 4516 4519 4521 4524 4527 4530 4533 4536 4539 4542 4545 4548 4551 4554 4556 4559 4562 4565 4568 4571 4574 4577 4580 4582 4585 4588 4591 4593 4596 4599 4601 4604 4607 4610 4613 4616 4618 4621 4624 4627 4630 4633 4636 4639 4642 4645 4647 4650 4653 4655 4658 4660 4663 4665 4667 4669 4672 4674 4677 4680 4683 4686 4689 4692 4694 4697 4700 4703 4706 4709 4712 4714 4717 4720 4723 4726 4729 4732 4735 4737 4740 4743 4746 4749 4751 4754 4757 4760 4763 4766 4768 4771 4773 4776 4779 4782 4785 4788 4791 4794 4797 4800 4803 4805 4808 4811 4814 4817 4820 4823 4826 4828 4831 4834 4837 4840 4843 4846 4849 4851 4854 4856 4859 4862 4865 4868 4871 4874 4877 4880 4882 4885 4888 4891 4893 4895 4898 4901 4904 4907 4910 4912 4914 4917 4919 4922 4925 4927 4930 4933 4935 4938 4941 4944 4947 4950 4953 4956 4959 4961 4964 4967 4970 4973 4976 4978 4981 4984 4987 4990 4992 4995 4998 5000 5003 5006 5009 5012 5015 5018 5021 5024 5027 5030 5033 5036 5039 5042 5045 5048 5051 5054 5057 5060 5063 5066 5069 5072 5075 5078 5081 5084 5087 5090 5093 5096 5099 5102 5105 5108 5111 5114 5117 5120 5123 5125 5128 5131 5133 5136 5139 5142 5145 5148 5150 5153 5156 5159 5162 5164 5167 5170 5173 5176 5179 5182 5185 5188 5191 5194 5197 5200 5203 5206 5209 5212 5215 5218 5221 5224 5227 5230 5233 5236 5238 5241 5244 5247 5249 5252 5255 5258 5261 5264 5267 5269 5272 5275 5278 5281 5284 5287 5290 5293 5296 5299 5302 5304 5307 5309 5311 5314 5317 5319 5322 5325 5328 5331 5334 5337 5340 5343 5346 5349 5352 5354 5357 5360 5362 5365 5368 5371 5374 5377 5380 5383 5386 5389 5392 5395 5398 5401 5404 5407 5409 5412 5415 5418 5421 5424 5427 5430 5432 5435 5437 5440 5443 5446 5449 5451 5454 5456 5459 5462 5465 5468 5471 5474 5477 5480 5483 5485 5488 5491 5494 5497 5500 5503 5506 5509 5512 5515 5518 5521 5524 5527 5530 5533 5536 5538 5541 5544 5547 5550 5553 5556 5559 5562 5565 5568 5571 5574 5577 5580 5583 5586 5589 5592 5595 5598 5601 5604 5607 5610 5613 5615 5617 5620 5623 5626 5629 5632 5635 5638 5641 5644 5647 5650 5652 5655 5658 5661 5664 5666 5669 5672 5675 5678 5680 5683 5686 5689 5692 5695 5698 5701 5704 5706 5709 5712 5715 5718 5721 5724 5727 5730 5733 5735 5738 5741 5744 5747 5750 5753 5756 5759 5762 5765 5768 5771 5774 5777 5780 5783 5786 5789 5792 5795 5797 5800 5803 5806 5809 5812 5815 5818 5821 5824 5827 5830 5833 5836 5839 5841 5844 5846 5849 5852 5855 5858 5861 5864 5867 5870 5872 5875 5878 5880 5883 5886 5889 5892 5895 5898 5901 5904 5907 5910 5913 5916 5919 5922 5925 5928 5931 5934 5937 5940 5943 5946 5949 5952 5955 5958 5961 5964 5967 5970 5973 5976 5979 5982 5985 5988 5990 5993 5996 5998 6001 6004 6007 6010 6012 6015 6017 6020 6023 6025 6028 6030 6033 6036 6039 6042 6045 6047 6050 6053 6056 6059 6062 6065 6068 6071 6074 6077 6080 6083 6085 6088 6091 6094 6096 6099 6102 6105 6108 6111 6114 6117 6120 6123 6125 6128 6131 6134 6137 6139 6141 6144 6147 6150 6153 6156 6159 6162 6165 6167 6170 6173 6176 6179 6182 6184 6187 6190 6193 6195 6198 6201 6204 6206 6209 6212 6215 6218 6220 6223 6226 6229 6232 6235 6238 6241 6244 6247 6250 6253 6256 6259 6262 6264 6267 6270 6273 6276 6279 6282 6284 6287 6289 6291 6294 6296 6299 6301 6304 6307 6310 6313 6315 6318 6321 6324 6327 6329 6332 6335 6338 6341 6344 6347 6350 6353 6356 6358 6361 6364 6367 6370 6373 6376 6379 6382 6385 6388 6391 6394 6397 6400 6402 6405 6408 6411 6413 6416 6419 6422 6424 6427 6429 6432 6435 6438 6441 6444 6447 6450 6453 6456 6459 6462 6465 6468 6471 6474 6477 6479 6482 6485 6488 6491 6494 6497 6499 6502 6505 6508 6511 6514 6517 6520 6523 6526 6529 6532 6535 6538 6541 6544 6547 6550 6553 6555 6558 6561 6564 6567 6570 6573 6576 6579 6582 6585 6588 6591 6594 6597 6600 6603 6606 6609 6612 6615 6618 6621 6624 6627 6630 6633 6636 6639 6642 6645 6648 6651 6654 6657 6659 6662 6665 6668 6671 6673 6676 6679 6682 6685 6688 6691 6694 6696 6699 6702 6705 6708 6711 6714 6717 6720 6723 6725 6728 6731 6733 6736 6739 6742 6745 6748 6750 6753 6756 6759 6761 6764 6767 6769 6772 6775 6778 6781 6784 6787 6790 6793 6796 6799 6802 6805 6808 6811 6814 6817 6820 6823 6826 6829 6831 6834 6837 6840 6843 6846 6849 6852 6855 6858 6861 6863 6865 6868 6870 6873 6876 6879 6882 6885 6887 6890 6893 6896 6899 6901 6904 6907 6910 6913 6916 6918 6921 6923 6926 6929 6931 6934 6937 6940 6943 6946 6949 6952 6955 6957 6960 6963 6966 6969 6972 6975 6977 6980 6983 6986 6989 6992 6995 6997 7000 7003 7006 7009 7011 7014 7017 7019 7022 7024 7027 7030 7032 7035 7038 7041 7044 7047 7050 7052 7055 7058 7061 7064 7066 7069 7072 7075 7078 7081 7084 7087 7090 7092 7094 7097 7100 7103 7106 7109 7112 7115 7118 7120 7123 7126 7129 7132 7135 7138 7140 7143 7146 7149 7152 7155 7158 7161 7163 7166 7169 7172 7174 7177 7180 7183 7186 7189 7192 7195 7198 7201 7204 7207 7210 7212 7215 7218 7221 7224 7226 7229 7232 7234 7237 7240 7243 7246 7248 7251 7254 7257 7259 7261 7264 7267 7270 7272 7275 7278 7281 7283 7286 7289 7292 7295 7298 7301 7304 7307 7310 7312 7315 7318 7321 7323 7326 7329 7332 7335 7338 7341 7344 7347 7350 7353 7356 7359 7361 7364 7366 7369 7372 7374 7377 7380 7382 7385 7388 7391 7394 7397 7400 7403 7405 7408 7411 7414 7417 7420 7422 7425 7427 7430 7433 7436 7438 7440 7443 7445 7447 7450 7452 7455 7458 7461 7464 7467 7470 7472 7475 7477 7480 7483 7486 7489 7492 7495 7498 7501 7504 7507 7510 7513 7516 7518 7521 7524 7526 7529 7531 7534 7537 7539 7542 7545 7548 7550 7552 7555 7558 7560 7563 7566 7569 7572 7575 7578 7581 7584 7587 7590 7593 7596 7599 7602 7605 7608 7611 7614 7617 7620 7623 7626 7629 7631 7633 7636 7638 7641 7643 7646 7649 7651 7653 7656 7659 7661 7664 7667 7669 7672 7675 7677 7680 7682 7685 7688 7691 7694 7696 7699 7702 7705 7708 7710 7713 7715 7717 7720 7722 7725 7728 7730 7732 7735 7738 7741 7743 7746 7749 7752 7755 7757 7759 7762 7765 7768 7771 7774 7776 7779 7782 7785 7788 7791 7794 7797 7800 7803 7806 7809 7811 7814 7816 7819 7821 7824 7827 7829 7832 7834 7837 7840 7843 7846 7849 7852 7855 7858 7860 7863 7866 7868 7871 7874 7877 7880 7882 7885 7888 7891 7894 7897 7900 7903 7906 7909 7912 7915 7918 7920 7923 7926 7929 7932 7935 7938 7941 7944 7947 7950 7953 7955 7958 7961 7964 7967 7970 7973 7975 7978 7980 7983 7986 7988 7991 7994 7997 8000 8003 8006 8009 8012 8015 8018 8021 8024 8027 8030 8033 8036 8039 8041 8043 8046 8049 8052 8054 8057 8060 8062 8065 8068 8071 8074 8077 8080 8083 8086 8089 8092 8095 8098 8101 8104 8107 8110 8113 8116 8119 8122 8125 8128 8131 8134 8137 8139 8141 8144 8147 8150 8153 8156 8159 8162 8165 8168 8171 8174 8176 8179 8182 8185 8188 8191 8194 8197 8200 8203 8206 8209 8212 8215 8218 8221 8224 8227 8230 8233 8236 8239 8242 8245 8248 8251 8254 8257 8260 8263 8266 8269 8272 8275 8277 8280 8283 8286 8289 8292 8294 8297 8300 8302 8305 8308 8310 8312 8315 8318 8321 8324 8327 8330 8333 8336 8339 8342 8345 8348 8351 8353 8356 8359 8361 8364 8367 8370 8373 8376 8379 8381 8384 8387 8389 8392 8395 8398 8401 8404 8407 8410 8413 8416 8419 8422 8425 8428 8430 8433 8436 8439 8442 8445 8448 8451 8453 8456 8459 8462 8465 8468 8471 8474 8477 8480 8483 8486 8489 8491 8494 8497 8499 8502 8505 8508 8511 8514 8517 8520 8523 8526 8529 8532 8535 8538 8541 8544 8547 8550 8553 8556 8559 8561 8564 8567 8569 8572 8574 8577 8580 8583 8585 8588 8591 8593 8596 8598 8601 8604 8607 8609 8612 8615 8618 8621 8623 8626 8629 8632 8635 8638 8641 8644 8646 8649 8652 8655 8657 8660 8663 8666 8669 8672 8675 8678 8681 8684 8687 8690 8693 8695 8698 8701 8704 8707 8710 8713 8716 8719 8721 8724 8727 8730 8733 8736 8739 8742 8745 8748 8751 8754 8756 8759 8762 8765 8768 8771 8774 8777 8780 8783 8786 8789 8792 8795 8798 8801 8804 8807 8810 8813 8815 8817 8820 8823 8826 8828 8831 8834 8837 8840 8843 8846 8849 8852 8855 8858 8861 8864 8866 8869 8872 8875 8878 8881 8884 8887 8890 8893 8895 8898 8901 8904 8907 8910 8913 8916 8919 8922 8925 8928 8931 8934 8937 8940 8943 8945 8948 8950 8953 8956 8959 8962 8965 8967 8970 8973 8976 8979 8981 8984 8987 8990 8992 8995 8998 9001 9003 9006 9009 9012 9015 9018 9021 9024 9027 9030 9032 9035 9038 9041 9043 9046 9049 9051 9054 9057 9060 9063 9066 9069 9071 9074 9077 9080 9083 9086 9089 9092 9095 9097 9100 9103 9106 9108 9111 9114 9117 9120 9123 9126 9129 9132 9135 9138 9141 9144 9147 9150 9153 9156 9159 9162 9165 9168 9171 9174 9177 9180 9183 9186 9189 9191 9194 9197 9200 9203 9206 9209 9212 9214 9217 9220 9223 9226 9229 9232 9235 9238 9241 9244 9247 9250 9253 9256 9259 9262 9265 9268 9271 9274 9277 9280 9283 9286 9289 9291 9294 9296 9299 9302 9305 9308 9311 9314 9316 9319 9322 9325 9327 9330 9333 9335 9338 9341 9344 9347 9350 9353 9356 9359 9362 9365 9368 9371 9373 9376 9379 9382 9385 9388 9390 9393 9396 9399 9402 9405 9408 9411 9414 9417 9420 9423 9426 9429 9431 9434 9437 9440 9442 9445 9448 9451 9454 9457 9460 9463 9466 9469 9472 9475 9478 9480 9482 9485 9488 9491 9494 9496 9499 9502 9505 9508 9511 9514 9517 9520 9523 9525 9527 9530 9533 9536 9539 9542 9544 9547 9550 9553 9556 9559 9561 9564 9567 9570 9573 9576 9578 9581 9583 9586 9589 9592 9595 9597 9600 9602 9605 9607 9609 9612 9615 9618 9621 9624 9627 9630 9632 9634 9637 9640 9643 9646 9649 9652 9654 9656 9658 9661 9663 9665 9668 9671 9674 9676 9679 9682 9685 9688 9691 9693 9695 9697 9700 9702 9705 9708 9711 9713 9716 9718 9720 9723 9726 9729 9732 9735 9738 9741 9743 9745 9748 9751 9753 9755 9757 9760 9763 9766 9769 9772 9775 9778 9781 9784 9787 9790 9793 9796 9799 9802 9805 9808 9811 9814 9817 9820 9823 9826 9829 9832 9835 9838 9841 9844 9847 9850 9853 9856 9859 9862 9865 9868 9871 9874 9877 9879 9882 9885 9888 9891 9894 9897 9900 9903 9906 9909 9911 9914 9917 9920 9923 9926 9929 9931 9934 9937 9939 9942 9945 9948 9951 9954 9957 9960 9963 9966 9969 9972 9975 9978 9980 9983 9985 9988 9991 9994 9997 9999 10002 10005 10008 10010 10013 10016 10018 10021 10024 10027 10029 10032 10035 10037 10040 10043 10046 10049 10052 10054 10057 10060 10063 10066 10069 10072 10075 10077 10080 10083 10086 10089 10092 10095 10098 10100 10103 10106 10108 10111 10114 10117 10120 10122 10125 10127 10130 10133 10136 10139 10142 10144 10147 10150 10153 10156 10158 10161 10164 10167 10170 10173 10176 10178 10180 10183 10186 10189 10192 10195 10197 10200 10203 10205 10208 10211 10214 10217 10220 10223 10226 10229 10232 10235 10237 10240 10243 10246 10249 10252 10255 10258 10261 10264 10267 10270 10273 10276 10279 10282 10285 10288 10291 10293 10296 10299 10302 10305 10308 10311 10313 10316 10319 10322 10325 10328 10331 10334 10336 10338 10341 10344 10347 10350 10352 10355 10358 10361 10364 10367 10370 10373 10375 10378 10381 10383 10386 10388 10390 10392 10395 10398 10401 10404 10407 10410 10412 10415 10418 10421 10424 10427 10429 10432 10435 10438 10441 10443 10446 10449 10452 10454 10457 10460 10463 10465 10468 10471 10474 10477 10480 10483 10486 10489 10492 10495 10498 10501 10504 10507 10510 10513 10516 10519 10522 10525 10528 10531 10534 10537 10540 10542 10545 10548 10551 10554 10557 10560 10563 10565 10568 10570 10573 10576 10579 10582 10585 10588 10590 10593 10596 10598 10601 10604 10607 10609 10612 10615 10617 10620 10623 10626 10629 10632 10634 10637 10640 10643 10645 10647 10650 10653 10656 10659 10662 10665 10668 10671 10674 10677 10680 10683 10685 10688 10691 10694 10697 10700 10703 10706 10709 10712 10714 10717 10720 10723 10726 10729 10731 10733 10736 10739 10742 10745 10748 10751 10754 10757 10760 10762 10765 10768 10771 10774 10777 10780 10783 10786 10788 10791 10794 10797 10800 10803 10806 10809 10812 10815 10818 10821 10824 10827 10830 10833 10836 10839 10842 10844 10847 10850 10853 10856 10858 10861 10863 10866 10868 10871 10874 10877 10880 10883 10886 10889 10892 10895 10898 10901 10904 10907 10910 10913 10916 10919 10921 10924 10927 10930 10933 10936 10938 10941 10944 10947 10949 10951 10954 10957 10960 10963 10966 10968 10971 10974 10977 10980 10982 10985 10988 10991 10994 10997 11000 11003 11006 11008 11011 11014 11017 11020 11023 11026 11029 11031 11034 11037 11040 11043 11046 11049 11052 11055 11058 11060 11063 11066 11069 11072 11075 11078 11081 11084 11087 11090 11093 11096 11099 11102 11105 11108 11111 11114 11116 11119 11122 11125 11128 11131 11134 11137 11140 11143 11146 11149 11152 11155 11157 11160 11163 11166 11169 11172 11175 11177 11180 11183 11185 11188 11191 11193 11196 11199 11202 11205 11208 11211 11214 11217 11220 11223 11226 11229 11232 11235 11238 11241 11244 11247 11250 11253 11256 11259 11262 11265 11268 11271 11273 11276 11278 11281 11283 11285 11288 11291 11294 11296 11299 11302 11305 11308 11311 11314 11317 11320 11323 11325 11327 11330 11332 11335 11338 11341 11344 11347 11350 11353 11356 11359 11362 11365 11368 11371 11374 11376 11379 11381 11383 11386 11388 11391 11394 11397 11400 11403 11406 11409 11412 11415 11417 11419 11422 11425 11428 11431 11434 11437 11440 11443 11446 11449 11452 11455 11458 11461 11464 11467 11470 11473 11476 11479 11482 11485 11487 11490 11493 11496 11499 11502 11504 11507 11510 11513 11516 11519 11521 11524 11527 11530 11532 11535 11538 11541 11544 11547 11550 11553 11556 11559 11561 11564 11567 11570 11573 11575 11578 11581 11584 11587 11590 11593 11595 11598 11601 11604 11607 11610 11613 11616 11618 11621 11624 11627 11630 11632 11635 11638 11641 11644 11647 11650 11653 11656 11659 11662 11664 11667 11670 11673 11676 11678 11681 11684 11687 11689 11692 11695 11698 11701 11704 11706 11709 11712 11715 11718 11721 11724 11727 11730 11733 11736 11739 11742 11745 11748 11750 11752 11755 11758 11760 11763 11766 11769 11772 11775 11778 11781 11783 11786 11789 11792 11795 11798 11801 11803 11806 11809 11812 11815 11818 11821 11824 11827 11830 11833 11836 11839 11842 11845 11848 11851 11854 11857 11860 11863 11866 11869 11872 11874 11877 11880 11883 11886 11889 11892 11895 11898 11900 11903 11906 11909 11912 11914 11917 11920 11923 11926 11929 11931 11934 11936 11939 11941 11944 11947 11950 11953 11956 11959 11962 11964 11967 11970 11973 11975 11978 11981 11984 11987 11990 11992 11995 11998 12001 12004 12007 12009 12012 12014 12017 12020 12022 12025 12027 12030 12033 12036 12039 12042 12044 12047 12050 12053 12055 12058 12061 12064 12067 12070 12073 12076 12079 12082 12085 12087 12090 12093 12096 12099 12102 12105 12108 12111 12114 12117 12120 12123 12126 12129 12132 12135 12138 12141 12144 12147 12150 12153 12155 12158 12161 12164 12167 12170 12173 12176 12179 12182 12185 12188 12191 12194 12197 12200 12203 12206 12209 12211 12214 12217 12220 12222 12225 12228 12231 12234 12237 12240 12242 12245 12248 12251 12253 12255 12258 12260 12263 12265 12267 12270 12272 12275 12278 12280 12283 12286 12288 12290 12293 12296 12299 12302 12305 12308 12311 12314 12316 12319 12321 12324 12327 12330 12333 12336 12339 12342 12345 12348 12351 12354 12357 12360 12363 12366 12369 12372 12375 12378 12381 12384 12387 12389 12392 12395 12398 12401 12404 12407 12410 12413 12415 12418 12421 12423 12426 12429 12431 12433 12436 12439 12441 12444 12447 12450 12453 12456 12459 12462 12465 12468 12471 12474 12477 12480 12483 12486 12489 12492 12495 12498 12501 12504 12507 12510 12513 12516 12519 12522 12525 12528 12531 12534 12537 12540 12543 12546 12549 12552 12555 12558 12560 12563 12565 12568 12571 12574 12577 12580 12583 12586 12589 12592 12595 12598 12601 12604 12607 12610 12613 12616 12619 12622 12625 12628 12631 12634 12637 12640 12643 12646 12649 12652 12655 12658 12661 12664 12667 12670 12673 12676 12679 12682 12685 12687 12690 12693 12695 12698 12701 12704 12707 12710 12712 12715 12717 12720 12723 12725 12728 12731 12734 12737 12740 12743 12745 12748 12751 12754 12757 12760 12763 12766 12769 12772 12775 12778 12780 12783 12786 12788 12790 12793 12795 12798 12801 12803 12806 12809 12812 12815 12817 12820 12823 12826 12829 12832 12835 12838 12841 12844 12846 12849 12851 12854 12857 12860 12863 12866 12869 12872 12874 12877 12879 12882 12885 12888 12891 12894 12897 12900 12903 12906 12908 12911 12913 12916 12919 12922 12925 12928 12931 12934 12937 12940 12943 12945 12948 12951 12954 12956 12959 12962 12964 12967 12970 12972 12975 12978 12981 12984 12986 12989 12992 12995 12997 13000 13003 13006 13009 13012 13015 13018 13021 13024 13027 13030 13033 13036 13039 13041 13044 13047 13050 13053 13056 13059 13061 13064 13066 13069 13071 13074 13077 13080 13082 13085 13088 13091 13094 13097 13100 13103 13106 13108 13111 13114 13117 13120 13123 13125 13128 13131 13133 13136 13139 13142 13145 13148 13151 13154 13157 13160 13162 13165 13168 13171 13173 13176 13179 13182 13185 13188 13191 13193 13196 13199 13202 13205 13208 13211 13214 13217 13220 13223 13226 13229 13232 13235 13238 13241 13244 13247 13250 13253 13256 13259 13262 13265 13268 13271 13274 13277 13280 13283 13286 13288 13291 13294 13297 13300 13303 13305 13308 13311 13313 13315 13318 13321 13324 13327 13329 13332 13335 13338 13341 13344 13346 13349 13352 13355 13358 13361 13364 13367 13370 13373 13376 13379 13382 13385 13388 13391 13394 13396 13399 13402 13405 13408 13411 13414 13417 13420 13422 13424 13427 13430 13433 13436 13439 13442 13444 13447 13450 13453 13456 13458 13461 13464 13467 13470 13473 13476 13479 13482 13485 13488 13491 13494 13497 13500 13503 13506 13509 13512 13515 13518 13521 13524 13527 13530 13532 13535 13538 13540 13543 13546 13549 13552 13555 13558 13561 13564 13567 13570 13573 13576 13579 13582 13585 13588 13591 13594 13597 13600 13603 13606 13609 13612 13615 13618 13621 13623 13626 13628 13631 13634 13637 13640 13643 13645 13648 13651 13654 13657 13660 13663 13666 13669 13672 13675 13678 13681 13684 13687 13690 13693 13696 13699 13702 13705 13707 13709 13712 13714 13717 13720 13723 13726 13729 13732 13735 13738 13741 13744 13747 13750 13753 13756 13759 13762 13764 13767 13770 13773 13775 13778 13781 13784 13787 13790 13793 13796 13799 13802 13805 13808 13811 13814 13816 13819 13822 13825 13828 13831 13834 13837 13840 13843 13846 13849 13852 13855 13858 13861 13864 13867 13870 13873 13876 13879 13882 13884 13887 13890 13893 13896 13899 13902 13905 13908 13911 13914 13917 13920 13923 13925 13928 13930 13933 13936 13938 13940 13943 13946 13949 13952 13955 13958 13961 13964 13967 13970 13973 13976 13979 13982 13985 13988 13991 13994 13997 14000 14002 14005 14008 14010 14013 14016 14019 14021 14024 14027 14030 14033 14036 14039 14041 14044 14047 14050 14052 14055 14058 14061 14064 14067 14070 14073 14076 14078 14081 14084 14086 14089 14092 14094 14097 14099 14102 14105 14108 14111 14113 14115 14118 14121 14123 14125 14128 14131 14133 14136 14139 14142 14145 14147 14150 14153 14155 14157 14160 14162 14165 14168 14171 14174 14177 14180 14183 14186 14189 14192 14195 14198 14201 14204 14207 14210 14213 14216 14219 14222 14224 14227 14230 14233 14236 14238 14241 14244 14247 14250 14252 14254 14257 14260 14263 14266 14269 14272 14275 14278 14281 14284 14287 14290 14292 14295 14298 14301 14303 14306 14309 14312 14315 14318 14321 14324 14326 14329 14332 14335 14337 14340 14343 14345 14347 14350 14353 14356 14358 14361 14364 14367 14369 14372 14375 14378 14381 14384 14387 14390 14393 14396 14399 14402 14405 14408 14411 14414 14417 14420 14423 14425 14428 14431 14434 14437 14440 14443 14446 14449 14452 14455 14458 14461 14464 14467 14470 14473 14476 14479 14481 14483 14486 14489 14492 14495 14498 14500 14502 14505 14507 14510 14513 14516 14519 14522 14525 14528 14531 14534 14536 14539 14542 14545 14547 14550 14553 14556 14559 14562 14565 14568 14571 14574 14577 14580 14583 14586 14589 14591 14594 14597 14600 14603 14606 14609 14612 14614 14617 14620 14622 14625 14628 14631 14634 14637 14640 14642 14645 14648 14651 14654 14656 14659 14662 14665 14668 14671 14674 14676 14679 14682 14685 14688 14691 14694 14697 14700 14702 14704 14707 14710 14713 14715 14717 14720 14723 14726 14729 14732 14734 14737 14740 14743 14746 14749 14752 14754 14757 14760 14763 14766 14768 14771 14774 14777 14780 14783 14785 14788 14791 14794 14797 14799 14802 14805 14808 14811 14814 14817 14820 14823 14826 14829 14832 14835 14838 14841 14844 14847 14850 14853 14856 14859 14862 14865 14868 14871 14874 14876 14879 14882 14885 14888 14890 14893 14895 14898 14900 14903 14906 14908 14911 14914 14916 14919 14922 14924 14927 14930 14933 14936 14939 14942 14944 14947 14950 14952 14955 14957 14959 14961 14964 14967 14969 14972 14974 14976 14979 14982 14985 14987 14990 14992 14995 14998 15001 15004 15007 15010 15012 15015 15018 15021 15023 15026 15029 15032 15035 15038 15041 15044 15046 15049 15052 15055 15057 15060 15062 15064 15067 15070 15073 15076 15079 15082 15085 15087 15090 15093 15096 15099 15102 15105 15108 15111 15113 15115 15118 15121 15124 15127 15129 15132 15135 15137 15140 15143 15146 15148 15151 15154 15157 15159 15161 15164 15167 15170 15173 15175 15178 15181 15184 15187 15190 15192 15194 15197 15200 15203 15206 15209 15212 15215 15218 15221 15224 15227 15230 15233 15236 15239 15242 15245 15248 15251 15254 15257 15260 15263 15266 15269 15272 15275 15278 15281 15284 15287 15289 15292 15295 15298 15300 15303 15306 15309 15312 15315 15318 15321 15324 15327 15330 15333 15336 15339 15342 15345 15347 15350 15352 15354 15357 15360 15362 15365 15368 15371 15374 15377 15380 15383 15386 15389 15392 15395 15398 15401 15404 15407 15410 15413 15416 15419 15422 15425 15428 15431 15433 15436 15439 15441 15443 15446 15449 15452 15455 15458 15461 15464 15466 15469 15472 15475 15477 15480 15483 15486 15489 15491 15493 15496 15499 15502 15505 15508 15511 15514 15516 15519 15522 15525 15528 15530 15533 15536 15539 15542 15544 15547 15550 15553 15556 15559 15562 15565 15568 15571 15574 15577 15580 15583 15586 15589 15592 15595 15598 15601 15603 15606 15609 15612 15615 15618 15621 15624 15627 15630 15633 15636 15639 15642 15645 15648 15651 15653 15656 15659 15662 15664 15667 15670 15673 15676 15679 15682 15685 15688 15691 15693 15696 15699 15702 15705 15708 15711 15714 15717 15720 15723 15726 15729 15732 15735 15738 15741 15744 15747 15750 15753 15756 15758 15761 15764 15767 15770 15773 15776 15779 15782 15785 15788 15791 15794 15797 15800 15803 15806 15809 15811 15814 15817 15820 15823 15826 15828 15831 15834 15837 15840 15843 15846 15849 15852 15855 15858 15861 15864 15867 15870 15873 15876 15879 15882 15885 15888 15891 15894 15897 15900 15903 15906 15909 15911 15914 15917 15919 15922 15925 15928 15930 15933 15936 15939 15942 15945 15948 15951 15954 15957 15960 15963 15966 15969 15972 15975 15977 15980 15982 15985 15988 15991 15994 15997 16000 16003 16006 16009 16011 16014 16017 16020 16023 16026 16029 16032 16035 16038 16040 16042 16045 16048 16051 16054 16057 16060 16063 16066 16069 16072 16075 16078 16081 16084 16087 16090 16093 16096 16099 16102 16105 16108 16111 16114 16117 16120 16123 16126 16129 16132 16135 16138 16141 16144 16147 16150 16153 16156 16159 16162 16165 16168 16171 16174 16177 16180 16183 16186 16189 16192 16195 16198 16201 16204 16207 16210 16213 16216 16219 16222 16225 16228 16231 16234 16237 16240 16243 16246 16249 16252 16255 16257 16260 16263 16266 16269 16272 16275 16277 16280 16283 16286 16289 16292 16295 16298 16301 16304 16306 16309 16311 16314 16317 16320 16323 16326 16329 16332 16335 16338 16341 16344 16347 16350 16353 16356 16359 16362 16365 16368 16371 16374 16377 16380 16383 16386 16389 16392 16395 16398 16401 16404 16407 16410 16413 16415 16418 16421 16424 16426 16428 16431 16434 16437 16440 16443 16446 16449 16452 16455 16458 16461 16464 16467 16470 16473 16476 16479 16482 16485 16488 16491 16494 16496 16498 16501 16504 16507 16510 16513 16516 16519 16522 16524 16527 16530 16533 16536 16539 16542 16544 16547 16550 16553 16556 16559 16561 16564 16567 16570 16573 16575 16578 16581 16584 16586 16589 16592 16595 16597 16600 16603 16605 16608 16611 16614 16617 16620 16623 16626 16629 16632 16635 16638 16641 16644 16646 16649 16652 16655 16658 16661 16664 16667 16670 16672 16675 16678 16681 16684 16687 16690 16693 16696 16699 16702 16705 16707 16710 16713 16716 16718 16721 16724 16727 16730 16732 16735 16738 16741 16744 16747 16750 16753 16756 16758 16761 16763 16766 16769 16771 16774 16777 16780 16783 16786 16788 16791 16794 16797 16800 16803 16806 16809 16812 16815 16818 16821 16824 16826 16829 16832 16835 16838 16841 16844 16847 16850 16853 16855 16858 16861 16864 16867 16870 16873 16875 16878 16881 16884 16887 16890 16893 16896 16898 16901 16904 16907 16910 16913 16915 16918 16921 16924 16927 16930 16933 16936 16939 16942 16945 16948 16951 16954 16957 16960 16963 16966 16969 16972 16975 16978 16981 16984 16987 16990 16993 16996 16999 17002 17005 17008 17011 17014 17017 17020 17023 17026 17029 17032 17035 17038 17041 17044 17047 17050 17053 17056 17058 17061 17063 17066 17069 17072 17075 17078 17081 17084 17087 17090 17093 17096 17099 17102 17105 17107 17110 17113 17116 17119 17122 17125 17128 17131 17134 17137 17140 17143 17146 17149 17152 17154 17157 17160 17162 17165 17167 17170 17173 17176 17179 17182 17184 17187 17190 17193 17196 17199 17202 17205 17208 17211 17214 17217 17220 17223 17226 17229 17232 17235 17238 17241 17244 17246 17249 17252 17255 17258 17261 17264 17267 17270 17273 17276 17279 17281 17284 17286 17289 17292 17294 17297 17299 17302 17305 17308 17311 17314 17317 17320 17322 17325 17327 17330 17333 17336 17339 17341 17344 17347 17350 17353 17355 17357 17360 17363 17365 17368 17371 17374 17377 17380 17383 17386 17389 17392 17395 17398 17401 17404 17407 17410 17413 17415 17418 17421 17424 17427 17430 17433 17436 17439 17442 17445 17448 17451 17454 17457 17459 17462 17464 17467 17470 17473 17476 17479 17482 17485 17487 17490 17492 17495 17498 17501 17504 17507 17510 17513 17516 17519 17521 17523 17526 17529 17532 17534 17537 17540 17543 17546 17548 17551 17553 17556 17559 17561 17564 17566 17568 17570 17573 17576 17578 17581 17584 17587 17589 17591 17593 17596 17599 17602 17605 17608 17611 17614 17617 17620 17623 17626 17628 17631 17634 17637 17640 17643 17646 17648 17651 17654 17657 17659 17662 17665 17668 17671 17674 17677 17680 17683 17685 17688 17691 17694 17696 17699 17702 17705 17708 17711 17714 17717 17720 17723 17726 17729 17732 17735 17738 17741 17744 17747 17750 17753 17756 17759 17762 17765 17768 17771 17774 17777 17780 17783 17786 17789 17792 17795 17798 17801 17804 17807 17810 17813 17816 17819 17822 17825 17828 17831 17834 17837 17840 17843 17846 17849 17852 17855 17858 17861 17864 17867 17870 17873 17876 17878 17881 17884 17887 17890 17893 17895 17898 17901 17904 17907 17909 17912 17915 17918 17920 17923 17926 17929 17932 17935 17938 17941 17944 17947 17950 17953 17956 17959 17962 17965 17968 17971 17974 17977 17980 17983 17986 17989 17992 17995 17998 18001 18004 18007 18010 18013 18016 18019 18022 18025 18028 18031 18034 18037 18040 18042 18045 18048 18050 18053 18056 18059 18062 18065 18068 18071 18073 18076 18079 18082 18085 18088 18091 18094 18097 18100 18103 18106 18108 18111 18114 18116 18119 18121 18124 18127 18130 18132 18135 18138 18141 18144 18147 18150 18153 18156 18158 18161 18164 18167 18170 18172 18175 18178 18181 18184 18186 18189 18191 18194 18197 18200 18203 18206 18209 18212 18215 18218 18221 18224 18227 18229 18232 18234 18237 18240 18243 18246 18249 18252 18255 18258 18261 18264 18267 18270 18273 18275 18278 18281 18284 18287 18290 18293 18296 18299 18302 18304 18307 18310 18313 18315 18318 18321 18324 18327 18330 18333 18336 18339 18342 18345 18348 18351 18354 18357 18360 18363 18366 18369 18372 18375 18378 18381 18384 18387 18390 18393 18396 18399 18402 18405 18408 18411 18414 18417 18420 18422 18425 18428 18430 18433 18436 18439 18442 18444 18447 18450 18453 18456 18459 18462 18465 18468 18471 18474 18477 18480 18483 18486 18489 18491 18494 18497 18500 18503 18506 18509 18512 18515 18518 18520 18523 18525 18528 18531 18534 18537 18540 18543 18546 18548 18551 18554 18557 18560 18563 18566 18569 18572 18575 18578 18581 18584 18587 18590 18592 18595 18598 18601 18604 18607 18610 18613 18616 18619 18622 18625 18627 18630 18633 18636 18639 18642 18645 18648 18651 18654 18657 18660 18663 18666 18669 18672 18675 18678 18681 18684 18687 18690 18693 18696 18698 18701 18703 18706 18709 18712 18715 18718 18721 18723 18726 18728 18731 18734 18737 18739 18742 18745 18748 18750 18753 18756 18759 18761 18764 18767 18769 18772 18775 18778 18781 18784 18787 18790 18792 18795 18798 18801 18804 18807 18810 18813 18815 18818 18821 18824 18827 18830 18833 18836 18839 18842 18845 18848 18851 18854 18856 18859 18862 18865 18868 18871 18874 18877 18880 18882 18885 18888 18891 18894 18897 18900 18903 18906 18909 18912 18915 18918 18921 18924 18927 18930 18933 18936 18939 18942 18944 18947 18950 18953 18956 18959 18962 18965 18968 18971 18974 18977 18980 18983 18986 18989 18992 18995 18998 19001 19004 19007 19010 19013 19016 19019 19022 19025 19028 19031 19034 19037 19040 19043 19046 19049 19052 19055 19058 19061 19064 19067 19070 19073 19076 19079 19082 19085 19088 19091 19094 19096 19099 19101 19104 19107 19110 19112 19115 19118 19120 19122 19125 19127 19130 19133 19136 19139 19142 19145 19148 19151 19154 19157 19160 19163 19166 19169 19172 19175 19178 19181 19184 19187 19190 19193 19196 19199 19202 19205 19208 19211 19214 19217 19220 19223 19226 19229 19232 19234 19237 19240 19243 19246 19248 19251 19254 19256 19259 19262 19265 19267 19270 19273 19276 19279 19281 19284 19286 19288 19291 19294 19297 19300 19302 19305 19308 19311 19313 19316 19319 19322 19324 19327 19330 19333 19336 19339 19342 19344 19347 19350 19353 19356 19359 19362 19365 19368 19371 19374 19377 19380 19383 19386 19389 19392 19395 19398 19401 19404 19406 19409 19412 19415 19418 19421 19424 19427 19430 19433 19436 19439 19442 19445 19448 19451 19454 19457 19460 19462 19465 19468 19470 19473 19476 19478 19481 19484 19487 19490 19493 19496 19499 19502 19505 19508 19511 19513 19516 19519 19522 19525 19527 19530 19533 19536 19539 19541 19544 19547 19550 19552 19555 19558 19561 19564 19567 19570 19573 19576 19579 19582 19585 19588 19591 19594 19597 19600 19603 19606 19609 19612 19615 19618 19621 19624 19627 19629 19632 19635 19638 19641 19644 19647 19650 19653 19655 19658 19661 19664 19666 19669 19672 19675 19678 19681 19684 19687 19690 19693 19696 19699 19702 19705 19708 19711 19714 19717 19720 19723 19726 19729 19732 19735 19738 19740 19743 19746 19749 19751 19754 19757 19760 19763 19766 19769 19772 19775 19777 19780 19783 19785 19788 19791 19794 19797 19799 19802 19805 19808 19811 19814 19817 19820 19822 19825 19827 19830 19833 19835 19838 19841 19843 19845 19848 19851 19854 19857 19860 19863 19866 19869 19872 19875 19878 19881 19884 19887 19890 19893 19896 19899 19902 19905 19908 19910 19913 19916 19919 19922 19924 19927 19930 19933 19936 19939 19942 19945 19948 19951 19954 19957 19960 19963 19965 19968 19971 19973 19976 19979 19982 19985 19988 19991 19994 19997 20000 20003 20006 20009 20012 20015 20018 20021 20024 20027 20030 20033 20036 20039 20042 20045 20048 20051 20054 20057 20060 20063 20066 20069 20072 20075 20078 20081 20084 20087 20090 20093 20096 20099 20102 20105 20108 20111 20114 20117 20120 20123 20126 20129 20132 20135 20138 20141 20144 20147 20150 20153 20156 20159 20162 20165 20168 20171 20174 20177 20180 20183 20186 20189 20192 20195 20198 20201 20204 20207 20210 20213 20216 20219 20222 20225 20228 20231 20234 20237 20240 20243 20246 20249 20252 20255 20258 20261 20264 20267 20270 20273 20276 20279 20282 20285 20288 20291 20294 20297 20300 20303 20306 20309 20312 20315 20318 20321 20324 20327 20330 20333 20336 20339 20342 20345 20348 20351 20354 20357 20359 20362 20365 20368 20371 20374 20377 20380 20382 20385 20388 20391 20394 20397 20400 20403 20406 20409 20411 20414 20416 20419 20422 20425 20427 20430 20433 20435 20438 20441 20444 20447 20450 20453 20456 20459 20462 20465 20468 20471 20474 20477 20480 20483 20486 20489 20492 20495 20498 20501 20504 20507 20510 20513 20516 20519 20522 20525 20528 20531 20534 20537 20540 20543 20546 20548 20551 20554 20556 20558 20561 20564 20566 20569 20572 20574 20577 20580 20583 20585 20588 20591 20594 20597 20600 20603 20606 20609 20612 20614 20617 20620 20623 20626 20629 20632 20634 20637 20640 20643 20646 20649 20652 20655 20658 20661 20664 20667 20670 20673 20676 20679 20682 20685 20688 20691 20694 20697 20700 20703 20706 20709 20712 20715 20718 20721 20724 20727 20729 20732 20735 20738 20741 20744 20747 20750 20753 20756 20759 20762 20765 20768 20771 20774 20777 20780 20783 20786 20789 20792 20795 20798 20801 20804 20807 20810 20813 20816 20819 20822 20825 20828 20831 20834 20837 20840 20843 20846 20849 20852 20855 20858 20861 20864 20867 20869 20872 20874 20877 20880 20883 20886 20888 20891 20894 20897 20900 20902 20905 20908 20911 20914 20916 20919 20922 20925 20928 20931 20934 20937 20940 20942 20945 20948 20950 20953 20955 20958 20961 20964 20967 20969 20972 20975 20977 20979 20982 20985 20988 20991 20994 20997 20999 21002 21005 21008 21011 21014 21017 21020 21023 21026 21029 21031 21033 21036 21039 21042 21045 21048 21050 21053 21056 21058 21061 21064 21067 21070 21072 21075 21078 21080 21083 21086 21089 21092 21095 21098 21101 21104 21107 21110 21113 21116 21119 21122 21125 21128 21131 21134 21137 21140 21143 21146 21149 21152 21155 21158 21161 21164 21167 21169 21172 21174 21177 21180 21183 21186 21189 21192 21195 21198 21201 21204 21207 21210 21213 21215 21218 21221 21224 21227 21229 21231 21234 21237 21240 21243 21246 21249 21252 21255 21258 21261 21264 21267 21270 21273 21276 21279 21282 21285 21288 21291 21294 21297 21300 21303 21306 21309 21312 21315 21318 21321 21324 21327 21330 21333 21336 21339 21342 21345 21348 21351 21354 21357 21359 21362 21365 21368 21370 21373 21376 21379 21382 21385 21388 21391 21394 21397 21400 21403 21406 21409 21412 21415 21418 21421 21424 21427 21430 21432 21435 21438 21440 21443 21446 21449 21452 21455 21458 21461 21464 21467 21469 21472 21475 21478 21481 21484 21486 21489 21492 21495 21498 21501 21503 21506 21508 21511 21514 21517 21520 21523 21526 21529 21532 21535 21538 21541 21544 21547 21549 21552 21555 21558 21560 21562 21565 21568 21571 21574 21577 21580 21583 21586 21588 21591 21594 21596 21599 21602 21604 21606 21609 21612 21615 21618 21621 21623 21626 21629 21632 21635 21638 21641 21644 21646 21649 21652 21654 21656 21659 21662 21665 21668 21671 21674 21676 21678 21681 21684 21687 21689 21692 21695 21698 21701 21704 21707 21710 21712 21715 21718 21721 21724 21727 21730 21733 21736 21739 21742 21745 21748 21751 21754 21757 21760 21763 21766 21769 21772 21775 21778 21781 21784 21787 21790 21792 21795 21798 21801 21804 21807 21810 21813 21815 21818 21821 21824 21827 21830 21833 21836 21839 21842 21845 21848 21850 21853 21856 21859 21862 21865 21868 21871 21874 21876 21879 21882 21885 21888 21891 21894 21897 21900 21903 21906 21909 21912 21915 21918 21921 21924 21926 21929 21932 21935 21937 21940 21943 21946 21949 21952 21954 21957 21960 21963 21966 21969 21972 21975 21978 21981 21984 21987 21990 21993 21996 21998 22001 22004 22007 22010 22012 22015 22018 22020 22023 22026 22029 22032 22035 22037 22040 22043 22046 22049 22052 22055 22058 22061 22064 22067 22070 22073 22076 22079 22081 22084 22086 22089 22092 22095 22097 22100 22102 22105 22107 22110 22113 22116 22119 22122 22125 22127 22129 22132 22135 22138 22141 22144 22147 22149 22152 22154 22157 22160 22163 22166 22169 22172 22175 22178 22181 22184 22187 22190 22193 22196 22199 22202 22205 22207 22210 22213 22216 22218 22220 22223 22226 22229 22232 22235 22237 22240 22243 22245 22247 22250 22253 22256 22259 22262 22265 22268 22271 22274 22277 22280 22283 22286 22289 22292 22295 22298 22301 22304 22307 22310 22313 22316 22319 22322 22325 22328 22331 22334 22337 22340 22343 22346 22349 22352 22355 22358 22361 22364 22367 22370 22373 22376 22379 22381 22384 22387 22389 22391 22393 22396 22399 22402 22405 22408 22411 22413 22416 22419 22422 22425 22428 22431 22434 22437 22440 22442 22445 22448 22451 22453 22456 22459 22462 22465 22468 22471 22474 22477 22480 22483 22486 22489 22492 22495 22498 22501 22504 22507 22510 22513 22515 22518 22521 22524 22527 22529 22532 22535 22538 22541 22544 22547 22550 22553 22556 22559 22562 22565 22568 22571 22574 22577 22580 22583 22586 22589 22592 22595 22598 22601 22604 22607 22610 22613 22616 22619 22622 22625 22628 22631 22633 22636 22638 22641 22644 22647 22650 22653 22656 22659 22662 22664 22667 22670 22673 22675 22678 22680 22683 22686 22689 22692 22695 22698 22701 22704 22706 22709 22712 22715 22718 22720 22723 22726 22729 22732 22734 22737 22740 22743 22746 22749 22752 22755 22757 22760 22763 22766 22769 22771 22774 22777 22780 22783 22786 22789 22792 22795 22798 22801 22804 22807 22810 22813 22816 22819 22822 22825 22828 22831 22834 22837 22840 22843 22846 22849 22852 22855 22858 22861 22864 22867 22870 22873 22876 22879 22882 22885 22888 22891 22894 22897 22900 22903 22906 22909 22911 22914 22917 22920 22923 22925 22927 22930 22933 22935 22937 22940 22943 22946 22949 22952 22955 22958 22961 22964 22967 22970 22973 22976 22979 22982 22985 22988 22991 22994 22996 22999 23002 23005 23007 23009 23012 23015 23018 23021 23024 23027 23030 23033 23036 23039 23042 23045 23048 23051 23054 23057 23060 23063 23066 23069 23072 23075 23078 23081 23084 23087 23090 23092 23095 23098 23101 23104 23107 23110 23113 23115 23118 23121 23124 23127 23130 23133 23136 23139 23142 23145 23148 23151 23154 23157 23160 23162 23165 23168 23171 23174 23177 23180 23183 23186 23188 23191 23193 23195 23198 23201 23204 23207 23210 23213 23216 23219 23222 23225 23228 23231 23233 23236 23239 23242 23245 23248 23251 23254 23257 23260 23263 23266 23269 23272 23275 23278 23281 23284 23287 23289 23292 23295 23298 23300 23303 23306 23309 23312 23315 23318 23321 23324 23326 23329 23332 23335 23338 23341 23344 23347 23350 23353 23356 23359 23362 23365 23368 23371 23373 23376 23379 23382 23384 23387 23390 23393 23396 23399 23402 23405 23408 23411 23414 23417 23420 23423 23426 23429 23432 23435 23438 23441 23444 23447 23450 23453 23456 23459 23462 23465 23468 23471 23474 23477 23480 23483 23485 23488 23490 23493 23496 23499 23502 23505 23508 23511 23514 23516 23519 23522 23525 23528 23531 23534 23537 23540 23543 23545 23548 23551 23553 23556 23559 23562 23565 23568 23570 23573 23576 23579 23582 23584 23587 23590 23593 23596 23598 23601 23604 23607 23609 23612 23614 23617 23620 23622 23625 23628 23631 23634 23637 23640 23643 23646 23649 23652 23655 23658 23661 23664 23666 23669 23672 23674 23677 23679 23682 23685 23688 23690 23693 23696 23698 23701 23704 23707 23710 23712 23715 23717 23720 23723 23726 23729 23732 23735 23737 23740 23742 23745 23748 23751 23754 23757 23759 23762 23765 23768 23771 23773 23776 23779 23782 23785 23788 23791 23793 23796 23799 23802 23805 23808 23811 23814 23817 23820 23823 23826 23829 23832 23835 23838 23841 23844 23847 23850 23853 23856 23859 23862 23865 23868 23871 23874 23877 23880 23883 23886 23889 23892 23894 23896 23899 23902 23905 23908 23911 23914 23917 23920 23923 23926 23928 23931 23934 23936 23938 23941 23943 23946 23949 23952 23955 23958 23961 23964 23966 23969 23972 23975 23978 23981 23984 23987 23990 23993 23996 23999 24002 24004 24007 24010 24013 24016 24018 24021 24024 24027 24030 24033 24036 24039 24042 24045 24048 24051 24054 24056 24059 24062 24065 24068 24071 24074 24077 24080 24083 24086 24089 24092 24095 24098 24101 24104 24107 24109 24112 24115 24118 24121 24124 24126 24129 24132 24135 24137 24140 24143 24146 24149 24152 24155 24157 24160 24162 24165 24168 24171 24173 24176 24179 24182 24185 24188 24191 24194 24197 24200 24202 24205 24208 24210 24213 24216 24219 24222 24225 24228 24231 24233 24236 24239 24242 24245 24248 24251 24254 24257 24260 24263 24266 24269 24272 24274 24277 24280 24282 24285 24288 24291 24294 24297 24300 24302 24305 24308 24311 24314 24317 24320 24322 24325 24328 24331 24334 24337 24340 24343 24345 24348 24351 24354 24357 24360 24363 24366 24369 24372 24375 24378 24381 24384 24387 24390 24393 24396 24399 24402 24405 24408 24411 24413 24416 24419 24422 24425 24428 24431 24434 24437 24440 24443 24445 24448 24451 24454 24457 24459 24461 24464 24467 24470 24473 24475 24478 24481 24484 24487 24490 24493 24496 24499 24502 24504 24507 24510 24513 24516 24519 24522 24525 24528 24531 24534 24537 24539 24542 24545 24548 24550 24553 24556 24559 24561 24564 24567 24570 24573 24576 24579 24582 24585 24588 24591 24594 24597 24599 24602 24605 24608 24611 24614 24616 24619 24622 24624 24627 24630 24633 24636 24639 24642 24645 24648 24651 24654 24657 24660 24663 24666 24668 24671 24674 24677 24680 24683 24686 24689 24691 24694 24697 24700 24702 24705 24708 24711 24714 24717 24719 24722 24725 24728 24731 24734 24737 24740 24743 24746 24748 24751 24754 24757 24760 24763 24766 24769 24772 24774 24777 24780 24783 24786 24789 24791 24794 24797 24800 24803 24806 24809 24812 24814 24817 24820 24823 24826 24829 24832 24835 24838 24841 24844 24847 24850 24853 24856 24859 24862 24865 24868 24871 24874 24877 24880 24883 24886 24889 24892 24895 24898 24901 24904 24907 24910 24913 24916 24919 24922 24925 24928 24931 24934 24937 24940 24943 24946 24949 24952 24955 24958 24960 24963 24966 24969 24972 24975 24978 24981 24983 24986 24989 24992 24995 24998 25001 25004 25007 25010 25013 25016 25019 25022 25025 25028 25031 25034 25037 25040 25043 25046 25049 25051 25053 25056 25059 25061 25063 25066 25069 25072 25075 25078 25081 25084 25086 25089 25092 25095 25098 25101 25104 25107 25110 25113 25116 25119 25122 25125 25128 25130 25133 25136 25139 25142 25145 25148 25151 25154 25156 25159 25162 25164 25167 25170 25173 25175 25178 25181 25184 25187 25190 25193 25196 25199 25202 25205 25208 25211 25214 25217 25220 25223 25226 25229 25232 25235 25238 25241 25244 25247 25250 25253 25256 25259 25261 25264 25267 25270 25273 25276 25279 25282 25285 25287 25290 25293 25296 25299 25302 25305 25307 25309 25312 25315 25318 25321 25323 25326 25329 25331 25334 25337 25339 25342 25345 25348 25351 25354 25357 25359 25362 25365 25368 25371 25374 25377 25380 25383 25385 25388 25391 25394 25397 25400 25403 25406 25409 25412 25415 25418 25420 25423 25426 25428 25431 25434 25437 25440 25443 25446 25449 25451 25454 25457 25460 25462 25465 25467 25470 25472 25475 25478 25481 25484 25487 25490 25493 25496 25499 25502 25505 25508 25511 25514 25517 25520 25523 25525 25528 25530 25533 25536 25539 25542 25545 25548 25551 25554 25557 25560 25562 25565 25568 25571 25574 25577 25580 25583 25585 25588 25591 25594 25596 25599 25601 25603 25606 25609 25611 25614 25617 25620 25623 25625 25628 25631 25634 25636 25639 25642 25645 25647 25650 25652 25654 25657 25660 25663 25666 25669 25672 25674 25677 25680 25683 25686 25689 25692 25695 25698 25700 25702 25704 25707 25709 25712 25715 25717 25719 25722 25725 25727 25730 25733 25736 25739 25742 25745 25748 25751 25754 25757 25760 25762 25765 25768 25771 25774 25777 25780 25783 25786 25789 25792 25795 25798 25801 25803 25805 25808 25811 25814 25817 25819 25822 25825 25828 25830 25833 25836 25839 25842 25845 25847 25849 25852 25855 25858 25860 25863 25866 25869 25872 25875 25878 25881 25884 25887 25890 25893 25896 25899 25902 25905 25907 25910 25913 25916 25918 25921 25924 25927 25929 25932 25935 25938 25941 25944 25947 25949 25952 25955 25958 25961 25964 25966 25969 25972 25975 25978 25981 25984 25987 25990 25992 25995 25998 26001 26004 26007 26010 26013 26016 26019 26021 26024 26027 26030 26033 26035 26038 26040 26043 26046 26048 26051 26053 26056 26059 26062 26065 26068 26071 26073 26076 26078 26080 26083 26086 26089 26092 26095 26098 26101 26104 26106 26109 26111 26114 26116 26119 26121 26124 26127 26130 26133 26136 26139 26142 26145 26148 26151 26154 26156 26159 26162 26165 26167 26170 26173 26176 26179 26182 26185 26188 26191 26193 26196 26199 26202 26205 26208 26211 26214 26217 26220 26222 26225 26228 26231 26234 26236 26239 26242 26244 26247 26250 26253 26256 26259 26262 26265 26268 26271 26273 26276 26279 26282 26284 26287 26290 26293 26296 26299 26302 26305 26308 26311 26314 26317 26320 26323 26326 26329 26332 26335 26338 26341 26343 26346 26349 26352 26355 26358 26361 26364 26367 26370 26373 26375 26378 26381 26384 26387 26390 26393 26396 26399 26402 26405 26408 26411 26414 26417 26420 26423 26426 26429 26432 26435 26438 26441 26444 26447 26450 26453 26456 26459 26462 26465 26468 26471 26474 26477 26480 26483 26486 26489 26492 26495 26498 26501 26504 26507 26510 26512 26514 26517 26520 26523 26526 26529 26532 26535 26538 26541 26544 26547 26550 26553 26555 26557 26560 26563 26566 26568 26571 26574 26576 26579 26582 26585 26587 26590 26593 26596 26598 26601 26604 26607 26610 26613 26616 26619 26622 26624 26627 26630 26632 26635 26637 26639 26642 26645 26648 26651 26654 26657 26659 26662 26664 26666 26668 26671 26674 26676 26679 26682 26684 26686 26689 26692 26695 26698 26701 26704 26707 26710 26713 26716 26719 26722 26725 26728 26731 26734 26737 26740 26743 26746 26749 26751 26754 26757 26760 26763 26766 26769 26772 26775 26778 26780 26783 26786 26789 26792 26795 26798 26801 26803 26805 26808 26811 26814 26817 26820 26823 26826 26829 26832 26835 26838 26841 26844 26847 26850 26853 26856 26859 26862 26865 26868 26871 26874 26876 26879 26881 26884 26887 26890 26893 26896 26899 26902 26904 26907 26910 26913 26915 26917 26920 26923 26925 26928 26931 26934 26937 26939 26942 26945 26948 26950 26953 26956 26959 26961 26964 26967 26970 26973 26976 26979 26982 26985 26988 26990 26992 26995 26998 27001 27004 27007 27009 27012 27015 27017 27019 27021 27024 27027 27030 27033 27036 27038 27041 27044 27047 27050 27053 27056 27059 27062 27065 27067 27070 27072 27075 27078 27081 27084 27087 27090 27093 27096 27099 27102 27105 27108 27111 27114 27117 27120 27123 27126 27129 27132 27135 27138 27141 27144 27146 27149 27152 27155 27158 27160 27162 27165 27168 27171 27173 27176 27179 27182 27185 27188 27191 27194 27197 27200 27203 27206 27209 27212 27215 27218 27221 27223 27226 27229 27232 27234 27237 27240 27242 27245 27248 27251 27254 27257 27260 27263 27266 27269 27272 27275 27278 27281 27283 27286 27289 27291 27294 27297 27300 27302 27305 27307 27310 27312 27315 27317 27319 27321 27324 27327 27330 27333 27336 27339 27342 27345 27347 27350 27353 27356 27359 27362 27365 27368 27371 27373 27376 27379 27381 27384 27387 27390 27393 27396 27399 27402 27405 27408 27411 27414 27417 27420 27423 27426 27429 27432 27435 27438 27441 27444 27446 27449 27452 27455 27458 27461 27464 27467 27470 27473 27476 27478 27481 27483 27486 27489 27491 27494 27496 27499 27501 27504 27507 27509 27512 27514 27517 27520 27522 27525 27528 27531 27533 27536 27539 27542 27545 27548 27551 27554 27557 27560 27563 27566 27569 27572 27575 27578 27581 27584 27587 27590 27593 27596 27599 27602 27605 27608 27611 27614 27617 27620 27623 27626 27629 27632 27635 27638 27641 27644 27647 27650 27653 27656 27659 27662 27665 27668 27671 27674 27677 27680 27683 27686 27689 27692 27695 27698 27701 27704 27707 27710 27713 27716 27718 27721 27724 27726 27729 27732 27735 27738 27741 27744 27746 27748 27751 27754 27757 27760 27763 27766 27769 27772 27775 27778 27781 27784 27787 27790 27793 27796 27799 27802 27804 27807 27810 27813 27815 27818 27821 27824 27827 27830 27833 27836 27839 27842 27845 27848 27851 27854 27857 27860 27863 27865 27868 27871 27874 27877 27880 27883 27886 27888 27891 27894 27897 27900 27903 27906 27909 27912 27914 27917 27919 27922 27925 27928 27931 27934 27937 27940 27943 27946 27949 27952 27955 27958 27961 27964 27967 27969 27972 27975 27978 27981 27984 27987 27990 27992 27995 27998 28001 28004 28006 28009 28012 28015 28018 28021 28024 28027 28029 28032 28035 28037 28039 28042 28045 28047 28050 28053 28056 28059 28062 28065 28067 28070 28073 28076 28079 28082 28085 28088 28091 28094 28096 28099 28102 28104 28107 28110 28112 28115 28118 28120 28123 28126 28129 28132 28135 28137 28140 28143 28146 28149 28152 28155 28158 28161 28163 28166 28169 28172 28175 28178 28181 28184 28186 28189 28192 28195 28198 28201 28204 28207 28210 28213 28216 28219 28222 28224 28227 28230 28233 28236 28239 28242 28245 28247 28249 28252 28254 28257 28259 28262 28265 28268 28271 28274 28277 28280 28283 28286 28289 28292 28295 28298 28301 28304 28306 28309 28311 28314 28317 28320 28323 28326 28329 28332 28335 28337 28340 28342 28345 28347 28350 28352 28355 28357 28360 28363 28365 28368 28371 28374 28377 28380 28382 28385 28388 28391 28394 28397 28400 28403 28406 28408 28411 28414 28417 28420 28423 28425 28428 28431 28433 28436 28438 28440 28443 28446 28449 28452 28455 28458 28461 28464 28466 28469 28472 28475 28478 28481 28484 28487 28490 28493 28496 28499 28502 28505 28507 28510 28513 28516 28519 28522 28525 28528 28530 28533 28536 28539 28541 28544 28547 28550 28553 28556 28559 28562 28565 28568 28571 28574 28577 28580 28583 28586 28589 28592 28594 28597 28600 28603 28606 28609 28612 28615 28617 28620 28623 28625 28628 28631 28634 28637 28640 28643 28646 28649 28652 28655 28658 28661 28664 28667 28670 28672 28675 28678 28681 28684 28686 28689 28692 28695 28698 28701 28704 28707 28710 28713 28716 28719 28722 28725 28728 28731 28734 28737 28740 28743 28746 28749 28752 28755 28758 28761 28763 28766 28769 28772 28775 28778 28781 28783 28786 28789 28792 28795 28798 28801 28804 28807 28810 28812 28814 28817 28820 28823 28825 28828 28830 28833 28836 28839 28842 28845 28848 28851 28854 28857 28860 28863 28866 28869 28872 28875 28877 28880 28883 28886 28889 28892 28895 28898 28901 28904 28907 28910 28913 28915 28917 28920 28923 28926 28929 28932 28935 28938 28941 28943 28946 28949 28951 28954 28957 28959 28961 28964 28967 28970 28973 28976 28979 28982 28984 28987 28990 28993 28996 28999 29002 29005 29008 29011 29013 29016 29019 29022 29024 29027 29030 29033 29036 29039 29041 29044 29047 29050 29053 29056 29059 29062 29065 29068 29071 29074 29077 29079 29082 29085 29088 29090 29093 29096 29099 29101 29104 29107 29110 29113 29116 29119 29122 29125 29128 29131 29134 29137 29140 29143 29146 29149 29152 29155 29158 29161 29164 29167 29170 29173 29176 29179 29182 29185 29188 29191 29194 29197 29199 29202 29205 29208 29211 29214 29217 29220 29223 29226 29229 29232 29235 29238 29241 29244 29247 29250 29253 29256 29259 29262 29265 29268 29271 29273 29276 29278 29281 29284 29286 29289 29292 29295 29298 29301 29304 29307 29310 29313 29315 29318 29321 29324 29327 29330 29333 29336 29339 29342 29345 29348 29351 29354 29357 29359 29362 29365 29368 29371 29373 29376 29379 29382 29384 29387 29390 29393 29396 29399 29402 29405 29408 29411 29414 29417 29420 29423 29426 29429 29432 29435 29438 29441 29444 29447 29450 29453 29456 29459 29462 29465 29468 29471 29474 29477 29480 29483 29486 29489 29492 29495 29498 29501 29504 29507 29510 29513 29516 29519 29522 29525 29528 29531 29534 29537 29540 29543 29546 29549 29552 29555 29558 29561 29564 29567 29570 29573 29576 29579 29582 29585 29588 29591 29594 29597 29600 29603 29606 29609 29612 29615 29618 29621 29624 29627 29630 29633 29636 29639 29642 29645 29648 29651 29654 29657 29660 29663 29666 29669 29672 29675 29678 29681 29684 29687 29690 29693 29696 29699 29702 29705 29708 29711 29714 29717 29720 29723 29726 29729 29732 29735 29738 29741 29744 29747 29750 29753 29756 29759 29762 29765 29768 29771 29774 29777 29780 29783 29786 29789 29792 29795 29798 29801 29804 29807 29810 29813 29816 29819 29822 29825 29828 29831 29834 29837 29840 29843 29846 29849 29852 29855 29858 29861 29864 29867 29870 29873 29876 29879 29882 29885 29888 29891 29894 29897 29900 29903 29906 29909 29912 29915 29918 29921 29924 29927 29930 29933 29936 29939 29942 29945 29948 29951 29953 29956 29959 29962 29965 29968 29971 29974 29977 29980 29983 29986 29989 29992 29995 29998 30001 30003 30006 30009 30012 30015 30018 30021 30024 30027 30029 30032 30035 30038 30041 30043 30046 30049 30052 30055 30058 30061 30064 30067 30070 30073 30076 30079 30082 30085 30088 30091 30094 30097 30100 30103 30106 30109 30111 30114 30117 30120 30123 30126 30129 30132 30135 30138 30141 30144 30147 30150 30152 30154 30157 30160 30163 30166 30169 30171 30174 30176 30179 30182 30185 30188 30191 30194 30197 30200 30203 30206 30209 30211 30214 30217 30220 30223 30226 30229 30232 30234 30237 30240 30243 30246 30249 30252 30255 30258 30261 30264 30267 30270 30273 30276 30279 30281 30283 30286 30289 30292 30295 30298 30301 30304 30307 30310 30313 30316 30319 30321 30324 30327 30330 30333 30336 30339 30342 30345 30348 30351 30354 30357 30360 30363 30366 30369 30371 30374 30377 30380 30383 30386 30389 30392 30394 30397 30400 30403 30406 30409 30412 30415 30418 30421 30424 30426 30428 30431 30434 30437 30440 30443 30446 30449 30452 30455 30458 30461 30464 30467 30470 30473 30476 30479 30482 30485 30488 30491 30494 30497 30500 30503 30506 30509 30512 30515 30518 30520 30523 30526 30529 30532 30535 30537 30540 30543 30546 30549 30552 30555 30558 30561 30564 30567 30569 30572 30575 30578 30581 30583 30586 30589 30592 30595 30598 30601 30604 30607 30610 30613 30615 30618 30620 30623 30626 30629 30632 30635 30638 30641 30644 30647 30650 30653 30656 30659 30662 30665 30668 30671 30674 30677 30680 30683 30686 30689 30692 30695 30698 30701 30704 30707 30710 30713 30715 30718 30721 30724 30727 30730 30732 30735 30738 30741 30744 30747 30750 30753 30756 30759 30762 30765 30768 30771 30774 30777 30780 30783 30786 30788 30791 30794 30796 30799 30802 30805 30807 30810 30813 30816 30819 30822 30824 30827 30830 30833 30836 30839 30842 30845 30848 30851 30854 30856 30859 30862 30865 30868 30871 30874 30876 30879 30882 30885 30888 30891 30893 30895 30898 30901 30903 30906 30909 30911 30914 30917 30920 30923 30926 30929 30932 30935 30938 30941 30943 30946 30949 30951 30954 30957 30959 30962 30965 30967 30970 30973 30975 30978 30981 30983 30986 30989 30992 30995 30998 31001 31003 31006 31009 31012 31015 31018 31021 31024 31027 31030 31033 31036 31038 31041 31044 31047 31050 31053 31056 31059 31061 31064 31067 31070 31073 31075 31078 31081 31084 31086 31089 31092 31095 31098 31101 31104 31107 31110 31113 31116 31119 31121 31124 31127 31130 31133 31136 31139 31142 31145 31148 31151 31154 31157 31160 31163 31166 31169 31172 31175 31178 31181 31184 31187 31190 31193 31195 31198 31201 31204 31207 31210 31212 31215 31218 31221 31224 31227 31230 31233 31236 31239 31242 31245 31248 31251 31254 31256 31259 31262 31264 31267 31269 31272 31275 31278 31281 31283 31286 31288 31290 31293 31295 31298 31301 31304 31307 31310 31313 31316 31318 31321 31323 31326 31329 31332 31335 31338 31341 31343 31346 31349 31352 31355 31358 31361 31363 31366 31369 31372 31375 31377 31380 31383 31386 31389 31392 31394 31397 31400 31402 31405 31408 31411 31414 31416 31419 31422 31425 31428 31430 31433 31436 31439 31442 31445 31448 31450 31453 31456 31459 31462 31465 31468 31471 31474 31477 31479 31482 31485 31488 31491 31494 31497 31499 31502 31505 31508 31511 31513 31516 31519 31522 31525 31528 31531 31534 31537 31540 31543 31546 31549 31552 31555 31558 31561 31563 31566 31569 31572 31574 31577 31580 31582 31585 31588 31591 31594 31597 31600 31603 31606 31609 31612 31615 31618 31621 31624 31627 31630 31632 31635 31637 31640 31643 31646 31649 31652 31655 31658 31661 31664 31667 31670 31673 31676 31679 31682 31685 31688 31691 31694 31697 31700 31703 31706 31709 31712 31715 31717 31720 31723 31725 31728 31731 31734 31737 31740 31743 31746 31749 31752 31755 31757 31760 31763 31766 31769 31771 31774 31777 31780 31783 31785 31788 31791 31794 31797 31800 31803 31806 31809 31812 31814 31817 31820 31823 31826 31829 31832 31835 31838 31841 31844 31847 31850 31853 31856 31859 31862 31865 31868 31871 31874 31877 31880 31883 31886 31889 31892 31895 31898 
</DataArray>
<DataArray type="UInt32" Name="types" format="ascii">
5 5 5 5 5 3 5 5 5 5 5 5 5 3 5 5 5 5 3 5 5 3 5 5 5 5 3 5 5 5 5 3 5 5 5 5 5 5 5 5 5 5 5 5 5 3 5 5 3 5 5 5 5 5 3 5 5 5 5 5 5 5 3 5 5 5 5 3 5 5 5 5 5 5 5 5 5 3 5 5 3 5 5 3 5 5 5 5 3 5 5 5 5 5 5 5 3 3 3 5 5 3 5 5 5 5 5 3 5 5 5 5 5 5 5 5 5 5 5 5 5 3 5 5 5 3 5 5 5 5 5 5 3 5 5 5 5 5 5 5 5 5 5 5 5 5 5 5 5 5 5 5 5 5 5 5 5 5 3 5 5 5 3 5 5 3 5 5 5 5 5 5 5 5 5 5 5 3 5 5 5 5 5 5 5 5 3 5 5 5 5 5 5 5 5 3 5 5 5 5 5 5 5 5 5 3 5 5 5 5 5 5 5 5 5 5 5 5 5 5 5 5 5 5 5 5 5 5 5 3 5 5 5 3 5 3 5 3 5 5 3 5 5 5 3 5 3 5 3 5 3 3 5 3 5 5 3 5 3 5 5 5 3 5 3 3 5 5 3 5 5 5 3 5 3 3 3 5 3 5 5 5 3 5 3 3 3 5 5 3 3 5 5 5 5 3 5 3 5 5 3 5 5 5 3 5 3 3 3 5 5 5 3 5 3 3 3 3 5 5 5 3 3 5 5 3 3 3 5 3 5 5 5 5 3 5 5 5 5 5 5 5 3 5 5 5 5 5 5 3 3 5 5 5 3 5 5 5 3 5 3 5 3 3 5 5 5 5 3 5 5 3 5 5 5 5 3 5 3 5 5 5 5 5 3 3 5 5 5 5 5 5 5 5 3 5 5 5 3 5 5 3 5 3 5 5 5 5 5 5 5 5 5 5 5 3 5 3 5 3 5 5 5 3 5 3 5 3 5 5 5 5 5 5 3 5 3 5 5 5 3 5 5 5 3 5 3 3 5 5 5 5 3 5 5 5 5 3 3 5 5 3 5 3 5 3 3 5 5 5 3 5 5 5 5 3 5 5 5 5 5 5 5 5 5 5 5 3 5 5 5 5 3 5 5 5 3 5 3 3 3 5 5 5 3 3 5 3 5 5 3 5 5 5 5 3 5 5 5 5 5 5 5 5 5 5 5 3 3 5 5 3 5 5 5 3 5 5 5 5 5 5 3 5 5 5 3 5 5 5 3 5 5 5 5 5 5 5 5 5 5 5 3 5 5 5 3 5 5 5 5 5 5 5 3 5 5 5 5 5 3 5 5 5 5 5 5 5 5 5 5 5 5 5 5 5 5 5 5 5 3 5 5 5 5 3 5 5 3 5 5 5 5 5 5 5 3 5 5 5 5 5 5 5 5 3 5 3 5 5 3 5 5 5 3 5 5 3 5 5 5 3 5 3 5 5 3 5 3 5 5 5 5 5 5 5 5 5 5 5 5 5 5 5 5 5 5 5 5 5 5 3 5 3 5 3 5 5 5 5 5 5 5 5 5 5 5 5 5 5 5 3 5 5 5 5 5 5 5 5 5 3 5 5 5 5 5 5 5 5 5 5 5 5 5 5 5 5 5 5 5 5 5 5 5 5 5 5 5 5 5 3 5 5 3 5 5 5 3 3 5 3 5 5 5 5 5 3 5 5 5 5 5 3 5 5 5 5 5 5 5 5 5 5 5 5 5 5 5 5 5 5 5 5 5 5 5 5 5 5 5 5 5 5 5 5 5 5 5 5 5 5 5 5 5 5 5 5 5 5 5 5 5 3 5 5 5 5 5 5 5 5 5 5 5 5 5 5 5 3 5 5 5 5 3 5 5 5 5 5 5 5 5 5 5 5 5 5 5 5 5 5 5 5 5 5 5 5 5 5 5 5 3 5 5 3 5 3 3 3 3 5 5 3 5 5 5 5 5 5 5 5 5 5 5 5 5 5 5 5 5 3 5 5 3 5 3 5 5 5 5 3 5 3 5 5 5 5 3 5 5 5 3 5 5 5 5 5 3 5 3 5 5 3 3 5 3 5 5 5 5 5 5 5 5 5 5 5 3 5 5 5 3 5 5 5 3 5 5 3 3 3 5 5 5 5 5 5 5 5 5 5 5 3 5 5 5 5 5 5 5 5 3 3 3 5 5 5 5 5 5 5 5 3 3 5 5 5 3 5 5 3 5 5 5 5 5 5 5 5 5 5 5 3 5 5 5 5 5 5 5 5 3 5 5 5 5 5 5 5 5 5 5 3 5 3 3 3 5 5 5 5 5 5 5 3 3 5 3 5 5 5 5 5 3 5 3 3 5 5 5 3 5 3 5 5 5 5 3 5 5 5 5 5 5 5 5 5 5 5 5 5 5 5 5 5 3 5 5 5 3 5 5 5 5 5 3 5 5 5 5 5 5 3 5 3 5 5 5 5 5 5 5 5 3 5 5 5 3 5 5 5 5 5 5 5 5 5 5 5 5 5 5 5 5 5 5 5 5 5 5 5 5 5 3 3 3 5 5 5 5 3 5 5 5 5 3 5 5 5 5 5 5 5 3 5 5 5 5 5 5 5 5 3 5 5 5 5 5 5 5 5 5 5 5 5 3 5 5 5 5 5 5 3 5 5 5 5 5 5 5 5 3 5 5 5 3 5 5 5 5 5 5 5 5 5 5 5 5 3 5 5 5 5 5 5 5 5 5 5 5 5 5 5 5 5 5 5 5 5 5 5 5 5 5 5 5 5 5 5 5 5 5 5 5 5 5 5 5 5 5 5 5 5 5 5 5 3 5 5 5 5 5 5 5 5 5 5 5 5 5 5 5 5 5 5 5 5 5 5 5 5 3 5 5 5 5 5 5 5 5 5 5 3 5 5 3 5 5 5 5 5 5 5 5 5 3 5 3 5 5 5 5 3 5 5 3 5 3 5 5 5 5 5 3 5 5 5 5 5 5 5 5 3 5 5 5 5 5 5 5 5 5 5 5 5 5 5 3 5 3 3 5 5 5 5 5 3 5 5 5 5 5 5 5 5 5 5 5 5 5 5 5 3 5 5 5 5 5 5 5 5 5 5 5 5 5 5 5 5 3 5 5 5 5 5 3 3 5 5 3 5 5 5 5 5 5 5 5 5 5 3 5 5 5 5 5 5 5 5 5 3 5 3 5 5 5 5 5 3 5 5 5 5 3 5 5 5 3 5 5 5 3 5 5 3 5 5 5 5 5 5 5 5 5 5 5 5 5 5 5 5 3 5 5 5 5 5 5 5 3 5 5 5 5 5 5 5 5 5 5 5 5 5 5 5 5 5 5 5 5 5 5 5 5 5 5 5 3 5 5 5 5 3 5 5 5 3 5 5 5 5 5 5 5 5 5 3 5 3 5 5 5 5 5 5 5 5 5 5 5 5 5 5 5 5 5 5 3 3 5 5 5 3 5 5 3 5 5 3 5 5 5 3 5 5 3 5 5 5 5 5 5 5 5 5 5 5 5 5 5 5 5 5 5 5 5 3 5 3 5 5 5 5 5 5 5 5 5 5 5 3 5 3 5 5 5 3 5 5 5 5 5 3 5 5 5 5 5 5 3 5 5 5 5 5 5 5 5 5 5 5 3 5 5 5 5 5 5 5 5 3 5 5 5 3 5 5 3 5 5 5 5 5 3 5 5 5 5 5 5 5 5 5 3 5 5 3 5 3 5 3 3 3 5 3 5 5 5 5 5 5 3 5 5 5 5 5 5 3 5 5 5 5 5 5 5 3 5 5 5 5 3 5 5 5 5 5 3 5 3 5 5 5 5 5 5 5 5 5 5 3 5 5 5 5 5 5 5 3 5 5 5 5 5 5 5 3 5 3 5 5 5 5 5 5 5 5 3 5 5 5 3 3 5 5 5 5 5 3 3 5 3 5 5 3 5 5 3 5 5 5 5 5 5 5 5 3 5 5 5 5 5 3 5 5 5 5 3 5 5 3 5 5 5 5 5 5 5 5 5 5 5 5 5 5 5 5 5 5 5 5 5 5 5 5 5 5 5 5 5 5 5 5 5 5 5 5 5 5 5 5 5 3 5 5 3 5 5 5 5 5 3 5 5 5 5 3 5 5 5 5 5 5 5 5 5 5 5 5 5 5 5 5 5 5 5 5 5 5 5 5 3 5 5 5 3 5 5 5 5 5 5 3 5 5 5 5 5 5 5 5 5 5 5 3 5 3 3 5 5 3 5 5 5 5 5 5 5 5 5 5 5 3 5 5 3 5 5 5 5 5 5 5 5 5 5 5 5 5 5 5 3 5 5 5 5 5 5 5 3 5 3 5 5 5 5 3 5 3 5 5 5 5 5 5 5 5 5 3 5 5 5 5 5 5 5 5 5 5 5 5 5 5 5 5 5 3 5 5 5 5 5 5 5 5 5 5 5 5 5 5 5 5 5 5 5 5 5 5 5 5 5 3 3 5 5 5 5 5 5 5 5 5 5 5 3 5 5 5 5 3 5 5 5 5 3 5 5 5 5 5 5 5 5 3 5 5 5 5 5 5 5 5 5 3 5 5 5 5 5 5 5 5 5 5 5 5 5 5 5 5 5 5 5 5 3 5 5 5 5 5 5 5 5 5 5 5 5 5 5 3 5 3 5 5 5 5 5 5 5 5 3 5 5 3 5 5 5 5 5 5 5 5 5 5 5 5 5 5 5 5 5 5 5 5 5 5 5 5 5 5 5 5 5 5 5 5 5 5 5 5 3 5 5 3 5 5 5 5 3 5 3 5 5 3 5 3 5 5 5 5 5 3 5 5 5 5 5 5 5 5 5 5 5 5 3 5 5 5 3 5 5 5 5 5 5 5 5 5 3 5 5 5 5 3 3 5 5 5 5 5 5 5 5 3 5 5 5 5 5 3 5 5 5 3 5 5 5 3 5 5 5 5 3 5 5 5 5 5 5 5 5 5 5 5 5 5 5 3 5 5 5 5 5 5 3 5 3 3 5 3 5 3 5 5 5 5 3 5 5 5 5 3 5 5 5 5 5 5 5 5 5 3 5 5 5 5 5 5 5 5 5 5 5 5 5 5 3 5 5 5 3 5 5 5 3 5 3 5 5 5 5 5 5 5 5 5 5 5 5 5 5 5 5 3 5 5 5 5 5 5 3 5 5 5 5 5 5 5 5 5 5 5 5 5 5 5 5 5 5 3 5 5 5 5 5 5 5 5 5 5 5 5 5 5 5 5 5 5 5 5 5 5 5 5 5 5 5 5 5 5 5 5 5 5 3 5 5 5 5 3 5 5 5 5 5 5 5 3 5 5 5 5 5 5 5 5 5 3 5 5 3 5 5 5 5 5 3 5 5 5 3 5 5 3 5 5 5 5 5 5 5 5 5 5 5 5 5 5 5 5 5 5 5 5 3 5 5 5 5 5 5 5 5 5 5 3 3 5 3 5 5 5 5 5 3 5 5 5 5 3 5 5 5 5 5 3 5 3 5 5 3 5 5 5 5 5 5 5 5 3 5 5 5 5 5 5 3 5 5 5 5 5 5 3 5 5 5 5 3 5 5 3 5 3 5 5 3 5 5 5 5 5 5 3 5 5 5 5 3 5 5 5 5 5 5 5 5 3 3 5 5 5 5 5 5 5 5 3 5 5 5 5 5 5 3 5 5 5 5 5 5 5 3 5 5 5 3 5 5 5 5 5 5 5 5 5 5 5 5 3 5 5 5 5 3 5 5 3 5 5 5 5 3 5 5 5 3 3 5 5 5 3 5 5 5 3 5 5 5 5 5 5 5 5 5 3 5 5 5 3 5 5 5 5 5 5 5 5 5 5 5 5 3 5 3 5 5 3 5 5 3 5 5 5 5 5 5 5 3 5 5 5 5 5 3 5 3 5 5 5 3 3 5 3 3 5 3 5 5 5 5 5 5 3 5 3 5 5 5 5 5 5 5 5 5 5 5 5 5 3 5 5 3 5 3 5 5 3 5 5 5 3 3 5 5 3 5 5 5 5 5 5 5 5 5 5 5 5 5 5 5 5 5 5 5 5 5 5 5 3 3 5 3 5 3 5 5 3 3 5 5 3 5 5 3 5 5 3 5 3 5 5 5 5 3 5 5 5 5 3 5 3 3 5 3 5 5 3 3 5 5 5 3 5 5 5 5 3 3 5 5 5 5 5 3 5 5 5 5 5 5 5 5 5 5 5 3 5 3 5 3 5 5 3 5 3 5 5 5 5 5 5 5 5 3 5 5 3 5 5 5 5 3 5 5 5 5 5 5 5 5 5 5 5 5 3 5 5 5 5 5 5 5 5 5 5 5 3 5 5 5 5 5 5 3 5 3 5 5 3 5 5 5 5 5 5 5 5 5 5 5 5 5 5 5 5 5 3 3 5 5 5 3 5 5 3 5 5 5 5 5 5 5 5 5 5 5 5 5 5 5 5 5 5 5 5 5 5 5 5 5 3 3 5 5 5 5 5 5 5 5 5 5 5 3 5 5 5 5 5 5 5 5 5 5 5 5 5 5 5 5 5 5 5 5 5 5 5 5 5 5 5 5 5 5 5 5 5 3 5 5 5 5 5 3 5 5 3 5 5 3 3 5 5 5 5 5 5 5 5 5 5 5 5 5 3 5 5 3 5 5 5 5 5 5 3 5 5 3 5 5 5 5 5 5 5 5 5 5 5 5 5 3 5 5 5 5 5 5 5 3 5 5 5 5 5 5 5 5 5 5 5 5 3 5 5 3 5 5 5 5 5 5 5 5 5 5 5 5 5 5 5 5 5 5 5 5 3 5 5 3 5 3 5 5 5 3 5 5 3 5 3 5 5 5 3 5 5 5 5 3 5 5 5 5 5 5 5 3 5 5 5 3 5 5 5 5 5 5 5 5 5 5 5 5 3 5 5 5 5 5 5 5 5 3 5 5 5 5 5 5 5 5 5 5 5 3 5 5 5 5 5 5 5 5 5 5 5 5 5 5 5 5 5 5 5 3 3 5 5 5 3 5 5 5 5 5 5 5 5 5 5 5 5 3 5 5 5 5 5 5 5 5 5 3 5 5 5 5 5 5 5 5 5 5 5 5 5 5 5 5 3 5 3 5 5 5 5 5 3 5 5 5 5 3 5 5 5 3 5 5 5 3 5 5 5 5 5 5 5 5 5 3 5 5 5 3 5 5 3 5 5 5 5 5 5 3 5 5 5 5 5 5 5 5 3 5 5 5 3 5 5 5 5 5 5 5 5 5 5 5 5 5 5 5 5 5 5 5 5 5 5 5 5 5 5 5 3 5 5 5 5 5 5 5 3 5 5 5 5 5 5 5 5 5 5 5 5 5 5 5 5 5 5 5 5 5 5 5 5 5 3 5 3 5 5 5 5 5 5 3 5 5 5 3 5 5 3 5 5 5 5 5 5 5 5 5 5 5 5 3 5 5 5 5 5 3 5 5 5 5 5 5 5 5 5 5 5 5 5 3 5 5 5 3 5 5 5 5 5 5 5 5 5 5 5 5 3 3 5 5 5 5 3 5 5 5 5 5 5 5 5 5 3 3 5 5 5 5 5 3 5 5 5 5 5 3 5 5 5 5 5 3 5 3 5 5 5 5 3 5 3 5 3 3 5 5 5 5 5 5 5 3 3 5 5 5 5 5 5 3 3 3 5 3 3 5 5 5 3 5 5 5 5 5 3 3 3 5 3 5 5 5 3 5 3 3 5 5 5 5 5 5 5 3 3 5 5 3 3 3 5 5 5 5 5 5 5 5 5 5 5 5 5 5 5 5 5 5 5 5 5 5 5 5 5 5 5 5 5 5 5 5 5 5 5 5 5 5 5 5 3 5 5 5 5 5 5 5 5 5 5 3 5 5 5 5 5 5 3 5 5 3 5 5 5 5 5 5 5 5 5 5 5 5 5 3 5 3 5 5 5 5 3 5 5 5 3 5 5 3 5 5 5 3 5 5 3 5 5 5 5 5 3 5 5 5 5 5 5 5 3 5 5 5 5 5 5 5 3 5 5 3 5 5 5 5 3 5 3 5 5 5 5 5 3 5 5 5 5 3 5 5 5 5 5 5 3 3 5 5 5 5 5 3 5 5 3 5 5 5 5 5 5 5 5 5 5 3 5 5 5 5 5 5 5 5 5 5 5 5 5 5 5 5 5 5 3 5 5 5 5 5 5 3 5 5 5 5 5 5 5 3 3 5 5 5 5 3 5 5 5 5 5 5 5 3 5 5 3 5 3 3 3 5 5 5 5 5 5 3 5 5 5 5 5 3 5 5 5 5 3 5 5 5 3 5 5 5 3 5 5 5 5 5 5 5 5 5 5 5 5 5 5 5 5 5 5 5 5 5 5 5 5 5 3 5 5 5 5 5 5 5 3 5 3 5 5 5 5 5 5 3 5 5 3 5 5 5 3 5 5 3 5 5 5 5 5 3 5 5 5 3 3 5 5 5 5 5 5 5 5 5 5 5 5 3 5 5 5 5 5 5 5 5 5 3 5 5 5 5 5 3 3 5 5 5 5 5 5 5 5 5 3 5 5 5 5 5 5 5 5 3 5 5 5 5 5 5 5 5 5 5 5 5 5 5 5 5 5 5 3 5 5 5 5 3 5 3 5 3 5 5 5 5 5 5 5 5 5 5 5 5 5 5 5 5 5 3 5 5 5 5 5 3 5 5 5 3 3 5 5 5 5 5 3 5 5 5 5 3 5 5 5 5 5 5 5 5 3 5 5 5 5 5 5 5 3 5 5 5 5 5 5 5 5 5 3 5 5 5 5 5 5 5 5 5 5 5 5 5 5 5 5 5 5 3 5 5 5 5 5 5 5 5 5 5 5 5 5 3 5 5 5 5 5 5 3 5 5 3 5 5 3 5 5 5 5 5 5 5 5 5 5 5 5 5 5 5 5 5 5 5 5 5 5 5 5 5 5 3 5 3 5 3 3 5 5 5 3 5 5 5 5 5 5 5 5 5 3 3 5 3 5 5 5 5 5 5 5 5 5 5 5 5 5 5 3 5 3 3 5 3 5 5 5 5 5 5 5 5 5 3 3 5 5 5 5 5 5 5 5 5 5 5 5 5 5 5 5 5 5 5 5 5 5 3 5 5 5 5 5 3 5 5 5 5 5 3 5 5 5 3 5 5 5 5 5 5 5 5 5 3 5 5 5 5 3 5 5 5 5 5 5 3 5 5 5 5 5 5 5 3 5 5 5 5 3 5 5 5 5 5 5 5 5 5 5 3 5 5 5 5 3 5 5 5 3 5 5 5 5 5 3 5 5 5 5 5 5 5 5 5 5 5 5 5 5 3 3 5 5 3 5 5 5 5 5 5 5 3 5 5 5 5 5 5 3 5 5 5 5 5 5 5 5 5 5 5 5 5 5 5 5 5 5 5 5 5 5 5 3 5 5 5 5 5 5 5 5 3 5 5 5 5 3 5 5 5 5 5 3 5 3 5 3 5 5 5 5 5 5 5 3 5 5 5 3 5 5 5 5 5 3 5 5 5 5 5 3 5 3 5 5 3 5 3 5 5 5 5 5 3 5 5 5 3 5 5 5 5 5 5 5 5 5 5 3 5 5 5 5 5 5 5 5 5 5 5 5 5 5 5 5 5 5 5 5 5 5 3 5 5 5 5 5 5 5 5 5 5 5 5 5 5 5 5 5 5 3 5 5 5 3 5 5 5 5 5 5 3 5 5 5 3 3 5 3 5 3 3 5 3 5 5 3 5 5 3 3 5 5 5 5 5 5 5 5 3 5 3 5 5 5 5 5 5 5 5 5 5 5 5 5 5 5 5 5 5 5 5 5 5 3 5 5 5 5 5 5 5 5 3 5 5 3 5 5 3 3 5 5 3 5 5 5 5 5 5 5 5 5 5 5 5 5 5 5 5 5 5 5 5 5 5 5 5 5 5 5 5 5 5 5 5 5 5 5 5 5 5 5 3 5 3 5 5 5 5 5 5 5 5 5 5 5 5 5 5 5 5 5 5 5 5 5 5 5 5 5 5 5 5 5 5 5 5 5 5 5 5 5 5 5 5 3 5 5 3 5 5 5 5 5 3 5 3 5 5 3 5 5 5 5 5 5 3 5 5 5 5 5 5 5 5 5 5 5 3 5 5 3 3 5 3 5 5 3 5 5 5 5 3 5 5 5 5 5 5 5 5 5 3 5 3 5 5 5 5 5 5 5 3 5 3 5 5 5 5 5 5 5 5 5 3 5 3 5 5 5 5 5 5 5 5 5 5 3 5 5 5 3 5 5 3 5 5 3 5 5 5 5 3 5 5 5 3 5 5 5 5 5 5 5 5 5 5 5 5 5 5 3 5 5 5 5 5 5 3 5 3 5 3 5 5 5 3 5 5 5 5 5 5 5 5 3 5 5 5 5 5 3 5 5 3 5 5 5 5 5 5 5 5 5 3 5 5 5 3 5 5 5 5 5 5 3 5 5 5 5 5 5 5 5 5 5 5 5 5 5 5 5 5 5 5 5 5 5 5 5 5 5 5 5 5 5 5 3 5 5 5 5 5 3 5 5 3 3 5 5 5 5 3 5 5 5 5 5 3 5 5 5 5 5 5 5 5 5 5 5 5 5 5 5 5 3 5 5 5 5 5 5 5 5 3 3 5 5 5 5 5 5 3 5 5 5 5 3 5 5 5 5 5 5 5 5 5 5 5 5 5 5 5 5 5 5 5 5 5 5 5 5 3 5 5 3 5 5 5 5 5 5 5 5 5 5 5 5 5 5 5 5 5 5 5 5 5 5 5 5 5 5 5 3 5 3 5 5 5 5 5 3 5 5 5 5 5 5 5 5 5 5 5 5 5 5 5 5 5 5 5 5 3 3 5 3 5 5 5 5 5 5 5 5 5 5 5 5 5 5 5 5 3 5 5 5 3 5 5 5 5 5 5 5 5 5 5 5 5 5 3 5 5 5 5 5 5 5 5 5 5 5 5 5 5 5 5 5 5 5 5 5 5 3 5 5 5 5 5 5 5 5 5 5 5 5 5 3 5 3 5 5 3 3 5 5 5 5 5 5 5 5 5 5 5 5 5 5 5 5 5 5 5 5 3 5 5 3 5 5 5 3 5 5 5 5 5 5 3 5 5 5 3 5 5 5 5 5 5 5 5 3 5 5 3 5 5 3 5 3 5 5 5 5 3 3 5 5 3 3 5 5 3 5 5 5 5 3 5 5 3 3 5 3 5 5 5 5 5 5 5 5 5 5 5 5 5 5 5 5 5 5 5 5 3 5 5 5 5 3 5 5 5 5 3 3 5 5 5 5 5 5 5 5 5 5 5 5 3 5 5 5 3 5 5 5 5 5 5 5 3 5 5 5 3 5 5 3 3 5 5 5 3 5 5 5 3 5 5 5 5 5 5 5 5 5 5 5 5 5 5 5 5 5 5 3 5 5 5 5 5 5 5 5 5 5 5 5 5 5 5 5 5 5 3 3 5 5 5 5 5 3 3 5 3 5 5 5 5 5 5 5 5 5 3 5 5 5 3 5 5 5 5 5 5 5 5 5 5 5 5 5 5 3 5 5 5 5 5 5 5 3 5 5 3 5 5 5 5 5 5 3 5 5 5 5 3 5 5 5 5 5 5 3 5 5 5 5 5 5 5 5 3 3 5 5 5 3 3 5 5 5 5 5 3 5 5 5 5 5 5 3 5 5 5 5 3 5 5 5 5 5 3 5 5 5 5 3 5 5 5 5 5 5 5 5 5 5 5 5 5 5 5 5 5 5 5 5 5 5 5 5 5 3 5 5 5 5 3 5 3 5 3 5 5 3 5 5 3 5 5 3 5 5 5 5 5 5 3 5 5 3 5 3 3 3 5 5 3 5 3 3 5 5 5 3 5 3 5 5 5 5 5 5 3 5 5 5 3 5 5 5 5 5 5 5 3 5 5 5 3 5 3 3 5 5 5 5 5 5 5 3 5 5 5 5 5 5 5 5 3 3 5 5 5 5 3 5 5 3 5 5 5 3 5 5 5 3 3 5 5 5 5 3 5 5 5 5 5 3 3 5 5 5 5 5 5 5 5 5 5 5 5 5 5 5 5 5 5 5 5 5 5 5 5 5 5 5 5 5 5 5 3 5 5 5 3 5 5 5 5 5 5 5 5 5 5 5 5 5 5 5 3 5 3 3 5 5 3 5 5 5 5 5 5 5 5 5 5 5 5 5 5 5 5 5 5 5 5 5 5 5 3 5 5 3 3 5 5 5 5 5 5 5 3 5 5 5 3 5 5 5 5 3 3 5 5 5 5 5 5 5 3 5 5 5 5 3 5 5 5 5 3 5 5 5 5 5 5 5 5 5 5 5 5 5 5 5 5 5 5 5 3 5 5 5 5 5 5 5 5 5 5 5 5 5 5 5 5 3 5 5 5 3 5 5 5 5 5 5 5 5 5 3 5 5 5 5 5 5 5 5 5 5 5 5 5 5 5 5 5 5 5 5 5 3 5 5 5 5 5 5 5 5 5 5 5 5 5 5 5 5 5 3 5 5 5 5 5 3 5 5 5 5 5 5 5 5 5 5 5 5 5 5 5 5 5 5 5 5 5 5 5 5 5 5 5 3 5 5 3 5 5 5 3 5 5 5 5 5 5 5 5 5 5 5 5 5 5 5 3 5 3 5 5 5 5 5 5 5 5 5 3 5 5 5 5 5 5 5 5 5 3 3 5 5 5 5 5 5 5 5 5 5 5 5 5 5 5 5 5 5 5 5 5 5 5 5 5 5 5 5 5 5 5 5 5 5 5 5 5 5 5 5 5 5 5 5 5 5 5 5 5 5 5 5 5 5 5 5 5 5 5 5 5 5 5 5 5 5 5 5 5 5 5 3 5 5 5 5 5 5 3 5 5 5 5 5 5 5 5 5 3 5 3 5 5 5 5 5 5 5 5 5 5 5 5 5 5 5 5 5 5 5 5 5 5 5 5 5 5 5 5 5 5 5 5 5 5 3 5 5 5 3 3 5 5 5 5 5 5 5 5 5 5 5 5 5 5 5 5 5 5 5 5 5 5 3 3 5 5 5 5 5 5 5 5 3 5 5 5 5 5 5 3 5 5 5 5 5 3 5 5 5 5 3 5 5 5 3 5 5 5 3 5 5 3 5 5 5 5 5 5 5 5 5 5 5 5 5 3 5 5 5 5 5 5 5 5 3 5 5 5 5 5 5 5 5 5 5 5 3 5 5 5 3 5 5 5 5 3 5 5 5 5 5 5 5 5 3 5 3 5 5 3 5 5 5 5 5 3 5 5 5 5 5 5 5 5 5 5 5 5 3 5 5 5 5 5 5 5 5 5 3 5 5 5 5 5 5 3 5 5 5 5 5 5 5 3 5 5 5 5 5 3 5 5 5 5 5 5 5 5 5 5 5 5 5 5 5 5 5 5 5 5 5 5 5 5 5 5 5 5 5 5 5 5 5 5 5 5 5 5 5 5 5 5 5 5 5 5 5 3 5 3 5 5 5 5 5 5 5 5 5 5 5 5 5 5 3 5 5 5 5 5 5 5 5 5 5 5 5 5 5 5 3 5 5 3 5 3 5 5 5 5 5 3 5 5 5 5 5 5 5 5 5 5 5 5 5 5 5 5 5 5 5 5 3 5 5 5 5 5 5 5 5 5 5 5 3 5 3 5 5 3 5 3 5 5 5 5 5 5 5 3 5 3 5 5 5 5 3 5 5 5 5 3 3 5 5 3 5 5 5 5 5 5 5 5 5 5 5 5 5 5 5 5 3 5 5 5 5 5 5 5 5 5 5 5 5 5 5 3 5 3 5 5 5 5 5 5 5 3 5 3 5 5 5 5 5 5 5 5 5 3 3 5 5 5 3 5 5 5 5 3 5 3 5 5 3 5 3 3 3 5 5 3 5 5 5 3 3 3 5 5 5 5 5 5 5 5 5 5 5 3 5 5 5 5 5 5 3 5 5 5 3 5 5 5 5 5 5 5 5 3 5 5 5 3 5 5 5 5 5 5 5 5 5 5 5 5 5 5 5 5 5 5 5 5 5 5 5 5 5 5 5 5 5 5 5 5 5 5 5 5 5 5 5 5 5 5 5 5 5 5 5 5 5 5 5 5 5 5 5 5 5 5 5 5 3 5 5 5 5 5 3 5 5 5 5 3 5 5 5 3 5 5 5 5 5 5 5 5 5 5 5 5 5 5 5 5 5 5 5 5 5 5 5 5 5 5 5 5 5 5 5 5 5 5 5 5 5 5 5 5 3 5 5 3 5 5 5 5 5 5 5 3 5 5 5 5 5 5 5 5 5 5 5 3 5 5 3 5 3 5 5 5 3 5 5 5 5 5 5 5 5 3 5 5 5 5 3 5 5 5 5 3 5 3 5 5 5 5 5 5 5 5 5 5 5 5 3 5 3 5 5 5 5 5 5 5 5 5 5 5 5 5 3 5 5 5 5 5 5 5 5 5 3 5 5 5 3 5 5 5 5 5 5 5 5 5 5 5 5 5 5 5 5 5 5 5 5 5 5 5 5 5 5 5 5 5 5 5 5 5 5 5 3 5 5 3 5 5 5 5 3 5 5 5 5 5 5 5 5 5 5 5 5 5 5 5 3 5 5 5 5 5 5 5 5 5 3 5 3 5 5 5 5 5 5 5 3 5 5 5 5 5 5 5 5 5 5 5 5 5 5 3 5 5 5 5 5 5 5 5 5 5 5 3 5 5 5 5 5 5 5 5 5 5 5 5 5 5 5 5 5 5 5 5 5 5 5 3 5 3 5 5 5 5 5 5 3 5 3 5 5 5 3 5 5 5 3 5 5 5 3 5 5 3 5 5 5 5 5 5 5 3 5 5 5 5 5 5 5 3 5 5 5 5 5 5 5 5 5 5 5 5 5 3 5 5 5 5 5 5 5 5 3 5 5 5 5 5 5 5 5 5 5 5 5 5 5 5 5 5 5 5 5 3 5 5 5 5 5 5 5 5 5 5 5 5 5 5 5 5 5 5 5 5 5 5 5 5 5 5 5 5 5 5 5 5 5 5 5 5 5 5 5 5 5 5 5 5 5 5 5 5 5 5 3 5 3 5 5 5 3 5 5 3 3 5 3 5 5 5 5 5 5 5 5 5 5 5 5 5 5 5 5 5 5 5 5 5 5 5 5 5 5 5 5 5 5 5 5 5 5 5 3 5 5 5 5 3 5 5 3 5 5 5 3 5 5 5 5 3 5 3 3 5 5 5 5 3 5 5 5 3 5 5 5 3 5 5 5 5 5 5 3 5 5 5 5 5 5 5 5 5 5 5 5 5 5 5 5 5 5 5 5 3 5 5 5 5 5 5 5 5 5 5 5 5 5 5 5 5 5 5 3 5 5 3 5 5 3 5 5 5 5 5 5 5 5 5 5 5 3 5 5 5 5 3 5 5 5 5 3 5 5 5 3 5 5 5 5 5 5 5 5 5 5 5 5 5 5 5 5 5 5 5 5 5 5 5 5 5 3 5 5 5 5 5 5 5 5 3 5 5 5 3 5 5 5 5 5 5 5 5 5 5 5 5 5 5 5 5 5 5 5 5 5 5 5 5 3 5 5 5 3 5 5 5 5 5 5 5 5 3 5 5 3 5 5 5 5 3 5 5 5 5 5 5 5 3 5 3 5 5 3 5 5 3 3 5 5 5 5 5 5 5 5 5 5 5 5 5 5 5 5 5 5 5 5 5 3 5 5 5 5 3 5 5 5 5 5 5 5 5 5 5 5 5 5 3 5 5 3 5 5 5 5 5 5 5 5 5 5 5 5 5 5 5 5 5 5 5 5 5 5 5 5 5 5 5 5 5 5 5 5 5 5 5 5 5 5 5 5 5 5 5 5 5 5 5 5 5 5 5 5 5 5 5 5 5 5 5 5 5 5 5 5 5 5 5 5 5 5 5 5 5 5 5 5 5 5 5 5 5 5 5 5 5 5 5 5 5 5 5 5 5 5 5 5 5 5 5 5 5 5 5 5 5 5 5 5 5 5 5 5 5 5 5 5 5 5 5 5 5 5 5 5 5 5 5 5 3 5 5 5 5 5 5 5 3 5 5 5 5 5 5 5 5 5 3 5 3 5 5 5 3 5 5 3 5 5 5 5 5 5 5 5 5 5 5 5 5 5 5 5 5 5 5 5 5 5 5 5 5 5 5 5 5 5 5 5 5 5 5 5 5 3 5 5 3 3 5 5 3 5 5 3 5 5 5 3 5 5 5 5 5 5 5 5 5 3 5 5 5 5 5 5 3 5 5 5 5 5 5 5 5 5 5 5 5 5 5 5 5 5 5 5 5 5 5 5 5 5 5 5 5 5 5 5 3 5 5 5 5 5 5 5 5 5 5 5 5 5 5 5 5 5 5 5 5 5 5 5 5 5 5 5 5 5 5 5 5 5 5 5 5 5 5 5 5 5 5 5 5 5 5 3 5 3 5 5 5 5 3 5 5 5 5 3 5 5 5 5 3 5 5 5 5 5 5 5 5 3 5 5 3 5 3 5 5 5 5 3 5 5 3 3 5 5 5 5 5 5 3 5 5 5 5 5 5 5 5 5 5 3 3 5 5 5 5 5 3 5 5 3 5 5 5 5 3 5 5 3 5 5 5 5 5 5 5 5 5 5 5 5 5 5 5 5 5 5 5 5 5 5 5 5 5 5 5 5 5 3 5 3 5 5 5 5 5 5 5 5 5 5 5 5 5 3 5 5 5 5 3 3 5 5 5 5 5 5 5 5 5 5 5 5 5 5 5 5 5 5 5 5 5 5 5 5 5 5 5 5 5 5 5 5 5 5 5 5 5 5 5 5 5 5 3 5 5 5 3 5 5 5 5 5 5 5 5 5 5 5 5 5 5 5 5 5 5 5 5 3 5 5 3 5 5 5 5 5 5 5 5 5 3 5 5 5 5 5 3 5 5 5 5 5 3 5 3 5 5 5 5 5 5 5 5 5 5 5 5 5 3 5 5 5 3 3 5 5 5 5 5 5 5 5 3 5 5 3 5 5 3 3 5 5 5 5 5 3 5 5 5 5 5 5 5 3 5 5 3 3 5 5 5 5 5 5 3 3 5 5 5 3 5 5 5 5 5 5 5 3 5 5 5 5 5 5 5 5 5 5 5 5 5 5 5 5 5 5 5 5 5 5 5 5 5 5 3 5 5 5 5 5 5 5 3 5 5 5 5 5 5 5 5 5 5 5 3 5 5 5 5 5 5 5 5 3 5 5 5 5 5 5 5 5 5 5 5 5 5 5 5 5 3 5 5 5 3 5 5 5 5 5 3 5 5 5 5 5 5 5 5 5 5 5 5 5 5 3 5 5 5 5 3 5 5 3 5 5 5 5 5 3 5 5 5 5 5 5 5 5 5 5 5 5 5 5 3 5 3 5 5 5 3 5 3 5 3 5 5 5 5 5 5 3 3 5 5 5 5 5 5 3 5 3 5 5 5 5 5 5 5 5 5 5 5 5 5 5 5 5 5 3 5 5 5 3 3 5 5 5 5 5 3 5 5 3 3 5 5 5 5 5 5 5 5 5 5 5 5 5 5 5 5 5 5 5 5 5 5 5 5 5 5 5 5 5 5 5 5 5 5 5 5 5 5 5 5 5 5 5 5 3 5 5 3 3 3 5 5 5 5 5 5 3 5 5 5 5 5 5 5 5 5 3 5 5 5 3 5 5 5 5 5 5 5 5 5 5 5 5 5 5 5 5 5 5 5 5 3 5 5 5 5 3 5 5 5 5 5 5 5 5 5 5 5 5 5 5 5 5 5 5 5 5 5 5 5 5 5 5 5 5 5 5 5 5 5 5 3 5 3 5 5 5 5 5 5 5 5 3 5 5 5 3 5 3 5 5 5 5 5 5 5 5 3 5 5 5 5 3 5 5 5 5 3 5 5 5 5 5 5 5 3 5 5 5 5 3 5 5 5 5 5 5 5 5 5 5 5 5 5 5 5 5 5 5 5 5 5 5 5 5 5 5 5 5 5 5 5 5 5 5 5 5 5 5 5 5 5 5 5 5 5 5 3 5 5 5 5 3 3 5 5 3 3 5 5 5 5 5 5 5 5 5 5 5 5 5 5 5 5 5 5 5 3 5 5 5 3 3 5 5 5 5 5 5 5 5 5 5 5 5 5 5 5 5 5 5 5 5 5 5 5 5 5 5 5 3 5 5 5 5 5 5 5 3 5 5 5 5 5 5 5 5 5 5 5 5 5 5 5 3 5 5 5 5 5 5 5 5 3 5 3 3 5 5 5 5 5 5 5 5 5 5 5 5 3 5 5 5 5 5 5 5 5 5 5 5 5 5 5 5 5 5 5 3 5 5 5 3 5 5 5 5 5 5 5 5 3 5 5 5 5 5 5 5 5 5 5 5 5 5 5 5 3 5 5 5 3 5 5 5 5 5 5 5 5 5 5 5 5 5 5 5 5 5 5 5 5 5 5 5 5 5 5 5 5 5 5 5 5 5 3 5 3 5 5 5 5 5 5 5 5 3 5 5 5 5 5 5 5 5 5 3 5 5 3 5 5 5 5 5 3 5 5 5 5 3 5 5 5 5 3 5 5 5 3 5 3 5 5 3 5 5 5 5 5 5 5 5 5 5 5 5 5 5 3 5 5 3 5 3 5 5 5 3 5 5 3 5 5 5 5 3 5 3 5 5 5 5 5 5 3 5 3 5 5 5 5 5 3 5 5 5 5 3 5 5 5 5 5 5 3 5 5 5 5 5 5 5 5 5 5 5 5 5 5 5 5 5 5 5 5 5 5 5 5 5 5 5 5 5 5 5 5 5 3 3 5 5 5 5 5 5 5 5 5 5 3 5 5 3 3 5 3 5 5 5 5 5 5 5 3 5 5 5 5 5 5 5 5 5 5 5 5 3 5 5 5 5 3 5 5 5 5 5 5 5 5 5 5 5 5 3 5 5 5 5 5 5 5 5 5 5 5 5 5 5 5 5 5 3 5 5 5 5 5 3 5 5 5 3 5 5 5 5 5 5 3 5 3 5 5 5 3 5 5 5 5 5 5 5 5 5 3 5 5 3 5 5 5 5 5 5 5 3 5 5 5 5 5 5 5 5 5 5 5 5 5 3 5 5 3 5 5 5 5 5 5 3 5 5 5 5 5 5 3 5 5 5 5 5 5 5 3 5 5 5 5 5 5 5 5 5 5 5 5 5 5 5 5 5 5 5 5 5 5 3 5 5 5 5 5 5 5 5 5 5 3 5 5 5 5 3 3 5 5 5 5 3 5 5 5 5 5 5 5 5 5 3 5 5 5 5 5 5 5 5 5 5 5 3 5 5 5 3 5 5 5 3 5 5 5 5 5 5 5 5 5 5 5 5 3 5 5 5 5 5 3 5 5 3 5 5 5 5 5 5 5 5 5 5 5 5 5 5 3 5 5 5 5 5 5 5 3 5 5 5 3 5 5 5 5 5 3 5 5 5 5 5 5 5 5 5 3 5 5 5 5 5 5 5 5 3 5 5 5 5 5 3 5 5 5 5 5 5 5 3 5 5 5 5 5 5 5 5 5 5 5 5 5 5 5 5 5 5 5 5 5 5 5 5 5 5 5 5 5 5 5 5 5 5 5 5 5 5 5 5 5 5 5 5 5 5 5 5 3 5 5 5 5 5 5 5 3 5 5 5 5 5 5 5 5 5 5 5 5 5 5 5 5 5 5 5 5 5 5 3 3 5 5 3 3 5 5 5 5 5 5 5 3 5 5 5 5 5 5 5 5 5 5 5 5 5 5 3 5 5 5 5 5 5 5 5 3 5 5 3 5 5 5 3 5 5 5 5 5 5 5 5 5 5 5 5 5 5 5 5 5 5 5 5 5 5 5 5 5 5 5 5 3 5 5 5 5 5 5 5 5 3 5 5 5 5 5 5 3 3 5 5 5 5 3 5 5 3 5 5 3 5 5 5 5 5 5 3 5 5 5 5 5 5 5 5 3 5 5 5 5 5 5 5 5 5 5 5 3 5 5 3 5 5 5 5 5 5 5 3 5 5 5 3 5 3 5 3 5 5 5 5 5 5 5 5 5 5 5 5 5 5 5 5 5 3 5 3 5 5 5 5 5 5 5 5 5 5 3 5 5 5 5 5 5 5 3 5 5 5 3 5 3 3 5 5 3 5 5 5 5 3 5 5 5 3 5 5 5 3 5 3 3 5 5 5 5 5 5 3 5 5 5 5 5 5 5 5 3 3 3 5 3 5 5 3 3 5 5 3 5 5 5 5 5 5 5 5 5 5 5 3 5 5 5 5 5 5 5 5 5 5 5 5 5 3 3 5 5 5 5 3 5 5 5 3 5 5 5 5 5 3 3 5 5 5 3 5 5 5 5 5 5 5 5 5 5 5 5 5 5 5 3 5 5 5 3 5 5 5 3 5 5 5 5 5 5 3 5 5 5 5 5 3 5 5 5 5 5 5 5 5 3 5 5 5 5 5 5 5 5 5 3 5 5 5 5 3 5 3 5 5 3 5 3 5 5 5 5 5 5 3 5 3 3 5 5 5 5 5 5 5 5 3 5 3 5 3 5 3 5 5 5 5 5 5 5 5 5 5 5 3 5 5 5 3 5 5 5 5 5 5 5 5 3 5 5 5 5 5 5 5 5 5 3 5 5 5 5 3 5 5 3 5 5 5 5 5 5 5 5 5 3 5 5 5 3 5 5 5 5 5 5 5 5 5 5 5 5 5 5 5 5 5 5 5 3 5 5 5 5 5 5 5 5 5 5 3 5 5 5 5 5 5 5 5 5 5 5 5 5 5 5 5 5 5 5 5 5 5 5 5 5 5 5 5 5 5 5 5 5 5 5 5 5 5 5 5 5 5 5 5 5 3 3 5 5 5 5 5 5 5 5 5 5 5 5 5 3 3 5 5 5 3 5 5 3 5 5 5 3 5 5 5 3 5 5 5 5 5 5 5 5 3 5 5 3 5 3 3 5 5 5 5 5 5 3 5 3 3 3 5 5 3 5 5 3 3 5 5 5 5 5 5 5 5 5 5 5 5 5 5 5 5 5 5 5 5 5 3 5 5 5 5 5 5 5 5 5 3 5 5 5 5 5 5 5 3 3 5 5 5 5 5 5 5 5 5 5 5 5 5 5 5 5 5 5 5 5 5 5 5 3 5 3 5 5 5 5 5 5 5 3 5 5 5 3 3 5 5 3 5 5 5 5 3 5 5 5 3 5 5 5 3 5 5 5 5 5 5 5 5 5 3 3 5 5 5 5 5 3 5 5 3 3 3 5 5 5 5 5 3 5 5 5 5 5 5 5 5 5 3 5 3 5 5 5 5 5 5 5 5 5 5 5 5 5 5 5 5 5 5 5 5 5 5 5 5 3 5 5 5 5 3 3 5 5 5 3 5 5 5 5 5 5 5 5 5 5 5 5 5 5 5 5 3 5 5 5 3 5 5 3 5 5 5 5 5 5 5 5 5 5 5 5 5 3 5 5 3 5 5 5 3 5 3 5 3 5 3 3 3 5 5 5 5 5 5 5 5 3 5 5 5 5 5 5 5 5 3 5 5 3 5 5 5 5 5 5 5 5 5 5 5 5 5 5 5 5 5 5 5 5 5 3 5 5 5 5 5 5 5 5 5 5 3 5 3 5 5 3 5 3 5 3 5 5 3 5 3 5 5 3 5 5 5 3 5 5 5 5 5 5 5 5 5 5 5 5 5 5 5 5 5 5 5 5 5 5 5 5 5 5 5 5 5 5 5 5 5 5 5 5 5 5 5 5 5 5 5 5 5 5 5 5 5 5 5 5 5 5 5 5 5 5 5 5 5 3 5 5 3 5 5 5 5 5 5 3 3 5 5 5 5 5 5 5 5 5 5 5 5 5 5 5 5 5 5 3 5 5 5 3 5 5 5 5 5 5 5 5 5 5 5 5 5 5 5 5 3 5 5 5 5 5 5 5 3 5 5 5 5 5 5 5 5 3 5 3 5 5 5 5 5 5 5 5 5 5 5 5 5 5 5 5 3 5 5 5 5 5 5 5 3 5 5 5 5 3 5 5 5 5 5 5 5 3 5 5 3 3 5 5 3 5 5 5 5 5 5 3 5 5 5 5 5 5 5 5 5 3 5 5 3 5 5 3 5 5 3 5 5 5 5 5 3 5 5 5 5 5 5 5 5 3 5 5 5 5 5 5 5 3 5 5 5 5 5 5 5 5 5 5 5 5 3 5 5 5 5 5 5 5 3 3 5 3 5 3 5 5 5 5 5 5 5 5 5 5 5 5 5 5 5 3 5 3 5 5 5 5 5 5 5 5 3 5 3 5 3 5 3 5 3 5 5 3 5 5 5 5 5 3 5 5 5 5 5 5 5 5 3 5 5 5 5 5 3 5 5 3 5 3 3 5 5 5 5 5 5 5 5 3 5 5 5 5 5 5 5 5 5 5 5 5 5 3 5 5 5 5 5 5 5 3 5 5 5 3 5 5 5 5 5 5 5 5 5 5 5 5 5 5 5 5 5 3 5 5 5 5 5 5 5 3 5 5 3 5 5 5 5 5 5 5 5 5 5 5 5 5 5 5 3 5 5 5 5 3 5 5 5 5 5 5 5 5 5 5 5 5 5 5 5 5 5 5 5 5 5 5 5 5 5 3 5 5 5 5 5 5 3 5 5 5 5 5 5 5 5 5 3 3 5 5 5 3 5 3 5 5 5 5 5 5 5 5 5 5 5 5 5 5 5 3 5 5 5 5 5 5 5 5 5 5 5 5 3 3 5 5 5 5 5 5 5 5 3 5 5 3 5 5 3 3 5 5 5 5 5 5 5 3 5 5 5 5 5 5 5 5 5 3 5 5 5 3 5 5 5 5 5 3 5 5 5 5 5 5 5 5 5 5 5 5 3 5 5 5 3 5 5 5 3 5 5 5 5 5 5 5 5 5 5 5 5 5 5 5 5 5 5 5 5 5 5 5 5 5 5 5 5 5 5 5 5 3 5 5 5 5 5 5 5 5 5 5 5 5 5 5 5 5 5 5 5 5 5 5 5 5 3 5 3 5 5 3 5 5 5 5 5 5 5 5 5 3 5 5 5 5 5 5 5 5 5 5 5 5 5 5 3 5 5 5 5 3 5 5 5 3 5 5 5 5 5 5 5 5 5 5 5 5 5 5 5 5 5 5 5 5 5 5 5 5 5 5 5 5 5 5 5 5 5 5 5 5 5 5 5 5 5 5 5 5 5 5 5 5 5 5 5 5 5 5 5 5 5 5 5 5 5 5 5 5 5 5 5 5 5 5 5 5 5 5 5 5 5 5 5 5 5 5 5 5 5 5 5 5 5 5 5 5 5 5 5 5 5 5 5 5 5 5 5 5 5 5 5 5 5 5 5 5 5 5 5 5 5 5 5 5 5 5 5 5 5 5 5 5 5 5 5 5 5 5 5 5 5 5 5 5 5 5 5 5 5 5 5 5 5 5 5 5 5 5 5 5 5 5 5 5 5 5 5 5 5 5 5 5 5 5 5 5 5 5 5 5 5 5 5 5 5 5 5 5 5 5 5 5 5 3 5 5 5 5 5 5 5 5 5 5 5 5 5 5 5 5 3 5 5 5 5 5 5 5 5 3 5 5 5 5 3 5 5 5 5 5 5 5 5 5 5 5 5 5 5 5 5 5 5 5 5 5 5 3 5 5 5 5 5 5 5 5 5 5 5 5 5 3 3 5 5 5 5 5 3 5 3 5 5 5 5 5 5 5 5 5 5 5 3 5 5 5 5 5 5 5 3 5 5 5 5 5 5 5 5 5 5 5 5 5 5 5 3 3 5 5 5 5 5 5 5 5 5 5 5 5 3 5 5 5 5 5 5 5 5 5 5 5 5 5 5 5 5 3 5 5 5 5 5 5 5 3 5 5 5 5 5 5 5 5 5 5 3 3 5 5 5 5 5 5 5 5 5 5 5 5 5 5 5 5 5 5 5 5 5 5 5 5 5 5 5 5 5 5 3 5 5 5 5 5 3 5 5 5 5 5 5 5 5 5 5 3 5 5 5 5 3 5 5 5 5 5 5 5 5 5 5 3 5 3 5 5 5 5 5 5 5 5 5 5 5 5 5 5 5 5 5 5 5 5 5 5 5 5 5 5 5 5 5 5 5 3 5 5 5 5 5 3 5 5 5 5 5 5 5 5 5 5 5 5 5 5 5 5 5 5 3 5 5 3 5 5 5 3 5 5 5 5 5 3 5 5 5 5 5 5 5 5 5 5 3 5 5 5 5 5 5 3 5 5 5 5 5 3 3 5 5 3 5 5 3 5 5 5 5 5 5 5 5 5 5 3 5 5 3 5 5 3 5 5 3 5 5 3 5 5 3 5 5 5 5 5 5 3 5 5 5 5 5 5 5 5 5 5 5 3 5 5 5 5 5 5 5 3 5 5 5 5 3 5 5 5 3 5 5 5 5 5 5 5 5 5 5 5 3 5 5 5 5 5 5 5 5 5 5 5 5 5 5 5 5 5 5 5 5 5 5 5 5 3 5 5 5 5 5 3 5 5 5 5 5 5 5 5 5 5 5 5 5 5 3 5 5 3 5 3 5 5 5 5 3 5 3 3 5 3 5 5 5 5 5 5 5 3 5 3 5 5 5 5 5 5 3 5 5 5 5 5 5 3 5 5 5 5 3 5 5 5 5 5 3 5 5 3 5 5 5 5 3 5 5 5 5 3 5 5 5 5 5 5 3 5 5 5 5 5 5 5 5 5 3 5 5 5 5 5 5 3 5 5 5 5 3 5 5 5 5 5 5 5 5 5 5 5 5 5 5 5 5 3 5 5 5 3 5 5 3 5 5 5 5 5 5 5 5 5 5 5 5 5 5 5 5 3 5 3 5 5 5 5 5 5 5 5 5 5 5 5 5 5 5 5 5 5 5 5 5 5 5 5 5 5 3 5 5 3 5 5 5 5 5 5 5 5 5 5 3 5 5 5 5 3 5 5 5 5 3 5 5 5 5 5 5 5 5 5 3 5 5 5 5 5 5 5 5 5 5 5 5 5 5 5 5 5 5 5 5 5 5 5 5 5 5 5 5 
</DataArray>
</Cells>
<PointData Scalars="" Vectors="displacement," Tensors="">
<DataArray type="Float64" Name="displacement" NumberOfComponents="3" format="ascii">
-0.074993829287944722 -5.736899228835698e-07 0 -0.073102555587802501 -0.00038082771766518198 0 -0.074994978206587681 -1.5886380233861224e-06 0 -0.074993829287944722 -5.736899228835698e-07 0 -0.071717617761951805 -0.00025240203235039985 0 -0.073102555587802501 -0.00038082771766518198 0 -0.074993829287944722 -5.736899228835698e-07 0 -0.071717617761951805 -0.00025240203235039985 0 -0.067294736924363441 -5.562640290540311e-07 0 -0.071717617761951805 -0.00025240203235039985 0 -0.067294736924363441 -5.562640290540311e-07 0 -0.070380857999412086 0.00017632683298845101 0 -0.067294736924363441 -5.562640290540311e-07 0 -0.070380857999412086 0.00017632683298845101 0 -0.06687599617011955 -0.00014444644182408983 0 -0.07108806687508111 0.00046945526025408708 0 -0.071458433893724763 0.00047103923869103994 0 -0.070380857999412086 0.00017632683298845101 0 -0.06908321369581584 0.00074739990614077054 0 -0.068964899595297266 0.00024036078184497159 0 -0.070380857999412086 0.00017632683298845101 0 -0.068964899595297266 0.00024036078184497159 0 -0.069081481700135713 2.3176008209181175e-05 0 -0.071717617761951805 -0.00025240203235039985 0 -0.070380857999412086 0.00017632683298845101 0 -0.073102555587802501 -0.00038082771766518198 0 -0.070380857999412086 0.00017632683298845101 0 -0.073102555587802501 -0.00038082771766518198 0 -0.073807261556173606 0.00058090094960048177 0 -0.073102555587802501 -0.00038082771766518198 0 -0.074752990706561995 -6.1241485923971774e-05 0 -0.073807261556173606 0.00058090094960048177 0 -0.073102555587802501 -0.00038082771766518198 0 -0.074994978206587681 -1.5886380233861224e-06 0 -0.074752990706561995 -6.1241485923971774e-05 0 -0.074999997447711478 2.1402355140149971e-10 0 -0.074996830535367237 -9.0240270710354523e-07 0 -0.074999996123934792 -1.1576110501145013e-09 0 -0.074997691436379396 9.0846913956804923e-07 0 -0.073858072240316833 0.00028993898519816421 0 -0.074999996123934792 -1.1576110501145013e-09 0 -0.074996258048118353 -1.64535943306582e-06 0 -0.074998413422395521 -2.6854808317731746e-06 0 -0.074999996123934792 -1.1576110501145013e-09 0 -0.074999993609868185 -4.0632418876735753e-09 0 -0.074998413422395521 -2.6854808317731746e-06 0 -0.074996830535367237 -9.0240270710354523e-07 0 -0.074999996123934792 -1.1576110501145013e-09 0 -0.074996258048118353 -1.64535943306582e-06 0 -0.074996830535367237 -9.0240270710354523e-07 0 -0.074996258048118353 -1.64535943306582e-06 0 -0.074992176028857077 -1.2924883192318695e-06 0 -0.073858072240316833 0.00028993898519816421 0 -0.072098663898304757 0.00034434913473993376 0 -0.074996258048118353 -1.64535943306582e-06 0 -0.074995366122847101 -1.7749248936132594e-06 0 -0.074992176028857077 -1.2924883192318695e-06 0 -0.074996258048118353 -1.64535943306582e-06 0 -0.074995366122847101 -1.7749248936132594e-06 0 -0.074998413422395521 -2.6854808317731746e-06 0 -0.073230210185226519 0.00014354463563473035 0 -0.072098663898304757 0.00034434913473993376 0 -0.071755116838409155 0.0003133220631991229 0 -0.071362515839852855 0.00077654630111682389 0 -0.070803892861661832 0.00054968566193459173 0 -0.071755116838409155 0.0003133220631991229 0 -0.071362515839852855 0.00077654630111682389 0 -0.071862473985090297 0.00088851748411372243 0 -0.071362515839852855 0.00077654630111682389 0 -0.070803892861661832 0.00054968566193459173 0 -0.071259358956070371 0.0013479617088826914 0 -0.068408331975054693 0.00087627035016286188 0 -0.068149811129888507 0.0004504143176401001 0 -0.068658494269860981 0.00052847478246239189 0 -0.072098663898304757 0.00034434913473993376 0 -0.070245549581358424 0.00081173768498793181 0 -0.068149811129888507 0.0004504143176401001 0 -0.068658494269860981 0.00052847478246239189 0 -0.068514081175982511 0.00026693808313456692 0 -0.071259358956070371 0.0013479617088826914 0 -0.071862473985090297 0.00088851748411372243 0 -0.072014011561968225 0.0013844868541256082 0 -0.071362515839852855 0.00077654630111682389 0 -0.071259358956070371 0.0013479617088826914 0 -0.071862473985090297 0.00088851748411372243 0 -0.068408331975054693 0.00087627035016286188 0 -0.06908321369581584 0.00074739990614077054 0 -0.068658494269860981 0.00052847478246239189 0 -0.072098663898304757 0.00034434913473993376 0 -0.071458433893724763 0.00047103923869103994 0 -0.074752990706561995 -6.1241485923971774e-05 0 -0.075015648835113524 0.00051792746112701217 0 -0.073807261556173606 0.00058090094960048177 0 -0.068658494269860981 0.00052847478246239189 0 -0.068964899595297266 0.00024036078184497159 0 -0.068762321737504864 0.00028979682600776998 0 -0.068658494269860981 0.00052847478246239189 0 -0.068762321737504864 0.00028979682600776998 0 -0.068514081175982511 0.00026693808313456692 0 -0.06908321369581584 0.00074739990614077054 0 -0.068658494269860981 0.00052847478246239189 0 -0.068964899595297266 0.00024036078184497159 0 -0.068964899595297266 0.00024036078184497159 0 -0.068963379670938157 0.00014473703238696221 0 -0.069081481700135713 2.3176008209181175e-05 0 -0.068963379670938157 0.00014473703238696221 0 -0.068976061016540122 0.00023938486801544607 0 -0.069081481700135713 2.3176008209181175e-05 0 -0.068963379670938157 0.00014473703238696221 0 -0.06890848829508231 0.0001551349142834635 0 -0.068929171777927623 0.00018097354501334109 0 -0.068963379670938157 0.00014473703238696221 0 -0.068878973240894689 0.00018571606928557854 0 -0.06890848829508231 0.0001551349142834635 0 -0.068964899595297266 0.00024036078184497159 0 -0.068963379670938157 0.00014473703238696221 0 -0.068878973240894689 0.00018571606928557854 0 -0.068964899595297266 0.00024036078184497159 0 -0.068762321737504864 0.00028979682600776998 0 -0.068878973240894689 0.00018571606928557854 0 -0.068762321737504864 0.00028979682600776998 0 -0.068878973240894689 0.00018571606928557854 0 -0.068775053099334765 0.00015802778575611611 0 -0.068762321737504864 0.00028979682600776998 0 -0.068775053099334765 0.00015802778575611611 0 -0.068514081175982511 0.00026693808313456692 0 -0.068775053099334765 0.00015802778575611611 0 -0.068514081175982511 0.00026693808313456692 0 -0.068512280079815011 2.0939018232881222e-05 0 -0.061919263062956607 0.0017499439153107886 0 -0.061694764749522013 0.001871949554827628 0 -0.068775053099334765 0.00015802778575611611 0 -0.068858058861171245 0.00012889411280768846 0 -0.068789895901067794 1.1618284800935789e-05 0 -0.068775053099334765 0.00015802778575611611 0 -0.068718128936105335 -0.00010013850400878064 0 -0.068512280079815011 2.0939018232881222e-05 0 -0.061908731772022454 0.0019435456758924552 0 -0.061694764749522013 0.001871949554827628 0 -0.068858058861171245 0.00012889411280768846 0 -0.068929171777927623 0.00018097354501334109 0 -0.068946749300270657 0.00019103884308036855 0 -0.068878973240894689 0.00018571606928557854 0 -0.06890848829508231 0.0001551349142834635 0 -0.068858058861171245 0.00012889411280768846 0 -0.068878973240894689 0.00018571606928557854 0 -0.068775053099334765 0.00015802778575611611 0 -0.068858058861171245 0.00012889411280768846 0 -0.06890848829508231 0.0001551349142834635 0 -0.068858058861171245 0.00012889411280768846 0 -0.068929171777927623 0.00018097354501334109 0 -0.068929171777927623 0.00018097354501334109 0 -0.068946749300270657 0.00019103884308036855 0 -0.068945317133906239 0.00025114948474217044 0 -0.061694764749522013 0.001871949554827628 0 -0.060041432695791382 0.0014711300447187254 0 -0.068946749300270657 0.00019103884308036855 0 -0.068945317133906239 0.00025114948474217044 0 -0.068972844839968364 0.00031903229451348621 0 -0.068945317133906239 0.00025114948474217044 0 -0.068976061016540122 0.00023938486801544607 0 -0.06891711427491945 0.00033859160521454657 0 -0.068976061016540122 0.00023938486801544607 0 -0.06891711427491945 0.00033859160521454657 0 -0.068929430906437231 0.00038606140701583243 0 -0.068929171777927623 0.00018097354501334109 0 -0.068945317133906239 0.00025114948474217044 0 -0.068976061016540122 0.00023938486801544607 0 -0.068963379670938157 0.00014473703238696221 0 -0.068929171777927623 0.00018097354501334109 0 -0.068976061016540122 0.00023938486801544607 0 -0.068149811129888507 0.0004504143176401001 0 -0.067826787129622396 -1.6848547693184661e-05 0 -0.068237861039111308 5.1918899464985973e-05 0 -0.071259358956070371 0.0013479617088826914 0 -0.071709891629302483 0.0021160636751789406 0 -0.072014011561968225 0.0013844868541256082 0 -0.070245549581358424 0.00081173768498793181 0 -0.068805971602253338 0.0015673245699027419 0 -0.067826787129622396 -1.6848547693184661e-05 0 -0.068237861039111308 5.1918899464985973e-05 0 -0.068069707607961868 -0.00018521339594864823 0 -0.068149811129888507 0.0004504143176401001 0 -0.068237861039111308 5.1918899464985973e-05 0 -0.068514081175982511 0.00026693808313456692 0 -0.068237861039111308 5.1918899464985973e-05 0 -0.068514081175982511 0.00026693808313456692 0 -0.068512280079815011 2.0939018232881222e-05 0 -0.068718128936105335 -0.00010013850400878064 0 -0.068343170197090852 -0.00027403102240589218 0 -0.068362451809878072 -0.00069017274523850705 0 -0.061694764749522013 0.001871949554827628 0 -0.060296289733065819 0.0020801341192226226 0 -0.068237861039111308 5.1918899464985973e-05 0 -0.068512280079815011 2.0939018232881222e-05 0 -0.068343170197090852 -0.00027403102240589218 0 -0.068718128936105335 -0.00010013850400878064 0 -0.068512280079815011 2.0939018232881222e-05 0 -0.068343170197090852 -0.00027403102240589218 0 -0.068237861039111308 5.1918899464985973e-05 0 -0.068343170197090852 -0.00027403102240589218 0 -0.068069707607961868 -0.00018521339594864823 0 -0.068343170197090852 -0.00027403102240589218 0 -0.068069707607961868 -0.00018521339594864823 0 -0.067872320890061261 -0.00050503823397522317 0 -0.067826787129622396 -1.6848547693184661e-05 0 -0.067872320890061261 -0.00050503823397522317 0 -0.067523756385102052 -0.00050983454256345784 0 -0.067826787129622396 -1.6848547693184661e-05 0 -0.068069707607961868 -0.00018521339594864823 0 -0.067872320890061261 -0.00050503823397522317 0 -0.067872320890061261 -0.00050503823397522317 0 -0.067967394496917494 -0.00086179227928907148 0 -0.068362451809878072 -0.00069017274523850705 0 -0.067872320890061261 -0.00050503823397522317 0 -0.067967394496917494 -0.00086179227928907148 0 -0.067645401590216439 -0.00090597066779130671 0 -0.068343170197090852 -0.00027403102240589218 0 -0.067872320890061261 -0.00050503823397522317 0 -0.068362451809878072 -0.00069017274523850705 0 -0.060296289733065819 0.0020801341192226226 0 -0.0565610924496655 0.0023985145000070675 0 -0.058845341442297035 0.001849116787966191 0 -0.059041384885387974 0.0011171734305183256 0 -0.05842662675371018 0.0011269287949840598 0 -0.058845341442297035 0.001849116787966191 0 -0.059041384885387974 0.0011171734305183256 0 -0.059153189195875262 0.0018443119394798066 0 -0.056572104678888332 0.00091601605069232801 0 -0.0565610924496655 0.0023985145000070675 0 -0.06798410868448107 -0.0013517914098881718 0 -0.067645401590216439 -0.00090597066779130671 0 -0.067462055088897785 -0.0013538779494733613 0 -0.067967394496917494 -0.00086179227928907148 0 -0.06798410868448107 -0.0013517914098881718 0 -0.067645401590216439 -0.00090597066779130671 0 -0.0565610924496655 0.0023985145000070675 0 -0.059909405057978295 0.0022101337335045956 0 -0.067967394496917494 -0.00086179227928907148 0 -0.068362451809878072 -0.00069017274523850705 0 -0.06798410868448107 -0.0013517914098881718 0 -0.059267929200612572 0.0025702127456367994 0 -0.058845341442297035 0.001849116787966191 0 -0.059153189195875262 0.0018443119394798066 0 -0.068945317133906239 0.00025114948474217044 0 -0.06891711427491945 0.00033859160521454657 0 -0.068972844839968364 0.00031903229451348621 0 -0.068952431688707572 0.0003891146277109296 0 -0.06891711427491945 0.00033859160521454657 0 -0.068972844839968364 0.00031903229451348621 0 -0.056572104678888332 0.00091601605069232801 0 -0.060041432695791382 0.0014711300447187254 0 -0.068952431688707572 0.0003891146277109296 0 -0.06891711427491945 0.00033859160521454657 0 -0.068889580492226626 0.00039394551219638051 0 -0.06891711427491945 0.00033859160521454657 0 -0.068889290307783332 0.00036490889133291811 0 -0.068889580492226626 0.00039394551219638051 0 -0.068889290307783332 0.00036490889133291811 0 -0.06882416086678203 0.0004064320787867501 0 -0.068889580492226626 0.00039394551219638051 0 -0.06891711427491945 0.00033859160521454657 0 -0.068889290307783332 0.00036490889133291811 0 -0.068929430906437231 0.00038606140701583243 0 -0.068889290307783332 0.00036490889133291811 0 -0.068878902016527507 0.00036488506472505812 0 -0.068929430906437231 0.00038606140701583243 0 -0.067894963999463986 0.0013293768289986466 0 -0.063648713274888885 0.0015740993369014269 0 -0.066571371901896478 0.00045713062076646111 0 -0.050930665047561101 0.0035509545790547172 0 -0.051384069848797842 0.0018272362029689581 0 -0.05340935279511707 0.002247833172193799 0 -0.060652829551887666 -0.0012044967156424659 0 -0.058719479516981914 -9.3218838247907895e-05 0 -0.060652829551887666 -0.0012044967156424659 0 -0.060672830547053892 -0.0011971495966932467 0 -0.060652829551887666 -0.0012044967156424659 0 -0.059015352665091919 0.00037741079872884522 0 -0.068889290307783332 0.00036490889133291811 0 -0.068878902016527507 0.00036488506472505812 0 -0.068848900272855479 0.0003755955064371053 0 -0.068889290307783332 0.00036490889133291811 0 -0.068848900272855479 0.0003755955064371053 0 -0.06882416086678203 0.0004064320787867501 0 -0.059015352665091919 0.00037741079872884522 0 -0.057234710070866307 0.0015532052211818393 0 -0.051384069848797842 0.0018272362029689581 0 -0.052556774981874922 0.0011932137413258731 0 -0.051842814515924637 5.9226355043590317e-05 0 -0.052556774981874922 0.0011932137413258731 0 -0.05340935279511707 0.002247833172193799 0 -0.053228475179130014 1.6413200961698444e-05 0 -0.05340935279511707 0.002247833172193799 0 -0.054709459274056446 -0.00027162418892045202 0 -0.053228475179130014 1.6413200961698444e-05 0 -0.052556774981874922 0.0011932137413258731 0 -0.053228475179130014 1.6413200961698444e-05 0 -0.051842814515924637 5.9226355043590317e-05 0 -0.051384069848797842 0.0018272362029689581 0 -0.052556774981874922 0.0011932137413258731 0 -0.05340935279511707 0.002247833172193799 0 -0.057144777028361175 4.1041789168397129e-07 0 -0.058719479516981914 -9.3218838247907895e-05 0 -0.057135743158876429 3.8406990230576727e-06 0 -0.05340935279511707 0.002247833172193799 0 -0.054709459274056446 -0.00027162418892045202 0 -0.05714943629723248 6.0618948887721311e-06 0 -0.063648713274888885 0.0015740993369014269 0 -0.061497295692010512 -1.0840025090679649e-06 0 -0.063648713274888885 0.0015740993369014269 0 -0.066571371901896478 0.00045713062076646111 0 -0.061497295692010512 -1.0840025090679649e-06 0 -0.066571371901896478 0.00045713062076646111 0 -0.061497295692010512 -1.0840025090679649e-06 0 -0.06687599617011955 -0.00014444644182408983 0 -0.067294736924363441 -5.562640290540311e-07 0 -0.061497295692010512 -1.0840025090679649e-06 0 -0.06687599617011955 -0.00014444644182408983 0 -0.066571371901896478 0.00045713062076646111 0 -0.06687599617011955 -0.00014444644182408983 0 -0.068432572147718473 5.4071988151359049e-05 0 -0.070380857999412086 0.00017632683298845101 0 -0.06687599617011955 -0.00014444644182408983 0 -0.068432572147718473 5.4071988151359049e-05 0 -0.070380857999412086 0.00017632683298845101 0 -0.068432572147718473 5.4071988151359049e-05 0 -0.069081481700135713 2.3176008209181175e-05 0 -0.068432572147718473 5.4071988151359049e-05 0 -0.069081481700135713 2.3176008209181175e-05 0 -0.068446353269055016 0.00030390344983944776 0 -0.069081481700135713 2.3176008209181175e-05 0 -0.068929430906437231 0.00038606140701583243 0 -0.068446353269055016 0.00030390344983944776 0 -0.068976061016540122 0.00023938486801544607 0 -0.069081481700135713 2.3176008209181175e-05 0 -0.068929430906437231 0.00038606140701583243 0 -0.06798215379382859 0.0012656070358390264 0 -0.068929430906437231 0.00038606140701583243 0 -0.068024253432909979 0.0010462271235423264 0 -0.068929430906437231 0.00038606140701583243 0 -0.068024253432909979 0.0010462271235423264 0 -0.068446353269055016 0.00030390344983944776 0 -0.060652829551887666 -0.0012044967156424659 0 -0.062654263202498298 -0.0016972896094037122 0 -0.066571371901896478 0.00045713062076646111 0 -0.068024253432909979 0.0010462271235423264 0 -0.068446353269055016 0.00030390344983944776 0 -0.067894963999463986 0.0013293768289986466 0 -0.066571371901896478 0.00045713062076646111 0 -0.068024253432909979 0.0010462271235423264 0 -0.066571371901896478 0.00045713062076646111 0 -0.068432572147718473 5.4071988151359049e-05 0 -0.068446353269055016 0.00030390344983944776 0 -0.069184239415624404 0.00079814780592571031 0 -0.065972775758723332 0.0028154432252920532 0 -0.074518368014721573 -0.00072523528052469567 0 -0.074621469159794368 -0.0031492863444966723 0 -0.073326801338406591 -0.0011898670546618424 0 -0.074860366391427444 0.0002225517862403878 0 -0.074905590050265258 0.00017083172204275399 0 -0.07491637706225461 0.00028937261603217333 0 -0.074860366391427444 0.0002225517862403878 0 -0.074847440152102651 0.00032211389493728071 0 -0.07491637706225461 0.00028937261603217333 0 -0.074860366391427444 0.0002225517862403878 0 -0.074795551668343396 0.00031571651255068344 0 -0.074847440152102651 0.00032211389493728071 0 -0.074860366391427444 0.0002225517862403878 0 -0.074869319100814735 0.00012291820698376492 0 -0.074880846298131021 0.00011438744348370252 0 -0.074860366391427444 0.0002225517862403878 0 -0.074869319100814735 0.00012291820698376492 0 -0.074905590050265258 0.00017083172204275399 0 -0.069184239415624404 0.00079814780592571031 0 -0.070150490017271694 0.00057855017984004547 0 -0.074869319100814735 0.00012291820698376492 0 -0.074905590050265258 0.00017083172204275399 0 -0.074768850468462544 0.00012068157487241761 0 -0.074518368014721573 -0.00072523528052469567 0 -0.074768850468462544 0.00012068157487241761 0 -0.073473646632083736 0.00010438093937421726 0 -0.074768850468462544 0.00012068157487241761 0 -0.074999783841728354 2.436624577019395e-07 0 -0.074911429996126072 7.6346980705392889e-05 0 -0.074768850468462544 0.00012068157487241761 0 -0.074999783841728354 2.436624577019395e-07 0 -0.07441070258181022 0.00014658538794200577 0 -0.074999783841728354 2.436624577019395e-07 0 -0.074911429996126072 7.6346980705392889e-05 0 -0.074999852490840208 -8.2439419957484858e-09 0 -0.074869319100814735 0.00012291820698376492 0 -0.074768850468462544 0.00012068157487241761 0 -0.074911429996126072 7.6346980705392889e-05 0 -0.074869319100814735 0.00012291820698376492 0 -0.074911429996126072 7.6346980705392889e-05 0 -0.074880846298131021 0.00011438744348370252 0 -0.074880846298131021 0.00011438744348370252 0 -0.074922838172371581 2.2125643564601722e-05 0 -0.074851952004387934 8.6204760438307609e-05 0 -0.074911429996126072 7.6346980705392889e-05 0 -0.074880846298131021 0.00011438744348370252 0 -0.074922838172371581 2.2125643564601722e-05 0 -0.074999852490840208 -8.2439419957484858e-09 0 -0.074922838172371581 2.2125643564601722e-05 0 -0.074999843795925974 2.0648287690641237e-08 0 -0.074911429996126072 7.6346980705392889e-05 0 -0.074999852490840208 -8.2439419957484858e-09 0 -0.074922838172371581 2.2125643564601722e-05 0 -0.074922838172371581 2.2125643564601722e-05 0 -0.074999843795925974 2.0648287690641237e-08 0 -0.074887370195735617 -2.0024830889654883e-05 0 -0.074887370195735617 -2.0024830889654883e-05 0 -0.074851952004387934 8.6204760438307609e-05 0 -0.07467065782920787 7.2283111430469912e-05 0 -0.074922838172371581 2.2125643564601722e-05 0 -0.074887370195735617 -2.0024830889654883e-05 0 -0.074851952004387934 8.6204760438307609e-05 0 -0.074851952004387934 8.6204760438307609e-05 0 -0.074723961259149846 0.00019872145971243011 0 -0.07467065782920787 7.2283111430469912e-05 0 -0.074723961259149846 0.00019872145971243011 0 -0.074713406611266173 0.00030470073263736222 0 -0.074611091921971059 0.00029699374520853161 0 -0.074723961259149846 0.00019872145971243011 0 -0.074820385782862139 0.00020582045551020153 0 -0.074713406611266173 0.00030470073263736222 0 -0.074851952004387934 8.6204760438307609e-05 0 -0.074723961259149846 0.00019872145971243011 0 -0.074820385782862139 0.00020582045551020153 0 -0.074860366391427444 0.0002225517862403878 0 -0.074880846298131021 0.00011438744348370252 0 -0.074820385782862139 0.00020582045551020153 0 -0.074880846298131021 0.00011438744348370252 0 -0.074851952004387934 8.6204760438307609e-05 0 -0.074820385782862139 0.00020582045551020153 0 -0.074860366391427444 0.0002225517862403878 0 -0.074820385782862139 0.00020582045551020153 0 -0.074795551668343396 0.00031571651255068344 0 -0.074820385782862139 0.00020582045551020153 0 -0.074795551668343396 0.00031571651255068344 0 -0.074713406611266173 0.00030470073263736222 0 -0.074795551668343396 0.00031571651255068344 0 -0.074713406611266173 0.00030470073263736222 0 -0.074689660217662768 0.00040828481952072843 0 -0.074713406611266173 0.00030470073263736222 0 -0.074566476816832664 0.00039169827160746628 0 -0.074689660217662768 0.00040828481952072843 0 -0.074713406611266173 0.00030470073263736222 0 -0.074611091921971059 0.00029699374520853161 0 -0.074566476816832664 0.00039169827160746628 0 -0.070217712501694909 0.0024294229306073235 0 -0.070704076138958669 0.0021425095330782264 0 -0.074476276326238641 0.00046483442744375022 0 -0.074337491773779546 0.00047433823534925168 0 -0.074423913668153624 0.00029692520005310068 0 -0.074611091921971059 0.00029699374520853161 0 -0.074566476816832664 0.00039169827160746628 0 -0.074423913668153624 0.00029692520005310068 0 -0.073966322342063656 0.0018728937040576432 0 -0.073802566273784065 0.0012732095947404778 0 -0.074355974893642665 0.00017401949058115581 0 -0.070162671475770044 0.0022056691681696149 0 -0.071267700498545514 0.0021699498229815605 0 -0.073966322342063656 0.0018728937040576432 0 -0.073802566273784065 0.0012732095947404778 0 -0.073189799516882342 0.0012092678452548583 0 -0.073802566273784065 0.0012732095947404778 0 -0.074355974893642665 0.00017401949058115581 0 -0.073952388644965533 0.00045027431362352143 0 -0.070162671475770044 0.0022056691681696149 0 -0.071624558997249357 0.00058391946658546765 0 -0.074337491773779546 0.00047433823534925168 0 -0.074355974893642665 0.00017401949058115581 0 -0.074423913668153624 0.00029692520005310068 0 -0.073802566273784065 0.0012732095947404778 0 -0.073705970762242043 0.00075387782189528026 0 -0.073400940186649055 0.00084667423940552693 0 -0.073802566273784065 0.0012732095947404778 0 -0.073705970762242043 0.00075387782189528026 0 -0.073952388644965533 0.00045027431362352143 0 -0.073705970762242043 0.00075387782189528026 0 -0.073587095681851844 0.00041908856716767006 0 -0.073400940186649055 0.00084667423940552693 0 -0.073705970762242043 0.00075387782189528026 0 -0.073587095681851844 0.00041908856716767006 0 -0.073952388644965533 0.00045027431362352143 0 -0.074355974893642665 0.00017401949058115581 0 -0.074568493829296728 0.00021733325956524292 0 -0.07467065782920787 7.2283111430469912e-05 0 -0.074355974893642665 0.00017401949058115581 0 -0.074423913668153624 0.00029692520005310068 0 -0.074568493829296728 0.00021733325956524292 0 -0.074723961259149846 0.00019872145971243011 0 -0.074611091921971059 0.00029699374520853161 0 -0.074568493829296728 0.00021733325956524292 0 -0.074611091921971059 0.00029699374520853161 0 -0.074423913668153624 0.00029692520005310068 0 -0.074568493829296728 0.00021733325956524292 0 -0.074723961259149846 0.00019872145971243011 0 -0.074568493829296728 0.00021733325956524292 0 -0.07467065782920787 7.2283111430469912e-05 0 -0.074887370195735617 -2.0024830889654883e-05 0 -0.07467065782920787 7.2283111430469912e-05 0 -0.074323868990850153 -0.00018937274442423576 0 -0.074586457966833497 -7.7675731991183939e-05 0 -0.074407139031701083 -5.7572847262129335e-05 0 -0.074887370195735617 -2.0024830889654883e-05 0 -0.07497163405056298 -4.5034889075008902e-06 0 -0.075000972546741221 -2.3885417053600665e-05 0 -0.074355974893642665 0.00017401949058115581 0 -0.07467065782920787 7.2283111430469912e-05 0 -0.074323868990850153 -0.00018937274442423576 0 -0.074999843795925974 2.0648287690641237e-08 0 -0.075000027752367707 -7.856435273908964e-09 0 -0.074992969330208395 -2.6211015640274781e-06 0 -0.074999843795925974 2.0648287690641237e-08 0 -0.07497163405056298 -4.5034889075008902e-06 0 -0.074992969330208395 -2.6211015640274781e-06 0 -0.074999843795925974 2.0648287690641237e-08 0 -0.074887370195735617 -2.0024830889654883e-05 0 -0.07497163405056298 -4.5034889075008902e-06 0 -0.07497163405056298 -4.5034889075008902e-06 0 -0.074992969330208395 -2.6211015640274781e-06 0 -0.075000972546741221 -2.3885417053600665e-05 0 -0.074992969330208395 -2.6211015640274781e-06 0 -0.075000972546741221 -2.3885417053600665e-05 0 -0.075001571557945124 -5.7691771531718132e-06 0 -0.075000027752367707 -7.856435273908964e-09 0 -0.074992969330208395 -2.6211015640274781e-06 0 -0.075001571557945124 -5.7691771531718132e-06 0 -0.074407139031701083 -5.7572847262129335e-05 0 -0.073911375750045055 2.2106994117637529e-05 0 -0.075000972546741221 -2.3885417053600665e-05 0 -0.074999788095881273 -5.689766829451084e-06 0 -0.075001571557945124 -5.7691771531718132e-06 0 -0.073587095681851844 0.00041908856716767006 0 -0.074323868990850153 -0.00018937274442423576 0 -0.07295631707025689 -9.0039256687194798e-06 0 -0.074355974893642665 0.00017401949058115581 0 -0.073952388644965533 0.00045027431362352143 0 -0.074323868990850153 -0.00018937274442423576 0 -0.073587095681851844 0.00041908856716767006 0 -0.073952388644965533 0.00045027431362352143 0 -0.074323868990850153 -0.00018937274442423576 0 -0.074999788095881273 -5.689766829451084e-06 0 -0.075001571557945124 -5.7691771531718132e-06 0 -0.074998413422395521 -2.6854808317731746e-06 0 -0.075000027752367707 -7.856435273908964e-09 0 -0.075001571557945124 -5.7691771531718132e-06 0 -0.074999993609868185 -4.0632418876735753e-09 0 -0.075001571557945124 -5.7691771531718132e-06 0 -0.074999993609868185 -4.0632418876735753e-09 0 -0.074998413422395521 -2.6854808317731746e-06 0 -0.074995366122847101 -1.7749248936132594e-06 0 -0.074999788095881273 -5.689766829451084e-06 0 -0.074998413422395521 -2.6854808317731746e-06 0 -0.073230210185226519 0.00014354463563473035 0 -0.073911375750045055 2.2106994117637529e-05 0 -0.071755116838409155 0.0003133220631991229 0 -0.071862473985090297 0.00088851748411372243 0 -0.072420857129117652 0.00054654282085556929 0 -0.071755116838409155 0.0003133220631991229 0 -0.07295631707025689 -9.0039256687194798e-06 0 -0.072420857129117652 0.00054654282085556929 0 -0.071862473985090297 0.00088851748411372243 0 -0.072420857129117652 0.00054654282085556929 0 -0.072342386127756383 0.00098729862868290538 0 -0.07295631707025689 -9.0039256687194798e-06 0 -0.072420857129117652 0.00054654282085556929 0 -0.073076532220956406 0.00061007360623166603 0 -0.073587095681851844 0.00041908856716767006 0 -0.07295631707025689 -9.0039256687194798e-06 0 -0.073076532220956406 0.00061007360623166603 0 -0.073587095681851844 0.00041908856716767006 0 -0.073076532220956406 0.00061007360623166603 0 -0.073400940186649055 0.00084667423940552693 0 -0.073076532220956406 0.00061007360623166603 0 -0.073400940186649055 0.00084667423940552693 0 -0.073189799516882342 0.0012092678452548583 0 -0.072420857129117652 0.00054654282085556929 0 -0.072867947227523183 0.0010393900046129217 0 -0.072342386127756383 0.00098729862868290538 0 -0.072420857129117652 0.00054654282085556929 0 -0.073076532220956406 0.00061007360623166603 0 -0.073189799516882342 0.0012092678452548583 0 -0.071439806618121118 0.0020153344699591863 0 -0.071267700498545514 0.0021699498229815605 0 -0.072867947227523183 0.0010393900046129217 0 -0.072541524936769311 0.0012506122830632284 0 -0.072342386127756383 0.00098729862868290538 0 -0.073802566273784065 0.0012732095947404778 0 -0.073400940186649055 0.00084667423940552693 0 -0.073189799516882342 0.0012092678452548583 0 -0.072867947227523183 0.0010393900046129217 0 -0.072920208998707492 0.0012878746394903375 0 -0.072541524936769311 0.0012506122830632284 0 -0.073328869280126413 0.0014615273913762595 0 -0.072867947227523183 0.0010393900046129217 0 -0.072920208998707492 0.0012878746394903375 0 -0.072920208998707492 0.0012878746394903375 0 -0.072673870331322304 0.0015121432797714032 0 -0.072789099444193942 0.0017972809646389948 0 -0.072920208998707492 0.0012878746394903375 0 -0.072673870331322304 0.0015121432797714032 0 -0.072541524936769311 0.0012506122830632284 0 -0.072673870331322304 0.0015121432797714032 0 -0.072541524936769311 0.0012506122830632284 0 -0.072329488047971416 0.0017427628380934823 0 -0.072541524936769311 0.0012506122830632284 0 -0.072014011561968225 0.0013844868541256082 0 -0.072329488047971416 0.0017427628380934823 0 -0.071862473985090297 0.00088851748411372243 0 -0.072014011561968225 0.0013844868541256082 0 -0.072342386127756383 0.00098729862868290538 0 -0.072541524936769311 0.0012506122830632284 0 -0.072014011561968225 0.0013844868541256082 0 -0.072342386127756383 0.00098729862868290538 0 -0.071709891629302483 0.0021160636751789406 0 -0.072014011561968225 0.0013844868541256082 0 -0.072329488047971416 0.0017427628380934823 0 -0.071709891629302483 0.0021160636751789406 0 -0.072329488047971416 0.0017427628380934823 0 -0.072264331914728683 0.0022824026696958103 0 -0.072329488047971416 0.0017427628380934823 0 -0.072619987822607007 0.0021486178762787785 0 -0.072264331914728683 0.0022824026696958103 0 -0.072920208998707492 0.0012878746394903375 0 -0.072789099444193942 0.0017972809646389948 0 -0.073227035035261595 0.0020577740685463505 0 -0.072673870331322304 0.0015121432797714032 0 -0.072329488047971416 0.0017427628380934823 0 -0.072789099444193942 0.0017972809646389948 0 -0.072789099444193942 0.0017972809646389948 0 -0.072936158750051688 0.0021262309397441165 0 -0.072619987822607007 0.0021486178762787785 0 -0.072789099444193942 0.0017972809646389948 0 -0.072936158750051688 0.0021262309397441165 0 -0.073227035035261595 0.0020577740685463505 0 -0.072329488047971416 0.0017427628380934823 0 -0.072789099444193942 0.0017972809646389948 0 -0.072619987822607007 0.0021486178762787785 0 -0.072619987822607007 0.0021486178762787785 0 -0.072557460901338994 0.0025199346103925054 0 -0.072264331914728683 0.0022824026696958103 0 -0.072557460901338994 0.0025199346103925054 0 -0.072128080583313561 0.0028546244074140674 0 -0.073013015386328844 0.0028732475114137904 0 -0.072619987822607007 0.0021486178762787785 0 -0.072876403432073758 0.002341927505328504 0 -0.072557460901338994 0.0025199346103925054 0 -0.072936158750051688 0.0021262309397441165 0 -0.072619987822607007 0.0021486178762787785 0 -0.072876403432073758 0.002341927505328504 0 -0.072936158750051688 0.0021262309397441165 0 -0.072876403432073758 0.002341927505328504 0 -0.073171939115917586 0.0022875447957911793 0 -0.068486174327086313 0.0030726147477187255 0 -0.068057636995846632 0.0031503089030645477 0 -0.072876403432073758 0.002341927505328504 0 -0.072557460901338994 0.0025199346103925054 0 -0.073013015386328844 0.0028732475114137904 0 -0.072876403432073758 0.002341927505328504 0 -0.073013015386328844 0.0028732475114137904 0 -0.073149120097525569 0.0022916828023526038 0 -0.071709891629302483 0.0021160636751789406 0 -0.072264331914728683 0.0022824026696958103 0 -0.072128080583313561 0.0028546244074140674 0 -0.068805971602253338 0.0015673245699027419 0 -0.066960206256082469 0.0025511514463351114 0 -0.072557460901338994 0.0025199346103925054 0 -0.072264331914728683 0.0022824026696958103 0 -0.072128080583313561 0.0028546244074140674 0 -0.067143825760494782 0.0023291348059272889 0 -0.066960206256082469 0.0025511514463351114 0 -0.067872320890061261 -0.00050503823397522317 0 -0.067423509166097559 -0.00050006582563385388 0 -0.067645401590216439 -0.00090597066779130671 0 -0.066960206256082469 0.0025511514463351114 0 -0.064163029325430151 0.0022673723236063151 0 -0.067423509166097559 -0.00050006582563385388 0 -0.067645401590216439 -0.00090597066779130671 0 -0.067173373113374096 -0.00092096813967111244 0 -0.067645401590216439 -0.00090597066779130671 0 -0.067173373113374096 -0.00092096813967111244 0 -0.067462055088897785 -0.0013538779494733613 0 -0.059909405057978295 0.0022101337335045956 0 -0.061220791121814458 0.0025799843498193952 0 -0.067173373113374096 -0.00092096813967111244 0 -0.067462055088897785 -0.0013538779494733613 0 -0.066921892655436355 -0.0013455596710459619 0 -0.064176723685370557 0.0026676879674486925 0 -0.064040916162567796 0.0024740781478628958 0 -0.063960098934582155 0.0028524737413168017 0 -0.062851974439418493 0.0037651672271278606 0 -0.062972352743980206 0.0032744278396482046 0 -0.063085096748882755 0.0035395723174517836 0 -0.061187440447864741 0.0027331278321447074 0 -0.06599709741660488 0.0028877580490096915 0 -0.061071660793260707 0.0027286079616094306 0 -0.060443711469024483 0.0027372869234325165 0 -0.061107673640689426 0.0025744071866574555 0 -0.061187440447864741 0.0027331278321447074 0 -0.060437265237077653 0.0036340452186379691 0 -0.060862538998389955 0.0025541539774056122 0 -0.060596770350910947 0.0025580219923308349 0 -0.060783723154899105 0.0028923166218760578 0 -0.061187440447864741 0.0027331278321447074 0 -0.061220791121814458 0.0025799843498193952 0 -0.064176723685370557 0.0026676879674486925 0 -0.064040916162567796 0.0024740781478628958 0 -0.06406347197787525 0.0024737429324139804 0 -0.064163029325430151 0.0022673723236063151 0 -0.061220791121814458 0.0025799843498193952 0 -0.066960206256082469 0.0025511514463351114 0 -0.06599709741660488 0.0028877580490096915 0 -0.064289380593939072 0.0028618223925984047 0 -0.064176723685370557 0.0026676879674486925 0 -0.063960098934582155 0.0028524737413168017 0 -0.06599709741660488 0.0028877580490096915 0 -0.065045243933120223 0.0037294165414190283 0 -0.063230279114590962 0.0032825150776610908 0 -0.063085096748882755 0.0035395723174517836 0 -0.063367217191828737 0.0036128937651574117 0 -0.062972352743980206 0.0032744278396482046 0 -0.063230279114590962 0.0032825150776610908 0 -0.063085096748882755 0.0035395723174517836 0 -0.060437265237077653 0.0036340452186379691 0 -0.060374091548576495 0.0058441983731424172 0 -0.063085096748882755 0.0035395723174517836 0 -0.063002892684211553 0.0037633258711706266 0 -0.063367217191828737 0.0036128937651574117 0 -0.060437265237077653 0.0036340452186379691 0 -0.061778175277586507 0.0049215406732274298 0 -0.062851974439418493 0.0037651672271278606 0 -0.063085096748882755 0.0035395723174517836 0 -0.063002892684211553 0.0037633258711706266 0 -0.060941017821833275 0.0050330633715848817 0 -0.060750077217936363 0.0050381522060897292 0 -0.060778341904116573 0.0051030765721044903 0 -0.06151407420967913 0.0066312299246606551 0 -0.061611144912838992 0.0068559907258081932 0 -0.061032877237199218 0.0068514117969422812 0 -0.060374091548576495 0.0058441983731424172 0 -0.061778175277586507 0.0049215406732274298 0 -0.063684915320004074 0.0044805130717350894 0 -0.063652852668184989 0.0044118773977572974 0 -0.063575429910642689 0.0044788041284899213 0 -0.065045243933120223 0.0037294165414190283 0 -0.061778175277586507 0.0049215406732274298 0 -0.065045243933120223 0.0037294165414190283 0 -0.064702958896710253 0.004951481767368285 0 -0.066514013389857685 0.0038892054509501836 0 -0.066413604310316843 0.0039760412719740922 0 -0.06625910979048992 0.0038838009097342291 0 -0.066413604310316843 0.0039760412719740922 0 -0.066579132979790831 0.0040355004470541038 0 -0.066398386280680871 0.0040693554964559417 0 -0.067833065927762504 0.0032675468311790701 0 -0.068512701547439187 0.0033978424842953788 0 -0.066413604310316843 0.0039760412719740922 0 -0.066398386280680871 0.0040693554964559417 0 -0.066317294935335599 0.0040025955636229021 0 -0.066409243797950643 0.0035872969840070545 0 -0.066664808090575442 0.003017889561418451 0 -0.066537923456973624 0.0030414247416472415 0 -0.066409243797950643 0.0035872969840070545 0 -0.066911474666565121 0.0036011766082584729 0 -0.066664808090575442 0.003017889561418451 0 -0.065045243933120223 0.0037294165414190283 0 -0.067833065927762504 0.0032675468311790701 0 -0.066514013389857685 0.0038892054509501836 0 -0.066413604310316843 0.0039760412719740922 0 -0.066579132979790831 0.0040355004470541038 0 -0.06599709741660488 0.0028877580490096915 0 -0.068057636995846632 0.0031503089030645477 0 -0.068057636995846632 0.0031503089030645477 0 -0.068517408601837304 0.0030423640055372986 0 -0.067833065927762504 0.0032675468311790701 0 -0.068517408601837304 0.0030423640055372986 0 -0.068717204231231677 0.0035810285554003529 0 -0.068350841547126243 0.0036492174478048121 0 -0.068490456501062766 0.0030501345339517113 0 -0.067833065927762504 0.0032675468311790701 0 -0.068057636995846632 0.0031503089030645477 0 -0.073328869280126413 0.0014615273913762595 0 -0.072920208998707492 0.0012878746394903375 0 -0.073196463199664955 0.0019870888678476068 0 -0.069268329699579481 0.0030300390299577806 0 -0.069348831263359487 0.0026785082025153578 0 -0.068810076489829078 0.0026450193826842222 0 -0.069295284621609762 0.0025547543848567387 0 -0.069348831263359487 0.0026785082025153578 0 -0.068810076489829078 0.0026450193826842222 0 -0.069299582975933791 0.0029119160212624363 0 -0.068517408601837304 0.0030423640055372986 0 -0.072936158750051688 0.0021262309397441165 0 -0.073171939115917586 0.0022875447957911793 0 -0.073227035035261595 0.0020577740685463505 0 -0.070162671475770044 0.0022056691681696149 0 -0.068517408601837304 0.0030423640055372986 0 -0.070162671475770044 0.0022056691681696149 0 -0.068512701547439187 0.0033978424842953788 0 -0.070217712501694909 0.0024294229306073235 0 -0.068582871720485356 0.0032820358275999048 0 -0.074476276326238641 0.00046483442744375022 0 -0.074337491773779546 0.00047433823534925168 0 -0.074484405057750586 0.0006110589654292585 0 -0.074476276326238641 0.00046483442744375022 0 -0.074484405057750586 0.0006110589654292585 0 -0.074522642113111076 0.00060424665815991645 0 -0.068512701547439187 0.0033978424842953788 0 -0.068582871720485356 0.0032820358275999048 0 -0.068582871720485356 0.0032820358275999048 0 -0.068124021888049904 0.0030139670820197068 0 -0.074566476816832664 0.00039169827160746628 0 -0.074624569850963954 0.00051360127821341469 0 -0.074689660217662768 0.00040828481952072843 0 -0.066739003048623236 0.0036270345514420712 0 -0.066806036020776005 0.003613911066709588 0 -0.066753488801569241 0.0036618996093396011 0 -0.074624569850963954 0.00051360127821341469 0 -0.074689660217662768 0.00040828481952072843 0 -0.074780734115604902 0.00048545787428604147 0 -0.074795551668343396 0.00031571651255068344 0 -0.074689660217662768 0.00040828481952072843 0 -0.074780734115604902 0.00048545787428604147 0 -0.068124021888049904 0.0030139670820197068 0 -0.068147175322520237 0.002778047621296703 0 -0.064822121425383405 0.0053973349915775667 0 -0.064496730579545525 0.0050904458278998397 0 -0.064220879170855436 0.0055077773772357237 0 -0.068703224166454427 0.0021806341127528026 0 -0.068124021888049904 0.0030139670820197068 0 -0.074795551668343396 0.00031571651255068344 0 -0.074782939059194808 0.0003535509585003345 0 -0.074847440152102651 0.00032211389493728071 0 -0.064822121425383405 0.0053973349915775667 0 -0.064496730579545525 0.0050904458278998397 0 -0.064878887172209257 0.0047699691718968828 0 -0.068124021888049904 0.0030139670820197068 0 -0.065501047329873274 0.0043810828082279955 0 -0.064496730579545525 0.0050904458278998397 0 -0.064529694114311753 0.0047924534101669736 0 -0.064878887172209257 0.0047699691718968828 0 -0.065881188581356789 0.0046834387393924074 0 -0.065524103881998724 0.0039269983232623901 0 -0.065267369805179248 0.0041689282262284064 0 -0.066806036020776005 0.003613911066709588 0 -0.066753488801569241 0.0036618996093396011 0 -0.066794926687149453 0.0036998333176749992 0 -0.067056339869353873 0.0038487922172150539 0 -0.065501047329873274 0.0043810828082279955 0 -0.066413604310316843 0.0039760412719740922 0 -0.066317294935335599 0.0040025955636229021 0 -0.06625910979048992 0.0038838009097342291 0 -0.067056339869353873 0.0038487922172150539 0 -0.064702958896710253 0.004951481767368285 0 -0.068512701547439187 0.0033978424842953788 0 -0.067056339869353873 0.0038487922172150539 0 -0.068582871720485356 0.0032820358275999048 0 -0.067056339869353873 0.0038487922172150539 0 -0.067819915634224862 0.00409885145811775 0 -0.067656397155837211 0.0041291351521045745 0 -0.067525606586090928 0.003851060744839375 0 -0.063652852668184989 0.0044118773977572974 0 -0.063575429910642689 0.0044788041284899213 0 -0.063561671098710554 0.0044510281127095293 0 -0.065524103881998724 0.0039269983232623901 0 -0.06529036959704819 0.0039207993530647823 0 -0.065267369805179248 0.0041689282262284064 0 -0.064702958896710253 0.004951481767368285 0 -0.064514086849189967 0.0052137967538225492 0 -0.063950285235791465 0.00510450375824106 0 -0.063961862785144888 0.005131409382395067 0 -0.063964939225070086 0.0051049850502627413 0 -0.064702958896710253 0.004951481767368285 0 -0.063634091892282529 0.0056022947840964066 0 -0.063634091892282529 0.0056022947840964066 0 -0.064514086849189967 0.0052137967538225492 0 -0.060374091548576495 0.0058441983731424172 0 -0.060537467008178254 0.0089214176500869054 0 -0.061778175277586507 0.0049215406732274298 0 -0.063634091892282529 0.0056022947840964066 0 -0.061611144912838992 0.0068559907258081932 0 -0.060927640984482709 0.0071390687862092359 0 -0.061032877237199218 0.0068514117969422812 0 -0.06151407420967913 0.0066312299246606551 0 -0.061032877237199218 0.0068514117969422812 0 -0.060972990692805255 0.006641942957929259 0 -0.060927640984482709 0.0071390687862092359 0 -0.061032877237199218 0.0068514117969422812 0 -0.060964862847244942 0.0067146394667648105 0 -0.063634091892282529 0.0056022947840964066 0 -0.060740512058441255 0.0087837060081183624 0 -0.060718985505497154 0.0087092077950608835 0 -0.060740512058441255 0.0087837060081183624 0 -0.061032877237199218 0.0068514117969422812 0 -0.060966200224374184 0.0067145278245700638 0 -0.060972990692805255 0.006641942957929259 0 -0.060477842405047395 0.009687820250356265 0 -0.060553424036070745 0.0088966981359200024 0 -0.060099457248427648 0.0089033299818649606 0 -0.060740512058441255 0.0087837060081183624 0 -0.060532674250955446 0.0091682437697114781 0 -0.060740512058441255 0.0087837060081183624 0 -0.060537467008178254 0.0089214176500869054 0 -0.060537467008178254 0.0089214176500869054 0 -0.060532674250955446 0.0091682437697114781 0 -0.061260822770886847 0.0083325657655792945 0 -0.060941673124191437 0.0086258459002693279 0 -0.060741783820244977 0.008589244699252362 0 -0.060532674250955446 0.0091682437697114781 0 -0.058743260893673793 0.012403089974447591 0 -0.061260822770886847 0.0083325657655792945 0 -0.060741783820244977 0.008589244699252362 0 -0.060555790362101666 0.0083477866785610002 0 -0.06129991619448838 0.0084127445657042107 0 -0.061260822770886847 0.0083325657655792945 0 -0.061112261942170593 0.0085802800853648931 0 -0.061260822770886847 0.0083325657655792945 0 -0.061112261942170593 0.0085802800853648931 0 -0.060941673124191437 0.0086258459002693279 0 -0.061260618975199778 0.00888161836212264 0 -0.06129991619448838 0.0084127445657042107 0 -0.061112261942170593 0.0085802800853648931 0 -0.063634091892282529 0.0056022947840964066 0 -0.063610735180872013 0.0059339281069107092 0 -0.061252784673780883 0.0088830838441651874 0 -0.061112261942170593 0.0085802800853648931 0 -0.061013530348819588 0.0088140509993194054 0 -0.061112261942170593 0.0085802800853648931 0 -0.060941673124191437 0.0086258459002693279 0 -0.061013530348819588 0.0088140509993194054 0 -0.060941673124191437 0.0086258459002693279 0 -0.06083359612420066 0.0087647121567342671 0 -0.061013530348819588 0.0088140509993194054 0 -0.06083359612420066 0.0087647121567342671 0 -0.060656676518440755 0.0088838939098233091 0 -0.060741783820244977 0.008589244699252362 0 -0.060941673124191437 0.0086258459002693279 0 -0.06083359612420066 0.0087647121567342671 0 -0.060741783820244977 0.008589244699252362 0 -0.060876165150880249 0.008932105993463722 0 -0.061230947074559547 0.0091070596242057399 0 -0.06064817633273941 0.0090904258338816279 0 -0.06083359612420066 0.0087647121567342671 0 -0.060876165150880249 0.008932105993463722 0 -0.060656676518440755 0.0088838939098233091 0 -0.064514086849189967 0.0052137967538225492 0 -0.062142218996520698 0.0068929552835411204 0 -0.064892413695743695 0.0046367681014806818 0 -0.064772558480003378 0.0046816508251105778 0 -0.064323558105211578 0.0046229687446766544 0 -0.06083359612420066 0.0087647121567342671 0 -0.060876165150880249 0.008932105993463722 0 -0.061013530348819588 0.0088140509993194054 0 -0.060876165150880249 0.008932105993463722 0 -0.061013530348819588 0.0088140509993194054 0 -0.061230947074559547 0.0091070596242057399 0 -0.061252784673780883 0.0088830838441651874 0 -0.061013530348819588 0.0088140509993194054 0 -0.061230947074559547 0.0091070596242057399 0 -0.064529694114311753 0.0047924534101669736 0 -0.064772558480003378 0.0046816508251105778 0 -0.064878887172209257 0.0047699691718968828 0 -0.064892413695743695 0.0046367681014806818 0 -0.064772558480003378 0.0046816508251105778 0 -0.064880655037783522 0.0047725536359622791 0 -0.064514086849189967 0.0052137967538225492 0 -0.065501047329873274 0.0043810828082279955 0 -0.065489363443083523 0.004378869069964578 0 -0.065501047329873274 0.0043810828082279955 0 -0.064529694114311753 0.0047924534101669736 0 -0.064772558480003378 0.0046816508251105778 0 -0.064323558105211578 0.0046229687446766544 0 -0.060656676518440755 0.0088838939098233091 0 -0.060438030134969636 0.0084038724435366481 0 -0.060105841072001821 0.0090704867823411632 0 -0.06064817633273941 0.0090904258338816279 0 -0.060656676518440755 0.0088838939098233091 0 -0.060105841072001821 0.0090704867823411632 0 -0.062142218996520698 0.0068929552835411204 0 -0.059295696936382189 0.0085725948079609111 0 -0.064323558105211578 0.0046229687446766544 0 -0.063755636088267689 0.0046104162737074161 0 -0.064100273359856352 0.0049884659817128934 0 -0.060876165150880249 0.008932105993463722 0 -0.06064817633273941 0.0090904258338816279 0 -0.060656676518440755 0.0088838939098233091 0 -0.060656676518440755 0.0088838939098233091 0 -0.060438030134969636 0.0084038724435366481 0 -0.06055862843846456 0.0084031369950793005 0 -0.058802981497087133 0.011163914912776012 0 -0.058743260893673793 0.012403089974447591 0 -0.060656676518440755 0.0088838939098233091 0 -0.060741783820244977 0.008589244699252362 0 -0.060555790362101666 0.0083477866785610002 0 -0.058368800782676061 0.012870115299133572 0 -0.058743260893673793 0.012403089974447591 0 -0.048232972278646306 0.017164247121613293 0 -0.051249048325534834 0.015217595987450589 0 -0.050927899997400522 0.011647149583345713 0 -0.058368800782676061 0.012870115299133572 0 -0.056866234321470976 0.015083770431589472 0 -0.058368800782676061 0.012870115299133572 0 -0.059295696936382189 0.0085725948079609111 0 -0.048232972278646306 0.017164247121613293 0 -0.051249048325534834 0.015217595987450589 0 -0.054369796965320918 0.017112525593910216 0 -0.051249048325534834 0.015217595987450589 0 -0.053041831174793552 0.013250454986461655 0 -0.054369796965320918 0.017112525593910216 0 -0.051249048325534834 0.015217595987450589 0 -0.053041831174793552 0.013250454986461655 0 -0.050927899997400522 0.011647149583345713 0 -0.050383335286743464 0.01126961100148738 0 -0.052583499999573555 0.010616896176081796 0 -0.056023808387083124 0.011323058254952308 0 -0.059295696936382189 0.0085725948079609111 0 -0.057498256117066153 0.0094106374856348929 0 -0.053041831174793552 0.013250454986461655 0 -0.050927899997400522 0.011647149583345713 0 -0.055225008100070583 0.011638039913908039 0 -0.050383335286743464 0.01126961100148738 0 -0.052583499999573555 0.010616896176081796 0 -0.05233091217882558 0.0072749259025522289 0 -0.059295696936382189 0.0085725948079609111 0 -0.060719305034410899 0.006222481368439203 0 -0.063755636088267689 0.0046104162737074161 0 -0.063565452983945336 0.0050023349696189838 0 -0.064100273359856352 0.0049884659817128934 0 -0.063565452983945336 0.0050023349696189838 0 -0.064100273359856352 0.0049884659817128934 0 -0.063876880197820118 0.0052785453373292157 0 -0.052092100163434421 0.0074257836228988766 0 -0.052541995080322736 0.0064496695780941263 0 -0.051323147310487489 0.00057537355375361784 0 -0.052583499999573555 0.010616896176081796 0 -0.052168343037318862 0.0073538694412156229 0 -0.05387039164408676 0.0089114312345623947 0 -0.060353179533839424 0.0066913004926470237 0 -0.060719305034410899 0.006222481368439203 0 -0.052168343037318862 0.0073538694412156229 0 -0.052541995080322736 0.0064496695780941263 0 -0.054218086015139083 0.0066192771690400786 0 -0.060719305034410899 0.006222481368439203 0 -0.060661462841392004 0.0062706653447809381 0 -0.064496730579545525 0.0050904458278998397 0 -0.064100273359856352 0.0049884659817128934 0 -0.064220879170855436 0.0055077773772357237 0 -0.064529694114311753 0.0047924534101669736 0 -0.064323558105211578 0.0046229687446766544 0 -0.064100273359856352 0.0049884659817128934 0 -0.064496730579545525 0.0050904458278998397 0 -0.064529694114311753 0.0047924534101669736 0 -0.064100273359856352 0.0049884659817128934 0 -0.064100273359856352 0.0049884659817128934 0 -0.064220879170855436 0.0055077773772357237 0 -0.063876880197820118 0.0052785453373292157 0 -0.064220879170855436 0.0055077773772357237 0 -0.063876880197820118 0.0052785453373292157 0 -0.063621810648452334 0.0056152494384295228 0 -0.060719305034410899 0.006222481368439203 0 -0.065972775758723332 0.0028154432252920532 0 -0.068147175322520237 0.002778047621296703 0 -0.065972775758723332 0.0028154432252920532 0 -0.063565452983945336 0.0050023349696189838 0 -0.063876880197820118 0.0052785453373292157 0 -0.063621810648452334 0.0056152494384295228 0 -0.052541995080322736 0.0064496695780941263 0 -0.051323147310487489 0.00057537355375361784 0 -0.053355621413331764 0.0042860605929328196 0 -0.057703075566418877 0.019412653075831083 0 -0.057185186134034706 0.020096608585373495 0 -0.058391476542334418 0.018659782464014455 0 -0.057703075566418877 0.019412653075831083 0 -0.057243687707225765 0.019892536135569822 0 -0.057249861133971097 0.019315474360058069 0 -0.057703075566418877 0.019412653075831083 0 -0.057760822977140087 0.018994110607958772 0 -0.057249861133971097 0.019315474360058069 0 -0.057760822977140087 0.018994110607958772 0 -0.057664604717030686 0.018389041000948566 0 -0.057249861133971097 0.019315474360058069 0 -0.057703075566418877 0.019412653075831083 0 -0.057760822977140087 0.018994110607958772 0 -0.058391476542334418 0.018659782464014455 0 -0.060144072335750608 0.02136329597572004 0 -0.061130649674205492 0.019854984197678446 0 -0.06012267040522834 0.018917804183539843 0 -0.058649024777245304 0.018674182729163269 0 -0.058519805183323219 0.018762413626973028 0 -0.05896226891069753 0.019723834304961319 0 -0.058391476542334418 0.018659782464014455 0 -0.058545162258483864 0.018250747061209917 0 -0.060144072335750608 0.02136329597572004 0 -0.06012267040522834 0.018917804183539843 0 -0.058545162258483864 0.018250747061209917 0 -0.058873105577462559 0.019726916980104866 0 -0.05896226891069753 0.019723834304961319 0 -0.058391476542334418 0.018659782464014455 0 -0.060289702723929403 0.014527789655024399 0 -0.060527334988312864 0.017043637031840923 0 -0.058873105577462559 0.019726916980104866 0 -0.058632598500173501 0.020114259185044052 0 -0.058391476542334418 0.018659782464014455 0 -0.058949550148680238 0.019715500171866455 0 -0.058632598500173501 0.020114259185044052 0 -0.059199897869263871 0.020377866066384261 0 -0.060289702723929403 0.014527789655024399 0 -0.059969183993439583 0.013885838679596786 0 -0.058873105577462559 0.019726916980104866 0 -0.058949550148680238 0.019715500171866455 0 -0.058632598500173501 0.020114259185044052 0 -0.0602769594680716 0.014537964313494684 0 -0.060289702723929403 0.014527789655024399 0 -0.057185186134034706 0.020096608585373495 0 -0.057306662963235819 0.019901494961034067 0 -0.057152069166014806 0.019992447935163499 0 -0.057703075566418877 0.019412653075831083 0 -0.057185186134034706 0.020096608585373495 0 -0.057306662963235819 0.019901494961034067 0 -0.057703075566418877 0.019412653075831083 0 -0.057306662963235819 0.019901494961034067 0 -0.057243687707225765 0.019892536135569822 0 -0.057306662963235819 0.019901494961034067 0 -0.057243687707225765 0.019892536135569822 0 -0.057152069166014806 0.019992447935163499 0 -0.057243687707225765 0.019892536135569822 0 -0.057152069166014806 0.019992447935163499 0 -0.057093955244746961 0.020160421116833391 0 -0.057185186134034706 0.020096608585373495 0 -0.057152069166014806 0.019992447935163499 0 -0.056908598764527328 0.019653405165557972 0 -0.057152069166014806 0.019992447935163499 0 -0.057027494513531361 0.019655953645334751 0 -0.057093955244746961 0.020160421116833391 0 -0.057152069166014806 0.019992447935163499 0 -0.056908598764527328 0.019653405165557972 0 -0.057027494513531361 0.019655953645334751 0 -0.056518756668363028 0.019067097557487745 0 -0.056780016950321997 0.019253773478790429 0 -0.057047329456995775 0.018633947357652714 0 -0.057027494513531361 0.019655953645334751 0 -0.056780016950321997 0.019253773478790429 0 -0.057047329456995775 0.018633947357652714 0 -0.056908598764527328 0.019653405165557972 0 -0.057027494513531361 0.019655953645334751 0 -0.056780016950321997 0.019253773478790429 0 -0.058674638914243474 0.01396538411814454 0 -0.059969183993439583 0.013885838679596786 0 -0.058879903884783431 0.012816696526802288 0 -0.059590631182102102 0.012806490330503269 0 -0.059397468857449523 0.011761814719967296 0 -0.058743260893673793 0.012403089974447591 0 -0.058674638914243474 0.01396538411814454 0 -0.056518756668363028 0.019067097557487745 0 -0.056780016950321997 0.019253773478790429 0 -0.056436432727771463 0.019236571658865616 0 -0.058368800782676061 0.012870115299133572 0 -0.058674638914243474 0.01396538411814454 0 -0.056908598764527328 0.019653405165557972 0 -0.056780016950321997 0.019253773478790429 0 -0.056436432727771463 0.019236571658865616 0 -0.057185186134034706 0.020096608585373495 0 -0.056908598764527328 0.019653405165557972 0 -0.056436432727771463 0.019236571658865616 0 -0.058632598500173501 0.020114259185044052 0 -0.058841722295075075 0.02106999540123428 0 -0.059199897869263871 0.020377866066384261 0 -0.058649024777245304 0.018674182729163269 0 -0.058674638914243474 0.01396538411814454 0 -0.059688800201491643 0.011759793447277418 0 -0.059106156797071187 0.011447254162061857 0 -0.059523647702862524 0.012095137471175658 0 -0.059969183993439583 0.013885838679596786 0 -0.060029713129417912 0.013646894089182411 0 -0.059885087799935052 0.011637591990616925 0 -0.060287985461524529 0.011745752370025443 0 -0.06011194504694737 0.012114776647043963 0 -0.060532674250955446 0.0091682437697114781 0 -0.059969183993439583 0.013885838679596786 0 -0.059885087799935052 0.011637591990616925 0 -0.060267452832378561 0.011636851590325039 0 -0.060287985461524529 0.011745752370025443 0 -0.05922292595540081 0.010781828526148222 0 -0.059688800201491643 0.011759793447277418 0 -0.059106156797071187 0.011447254162061857 0 -0.059169823110659929 0.010782394544886166 0 -0.05922292595540081 0.010781828526148222 0 -0.059106156797071187 0.011447254162061857 0 -0.059518883911988112 0.0076937510440974769 0 -0.060088604554375258 0.0076883183327899627 0 -0.059889217621983355 0.0079454864468232606 0 -0.059518883911988112 0.0076937510440974769 0 -0.059889217621983355 0.0079454864468232606 0 -0.059749907087882075 0.0082405950462064274 0 -0.060088604554375258 0.0076883183327899627 0 -0.059889217621983355 0.0079454864468232606 0 -0.060035883310773877 0.0082375034334507477 0 -0.060537467008178254 0.0089214176500869054 0 -0.059455237941907706 0.0095691679479714374 0 -0.059889217621983355 0.0079454864468232606 0 -0.059749907087882075 0.0082405950462064274 0 -0.060035883310773877 0.0082375034334507477 0 -0.058946819626393573 0.0072464076047421338 0 -0.05836568214253219 0.0098612920065929404 0 -0.055799276872972349 0.0053065197379376459 0 -0.05627798470547403 0.0064081950577339767 0 -0.055658242181737684 0.0060746771043102337 0 -0.059106156797071187 0.011447254162061857 0 -0.0590469588841857 0.012106668169686195 0 -0.059523647702862524 0.012095137471175658 0 -0.059749907087882075 0.0082405950462064274 0 -0.060035883310773877 0.0082375034334507477 0 -0.059982354789933766 0.0087913628780893725 0 -0.059455237941907706 0.0095691679479714374 0 -0.05836568214253219 0.0098612920065929404 0 -0.055744545972336787 0.0065810770614240606 0 -0.05627798470547403 0.0064081950577339767 0 -0.055658242181737684 0.0060746771043102337 0 -0.055744545972336787 0.0065810770614240606 0 -0.05627798470547403 0.0064081950577339767 0 -0.056206619644938643 0.0071737348206658566 0 -0.055744545972336787 0.0065810770614240606 0 -0.055851401202067476 0.0072404641156252692 0 -0.056206619644938643 0.0071737348206658566 0 -0.05836568214253219 0.0098612920065929404 0 -0.057305800970063422 0.010638094461926297 0 -0.056929608648785691 0.010091243951302757 0 -0.057559122450103251 0.011561818425859124 0 -0.057713982900219868 0.0099437698944866634 0 -0.058390589325491016 0.011864607178068025 0 -0.05836568214253219 0.0098612920065929404 0 -0.060289702723929403 0.014527789655024399 0 -0.058390589325491016 0.011864607178068025 0 -0.059969559422770956 0.012368192009167125 0 -0.059222237551904658 0.012507351980084076 0 -0.059523647702862524 0.012095137471175658 0 -0.059969559422770956 0.012368192009167125 0 -0.059681155411465403 0.011775673371540825 0 -0.059523647702862524 0.012095137471175658 0 -0.059222237551904658 0.012507351980084076 0 -0.0590469588841857 0.012106668169686195 0 -0.059523647702862524 0.012095137471175658 0 -0.06271623165311592 0.020854828770349967 0 -0.061130649674205492 0.019854984197678446 0 -0.061959585143782109 0.01908261068826457 0 -0.058390589325491016 0.011864607178068025 0 -0.059620949162878967 0.014219951998466629 0 -0.060144072335750608 0.02136329597572004 0 -0.06271623165311592 0.020854828770349967 0 -0.061130649674205492 0.019854984197678446 0 -0.061130649674205492 0.019854984197678446 0 -0.061959585143782109 0.01908261068826457 0 -0.060994542993717114 0.018610878722244161 0 -0.061130649674205492 0.019854984197678446 0 -0.060994542993717114 0.018610878722244161 0 -0.06012267040522834 0.018917804183539843 0 -0.047815249976607958 0.0080016435594609959 0 -0.047774324723784699 0.0079517752014202445 0 -0.047691586033543454 0.0080526426634065541 0 -0.056984263623343086 0.010939330234469372 0 -0.055430777363092258 0.0097230425992683705 0 -0.055430777363092258 0.0097230425992683705 0 -0.057305800970063422 0.010638094461926297 0 -0.056814305626495677 0.008410116280517084 0 -0.059667329970919919 0.01173680350253903 0 -0.056438213967751366 0.012343325959448339 0 -0.058866895921585269 0.011792314551684014 0 -0.059284610740082982 0.012758894781617862 0 -0.058427035951802542 0.012327870565322441 0 -0.058390589325491016 0.011864607178068025 0 -0.057305800970063422 0.010638094461926297 0 -0.058866895921585269 0.011792314551684014 0 -0.058427035951802542 0.012327870565322441 0 -0.058470933936640122 0.01186649360500797 0 -0.056984263623343086 0.010939330234469372 0 -0.057305800970063422 0.010638094461926297 0 -0.047774324723784699 0.0079517752014202445 0 -0.047691586033543454 0.0080526426634065541 0 -0.0475809275245309 0.00797898432037864 0 -0.055430777363092258 0.0097230425992683705 0 -0.049891576906116113 0.0078237179080488557 0 -0.049891576906116113 0.0078237179080488557 0 -0.041873303471112712 0.0063568720126860523 0 -0.05453197987431533 0.007385192960197311 0 -0.053723664268343255 0.0060714964803611909 0 -0.053258897409012226 0.0076186323326470967 0 -0.05453197987431533 0.007385192960197311 0 -0.054812165059473783 0.0060043663705595073 0 -0.053723664268343255 0.0060714964803611909 0 -0.055744545972336787 0.0065810770614240606 0 -0.055851401202067476 0.0072404641156252692 0 -0.054812165059473783 0.0060043663705595073 0 -0.055430777363092258 0.0097230425992683705 0 -0.054646384681300737 0.0080976039564045581 0 -0.055778322438749493 0.0071533600464004851 0 -0.05453197987431533 0.007385192960197311 0 -0.054812165059473783 0.0060043663705595073 0 -0.055744545972336787 0.0065810770614240606 0 -0.055658242181737684 0.0060746771043102337 0 -0.054812165059473783 0.0060043663705595073 0 -0.055799276872972349 0.0053065197379376459 0 -0.055658242181737684 0.0060746771043102337 0 -0.054812165059473783 0.0060043663705595073 0 -0.055799276872972349 0.0053065197379376459 0 -0.054812165059473783 0.0060043663705595073 0 -0.054463054482615389 0.0054230565550845008 0 -0.060374091548576495 0.0058441983731424172 0 -0.058946819626393573 0.0072464076047421338 0 -0.055340213460774022 0.0042330439984031212 0 -0.055799276872972349 0.0053065197379376459 0 -0.054656406674922532 0.0047695618888252151 0 -0.055799276872972349 0.0053065197379376459 0 -0.054656406674922532 0.0047695618888252151 0 -0.054463054482615389 0.0054230565550845008 0 -0.053971209784318137 0.0042551574015665507 0 -0.055340213460774022 0.0042330439984031212 0 -0.054656406674922532 0.0047695618888252151 0 -0.053971209784318137 0.0042551574015665507 0 -0.053903108212119862 0.0046716481582747722 0 -0.054656406674922532 0.0047695618888252151 0 -0.054656406674922532 0.0047695618888252151 0 -0.053864722828520437 0.005117292848037417 0 -0.054463054482615389 0.0054230565550845008 0 -0.053903108212119862 0.0046716481582747722 0 -0.054656406674922532 0.0047695618888252151 0 -0.053864722828520437 0.005117292848037417 0 -0.054812165059473783 0.0060043663705595073 0 -0.054463054482615389 0.0054230565550845008 0 -0.053723664268343255 0.0060714964803611909 0 -0.053864722828520437 0.005117292848037417 0 -0.054463054482615389 0.0054230565550845008 0 -0.053723664268343255 0.0060714964803611909 0 -0.053864722828520437 0.005117292848037417 0 -0.053723664268343255 0.0060714964803611909 0 -0.053414377330399873 0.0052282564275248121 0 -0.053723664268343255 0.0060714964803611909 0 -0.052953106807888776 0.0054855372386164699 0 -0.052558543120510531 0.0063766221177530783 0 -0.053723664268343255 0.0060714964803611909 0 -0.052953106807888776 0.0054855372386164699 0 -0.053414377330399873 0.0052282564275248121 0 -0.059591014483313012 0.0028161095431487675 0 -0.060233474949462414 0.0029768845408604115 0 -0.053864722828520437 0.005117292848037417 0 -0.053414377330399873 0.0052282564275248121 0 -0.053399150557278466 0.0046106959930468927 0 -0.055904153039935546 0.0014613776449688342 0 -0.057737415934454424 0.0014315897930510116 0 -0.057815912299677232 0.001820524355708912 0 -0.052953106807888776 0.0054855372386164699 0 -0.053414377330399873 0.0052282564275248121 0 -0.053399150557278466 0.0046106959930468927 0 -0.053971209784318137 0.0042551574015665507 0 -0.053903108212119862 0.0046716481582747722 0 -0.053447410967776686 0.0044755888871934515 0 -0.060437265237077653 0.0036340452186379691 0 -0.060233474949462414 0.0029768845408604115 0 -0.060443711469024483 0.0027372869234325165 0 -0.061107673640689426 0.0025744071866574555 0 -0.061136678524874005 0.0024501174988760034 0 -0.057737415934454424 0.0014315897930510116 0 -0.057856936399164421 0.0016459054483891596 0 -0.057815912299677232 0.001820524355708912 0 -0.053903108212119862 0.0046716481582747722 0 -0.053864722828520437 0.005117292848037417 0 -0.053447410967776686 0.0044755888871934515 0 -0.061220791121814458 0.0025799843498193952 0 -0.060841180894121549 0.0026881222452233323 0 -0.053864722828520437 0.005117292848037417 0 -0.053399150557278466 0.0046106959930468927 0 -0.053433385940886424 0.0044703822935598138 0 -0.061187440447864741 0.0027331278321447074 0 -0.060841180894121549 0.0026881222452233323 0 -0.060841180894121549 0.0026881222452233323 0 -0.060233474949462414 0.0029768845408604115 0 -0.060211893611735422 0.0030024687461772145 0 -0.060233474949462414 0.0029768845408604115 0 -0.055904153039935546 0.0014613776449688342 0 -0.057815912299677232 0.001820524355708912 0 -0.054939750610448014 0.0030146558184626126 0 -0.052953106807888776 0.0054855372386164699 0 -0.053399150557278466 0.0046106959930468927 0 -0.05184741762446389 0.0051245769158349179 0 -0.053399150557278466 0.0046106959930468927 0 -0.053433099598332673 0.0044714281885989051 0 -0.05184741762446389 0.0051245769158349179 0 -0.060233474949462414 0.0029768845408604115 0 -0.050051617142925345 0.0025955790130260132 0 -0.044859696975531438 0.0045960645171773456 0 -0.050051617142925345 0.0025955790130260132 0 -0.052953106807888776 0.0054855372386164699 0 -0.052558543120510531 0.0063766221177530783 0 -0.05184741762446389 0.0051245769158349179 0 -0.044859696975531438 0.0045960645171773456 0 -0.041873303471112712 0.0063568720126860523 0 -0.030318180614489591 0.0060208840322600564 0 -0.029698391960253742 0.0048879410764983717 0 -0.03074977913487496 0.0054214130489875839 0 -0.053723664268343255 0.0060714964803611909 0 -0.052558543120510531 0.0063766221177530783 0 -0.053258897409012226 0.0076186323326470967 0 -0.041873303471112712 0.0063568720126860523 0 -0.034161431659489899 0.0060911273306051708 0 -0.029698391960253742 0.0048879410764983717 0 -0.030745320027606396 0.0046750486654687515 0 -0.03074977913487496 0.0054214130489875839 0 -0.030308302793473817 0.0042341885521976963 0 -0.029698050426600921 0.0034593568952932044 0 -0.03066857177175606 0.0031365045601711074 0 -0.029344269137849294 0.0043692171949583818 0 -0.030308302793473817 0.0042341885521976963 0 -0.029698050426600921 0.0034593568952932044 0 -0.029344269137849294 0.0043692171949583818 0 -0.029698050426600921 0.0034593568952932044 0 -0.028721688250171636 0.0031628015992552949 0 -0.041873303471112712 0.0063568720126860523 0 -0.040171059256984228 0.0050385558218424631 0 -0.029698050426600921 0.0034593568952932044 0 -0.029920747862779037 0.0023862517464574044 0 -0.028721688250171636 0.0031628015992552949 0 -0.029698050426600921 0.0034593568952932044 0 -0.029920747862779037 0.0023862517464574044 0 -0.03066857177175606 0.0031365045601711074 0 -0.029920747862779037 0.0023862517464574044 0 -0.029827884132427318 0.0015292863722714829 0 -0.029158408194271901 0.0019079937059283043 0 -0.029920747862779037 0.0023862517464574044 0 -0.029827884132427318 0.0015292863722714829 0 -0.030242946291657434 0.0015164862090964908 0 -0.029827884132427318 0.0015292863722714829 0 -0.030103986247947835 0.0011551657016809821 0 -0.029904575987323795 0.0010713387222055963 0 -0.029827884132427318 0.0015292863722714829 0 -0.030242946291657434 0.0015164862090964908 0 -0.030103986247947835 0.0011551657016809821 0 -0.029827884132427318 0.0015292863722714829 0 -0.029158408194271901 0.0019079937059283043 0 -0.029601227196432593 0.0010982365359564787 0 -0.029158408194271901 0.0019079937059283043 0 -0.029601227196432593 0.0010982365359564787 0 -0.028736055931597237 0.0011921847053170172 0 -0.029920747862779037 0.0023862517464574044 0 -0.029158408194271901 0.0019079937059283043 0 -0.028721688250171636 0.0031628015992552949 0 -0.047626153209180962 0.0083929668343246892 0 -0.047672385971374756 0.0083374020876727014 0 -0.047509995562196018 0.0082084775335804841 0 -0.029158408194271901 0.0019079937059283043 0 -0.028137322102109188 0.0020285987997139257 0 -0.028721688250171636 0.0031628015992552949 0 -0.04084102752792701 0.0047413891718823993 0 -0.040171059256984228 0.0050385558218424631 0 -0.04084102752792701 0.0047413891718823993 0 -0.034830989434706278 0.0046676400409114711 0 -0.029158408194271901 0.0019079937059283043 0 -0.028137322102109188 0.0020285987997139257 0 -0.028736055931597237 0.0011921847053170172 0 -0.038218343821854066 0.0040776882335209564 0 -0.037495450030319961 0.0051030851168354548 0 -0.038289436932975339 0.0053580103817055334 0 -0.04084102752792701 0.0047413891718823993 0 -0.047731900153802305 0.0086762851991471681 0 -0.047640831698521756 0.0083847318685958128 0 -0.047751298179739457 0.0083781894035540021 0 -0.047741443767753008 0.0085367977781709015 0 -0.038218343821854066 0.0040776882335209564 0 -0.038289436932975339 0.0053580103817055334 0 -0.038943289445660452 0.0053385485023154837 0 -0.047640831698521756 0.0083847318685958128 0 -0.047672385971374756 0.0083374020876727014 0 -0.047751298179739457 0.0083781894035540021 0 -0.04084102752792701 0.0047413891718823993 0 -0.041111604391835165 0.0047917718379784577 0 -0.047672385971374756 0.0083374020876727014 0 -0.047664357489652795 0.0082008778522351562 0 -0.04778202594857886 0.0081992950794071064 0 -0.047672385971374756 0.0083374020876727014 0 -0.047664357489652795 0.0082008778522351562 0 -0.047509995562196018 0.0082084775335804841 0 -0.047691586033543454 0.0080526426634065541 0 -0.0475809275245309 0.00797898432037864 0 -0.047509995562196018 0.0082084775335804841 0 -0.0475809275245309 0.00797898432037864 0 -0.047383577570410021 0.0080088790511936517 0 -0.047509995562196018 0.0082084775335804841 0 -0.047691586033543454 0.0080526426634065541 0 -0.047664357489652795 0.0082008778522351562 0 -0.047509995562196018 0.0082084775335804841 0 -0.047691586033543454 0.0080526426634065541 0 -0.047664357489652795 0.0082008778522351562 0 -0.04778202594857886 0.0081992950794071064 0 -0.056984263623343086 0.010939330234469372 0 -0.054973126155868551 0.011540437142787982 0 -0.047815249976607958 0.0080016435594609959 0 -0.047691586033543454 0.0080526426634065541 0 -0.04778202594857886 0.0081992950794071064 0 -0.064195011155989384 0.019441660776842392 0 -0.063343692052933567 0.017837654994262129 0 -0.064531571022110892 0.016340708040482023 0 -0.063343692052933567 0.017837654994262129 0 -0.063053188039529182 0.016757810336873437 0 -0.064531571022110892 0.016340708040482023 0 -0.056984263623343086 0.010939330234469372 0 -0.060052524445942231 0.014846505340598851 0 -0.064195011155989384 0.019441660776842392 0 -0.063343692052933567 0.017837654994262129 0 -0.061775916175924837 0.016809021739843631 0 -0.059284610740082982 0.012758894781617862 0 -0.058427035951802542 0.012327870565322441 0 -0.059702425134479167 0.01372685899204599 0 -0.061959585143782109 0.01908261068826457 0 -0.060994542993717114 0.018610878722244161 0 -0.061199422888527075 0.01730690877406128 0 -0.059620949162878967 0.014219951998466629 0 -0.060052524445942231 0.014846505340598851 0 -0.060994542993717114 0.018610878722244161 0 -0.061199422888527075 0.01730690877406128 0 -0.060551441319946699 0.017902190853817869 0 -0.063343692052933567 0.017837654994262129 0 -0.062686670581835094 0.016931570277858361 0 -0.063053188039529182 0.016757810336873437 0 -0.063343692052933567 0.017837654994262129 0 -0.061775916175924837 0.016809021739843631 0 -0.062686670581835094 0.016931570277858361 0 -0.062686670581835094 0.016931570277858361 0 -0.063053188039529182 0.016757810336873437 0 -0.062479500128677097 0.016368237865951013 0 -0.061775916175924837 0.016809021739843631 0 -0.062686670581835094 0.016931570277858361 0 -0.062479500128677097 0.016368237865951013 0 -0.062479500128677097 0.016368237865951013 0 -0.062971054136888444 0.015923536566092505 0 -0.0618418041294925 0.015217343785963244 0 -0.063053188039529182 0.016757810336873437 0 -0.062479500128677097 0.016368237865951013 0 -0.062971054136888444 0.015923536566092505 0 -0.061775916175924837 0.016809021739843631 0 -0.062479500128677097 0.016368237865951013 0 -0.0618418041294925 0.015217343785963244 0 -0.062971054136888444 0.015923536566092505 0 -0.0618418041294925 0.015217343785963244 0 -0.063049170747366559 0.014438853642578886 0 -0.062971054136888444 0.015923536566092505 0 -0.064531571022110892 0.016340708040482023 0 -0.063049170747366559 0.014438853642578886 0 -0.064531571022110892 0.016340708040482023 0 -0.064937017554599352 0.013111796655549448 0 -0.063049170747366559 0.014438853642578886 0 -0.054973126155868551 0.011540437142787982 0 -0.052437272742351534 0.01028689511851061 0 -0.063053188039529182 0.016757810336873437 0 -0.062971054136888444 0.015923536566092505 0 -0.064531571022110892 0.016340708040482023 0 -0.047672385971374756 0.0083374020876727014 0 -0.04778202594857886 0.0081992950794071064 0 -0.047751298179739457 0.0083781894035540021 0 -0.064937017554599352 0.013111796655549448 0 -0.062861955835760125 0.011919060239401553 0 -0.063049170747366559 0.014438853642578886 0 -0.052437272742351534 0.01028689511851061 0 -0.047731900153802305 0.0086762851991471681 0 -0.064937017554599352 0.013111796655549448 0 -0.062861955835760125 0.011919060239401553 0 -0.065339446426872894 0.009740336910004057 0 -0.062861955835760125 0.011919060239401553 0 -0.06152141572805047 0.013314959884397714 0 -0.060450082993495531 0.010951975895210794 0 -0.062861955835760125 0.011919060239401553 0 -0.060450082993495531 0.010951975895210794 0 -0.063091652609356383 0.0096053076799016042 0 -0.062861955835760125 0.011919060239401553 0 -0.06152141572805047 0.013314959884397714 0 -0.063049170747366559 0.014438853642578886 0 -0.0618418041294925 0.015217343785963244 0 -0.06152141572805047 0.013314959884397714 0 -0.063049170747366559 0.014438853642578886 0 -0.06152141572805047 0.013314959884397714 0 -0.059393870238138941 0.014011927646588025 0 -0.060450082993495531 0.010951975895210794 0 -0.0618418041294925 0.015217343785963244 0 -0.06152141572805047 0.013314959884397714 0 -0.059393870238138941 0.014011927646588025 0 -0.059239274183502159 0.014039376115679233 0 -0.05811066033283209 0.012751485978298196 0 -0.059393870238138941 0.014011927646588025 0 -0.060450082993495531 0.010951975895210794 0 -0.056840132240793206 0.011319185786741343 0 -0.059281367968214739 0.014600068045427054 0 -0.056098048855821626 0.014130147664471905 0 -0.056840132240793206 0.011319185786741343 0 -0.059281367968214739 0.014600068045427054 0 -0.057439332295835858 0.016401946427290731 0 -0.056098048855821626 0.014130147664471905 0 -0.059281367968214739 0.014600068045427054 0 -0.057439332295835858 0.016401946427290731 0 -0.058628729577550408 0.016873845847238965 0 -0.061775916175924837 0.016809021739843631 0 -0.0618418041294925 0.015217343785963244 0 -0.059393870238138941 0.014011927646588025 0 -0.060052524445942231 0.014846505340598851 0 -0.059239274183502159 0.014039376115679233 0 -0.059281367968214739 0.014600068045427054 0 -0.058628729577550408 0.016873845847238965 0 -0.059827214628471487 0.017425510448930315 0 -0.061199422888527075 0.01730690877406128 0 -0.059281367968214739 0.014600068045427054 0 -0.059827214628471487 0.017425510448930315 0 -0.058628729577550408 0.016873845847238965 0 -0.059827214628471487 0.017425510448930315 0 -0.059111520778709049 0.017677342998515175 0 -0.059111520778709049 0.017677342998515175 0 -0.05994610282544436 0.017969597472953049 0 -0.059444596607907019 0.018195480675308268 0 -0.059827214628471487 0.017425510448930315 0 -0.059111520778709049 0.017677342998515175 0 -0.05994610282544436 0.017969597472953049 0 -0.059111520778709049 0.017677342998515175 0 -0.059444596607907019 0.018195480675308268 0 -0.058545162258483864 0.018250747061209917 0 -0.061199422888527075 0.01730690877406128 0 -0.059827214628471487 0.017425510448930315 0 -0.060551441319946699 0.017902190853817869 0 -0.059827214628471487 0.017425510448930315 0 -0.05994610282544436 0.017969597472953049 0 -0.060551441319946699 0.017902190853817869 0 -0.060994542993717114 0.018610878722244161 0 -0.060551441319946699 0.017902190853817869 0 -0.06012267040522834 0.018917804183539843 0 -0.05994610282544436 0.017969597472953049 0 -0.060551441319946699 0.017902190853817869 0 -0.06012267040522834 0.018917804183539843 0 -0.05994610282544436 0.017969597472953049 0 -0.06012267040522834 0.018917804183539843 0 -0.059444596607907019 0.018195480675308268 0 -0.06012267040522834 0.018917804183539843 0 -0.059444596607907019 0.018195480675308268 0 -0.058545162258483864 0.018250747061209917 0 -0.057760822977140087 0.018994110607958772 0 -0.058391476542334418 0.018659782464014455 0 -0.057664604717030686 0.018389041000948566 0 -0.057439332295835858 0.016401946427290731 0 -0.058628729577550408 0.016873845847238965 0 -0.057664604717030686 0.018389041000948566 0 -0.058391476542334418 0.018659782464014455 0 -0.058545162258483864 0.018250747061209917 0 -0.057664604717030686 0.018389041000948566 0 -0.058628729577550408 0.016873845847238965 0 -0.059111520778709049 0.017677342998515175 0 -0.058545162258483864 0.018250747061209917 0 -0.058628729577550408 0.016873845847238965 0 -0.058545162258483864 0.018250747061209917 0 -0.057664604717030686 0.018389041000948566 0 -0.05199991574580503 -0.00036948575060995382 0 -0.052590761723084509 -9.4998960716995934e-05 0 -0.052688972449345145 -0.00098579578660850146 0 -0.05199991574580503 -0.00036948575060995382 0 -0.052590761723084509 -9.4998960716995934e-05 0 -0.051528816087949826 0.00059365804050630258 0 -0.044690307768464388 0.0025725016034580757 0 -0.045012261928601693 0.0030372528427183962 0 -0.052590761723084509 -9.4998960716995934e-05 0 -0.052688972449345145 -0.00098579578660850146 0 -0.053501619663422754 -0.00051271648647220624 0 -0.035867305319081 0.0059042148925369381 0 -0.035643424856999971 0.0047002071538847683 0 -0.034061646343933258 0.0048744145013516552 0 -0.035867305319081 0.0059042148925369381 0 -0.035643424856999971 0.0047002071538847683 0 -0.036952292613423192 0.0039616688632706648 0 -0.035643424856999971 0.0047002071538847683 0 -0.036952292613423192 0.0039616688632706648 0 -0.03607964333639526 0.0029377841644400186 0 -0.044690307768464388 0.0025725016034580757 0 -0.045534302467778273 0.0015344867326698109 0 -0.035867305319081 0.0059042148925369381 0 -0.036952292613423192 0.0039616688632706648 0 -0.03984971673642216 0.0045171813726839838 0 -0.051528816087949826 0.00059365804050630258 0 -0.05016271713098272 -8.9871093026090067e-05 0 -0.051343242792609725 -6.1712902490268344e-05 0 -0.045534302467778273 0.0015344867326698109 0 -0.046551104293567853 2.4481483196052355e-06 0 -0.05016271713098272 -8.9871093026090067e-05 0 -0.050080905302728178 -1.0828434862345919e-06 0 -0.046557496008015994 2.8687811584012209e-06 0 -0.051528816087949826 0.00059365804050630258 0 -0.05016271713098272 -8.9871093026090067e-05 0 -0.046557496008015994 2.8687811584012209e-06 0 -0.05016271713098272 -8.9871093026090067e-05 0 -0.051785469964725946 -0.00040809386147907053 0 -0.050080905302728178 -1.0828434862345919e-06 0 -0.05199991574580503 -0.00036948575060995382 0 -0.051343242792609725 -6.1712902490268344e-05 0 -0.05173711663125255 -0.00095906934620609027 0 -0.051785469964725946 -0.00040809386147907053 0 -0.051343242792609725 -6.1712902490268344e-05 0 -0.052633545200816693 -0.00056613258143383023 0 -0.05016271713098272 -8.9871093026090067e-05 0 -0.051785469964725946 -0.00040809386147907053 0 -0.051343242792609725 -6.1712902490268344e-05 0 -0.05199991574580503 -0.00036948575060995382 0 -0.051528816087949826 0.00059365804050630258 0 -0.051343242792609725 -6.1712902490268344e-05 0 -0.05456382483321412 0.0001894429223555459 0 -0.055246345628482504 0.00032084153879049924 0 -0.051785469964725946 -0.00040809386147907053 0 -0.052633545200816693 -0.00056613258143383023 0 -0.053254021625015913 -0.0004003502267047639 0 -0.051785469964725946 -0.00040809386147907053 0 -0.053612853869451055 -2.2487720765144458e-06 0 -0.053254021625015913 -0.0004003502267047639 0 -0.051785469964725946 -0.00040809386147907053 0 -0.050080905302728178 -1.0828434862345919e-06 0 -0.053612853869451055 -2.2487720765144458e-06 0 -0.057135743158876429 3.8406990230576727e-06 0 -0.053612853869451055 -2.2487720765144458e-06 0 -0.054709459274056446 -0.00027162418892045202 0 -0.053612853869451055 -2.2487720765144458e-06 0 -0.053254021625015913 -0.0004003502267047639 0 -0.054709459274056446 -0.00027162418892045202 0 -0.052633545200816693 -0.00056613258143383023 0 -0.053254021625015913 -0.0004003502267047639 0 -0.053228475179130014 1.6413200961698444e-05 0 -0.052633545200816693 -0.00056613258143383023 0 -0.053228475179130014 1.6413200961698444e-05 0 -0.052822543269521051 3.5025264562792732e-05 0 -0.053254021625015913 -0.0004003502267047639 0 -0.054709459274056446 -0.00027162418892045202 0 -0.053228475179130014 1.6413200961698444e-05 0 -0.056408597276759516 0.0014803700091153796 0 -0.057234710070866307 0.0015532052211818393 0 -0.05173711663125255 -0.00095906934620609027 0 -0.052003279036179399 -0.0018098534300257433 0 -0.052688972449345145 -0.00098579578660850146 0 -0.055246345628482504 0.00032084153879049924 0 -0.057234710070866307 0.0015532052211818393 0 -0.05199991574580503 -0.00036948575060995382 0 -0.05173711663125255 -0.00095906934620609027 0 -0.052688972449345145 -0.00098579578660850146 0 -0.052003279036179399 -0.0018098534300257433 0 -0.052688972449345145 -0.00098579578660850146 0 -0.05317055820313215 -0.0018062533044902419 0 -0.057234710070866307 0.0015532052211818393 0 -0.059953495033933477 0.0006409061442848034 0 -0.052688972449345145 -0.00098579578660850146 0 -0.05317055820313215 -0.0018062533044902419 0 -0.053741612781936718 -0.0012695913600299438 0 -0.054304551513487585 -0.0018082302962642504 0 -0.05317055820313215 -0.0018062533044902419 0 -0.053741612781936718 -0.0012695913600299438 0 -0.054304551513487585 -0.0018082302962642504 0 -0.053741612781936718 -0.0012695913600299438 0 -0.054423995740622927 -0.00090240180854388554 0 -0.056572104678888332 0.00091601605069232801 0 -0.059953495033933477 0.0006409061442848034 0 -0.053741612781936718 -0.0012695913600299438 0 -0.054423995740622927 -0.00090240180854388554 0 -0.053501619663422754 -0.00051271648647220624 0 -0.032156528660979684 0.0065528342407030673 0 -0.032184889039417623 0.0067236474594944782 0 -0.033672476774266866 0.0063560884536858434 0 -0.04930566576550121 0.0022790050680181052 0 -0.045012261928601693 0.0030372528427183962 0 -0.052688972449345145 -0.00098579578660850146 0 -0.053741612781936718 -0.0012695913600299438 0 -0.053501619663422754 -0.00051271648647220624 0 -0.053496068727620548 0.0016598655838270888 0 -0.053622408540197612 0.0018906795835006503 0 -0.053241568833973581 0.0020482030076043847 0 -0.05407514003221494 0.0014931222369629754 0 -0.055904153039935546 0.0014613776449688342 0 -0.054939750610448014 0.0030146558184626126 0 -0.0565610924496655 0.0023985145000070675 0 -0.050051617142925345 0.0025955790130260132 0 -0.053194547379956193 0.0016639252307475429 0 -0.053496068727620548 0.0016598655838270888 0 -0.053241568833973581 0.0020482030076043847 0 -0.056572104678888332 0.00091601605069232801 0 -0.04930566576550121 0.0022790050680181052 0 -0.032188239651936214 0.0066962355346197495 0 -0.031321643400949846 0.0064127150147540888 0 -0.03175588689183996 0.0062536482543177965 0 -0.032156528660979684 0.0065528342407030673 0 -0.032188239651936214 0.0066962355346197495 0 -0.03175588689183996 0.0062536482543177965 0 -0.049245398637211169 0.0023150492995701846 0 -0.04930566576550121 0.0022790050680181052 0 -0.030318180614489591 0.0060208840322600564 0 -0.030976589881043109 0.0071557535059590775 0 -0.031321643400949846 0.0064127150147540888 0 -0.050051617142925345 0.0025955790130260132 0 -0.04930566576550121 0.0022790050680181052 0 -0.030976589881043109 0.0071557535059590775 0 -0.032188239651936214 0.0066962355346197495 0 -0.031321643400949846 0.0064127150147540888 0 -0.030318180614489591 0.0060208840322600564 0 -0.03074977913487496 0.0054214130489875839 0 -0.031321643400949846 0.0064127150147540888 0 -0.03074977913487496 0.0054214130489875839 0 -0.031321643400949846 0.0064127150147540888 0 -0.031468215378076814 0.005486359292905617 0 -0.031321643400949846 0.0064127150147540888 0 -0.031468215378076814 0.005486359292905617 0 -0.03175588689183996 0.0062536482543177965 0 -0.032156528660979684 0.0065528342407030673 0 -0.032004905257176836 0.0058014283378288725 0 -0.032712250009232016 0.005511168125099713 0 -0.031468215378076814 0.005486359292905617 0 -0.03175588689183996 0.0062536482543177965 0 -0.032004905257176836 0.0058014283378288725 0 -0.031468215378076814 0.005486359292905617 0 -0.032004905257176836 0.0058014283378288725 0 -0.032010725468263813 0.0051614850763892989 0 -0.032156528660979684 0.0065528342407030673 0 -0.03175588689183996 0.0062536482543177965 0 -0.032004905257176836 0.0058014283378288725 0 -0.032004905257176836 0.0058014283378288725 0 -0.032010725468263813 0.0051614850763892989 0 -0.032712250009232016 0.005511168125099713 0 -0.031468215378076814 0.005486359292905617 0 -0.032010725468263813 0.0051614850763892989 0 -0.031794751730405031 0.0044066078661893961 0 -0.032010725468263813 0.0051614850763892989 0 -0.032841348290847977 0.0040078740172088262 0 -0.031794751730405031 0.0044066078661893961 0 -0.030745320027606396 0.0046750486654687515 0 -0.031468215378076814 0.005486359292905617 0 -0.031794751730405031 0.0044066078661893961 0 -0.030745320027606396 0.0046750486654687515 0 -0.03074977913487496 0.0054214130489875839 0 -0.031468215378076814 0.005486359292905617 0 -0.033672476774266866 0.0063560884536858434 0 -0.032712250009232016 0.005511168125099713 0 -0.034061646343933258 0.0048744145013516552 0 -0.035867305319081 0.0059042148925369381 0 -0.033672476774266866 0.0063560884536858434 0 -0.034061646343933258 0.0048744145013516552 0 -0.032156528660979684 0.0065528342407030673 0 -0.033672476774266866 0.0063560884536858434 0 -0.032712250009232016 0.005511168125099713 0 -0.032712250009232016 0.005511168125099713 0 -0.034061646343933258 0.0048744145013516552 0 -0.032841348290847977 0.0040078740172088262 0 -0.032010725468263813 0.0051614850763892989 0 -0.032712250009232016 0.005511168125099713 0 -0.032841348290847977 0.0040078740172088262 0 -0.034061646343933258 0.0048744145013516552 0 -0.032841348290847977 0.0040078740172088262 0 -0.034227700196724192 0.0032672620796187651 0 -0.032841348290847977 0.0040078740172088262 0 -0.032544807153089307 0.0028377894745113368 0 -0.031712587213403858 0.0033135073164201707 0 -0.032841348290847977 0.0040078740172088262 0 -0.032544807153089307 0.0028377894745113368 0 -0.034227700196724192 0.0032672620796187651 0 -0.032544807153089307 0.0028377894745113368 0 -0.034227700196724192 0.0032672620796187651 0 -0.033142410021335576 0.0020031754528704393 0 -0.034341895943836354 0.0027890836840575896 0 -0.033532859284127185 0.0014839661559140943 0 -0.034713409112131458 0.0017900762876580517 0 -0.033780011736094198 0.00071536628927018175 0 -0.035397513937002391 0.00071102341228790474 0 -0.034161431659489899 0.0060911273306051708 0 -0.03268386581914668 0.0055510298594296176 0 -0.030308302793473817 0.0042341885521976963 0 -0.031380845917383784 0.0041560806911290328 0 -0.03066857177175606 0.0031365045601711074 0 -0.032691013613401571 0.0053066520131698821 0 -0.03268386581914668 0.0055510298594296176 0 -0.032841348290847977 0.0040078740172088262 0 -0.031380845917383784 0.0041560806911290328 0 -0.031712587213403858 0.0033135073164201707 0 -0.031380845917383784 0.0041560806911290328 0 -0.031712587213403858 0.0033135073164201707 0 -0.03066857177175606 0.0031365045601711074 0 -0.032544807153089307 0.0028377894745113368 0 -0.031712587213403858 0.0033135073164201707 0 -0.031353779519427832 0.0025447283398970181 0 -0.031712587213403858 0.0033135073164201707 0 -0.03066857177175606 0.0031365045601711074 0 -0.031353779519427832 0.0025447283398970181 0 -0.029920747862779037 0.0023862517464574044 0 -0.03066857177175606 0.0031365045601711074 0 -0.030606744957638772 0.0020012516030420667 0 -0.03066857177175606 0.0031365045601711074 0 -0.030606744957638772 0.0020012516030420667 0 -0.031353779519427832 0.0025447283398970181 0 -0.029920747862779037 0.0023862517464574044 0 -0.030606744957638772 0.0020012516030420667 0 -0.030242946291657434 0.0015164862090964908 0 -0.032544807153089307 0.0028377894745113368 0 -0.031353779519427832 0.0025447283398970181 0 -0.031516519339828554 0.0016691570603281449 0 -0.030606744957638772 0.0020012516030420667 0 -0.031353779519427832 0.0025447283398970181 0 -0.031516519339828554 0.0016691570603281449 0 -0.031516519339828554 0.0016691570603281449 0 -0.030476758986522936 0.0011671915853420087 0 -0.03091397537685233 0.00084041932076286659 0 -0.031516519339828554 0.0016691570603281449 0 -0.032211562653672955 0.00069929359235197653 0 -0.03091397537685233 0.00084041932076286659 0 -0.030606744957638772 0.0020012516030420667 0 -0.031516519339828554 0.0016691570603281449 0 -0.030476758986522936 0.0011671915853420087 0 -0.030606744957638772 0.0020012516030420667 0 -0.030476758986522936 0.0011671915853420087 0 -0.030242946291657434 0.0015164862090964908 0 -0.030476758986522936 0.0011671915853420087 0 -0.030242946291657434 0.0015164862090964908 0 -0.030103986247947835 0.0011551657016809821 0 -0.032544807153089307 0.0028377894745113368 0 -0.031516519339828554 0.0016691570603281449 0 -0.033142410021335576 0.0020031754528704393 0 -0.033532859284127185 0.0014839661559140943 0 -0.033092748576715708 0.00086051360093780378 0 -0.031516519339828554 0.0016691570603281449 0 -0.033142410021335576 0.0020031754528704393 0 -0.032211562653672955 0.00069929359235197653 0 -0.033780011736094198 0.00071536628927018175 0 -0.034798116642175726 2.8329161391383987e-05 0 -0.032211562653672955 0.00069929359235197653 0 -0.034798116642175726 2.8329161391383987e-05 0 -0.037353279003884493 0.00010261197526761661 0 -0.036535654704384989 -0.00036781044189940378 0 -0.034798116642175726 2.8329161391383987e-05 0 -0.037353279003884493 0.00010261197526761661 0 -0.035397513937002391 0.00071102341228790474 0 -0.033780011736094198 0.00071536628927018175 0 -0.034798116642175726 2.8329161391383987e-05 0 -0.035397513937002391 0.00071102341228790474 0 -0.034713409112131458 0.0017900762876580517 0 -0.035397513937002391 0.00071102341228790474 0 -0.037415153709483256 0.0018160856645909815 0 -0.037353279003884493 0.00010261197526761661 0 -0.035397513937002391 0.00071102341228790474 0 -0.037415153709483256 0.0018160856645909815 0 -0.036952292613423192 0.0039616688632706648 0 -0.037415153709483256 0.0018160856645909815 0 -0.03607964333639526 0.0029377841644400186 0 -0.036952292613423192 0.0039616688632706648 0 -0.03984971673642216 0.0045171813726839838 0 -0.037415153709483256 0.0018160856645909815 0 -0.034876259544315509 0.0037687675747730279 0 -0.034341895943836354 0.0027890836840575896 0 -0.035643424856999971 0.0047002071538847683 0 -0.034061646343933258 0.0048744145013516552 0 -0.034227700196724192 0.0032672620796187651 0 -0.035643424856999971 0.0047002071538847683 0 -0.034713409112131458 0.0017900762876580517 0 -0.03607964333639526 0.0029377841644400186 0 -0.034713409112131458 0.0017900762876580517 0 -0.037415153709483256 0.0018160856645909815 0 -0.03607964333639526 0.0029377841644400186 0 -0.03984971673642216 0.0045171813726839838 0 -0.046542334251636584 1.0255398189109084e-05 0 -0.040799747450556985 0.00036284500811800913 0 -0.03984971673642216 0.0045171813726839838 0 -0.037415153709483256 0.0018160856645909815 0 -0.040799747450556985 0.00036284500811800913 0 -0.037353279003884493 0.00010261197526761661 0 -0.037415153709483256 0.0018160856645909815 0 -0.040799747450556985 0.00036284500811800913 0 -0.040799747450556985 0.00036284500811800913 0 -0.04237229182203172 -2.8148396879944741e-06 0 -0.038978570023682345 -0.00021002796354599348 0 -0.046542334251636584 1.0255398189109084e-05 0 -0.040799747450556985 0.00036284500811800913 0 -0.04237229182203172 -2.8148396879944741e-06 0 -0.04237229182203172 -2.8148396879944741e-06 0 -0.038978570023682345 -0.00021002796354599348 0 -0.038191843684746221 -4.1410788649395589e-07 0 -0.037353279003884493 0.00010261197526761661 0 -0.040799747450556985 0.00036284500811800913 0 -0.038978570023682345 -0.00021002796354599348 0 -0.037353279003884493 0.00010261197526761661 0 -0.038978570023682345 -0.00021002796354599348 0 -0.036535654704384989 -0.00036781044189940378 0 -0.038978570023682345 -0.00021002796354599348 0 -0.036535654704384989 -0.00036781044189940378 0 -0.038191843684746221 -4.1410788649395589e-07 0 -0.038191843684746221 -4.1410788649395589e-07 0 -0.034772815546798827 -0.00054331407449656737 0 -0.034014456771176961 -9.6649782511226895e-07 0 -0.036535654704384989 -0.00036781044189940378 0 -0.038191843684746221 -4.1410788649395589e-07 0 -0.034772815546798827 -0.00054331407449656737 0 -0.036535654704384989 -0.00036781044189940378 0 -0.034772815546798827 -0.00054331407449656737 0 -0.034694631409796242 -0.00064132349426565733 0 -0.034772815546798827 -0.00054331407449656737 0 -0.034694631409796242 -0.00064132349426565733 0 -0.032895771817939984 -0.00080082677188480079 0 -0.034772815546798827 -0.00054331407449656737 0 -0.034014456771176961 -9.6649782511226895e-07 0 -0.032895771817939984 -0.00080082677188480079 0 -0.034798116642175726 2.8329161391383987e-05 0 -0.034694631409796242 -0.00064132349426565733 0 -0.033540558907759609 -0.00024810432401226935 0 -0.034798116642175726 2.8329161391383987e-05 0 -0.036535654704384989 -0.00036781044189940378 0 -0.034694631409796242 -0.00064132349426565733 0 -0.034694631409796242 -0.00064132349426565733 0 -0.033872888367702254 -0.00084691665092579695 0 -0.032895771817939984 -0.00080082677188480079 0 -0.034694631409796242 -0.00064132349426565733 0 -0.033872888367702254 -0.00084691665092579695 0 -0.033540558907759609 -0.00024810432401226935 0 -0.033872888367702254 -0.00084691665092579695 0 -0.033676531957170824 -0.0005923402903488139 0 -0.032917597514663659 -0.0012075965563821999 0 -0.033872888367702254 -0.00084691665092579695 0 -0.033676531957170824 -0.0005923402903488139 0 -0.032895771817939984 -0.00080082677188480079 0 -0.033676531957170824 -0.0005923402903488139 0 -0.032895771817939984 -0.00080082677188480079 0 -0.032153244073167664 0.00044692199793285942 0 -0.034014456771176961 -9.6649782511226895e-07 0 -0.032895771817939984 -0.00080082677188480079 0 -0.029835678653380927 -2.6121865625849045e-06 0 -0.032895771817939984 -0.00080082677188480079 0 -0.029689014625899814 5.1922817943619183e-05 0 -0.032153244073167664 0.00044692199793285942 0 -0.032895771817939984 -0.00080082677188480079 0 -0.029835678653380927 -2.6121865625849045e-06 0 -0.029689014625899814 5.1922817943619183e-05 0 -0.029835678653380927 -2.6121865625849045e-06 0 -0.029689014625899814 5.1922817943619183e-05 0 -0.025662639634092162 5.7759992530608136e-06 0 -0.029689014625899814 5.1922817943619183e-05 0 -0.025662639634092162 5.7759992530608136e-06 0 -0.028228677806342382 0.0019499514872167497 0 -0.025655192333336845 6.7151213023420493e-07 0 -0.025455020569197271 0.00010004389304906274 0 -0.025651910329346612 4.5089003155053187e-10 0 -0.024742798252545429 -7.8052018302986483e-07 0 -0.023861660789324703 -2.6151667198242494e-09 0 -0.02137389022031853 0.0016198847883459125 0 -0.023851368399107023 3.0993475774322899e-06 0 -0.021169771047917309 0.00028786807248580305 0 -0.025455020569197271 0.00010004389304906274 0 -0.023862562025719531 2.2004800069814821e-06 0 -0.031351257211472118 0.0015624717102476185 0 -0.030606059666603087 0.0015762739794730712 0 -0.030485916130851991 0.0021155431663523326 0 -0.031351257211472118 0.0015624717102476185 0 -0.030606059666603087 0.0015762739794730712 0 -0.030614059948985178 0.0010002901922615401 0 -0.02137389022031853 0.0016198847883459125 0 -0.021169771047917309 0.00028786807248580305 0 -0.019030283432986246 7.4291495131318931e-05 0 -0.025455020569197271 0.00010004389304906274 0 -0.024905119505973135 0.00052657451339887043 0 -0.025455020569197271 0.00010004389304906274 0 -0.029454510794960892 -6.5703743293271284e-05 0 -0.029689014625899814 5.1922817943619183e-05 0 -0.028228677806342382 0.0019499514872167497 0 -0.032153244073167664 0.00044692199793285942 0 -0.030571040362079104 0.0001773682580190453 0 -0.029454510794960892 -6.5703743293271284e-05 0 -0.029373170896887024 0.00257562991488622 0 -0.030485916130851991 0.0021155431663523326 0 -0.029970810449902831 0.0016191579631212518 0 -0.029373170896887024 0.00257562991488622 0 -0.029970810449902831 0.0016191579631212518 0 -0.029138455193419521 0.0020782950678738402 0 -0.029970810449902831 0.0016191579631212518 0 -0.029339689952862041 0.0013497342520751054 0 -0.029138455193419521 0.0020782950678738402 0 -0.030606059666603087 0.0015762739794730712 0 -0.029970810449902831 0.0016191579631212518 0 -0.030614059948985178 0.0010002901922615401 0 -0.030606059666603087 0.0015762739794730712 0 -0.030485916130851991 0.0021155431663523326 0 -0.029970810449902831 0.0016191579631212518 0 -0.023911904114624578 0.00063501595196084105 0 -0.024905119505973135 0.00052657451339887043 0 -0.019322947337531746 -2.2269349612836416e-05 0 -0.018914990083361161 -0.00011915932903254846 0 -0.019030283432986246 7.4291495131318931e-05 0 -0.029970810449902831 0.0016191579631212518 0 -0.030036590081279031 0.00035416282446639114 0 -0.030614059948985178 0.0010002901922615401 0 -0.030036590081279031 0.00035416282446639114 0 -0.029337521232846487 0.00030091130408001562 0 -0.029339689952862041 0.0013497342520751054 0 -0.029970810449902831 0.0016191579631212518 0 -0.030036590081279031 0.00035416282446639114 0 -0.029339689952862041 0.0013497342520751054 0 -0.030036590081279031 0.00035416282446639114 0 -0.029337521232846487 0.00030091130408001562 0 -0.029364317958157384 -0.000787226975737475 0 -0.023911904114624578 0.00063501595196084105 0 -0.021961844118071935 0.00062255579334209536 0 -0.019322947337531746 -2.2269349612836416e-05 0 -0.018914990083361161 -0.00011915932903254846 0 -0.019216246961179569 0.00035264100717030444 0 -0.018914990083361161 -0.00011915932903254846 0 -0.017811789364956688 0.00028431593279112054 0 -0.020132075484481499 -0.00013253386189708167 0 -0.018914990083361161 -0.00011915932903254846 0 -0.017811789364956688 0.00028431593279112054 0 -0.019216246961179569 0.00035264100717030444 0 -0.019430392360097564 -4.9996448676345378e-07 0 -0.017811789364956688 0.00028431593279112054 0 -0.020132075484481499 -0.00013253386189708167 0 -0.023851368399107023 3.0993475774322899e-06 0 -0.019430392360097564 -4.9996448676345378e-07 0 -0.020132075484481499 -0.00013253386189708167 0 -0.023851368399107023 3.0993475774322899e-06 0 -0.020132075484481499 -0.00013253386189708167 0 -0.021169771047917309 0.00028786807248580305 0 -0.020132075484481499 -0.00013253386189708167 0 -0.021169771047917309 0.00028786807248580305 0 -0.019030283432986246 7.4291495131318931e-05 0 -0.018914990083361161 -0.00011915932903254846 0 -0.020132075484481499 -0.00013253386189708167 0 -0.019030283432986246 7.4291495131318931e-05 0 -0.027935165429107494 0.0014799505795929475 0 -0.026817392392470486 0.0015979741501378137 0 -0.027376953968198534 0.00037624987531246118 0 -0.026817392392470486 0.0015979741501378137 0 -0.026253236715972312 3.1058463916114982e-05 0 -0.027376953968198534 0.00037624987531246118 0 -0.027935165429107494 0.0014799505795929475 0 -0.027376953968198534 0.00037624987531246118 0 -0.028174075913320638 0.00036490207518701944 0 -0.026817392392470486 0.0015979741501378137 0 -0.026253236715972312 3.1058463916114982e-05 0 -0.024281235822442827 0.00040118404182966442 0 -0.026817392392470486 0.0015979741501378137 0 -0.025862145122622051 0.0027189730291859362 0 -0.024281235822442827 0.00040118404182966442 0 -0.026253236715972312 3.1058463916114982e-05 0 -0.025429606372991985 -0.0012835534442883693 0 -0.024281235822442827 0.00040118404182966442 0 -0.026253236715972312 3.1058463916114982e-05 0 -0.025429606372991985 -0.0012835534442883693 0 -0.026946739869454076 -0.00092395499845009891 0 -0.026253236715972312 3.1058463916114982e-05 0 -0.026946739869454076 -0.00092395499845009891 0 -0.027376953968198534 0.00037624987531246118 0 -0.027376953968198534 0.00037624987531246118 0 -0.027702070593771992 -0.00058540587989529833 0 -0.028174075913320638 0.00036490207518701944 0 -0.026946739869454076 -0.00092395499845009891 0 -0.027376953968198534 0.00037624987531246118 0 -0.027702070593771992 -0.00058540587989529833 0 -0.026946739869454076 -0.00092395499845009891 0 -0.027702070593771992 -0.00058540587989529833 0 -0.027616127636745695 -0.0013274756328024327 0 -0.027702070593771992 -0.00058540587989529833 0 -0.028368963638136686 -0.00047819052199518452 0 -0.028064517621573394 -0.0011668901194931123 0 -0.028368963638136686 -0.00047819052199518452 0 -0.028573316983290485 -0.00099078952919569871 0 -0.028064517621573394 -0.0011668901194931123 0 -0.028368963638136686 -0.00047819052199518452 0 -0.028739492512867299 0.0001744172717097986 0 -0.028882262179026494 -0.00041878345253202611 0 -0.028368963638136686 -0.00047819052199518452 0 -0.028882262179026494 -0.00041878345253202611 0 -0.028573316983290485 -0.00099078952919569871 0 -0.028368963638136686 -0.00047819052199518452 0 -0.028739492512867299 0.0001744172717097986 0 -0.028174075913320638 0.00036490207518701944 0 -0.027702070593771992 -0.00058540587989529833 0 -0.028368963638136686 -0.00047819052199518452 0 -0.028174075913320638 0.00036490207518701944 0 -0.028882262179026494 -0.00041878345253202611 0 -0.029337521232846487 0.00030091130408001562 0 -0.029364317958157384 -0.000787226975737475 0 -0.028739492512867299 0.0001744172717097986 0 -0.028882262179026494 -0.00041878345253202611 0 -0.029337521232846487 0.00030091130408001562 0 -0.029337521232846487 0.00030091130408001562 0 -0.028709649641685681 0.0010178656485262763 0 -0.029339689952862041 0.0013497342520751054 0 -0.028739492512867299 0.0001744172717097986 0 -0.029337521232846487 0.00030091130408001562 0 -0.028709649641685681 0.0010178656485262763 0 -0.027935165429107494 0.0014799505795929475 0 -0.028174075913320638 0.00036490207518701944 0 -0.028709649641685681 0.0010178656485262763 0 -0.028739492512867299 0.0001744172717097986 0 -0.028174075913320638 0.00036490207518701944 0 -0.028709649641685681 0.0010178656485262763 0 -0.027935165429107494 0.0014799505795929475 0 -0.028709649641685681 0.0010178656485262763 0 -0.028537236382723621 0.0021748115785299805 0 -0.028709649641685681 0.0010178656485262763 0 -0.028537236382723621 0.0021748115785299805 0 -0.029339689952862041 0.0013497342520751054 0 -0.028537236382723621 0.0021748115785299805 0 -0.029339689952862041 0.0013497342520751054 0 -0.029138455193419521 0.0020782950678738402 0 -0.029373170896887024 0.00257562991488622 0 -0.029138455193419521 0.0020782950678738402 0 -0.028686918851434155 0.0024547460205792066 0 -0.028537236382723621 0.0021748115785299805 0 -0.029138455193419521 0.0020782950678738402 0 -0.028686918851434155 0.0024547460205792066 0 -0.028537236382723621 0.0021748115785299805 0 -0.028340380865450085 0.0027157487497402872 0 -0.028686918851434155 0.0024547460205792066 0 -0.028340380865450085 0.0027157487497402872 0 -0.027544373190113901 0.0026267106186508844 0 -0.027858224469220906 0.0030245822018809855 0 -0.028537236382723621 0.0021748115785299805 0 -0.028340380865450085 0.0027157487497402872 0 -0.027544373190113901 0.0026267106186508844 0 -0.028340380865450085 0.0027157487497402872 0 -0.027858224469220906 0.0030245822018809855 0 -0.028498254119132881 0.0026389294010996851 0 -0.027935165429107494 0.0014799505795929475 0 -0.028537236382723621 0.0021748115785299805 0 -0.027544373190113901 0.0026267106186508844 0 -0.027935165429107494 0.0014799505795929475 0 -0.026817392392470486 0.0015979741501378137 0 -0.027544373190113901 0.0026267106186508844 0 -0.025862145122622051 0.0027189730291859362 0 -0.026990376224240969 0.0032351577610958224 0 -0.025100896218164245 0.0038666875579642002 0 -0.027544373190113901 0.0026267106186508844 0 -0.025862145122622051 0.0027189730291859362 0 -0.026990376224240969 0.0032351577610958224 0 -0.026817392392470486 0.0015979741501378137 0 -0.027544373190113901 0.0026267106186508844 0 -0.025862145122622051 0.0027189730291859362 0 -0.026990376224240969 0.0032351577610958224 0 -0.025100896218164245 0.0038666875579642002 0 -0.027123536663828961 0.0031417226590740904 0 -0.027544373190113901 0.0026267106186508844 0 -0.026990376224240969 0.0032351577610958224 0 -0.027858224469220906 0.0030245822018809855 0 -0.026990376224240969 0.0032351577610958224 0 -0.027858224469220906 0.0030245822018809855 0 -0.028055073433496051 0.0032215127007551936 0 -0.026990376224240969 0.0032351577610958224 0 -0.028055073433496051 0.0032215127007551936 0 -0.027123536663828961 0.0031417226590740904 0 -0.028056962261039469 0.0041639434521067208 0 -0.027808384363788415 0.0045927654432103534 0 -0.028055073433496051 0.0032215127007551936 0 -0.026833345454636746 0.0049822473734966698 0 -0.027123536663828961 0.0031417226590740904 0 -0.028055073433496051 0.0032215127007551936 0 -0.028888489022949597 0.0023204465910866257 0 -0.029927222049574768 0.0020351358310820452 0 -0.028888489022949597 0.0023204465910866257 0 -0.029409637503625959 0.0016886238450790579 0 -0.029927222049574768 0.0020351358310820452 0 -0.028888489022949597 0.0023204465910866257 0 -0.028498254119132881 0.0026389294010996851 0 -0.029238129498307407 0.0018113252135383679 0 -0.028055073433496051 0.0032215127007551936 0 -0.028888489022949597 0.0023204465910866257 0 -0.028498254119132881 0.0026389294010996851 0 -0.027858224469220906 0.0030245822018809855 0 -0.028055073433496051 0.0032215127007551936 0 -0.028498254119132881 0.0026389294010996851 0 -0.028340380865450085 0.0027157487497402872 0 -0.028498254119132881 0.0026389294010996851 0 -0.028934924440833797 0.0022290318129096691 0 -0.028498254119132881 0.0026389294010996851 0 -0.029238129498307407 0.0018113252135383679 0 -0.028934924440833797 0.0022290318129096691 0 -0.029238129498307407 0.0018113252135383679 0 -0.029677208608690157 0.001219433889570604 0 -0.030283051983698496 0.00039663692460187658 0 -0.029238129498307407 0.0018113252135383679 0 -0.028934924440833797 0.0022290318129096691 0 -0.030283051983698496 0.00039663692460187658 0 -0.029677208608690157 0.001219433889570604 0 -0.029409637503625959 0.0016886238450790579 0 -0.02985694554515449 0.0012810343295684094 0 -0.029677208608690157 0.001219433889570604 0 -0.029944212275569086 0.00090958445083916815 0 -0.02985694554515449 0.0012810343295684094 0 -0.029409637503625959 0.0016886238450790579 0 -0.029927222049574768 0.0020351358310820452 0 -0.02985694554515449 0.0012810343295684094 0 -0.029238129498307407 0.0018113252135383679 0 -0.029677208608690157 0.001219433889570604 0 -0.029409637503625959 0.0016886238450790579 0 -0.028888489022949597 0.0023204465910866257 0 -0.029238129498307407 0.0018113252135383679 0 -0.029409637503625959 0.0016886238450790579 0 -0.030571040362079104 0.0001773682580190453 0 -0.030635889485944801 0.00032408979373360977 0 -0.029373170896887024 0.00257562991488622 0 -0.028686918851434155 0.0024547460205792066 0 -0.028514056053595308 0.0021711778964094487 0 -0.028686918851434155 0.0024547460205792066 0 -0.028934924440833797 0.0022290318129096691 0 -0.028514056053595308 0.0021711778964094487 0 -0.028340380865450085 0.0027157487497402872 0 -0.028686918851434155 0.0024547460205792066 0 -0.028934924440833797 0.0022290318129096691 0 -0.028934924440833797 0.0022290318129096691 0 -0.028514056053595308 0.0021711778964094487 0 -0.030283051983698496 0.00039663692460187658 0 -0.030635889485944801 0.00032408979373360977 0 -0.030553862883511827 0.00036996073191296601 0 -0.033872888367702254 -0.00084691665092579695 0 -0.032917597514663659 -0.0012075965563821999 0 -0.033540558907759609 -0.00024810432401226935 0 -0.032917597514663659 -0.0012075965563821999 0 -0.033540558907759609 -0.00024810432401226935 0 -0.030283051983698496 0.00039663692460187658 0 -0.033540558907759609 -0.00024810432401226935 0 -0.032211562653672955 0.00069929359235197653 0 -0.030283051983698496 0.00039663692460187658 0 -0.034798116642175726 2.8329161391383987e-05 0 -0.033540558907759609 -0.00024810432401226935 0 -0.032211562653672955 0.00069929359235197653 0 -0.029944212275569086 0.00090958445083916815 0 -0.030255820272947501 0.00078994188868077595 0 -0.030011214654987982 0.00089997618223413558 0 -0.029944212275569086 0.00090958445083916815 0 -0.03001569735907712 0.0010242655383641054 0 -0.02985694554515449 0.0012810343295684094 0 -0.029944212275569086 0.00090958445083916815 0 -0.030011214654987982 0.00089997618223413558 0 -0.03001569735907712 0.0010242655383641054 0 -0.030283051983698496 0.00039663692460187658 0 -0.03091397537685233 0.00084041932076286659 0 -0.030255820272947501 0.00078994188868077595 0 -0.029677208608690157 0.001219433889570604 0 -0.029944212275569086 0.00090958445083916815 0 -0.030283051983698496 0.00039663692460187658 0 -0.029944212275569086 0.00090958445083916815 0 -0.030283051983698496 0.00039663692460187658 0 -0.030255820272947501 0.00078994188868077595 0 -0.032211562653672955 0.00069929359235197653 0 -0.030283051983698496 0.00039663692460187658 0 -0.03091397537685233 0.00084041932076286659 0 -0.030476758986522936 0.0011671915853420087 0 -0.03091397537685233 0.00084041932076286659 0 -0.030255820272947501 0.00078994188868077595 0 -0.030476758986522936 0.0011671915853420087 0 -0.030255820272947501 0.00078994188868077595 0 -0.030157385338659162 0.00093974617511575153 0 -0.030255820272947501 0.00078994188868077595 0 -0.030157385338659162 0.00093974617511575153 0 -0.030011214654987982 0.00089997618223413558 0 -0.030476758986522936 0.0011671915853420087 0 -0.030157385338659162 0.00093974617511575153 0 -0.030103986247947835 0.0011551657016809821 0 -0.030103986247947835 0.0011551657016809821 0 -0.029904575987323795 0.0010713387222055963 0 -0.030008917034700405 0.00093066259002858834 0 -0.030157385338659162 0.00093974617511575153 0 -0.030103986247947835 0.0011551657016809821 0 -0.030008917034700405 0.00093066259002858834 0 -0.029827884132427318 0.0015292863722714829 0 -0.029904575987323795 0.0010713387222055963 0 -0.029601227196432593 0.0010982365359564787 0 -0.029904575987323795 0.0010713387222055963 0 -0.029836397269395964 0.00099015171292793315 0 -0.029601227196432593 0.0010982365359564787 0 -0.029904575987323795 0.0010713387222055963 0 -0.029836397269395964 0.00099015171292793315 0 -0.029927052223285032 0.00093705705169486446 0 -0.029836397269395964 0.00099015171292793315 0 -0.029927052223285032 0.00093705705169486446 0 -0.029903685693035434 0.00087148744240179922 0 -0.029904575987323795 0.0010713387222055963 0 -0.029927052223285032 0.00093705705169486446 0 -0.030008917034700405 0.00093066259002858834 0 -0.029927052223285032 0.00093705705169486446 0 -0.030008917034700405 0.00093066259002858834 0 -0.029962511497858679 0.00090238555898594153 0 -0.029927052223285032 0.00093705705169486446 0 -0.029962511497858679 0.00090238555898594153 0 -0.029903685693035434 0.00087148744240179922 0 -0.030157385338659162 0.00093974617511575153 0 -0.030008917034700405 0.00093066259002858834 0 -0.030011214654987982 0.00089997618223413558 0 -0.029962511497858679 0.00090238555898594153 0 -0.03001569735907712 0.0010242655383641054 0 -0.030246107507108926 0.0012080716787412219 0 -0.030011214654987982 0.00089997618223413558 0 -0.029962511497858679 0.00090238555898594153 0 -0.03001569735907712 0.0010242655383641054 0 -0.028247415929099715 0.0042428346633293073 0 -0.027715328887859558 0.0050477504027104277 0 -0.030008917034700405 0.00093066259002858834 0 -0.030011214654987982 0.00089997618223413558 0 -0.029962511497858679 0.00090238555898594153 0 -0.029962511497858679 0.00090238555898594153 0 -0.029903685693035434 0.00087148744240179922 0 -0.030246107507108926 0.0012080716787412219 0 -0.029094065226566341 0.0058505572707898959 0 -0.025972239084239859 0.0067566051260572078 0 -0.027729513734744585 0.0054851769678279884 0 -0.028037708267927362 0.0058541676324584506 0 -0.028216784800066765 0.0047827662333958824 0 -0.029094065226566341 0.0058505572707898959 0 -0.029954775440989539 0.0066138211283984965 0 -0.029094065226566341 0.0058505572707898959 0 -0.027715328887859558 0.0050477504027104277 0 -0.029094065226566341 0.0058505572707898959 0 -0.028247415929099715 0.0042428346633293073 0 -0.029094065226566341 0.0058505572707898959 0 -0.034830989434706278 0.0046676400409114711 0 -0.029371373905812022 0.00030464067777626335 0 -0.029672404937374733 0.00066348779382318713 0 -0.029601227196432593 0.0010982365359564787 0 -0.029371373905812022 0.00030464067777626335 0 -0.029601227196432593 0.0010982365359564787 0 -0.028736055931597237 0.0011921847053170172 0 -0.028247415929099715 0.0042428346633293073 0 -0.028351208343604026 0.00380933446017716 0 -0.029836397269395964 0.00099015171292793315 0 -0.029903685693035434 0.00087148744240179922 0 -0.029601227196432593 0.0010982365359564787 0 -0.036737838878608167 0.0061677198788803083 0 -0.037495450030319961 0.0051030851168354548 0 -0.037699226097042682 0.00598195120693246 0 -0.037495450030319961 0.0051030851168354548 0 -0.038289436932975339 0.0053580103817055334 0 -0.037699226097042682 0.00598195120693246 0 -0.038556251293782595 0.0057881770429688388 0 -0.038852434956902659 0.0062310531717407374 0 -0.038943289445660452 0.0053385485023154837 0 -0.038289436932975339 0.0053580103817055334 0 -0.038201671347901971 0.0058505432119400234 0 -0.038556251293782595 0.0057881770429688388 0 -0.038289436932975339 0.0053580103817055334 0 -0.038201671347901971 0.0058505432119400234 0 -0.037699226097042682 0.00598195120693246 0 -0.038289436932975339 0.0053580103817055334 0 -0.038556251293782595 0.0057881770429688388 0 -0.038943289445660452 0.0053385485023154837 0 -0.038852434956902659 0.0062310531717407374 0 -0.038506002205602519 0.0066958561164824721 0 -0.039013804878168412 0.0071294958441568777 0 -0.038556251293782595 0.0057881770429688388 0 -0.038852434956902659 0.0062310531717407374 0 -0.038333421568407113 0.0062114832455766877 0 -0.038201671347901971 0.0058505432119400234 0 -0.038333421568407113 0.0062114832455766877 0 -0.037699226097042682 0.00598195120693246 0 -0.038201671347901971 0.0058505432119400234 0 -0.038556251293782595 0.0057881770429688388 0 -0.038333421568407113 0.0062114832455766877 0 -0.038333421568407113 0.0062114832455766877 0 -0.038506002205602519 0.0066958561164824721 0 -0.038004916938120768 0.0065483839342639957 0 -0.038852434956902659 0.0062310531717407374 0 -0.038333421568407113 0.0062114832455766877 0 -0.038506002205602519 0.0066958561164824721 0 -0.036737838878608167 0.0061677198788803083 0 -0.037699226097042682 0.00598195120693246 0 -0.037416486411477691 0.0066638205005178338 0 -0.029042155687419559 0.0066682177232768158 0 -0.028220215631765067 0.006055488762390507 0 -0.027971383063449321 0.0053716802646751839 0 -0.038333421568407113 0.0062114832455766877 0 -0.037699226097042682 0.00598195120693246 0 -0.038004916938120768 0.0065483839342639957 0 -0.037699226097042682 0.00598195120693246 0 -0.038004916938120768 0.0065483839342639957 0 -0.037416486411477691 0.0066638205005178338 0 -0.029954775440989539 0.0066138211283984965 0 -0.029200941625812268 0.0066737021935592703 0 -0.038004916938120768 0.0065483839342639957 0 -0.037416486411477691 0.0066638205005178338 0 -0.038070797373021485 0.0071899399991438521 0 -0.028220215631765067 0.006055488762390507 0 -0.027971383063449321 0.0053716802646751839 0 -0.027425110854325557 0.0054042933710848453 0 -0.025972239084239859 0.0067566051260572078 0 -0.029200941625812268 0.0066737021935592703 0 -0.03515590819184037 0.0080700648013947683 0 -0.033902489370210412 0.0081434372144539979 0 -0.03354651990331433 0.006730865634645194 0 -0.029200941625812268 0.0066737021935592703 0 -0.037316587456107567 0.006602544770702449 0 -0.01878864882747441 0.012864610120857656 0 -0.017182556166109021 0.012969066789141673 0 -0.015685902252217478 0.0095571131569356475 0 -0.038506002205602519 0.0066958561164824721 0 -0.038070797373021485 0.0071899399991438521 0 -0.039013804878168412 0.0071294958441568777 0 -0.038506002205602519 0.0066958561164824721 0 -0.038004916938120768 0.0065483839342639957 0 -0.038070797373021485 0.0071899399991438521 0 -0.023555897245950988 0.0070290017347322542 0 -0.022592746997288197 0.0059452262428497842 0 -0.022370475789854943 0.0058183966873745973 0 -0.029200941625812268 0.0066737021935592703 0 -0.025280519439915064 0.0059803489402562469 0 -0.017182556166109021 0.012969066789141673 0 -0.015685902252217478 0.0095571131569356475 0 -0.012964932244072408 0.0095849003017584016 0 -0.025972239084239859 0.0067566051260572078 0 -0.020674411211552061 0.0060686838327578341 0 -0.022560593791869636 0.0059332499148027984 0 -0.023094444581465381 0.0054494864307383555 0 -0.022506193697186427 0.0052700026453721838 0 -0.022592746997288197 0.0059452262428497842 0 -0.022370475789854943 0.0058183966873745973 0 -0.02164831003791531 0.0048624309855032424 0 -0.023448604901943868 0.0069800821121472996 0 -0.023610319523061852 0.005950754904674809 0 -0.02449966981096147 0.0060173288098392414 0 -0.023448604901943868 0.0069800821121472996 0 -0.022560593791869636 0.0059332499148027984 0 -0.023610319523061852 0.005950754904674809 0 -0.025972239084239859 0.0067566051260572078 0 -0.024148674966433567 0.0056354102013438604 0 -0.022560593791869636 0.0059332499148027984 0 -0.023610319523061852 0.005950754904674809 0 -0.023094444581465381 0.0054494864307383555 0 -0.023610319523061852 0.005950754904674809 0 -0.02415417624921844 0.0050620151804189103 0 -0.023094444581465381 0.0054494864307383555 0 -0.023610319523061852 0.005950754904674809 0 -0.02449966981096147 0.0060173288098392414 0 -0.02415417624921844 0.0050620151804189103 0 -0.027128152911510175 0.0053370958868657172 0 -0.024984266425030866 0.0054135237657180584 0 -0.02449966981096147 0.0060173288098392414 0 -0.025326196109684007 0.0068569591201887428 0 -0.025584509737307939 0.0052794919718461121 0 -0.026833345454636746 0.0049822473734966698 0 -0.026350591990756341 0.0030261005807984851 0 -0.027123536663828961 0.0031417226590740904 0 -0.026833345454636746 0.0049822473734966698 0 -0.025912013408656207 0.0057571421375115436 0 -0.026350591990756341 0.0030261005807984851 0 -0.026833345454636746 0.0049822473734966698 0 -0.025912013408656207 0.0057571421375115436 0 -0.026295420605832818 0.005760584938193097 0 -0.027395658173673915 0.005712733181118243 0 -0.027127255455272524 0.005710007760905432 0 -0.027480782196498757 0.0051983335345188592 0 -0.027128152911510175 0.0053370958868657172 0 -0.027455572871352873 0.0051706798437235902 0 -0.029927222049574768 0.0020351358310820452 0 -0.030169409320945088 0.0015612060706986376 0 -0.02985694554515449 0.0012810343295684094 0 -0.027808384363788415 0.0045927654432103534 0 -0.027455572871352873 0.0051706798437235902 0 -0.030169409320945088 0.0015612060706986376 0 -0.02985694554515449 0.0012810343295684094 0 -0.030246107507108926 0.0012080716787412219 0 -0.03001569735907712 0.0010242655383641054 0 -0.02985694554515449 0.0012810343295684094 0 -0.030246107507108926 0.0012080716787412219 0 -0.027128152911510175 0.0053370958868657172 0 -0.027715328887859558 0.0050477504027104277 0 -0.027455572871352873 0.0051706798437235902 0 -0.027715328887859558 0.0050477504027104277 0 -0.023448604901943868 0.0069800821121472996 0 -0.02449966981096147 0.0060173288098392414 0 -0.025326196109684007 0.0068569591201887428 0 -0.025972239084239859 0.0067566051260572078 0 -0.027128152911510175 0.0053370958868657172 0 -0.027548501327382669 0.00591285610668501 0 -0.027743030761055592 0.0058994926081662414 0 -0.02773615356398932 0.0059431558089468447 0 -0.027665082923222211 0.0060472257217208392 0 -0.027548501327382669 0.00591285610668501 0 -0.02773615356398932 0.0059431558089468447 0 -0.058492125328562274 0.0082256420923486392 0 -0.057913177212400316 0.0053611035310500588 0 -0.055046683627565936 0.0074402022831695624 0 -0.058492125328562274 0.0082256420923486392 0 -0.060477714779624103 0.0053668776642090323 0 -0.057913177212400316 0.0053611035310500588 0 -0.060450082993495531 0.010951975895210794 0 -0.058492125328562274 0.0082256420923486392 0 -0.056840132240793206 0.011319185786741343 0 -0.060450082993495531 0.010951975895210794 0 -0.058492125328562274 0.0082256420923486392 0 -0.061564115906554251 0.0078532745462110733 0 -0.058492125328562274 0.0082256420923486392 0 -0.061564115906554251 0.0078532745462110733 0 -0.060477714779624103 0.0053668776642090323 0 -0.061564115906554251 0.0078532745462110733 0 -0.06293513505761783 0.0052745364519170782 0 -0.060477714779624103 0.0053668776642090323 0 -0.061564115906554251 0.0078532745462110733 0 -0.063091652609356383 0.0096053076799016042 0 -0.064156679752316412 0.0075270561756950972 0 -0.061564115906554251 0.0078532745462110733 0 -0.064156679752316412 0.0075270561756950972 0 -0.06293513505761783 0.0052745364519170782 0 -0.060450082993495531 0.010951975895210794 0 -0.061564115906554251 0.0078532745462110733 0 -0.063091652609356383 0.0096053076799016042 0 -0.047731900153802305 0.0086762851991471681 0 -0.047915527696753217 0.0078090248931671239 0 -0.063091652609356383 0.0096053076799016042 0 -0.065339446426872894 0.009740336910004057 0 -0.064156679752316412 0.0075270561756950972 0 -0.062861955835760125 0.011919060239401553 0 -0.063091652609356383 0.0096053076799016042 0 -0.065339446426872894 0.009740336910004057 0 -0.038852434956902659 0.0062310531717407374 0 -0.038943289445660452 0.0053385485023154837 0 -0.039450537085770898 0.0061995777204012364 0 -0.047915527696753217 0.0078090248931671239 0 -0.04643076979970135 0.0062311403607109633 0 -0.038852434956902659 0.0062310531717407374 0 -0.039450537085770898 0.0061995777204012364 0 -0.039013804878168412 0.0071294958441568777 0 -0.039450537085770898 0.0061995777204012364 0 -0.039013804878168412 0.0071294958441568777 0 -0.0399608595377949 0.0070681148431700801 0 -0.033902489370210412 0.0081434372144539979 0 -0.03354651990331433 0.006730865634645194 0 -0.032633792803636222 0.0082280830269134807 0 -0.037316587456107567 0.006602544770702449 0 -0.04643076979970135 0.0062311403607109633 0 -0.03354651990331433 0.006730865634645194 0 -0.031826276540934242 0.0068304095550236225 0 -0.032633792803636222 0.0082280830269134807 0 -0.062077789942258842 0.0019431481962754696 0 -0.063734799535579742 0.0049347332686695443 0 -0.060829611154531976 0.0051276446673486024 0 -0.042654800125449026 0.0059352846725538727 0 -0.04643076979970135 0.0062311403607109633 0 -0.04643076979970135 0.0062311403607109633 0 -0.055032514597700491 0.005658264886284411 0 -0.055032514597700491 0.005658264886284411 0 -0.056488607655151069 0.005554545922416638 0 -0.062077789942258842 0.0019431481962754696 0 -0.060829611154531976 0.0051276446673486024 0 -0.058666791326593172 0.002335040592614772 0 -0.062077789942258842 0.0019431481962754696 0 -0.058666791326593172 0.002335040592614772 0 -0.06037909401588696 -0.0011155827176521124 0 -0.058666791326593172 0.002335040592614772 0 -0.055698567429895658 0.0038377026050709453 0 -0.05626587760464092 0.0010003544292609039 0 -0.058666791326593172 0.002335040592614772 0 -0.057725368652194353 0.00013609609704116465 0 -0.05626587760464092 0.0010003544292609039 0 -0.058666791326593172 0.002335040592614772 0 -0.057913177212400316 0.0053611035310500588 0 -0.055698567429895658 0.0038377026050709453 0 -0.060829611154531976 0.0051276446673486024 0 -0.058666791326593172 0.002335040592614772 0 -0.057913177212400316 0.0053611035310500588 0 -0.058607523398348148 -0.0042110297295487173 0 -0.058149273558338203 -0.0032098682590655783 0 -0.06037909401588696 -0.0011155827176521124 0 -0.057054761496451584 -0.0039102532813774273 0 -0.058149273558338203 -0.0032098682590655783 0 -0.057786366798508099 -0.0049122805088506957 0 -0.057054761496451584 -0.0039102532813774273 0 -0.058149273558338203 -0.0032098682590655783 0 -0.056928513863368897 -0.0026133137311640377 0 -0.057054761496451584 -0.0039102532813774273 0 -0.056928513863368897 -0.0026133137311640377 0 -0.055848873852835434 -0.0037897004673548233 0 -0.058607523398348148 -0.0042110297295487173 0 -0.058149273558338203 -0.0032098682590655783 0 -0.057730388177164284 -0.0048902496714229643 0 -0.026804603954095022 0.0028391666746404483 0 -0.025480861836994845 0.0031229342354149865 0 -0.058149273558338203 -0.0032098682590655783 0 -0.05827303346675608 -0.0014724973129525893 0 -0.06037909401588696 -0.0011155827176521124 0 -0.058149273558338203 -0.0032098682590655783 0 -0.056928513863368897 -0.0026133137311640377 0 -0.05827303346675608 -0.0014724973129525893 0 -0.056928513863368897 -0.0026133137311640377 0 -0.056727686881793811 -0.00098442281221671857 0 -0.05827303346675608 -0.0014724973129525893 0 -0.058666791326593172 0.002335040592614772 0 -0.057725368652194353 0.00013609609704116465 0 -0.06037909401588696 -0.0011155827176521124 0 -0.056727686881793811 -0.00098442281221671857 0 -0.057725368652194353 0.00013609609704116465 0 -0.05827303346675608 -0.0014724973129525893 0 -0.057725368652194353 0.00013609609704116465 0 -0.05827303346675608 -0.0014724973129525893 0 -0.06037909401588696 -0.0011155827176521124 0 -0.056727686881793811 -0.00098442281221671857 0 -0.057725368652194353 0.00013609609704116465 0 -0.05626587760464092 0.0010003544292609039 0 -0.031826276540934242 0.0068304095550236225 0 -0.030997405395800152 0.0053966191903189907 0 -0.031886519597347916 0.0053461520653372997 0 -0.042654800125449026 0.0059352846725538727 0 -0.036702888343567476 0.0052553438324913848 0 -0.026086993207869242 0.0035243908394991747 0 -0.02328354481340679 0.0041794155930244071 0 -0.026086993207869242 0.0035243908394991747 0 -0.036702888343567476 0.0052553438324913848 0 -0.030170874857967604 0.0039241890793663666 0 -0.030997405395800152 0.0053966191903189907 0 -0.031886519597347916 0.0053461520653372997 0 -0.0061395240069884623 0.0036356100058404783 0 -0.0082415738137804617 0.0040023007336940381 0 -0.0090512127655713991 0.0063004764275721471 0 -0.0082415738137804617 0.0040023007336940381 0 -0.0104306059832184 0.0043455961452501281 0 -0.0084553344416286123 0.0026184665543058077 0 -0.0096964635195675303 0.0044767377702448798 0 -0.011451985738910736 0.0041510451942984913 0 -0.009761484766750499 0.00288370302174807 0 -0.0104306059832184 0.0043455961452501281 0 -0.0090512127655713991 0.0063004764275721471 0 -0.010928463975445208 0.0061464866611390346 0 -0.0082415738137804617 0.0040023007336940381 0 -0.0104306059832184 0.0043455961452501281 0 -0.0090512127655713991 0.0063004764275721471 0 -0.03354651990331433 0.006730865634645194 0 -0.031826276540934242 0.0068304095550236225 0 -0.031886519597347916 0.0053461520653372997 0 -0.012964932244072408 0.0095849003017584016 0 -0.0090512127655713991 0.0063004764275721471 0 -0.010928463975445208 0.0061464866611390346 0 -0.025280519439915064 0.0059803489402562469 0 -0.02328354481340679 0.0041794155930244071 0 -0.015500342443016601 0.0044714829950663892 0 -0.016066448646933552 0.0044711125905036245 0 -0.015685902252217478 0.0095571131569356475 0 -0.012964932244072408 0.0095849003017584016 0 -0.012672486665500681 0.0063798315160116664 0 -0.012964932244072408 0.0095849003017584016 0 -0.010928463975445208 0.0061464866611390346 0 -0.012672486665500681 0.0063798315160116664 0 -0.022370475789854943 0.0058183966873745973 0 -0.021227275645125179 0.00460474749480795 0 -0.02164831003791531 0.0048624309855032424 0 -0.020674411211552061 0.0060686838327578341 0 -0.016066448646933552 0.0044711125905036245 0 -0.0113145103619896 0.0066371642470240714 0 -0.011451985738910736 0.0041510451942984913 0 -0.013264686638861821 0.0051639395168012053 0 -0.0096964635195675303 0.0044767377702448798 0 -0.0113145103619896 0.0066371642470240714 0 -0.011451985738910736 0.0041510451942984913 0 -0.013463114348959101 0.0033717415853250035 0 -0.016066448646933552 0.0044711125905036245 0 -0.0104306059832184 0.0043455961452501281 0 -0.010928463975445208 0.0061464866611390346 0 -0.012451738088014338 0.0063628875557069963 0 -0.011020838503203288 0.0020057439251487692 0 -0.01325554825804978 0.0030692034225632686 0 -0.012593385768435397 0.00036803782680033261 0 -0.011451985738910736 0.0041510451942984913 0 -0.011020838503203288 0.0020057439251487692 0 -0.01325554825804978 0.0030692034225632686 0 -0.011451985738910736 0.0041510451942984913 0 -0.011020838503203288 0.0020057439251487692 0 -0.009761484766750499 0.00288370302174807 0 -0.011020838503203288 0.0020057439251487692 0 -0.010601313270796489 0.00029683935992001038 0 -0.012593385768435397 0.00036803782680033261 0 -0.010601313270796489 0.00029683935992001038 0 -0.012593385768435397 0.00036803782680033261 0 -0.011242812676773538 -0.0011665357741874136 0 -0.010601313270796489 0.00029683935992001038 0 -0.0089969796818537874 0.0010635817231853691 0 -0.0094185538576053111 -0.0009602677536261013 0 -0.011020838503203288 0.0020057439251487692 0 -0.010601313270796489 0.00029683935992001038 0 -0.0089969796818537874 0.0010635817231853691 0 -0.0089969796818537874 0.0010635817231853691 0 -0.009761484766750499 0.00288370302174807 0 -0.0084553344416286123 0.0026184665543058077 0 -0.011020838503203288 0.0020057439251487692 0 -0.0089969796818537874 0.0010635817231853691 0 -0.009761484766750499 0.00288370302174807 0 -0.0096964635195675303 0.0044767377702448798 0 -0.009761484766750499 0.00288370302174807 0 -0.0084553344416286123 0.0026184665543058077 0 -0.013463114348959101 0.0033717415853250035 0 -0.012474217155246945 0.0028242226607407255 0 -0.0061395240069884623 0.0036356100058404783 0 -0.0082415738137804617 0.0040023007336940381 0 -0.0073727958403315792 0.0027400372672057288 0 -0.0082415738137804617 0.0040023007336940381 0 -0.0084553344416286123 0.0026184665543058077 0 -0.0073727958403315792 0.0027400372672057288 0 -0.0061395240069884623 0.0036356100058404783 0 -0.0073727958403315792 0.0027400372672057288 0 -0.0063832579807927134 0.0023251600982082351 0 -0.0073727958403315792 0.0027400372672057288 0 -0.0069829442005493597 0.0014502124285778685 0 -0.0063832579807927134 0.0023251600982082351 0 -0.0073727958403315792 0.0027400372672057288 0 -0.0078964102345533173 0.00165222183411504 0 -0.0069829442005493597 0.0014502124285778685 0 -0.0084553344416286123 0.0026184665543058077 0 -0.0073727958403315792 0.0027400372672057288 0 -0.0078964102345533173 0.00165222183411504 0 -0.0089969796818537874 0.0010635817231853691 0 -0.0084553344416286123 0.0026184665543058077 0 -0.0078964102345533173 0.00165222183411504 0 -0.0089969796818537874 0.0010635817231853691 0 -0.0078964102345533173 0.00165222183411504 0 -0.0072834881115951162 0.00060087415366199789 0 -0.0073338354522582095 0.00053768621425149459 0 -0.0065822694452377217 -6.4454330056512045e-05 0 -0.0089969796818537874 0.0010635817231853691 0 -0.0072834881115951162 0.00060087415366199789 0 -0.0073431085998445899 -0.00097139828411949155 0 -0.0072834881115951162 0.00060087415366199789 0 -0.0064650938739599789 0.00073523534383357749 0 -0.0063920443187213934 -5.6313929839188483e-05 0 -0.0072834881115951162 0.00060087415366199789 0 -0.0063920443187213934 -5.6313929839188483e-05 0 -0.0073431085998445899 -0.00097139828411949155 0 -0.0072834881115951162 0.00060087415366199789 0 -0.0069829442005493597 0.0014502124285778685 0 -0.0064650938739599789 0.00073523534383357749 0 -0.0078964102345533173 0.00165222183411504 0 -0.0072834881115951162 0.00060087415366199789 0 -0.0069829442005493597 0.0014502124285778685 0 -0.0069829442005493597 0.0014502124285778685 0 -0.0060014657118515665 0.0012791191969729783 0 -0.0064650938739599789 0.00073523534383357749 0 -0.0060014657118515665 0.0012791191969729783 0 -0.0064650938739599789 0.00073523534383357749 0 -0.0056840818264422329 0.00043633911319843825 0 -0.0063920443187213934 -5.6313929839188483e-05 0 -0.0056840818264422329 0.00043633911319843825 0 -0.0058969798818897844 -0.0007974318962463442 0 -0.0064650938739599789 0.00073523534383357749 0 -0.0063920443187213934 -5.6313929839188483e-05 0 -0.0056840818264422329 0.00043633911319843825 0 -0.0056840818264422329 0.00043633911319843825 0 -0.0053102539333765445 0.00058365171452829517 0 -0.0058969798818897844 -0.0007974318962463442 0 -0.015632931255734873 0.0031559534810191889 0 -0.015854389525382134 0.0031127571147539865 0 -0.019001840728307972 0.0020390516361955568 0 -0.019170476969782621 0.0027978505693649104 0 -0.018780322858415015 0.0021253234659615781 0 -0.015854389525382134 0.0031127571147539865 0 -0.021434901836244375 0.0027617833471354756 0 -0.015854389525382134 0.0031127571147539865 0 -0.016020852621001978 0.0030033042581729063 0 -0.021434901836244375 0.0027617833471354756 0 -0.016020852621001978 0.0030033042581729063 0 -0.0060014657118515665 0.0012791191969729783 0 -0.0052414271405654741 0.00060462630479123927 0 -0.0054858779312518136 0.0021901245611059181 0 -0.0060014657118515665 0.0012791191969729783 0 -0.0056840818264422329 0.00043633911319843825 0 -0.0052414271405654741 0.00060462630479123927 0 -0.022471743094425779 0.001569571578478541 0 -0.022826621733649362 0.0032307660222914035 0 -0.01861256803172762 -0.00019940027713130127 0 -0.0069829442005493597 0.0014502124285778685 0 -0.0060014657118515665 0.0012791191969729783 0 -0.0063832579807927134 0.0023251600982082351 0 -0.0060014657118515665 0.0012791191969729783 0 -0.0054858779312518136 0.0021901245611059181 0 -0.0063832579807927134 0.0023251600982082351 0 -0.023717439501017172 0.0040765950098653869 0 -0.023221207626451992 0.0032125201868390251 0 -0.023343665307635132 0.0037751937301572672 0 -0.0061395240069884623 0.0036356100058404783 0 -0.0054858779312518136 0.0021901245611059181 0 -0.0063832579807927134 0.0023251600982082351 0 -0.026086993207869242 0.0035243908394991747 0 -0.021434901836244375 0.0027617833471354756 0 -0.026086993207869242 0.0035243908394991747 0 -0.025480861836994845 0.0031229342354149865 0 -0.057054761496451584 -0.0039102532813774273 0 -0.057786366798508099 -0.0049122805088506957 0 -0.056046289302419582 -0.0050134236034570798 0 -0.021434901836244375 0.0027617833471354756 0 -0.025480861836994845 0.0031229342354149865 0 -0.021817466688205712 0.0057557679643593937 0 -0.019139023147162496 0.0035417460851230862 0 -0.022708455708811245 0.0025474871367448157 0 -0.021817466688205712 0.0057557679643593937 0 -0.019139023147162496 0.0035417460851230862 0 -0.018942663080124225 0.0081506791626807761 0 -0.021817466688205712 0.0057557679643593937 0 -0.025100896218164245 0.0038666875579642002 0 -0.022708455708811245 0.0025474871367448157 0 -0.025862145122622051 0.0027189730291859362 0 -0.025100896218164245 0.0038666875579642002 0 -0.022708455708811245 0.0025474871367448157 0 -0.021817466688205712 0.0057557679643593937 0 -0.025100896218164245 0.0038666875579642002 0 -0.024119917867937629 0.0091808795261936055 0 -0.025097547891060123 0.0048408113192039155 0 -0.024984266425030866 0.0054135237657180584 0 -0.025100896218164245 0.0038666875579642002 0 -0.027011070915374278 0.0032021798396245135 0 -0.027123536663828961 0.0031417226590740904 0 -0.024984266425030866 0.0054135237657180584 0 -0.025095906900496956 0.0053848617962948663 0 -0.024984266425030866 0.0054135237657180584 0 -0.021900122378360445 0.0055059221431956323 0 -0.02449966981096147 0.0060173288098392414 0 -0.025584509737307939 0.0052794919718461121 0 -0.02415417624921844 0.0050620151804189103 0 -0.021817466688205712 0.0057557679643593937 0 -0.024119917867937629 0.0091808795261936055 0 -0.018942663080124225 0.0081506791626807761 0 -0.018942663080124225 0.0081506791626807761 0 -0.014790441473371944 0.0074485112841292762 0 -0.015758069676825245 0.0046433050011547702 0 -0.021900122378360445 0.0055059221431956323 0 -0.018976844484603097 0.0051756041157939234 0 -0.02415417624921844 0.0050620151804189103 0 -0.023094444581465381 0.0054494864307383555 0 -0.022713378069071685 0.0048330564999923683 0 -0.016066448646933552 0.0044711125905036245 0 -0.018976844484603097 0.0051756041157939234 0 -0.021227275645125179 0.00460474749480795 0 -0.02164831003791531 0.0048624309855032424 0 -0.022713378069071685 0.0048330564999923683 0 -0.0113145103619896 0.0066371642470240714 0 -0.014790441473371944 0.0074485112841292762 0 -0.013264686638861821 0.0051639395168012053 0 -0.022560593791869636 0.0059332499148027984 0 -0.02164831003791531 0.0048624309855032424 0 -0.022506193697186427 0.0052700026453721838 0 -0.02164831003791531 0.0048624309855032424 0 -0.022506193697186427 0.0052700026453721838 0 -0.022713378069071685 0.0048330564999923683 0 -0.024148674966433567 0.0056354102013438604 0 -0.023495749742710743 0.0051741775313418024 0 -0.023094444581465381 0.0054494864307383555 0 -0.022506193697186427 0.0052700026453721838 0 -0.022713378069071685 0.0048330564999923683 0 -0.014790441473371944 0.0074485112841292762 0 -0.013264686638861821 0.0051639395168012053 0 -0.015758069676825245 0.0046433050011547702 0 -0.013264686638861821 0.0051639395168012053 0 -0.015758069676825245 0.0046433050011547702 0 -0.01325554825804978 0.0030692034225632686 0 -0.011451985738910736 0.0041510451942984913 0 -0.013264686638861821 0.0051639395168012053 0 -0.01325554825804978 0.0030692034225632686 0 -0.019139023147162496 0.0035417460851230862 0 -0.018942663080124225 0.0081506791626807761 0 -0.015758069676825245 0.0046433050011547702 0 -0.019139023147162496 0.0035417460851230862 0 -0.015758069676825245 0.0046433050011547702 0 -0.015915328677902404 0.0018511361343639078 0 -0.015915328677902404 0.0018511361343639078 0 -0.01325554825804978 0.0030692034225632686 0 -0.012593385768435397 0.00036803782680033261 0 -0.015758069676825245 0.0046433050011547702 0 -0.015915328677902404 0.0018511361343639078 0 -0.01325554825804978 0.0030692034225632686 0 -0.015915328677902404 0.0018511361343639078 0 -0.012593385768435397 0.00036803782680033261 0 -0.015875773346799224 -0.00093614312372150739 0 -0.015915328677902404 0.0018511361343639078 0 -0.015875773346799224 -0.00093614312372150739 0 -0.020006153351755047 0.00081325427692116158 0 -0.015875773346799224 -0.00093614312372150739 0 -0.020006153351755047 0.00081325427692116158 0 -0.021675120496196729 -0.0027222179592624697 0 -0.019139023147162496 0.0035417460851230862 0 -0.020006153351755047 0.00081325427692116158 0 -0.022708455708811245 0.0025474871367448157 0 -0.019139023147162496 0.0035417460851230862 0 -0.015915328677902404 0.0018511361343639078 0 -0.020006153351755047 0.00081325427692116158 0 -0.020006153351755047 0.00081325427692116158 0 -0.022708455708811245 0.0025474871367448157 0 -0.024281235822442827 0.00040118404182966442 0 -0.025862145122622051 0.0027189730291859362 0 -0.022708455708811245 0.0025474871367448157 0 -0.024281235822442827 0.00040118404182966442 0 -0.025429606372991985 -0.0012835534442883693 0 -0.024281235822442827 0.00040118404182966442 0 -0.021675120496196729 -0.0027222179592624697 0 -0.020006153351755047 0.00081325427692116158 0 -0.024281235822442827 0.00040118404182966442 0 -0.021675120496196729 -0.0027222179592624697 0 -0.018927331224471676 -0.0018550883845927086 0 -0.019652426237938062 -0.0020776506320125294 0 -0.016934615471014634 -0.0013488739262803525 0 -0.017340282661368289 -0.0022283530056787628 0 -0.018634169898241737 -0.001842807186708612 0 -0.025429606372991985 -0.0012835534442883693 0 -0.021675120496196729 -0.0027222179592624697 0 -0.025426223627659752 -0.0028036469275056959 0 -0.017340282661368289 -0.0022283530056787628 0 -0.016716686030847343 -0.0032405349828285132 0 -0.018487981823498985 -0.0027011780841086097 0 -0.011623494323390465 -0.0025978867628110324 0 -0.012634883443555754 -0.0021106198442511718 0 -0.0061847269516116417 -0.002303091654707341 0 -0.0055588895660618918 -0.0020019572378342076 0 -0.0056791094946184477 -0.0014192535108780455 0 -0.016716686030847343 -0.0032405349828285132 0 -0.015879878924815152 -0.002021286123814579 0 -0.013950640169615964 -0.0038689237134317727 0 -0.017340282661368289 -0.0022283530056787628 0 -0.016716686030847343 -0.0032405349828285132 0 -0.015879878924815152 -0.002021286123814579 0 -0.016934615471014634 -0.0013488739262803525 0 -0.017340282661368289 -0.0022283530056787628 0 -0.015879878924815152 -0.002021286123814579 0 -0.015875773346799224 -0.00093614312372150739 0 -0.016934615471014634 -0.0013488739262803525 0 -0.015879878924815152 -0.002021286123814579 0 -0.017865177547786423 -0.0015501952378450851 0 -0.018927331224471676 -0.0018550883845927086 0 -0.015875773346799224 -0.00093614312372150739 0 -0.015879878924815152 -0.002021286123814579 0 -0.01364983046990562 -0.001778660147566677 0 -0.012593385768435397 0.00036803782680033261 0 -0.015875773346799224 -0.00093614312372150739 0 -0.01364983046990562 -0.001778660147566677 0 -0.012593385768435397 0.00036803782680033261 0 -0.01364983046990562 -0.001778660147566677 0 -0.011242812676773538 -0.0011665357741874136 0 -0.01364983046990562 -0.001778660147566677 0 -0.011447748176488193 -0.0023721417361154849 0 -0.011242812676773538 -0.0011665357741874136 0 -0.01364983046990562 -0.001778660147566677 0 -0.011447748176488193 -0.0023721417361154849 0 -0.013950640169615964 -0.0038689237134317727 0 -0.015879878924815152 -0.002021286123814579 0 -0.01364983046990562 -0.001778660147566677 0 -0.013950640169615964 -0.0038689237134317727 0 -0.011623494323390465 -0.0025978867628110324 0 -0.010943679832320887 -0.0029177245284020322 0 -0.0061847269516116417 -0.002303091654707341 0 -0.0072000820156399034 -0.0030087025618539117 0 -0.0067683315816658681 -0.0021423249757443232 0 -0.010943679832320887 -0.0029177245284020322 0 -0.01054268520203548 -0.0030242264523555802 0 -0.0072000820156399034 -0.0030087025618539117 0 -0.0067683315816658681 -0.0021423249757443232 0 -0.0093116410199578 -0.0031753546570254835 0 -0.011447748176488193 -0.0023721417361154849 0 -0.013950640169615964 -0.0038689237134317727 0 -0.0093116410199578 -0.0031753546570254835 0 -0.0067683315816658681 -0.0021423249757443232 0 -0.0093116410199578 -0.0031753546570254835 0 -0.0074455065349710095 -0.0019298728710035152 0 -0.0067683315816658681 -0.0021423249757443232 0 -0.0060218720403744644 -0.0017183850459360737 0 -0.0060755706636114043 -0.0015663536425458667 0 -0.0060218720403744644 -0.0017183850459360737 0 -0.0060755706636114043 -0.0015663536425458667 0 -0.0057736703976104062 -0.00128050094989699 0 -0.0060218720403744644 -0.0017183850459360737 0 -0.0057736703976104062 -0.00128050094989699 0 -0.0056791094946184477 -0.0014192535108780455 0 -0.0061847269516116417 -0.002303091654707341 0 -0.0060218720403744644 -0.0017183850459360737 0 -0.0056791094946184477 -0.0014192535108780455 0 -0.0061847269516116417 -0.002303091654707341 0 -0.0067683315816658681 -0.0021423249757443232 0 -0.0060218720403744644 -0.0017183850459360737 0 -0.005149127132203858 -0.000434916886349843 0 -0.0065822694452377217 -6.4454330056512045e-05 0 -0.0059096564219894817 -0.0028781407784734584 0 -0.0058969798818897844 -0.0007974318962463442 0 -0.0048999109444083071 -0.001682838804973188 0 -0.0053102539333765445 0.00058365171452829517 0 -0.0058969798818897844 -0.0007974318962463442 0 -0.0048999109444083071 -0.001682838804973188 0 -0.0059096564219894817 -0.0028781407784734584 0 -0.0058969798818897844 -0.0007974318962463442 0 -0.0073431085998445899 -0.00097139828411949155 0 -0.015854389525382134 0.0031127571147539865 0 -0.0088488455240480126 0.0007588077278266721 0 -0.0063920443187213934 -5.6313929839188483e-05 0 -0.0058969798818897844 -0.0007974318962463442 0 -0.0073431085998445899 -0.00097139828411949155 0 -0.0074496118152475527 -0.0019585933914597793 0 -0.007922275275780306 -0.00097165720573987502 0 -0.0079458268906541056 -0.0022616163564127029 0 -0.007922275275780306 -0.00097165720573987502 0 -0.0086582095609724248 -0.0022114226793041466 0 -0.0079458268906541056 -0.0022616163564127029 0 -0.0086582095609724248 -0.0022114226793041466 0 -0.0098237946225761992 -0.0020511763460775651 0 -0.0093116410199578 -0.0031753546570254835 0 -0.0086582095609724248 -0.0022114226793041466 0 -0.0094185538576053111 -0.0009602677536261013 0 -0.0098237946225761992 -0.0020511763460775651 0 -0.0089969796818537874 0.0010635817231853691 0 -0.007922275275780306 -0.00097165720573987502 0 -0.0094185538576053111 -0.0009602677536261013 0 -0.007922275275780306 -0.00097165720573987502 0 -0.0086582095609724248 -0.0022114226793041466 0 -0.0094185538576053111 -0.0009602677536261013 0 -0.0094185538576053111 -0.0009602677536261013 0 -0.011242812676773538 -0.0011665357741874136 0 -0.0098237946225761992 -0.0020511763460775651 0 -0.010601313270796489 0.00029683935992001038 0 -0.0094185538576053111 -0.0009602677536261013 0 -0.011242812676773538 -0.0011665357741874136 0 -0.011447748176488193 -0.0023721417361154849 0 -0.0098237946225761992 -0.0020511763460775651 0 -0.0093116410199578 -0.0031753546570254835 0 -0.011447748176488193 -0.0023721417361154849 0 -0.011242812676773538 -0.0011665357741874136 0 -0.0098237946225761992 -0.0020511763460775651 0 -0.0093116410199578 -0.0031753546570254835 0 -0.008508864969334725 -0.0024211106615388404 0 -0.008524865157805657 -0.0026276756089579864 0 -0.0093116410199578 -0.0031753546570254835 0 -0.008508864969334725 -0.0024211106615388404 0 -0.0074455065349710095 -0.0019298728710035152 0 -0.008508864969334725 -0.0024211106615388404 0 -0.008524865157805657 -0.0026276756089579864 0 -0.0080979966177829286 -0.0022714241360769138 0 -0.008524865157805657 -0.0026276756089579864 0 -0.0078664779459184497 -0.0024609783605837859 0 -0.0080979966177829286 -0.0022714241360769138 0 -0.0086582095609724248 -0.0022114226793041466 0 -0.0093116410199578 -0.0031753546570254835 0 -0.008524865157805657 -0.0026276756089579864 0 -0.0086582095609724248 -0.0022114226793041466 0 -0.008524865157805657 -0.0026276756089579864 0 -0.0079458268906541056 -0.0022616163564127029 0 -0.008524865157805657 -0.0026276756089579864 0 -0.0079458268906541056 -0.0022616163564127029 0 -0.0078664779459184497 -0.0024609783605837859 0 -0.0079458268906541056 -0.0022616163564127029 0 -0.0078664779459184497 -0.0024609783605837859 0 -0.0075600978290175482 -0.0023353146635450056 0 -0.0078664779459184497 -0.0024609783605837859 0 -0.0073917319354236165 -0.0024519577155253068 0 -0.0073705682022081028 -0.0023653997078603778 0 -0.0078664779459184497 -0.0024609783605837859 0 -0.0073917319354236165 -0.0024519577155253068 0 -0.0075600978290175482 -0.0023353146635450056 0 -0.0073917319354236165 -0.0024519577155253068 0 -0.0075600978290175482 -0.0023353146635450056 0 -0.0072440441693923134 -0.0023644305785245328 0 -0.0073917319354236165 -0.0024519577155253068 0 -0.0072180505032056206 -0.0025023691562744924 0 -0.0072440441693923134 -0.0023644305785245328 0 -0.0074496118152475527 -0.0019585933914597793 0 -0.0075600978290175482 -0.0023353146635450056 0 -0.0072440441693923134 -0.0023644305785245328 0 -0.0074496118152475527 -0.0019585933914597793 0 -0.0079458268906541056 -0.0022616163564127029 0 -0.0075600978290175482 -0.0023353146635450056 0 -0.005149127132203858 -0.000434916886349843 0 -0.0037158959519210744 0.001274779451734909 0 -0.00042794541587786085 0.0054871507714546446 0 -0.0016929971644366365 0.0039076007561007053 0 -0.0020972385624492738 0.0028847380268830231 0 -0.002336665344008794 0.0030256502251663777 0 0.0022600293091210423 0.0088959961476413434 0 0.0029434016030640275 0.0097973519225103296 0 0.0033302100541217849 0.01171876456815092 0 -0.0014497155276702522 0.0046019532694433225 0 -0.0011770704731979655 0.0058876068189195521 0 -0.0017335309868079091 0.0038744102981947662 0 -0.0065484810202404639 -0.0022905942058726184 0 -0.0068914504332140292 -0.002455467744221547 0 -0.0072180505032056206 -0.0025023691562744924 0 0.0022600293091210423 0.0088959961476413434 0 0.0029434016030640275 0.0097973519225103296 0 0.0025731899110653647 0.0077531828030819438 0 -0.0010362707664231252 0.0052520129317064172 0 -0.00042794541587786085 0.0054871507714546446 0 -0.0065484810202404639 -0.0022905942058726184 0 -0.0062712380685318418 -0.0025460939081549954 0 -0.0048511989957634076 -0.0012628358024322824 0 -0.0062712380685318418 -0.0025460939081549954 0 -0.0068914504332140292 -0.002455467744221547 0 -0.0069663976721390745 -0.002375386082223695 0 -0.0065484810202404639 -0.0022905942058726184 0 -0.0062712380685318418 -0.0025460939081549954 0 -0.0068914504332140292 -0.002455467744221547 0 -0.0071845349816097772 -0.0024373309942008984 0 -0.0068914504332140292 -0.002455467744221547 0 -0.0072180505032056206 -0.0025023691562744924 0 -0.0010362707664231252 0.0052520129317064172 0 -0.002336665344008794 0.0030256502251663777 0 -0.0073917319354236165 -0.0024519577155253068 0 -0.0071845349816097772 -0.0024373309942008984 0 -0.0072180505032056206 -0.0025023691562744924 0 -0.0073917319354236165 -0.0024519577155253068 0 -0.0071845349816097772 -0.0024373309942008984 0 -0.0073705682022081028 -0.0023653997078603778 0 -0.0071845349816097772 -0.0024373309942008984 0 -0.0068914504332140292 -0.002455467744221547 0 -0.0073705682022081028 -0.0023653997078603778 0 -0.0068914504332140292 -0.002455467744221547 0 -0.0073705682022081028 -0.0023653997078603778 0 -0.0069663976721390745 -0.002375386082223695 0 -0.0073705682022081028 -0.0023653997078603778 0 -0.0074093500591550484 -0.0022807537005154685 0 -0.0069663976721390745 -0.002375386082223695 0 -0.0073705682022081028 -0.0023653997078603778 0 -0.0074093500591550484 -0.0022807537005154685 0 -0.0080979966177829286 -0.0022714241360769138 0 -0.0078664779459184497 -0.0024609783605837859 0 -0.0073705682022081028 -0.0023653997078603778 0 -0.0080979966177829286 -0.0022714241360769138 0 -0.0059440303802412425 -0.0017323351761910708 0 -0.0056262258230380235 -0.0015114356350952711 0 -0.0062712380685318418 -0.0025460939081549954 0 -0.0026145635741501505 -0.0013141222408963504 0 -0.0048511989957634076 -0.0012628358024322824 0 -0.0062712380685318418 -0.0025460939081549954 0 -0.0074093500591550484 -0.0022807537005154685 0 -0.0081385848533436535 -0.0022309603322453468 0 -0.0062712380685318418 -0.0025460939081549954 0 -0.0074093500591550484 -0.0022807537005154685 0 -0.0069663976721390745 -0.002375386082223695 0 -0.0074093500591550484 -0.0022807537005154685 0 -0.0081385848533436535 -0.0022309603322453468 0 -0.0080979966177829286 -0.0022714241360769138 0 -0.0081385848533436535 -0.0022309603322453468 0 -0.0080979966177829286 -0.0022714241360769138 0 -0.0081032987802185635 -0.0019604386931519704 0 -0.008508864969334725 -0.0024211106615388404 0 -0.0081032987802185635 -0.0019604386931519704 0 -0.0074455065349710095 -0.0019298728710035152 0 -0.008508864969334725 -0.0024211106615388404 0 -0.0080979966177829286 -0.0022714241360769138 0 -0.0081032987802185635 -0.0019604386931519704 0 -0.0081385848533436535 -0.0022309603322453468 0 -0.0081032987802185635 -0.0019604386931519704 0 -0.0075661381644593741 -0.001120918752173212 0 -0.0056262258230380235 -0.0015114356350952711 0 -0.0054026523800231162 -0.0011530110452222556 0 -0.0026145635741501505 -0.0013141222408963504 0 -0.0026342088187831904 -0.0006929927459445169 0 -0.0032873476485017544 -0.0002250727966090174 0 -0.0026342088187831904 -0.0006929927459445169 0 -0.0030096409506238327 -0.00077396998924970678 0 -0.0032873476485017544 -0.0002250727966090174 0 -0.0026342088187831904 -0.0006929927459445169 0 -0.0030096409506238327 -0.00077396998924970678 0 -0.0024889442406501754 -0.00040465522844737551 0 -0.0030096409506238327 -0.00077396998924970678 0 -0.0024889442406501754 -0.00040465522844737551 0 -0.002557033840726218 -0.00070572392698958005 0 -0.0026342088187831904 -0.0006929927459445169 0 -0.0024889442406501754 -0.00040465522844737551 0 -0.0031089631857285274 -0.00051953941341770292 0 -0.0024889442406501754 -0.00040465522844737551 0 -0.0024031124890563859 -1.4874230647273687e-05 0 -0.001899345619519081 -0.00025666541043714076 0 -0.0024889442406501754 -0.00040465522844737551 0 -0.0031089631857285274 -0.00051953941341770292 0 -0.0024031124890563859 -1.4874230647273687e-05 0 -0.0026145635741501505 -0.0013141222408963504 0 -0.0026342088187831904 -0.0006929927459445169 0 -0.0031089631857285274 -0.00051953941341770292 0 -0.0026145635741501505 -0.0013141222408963504 0 -0.0048511989957634076 -0.0012628358024322824 0 -0.0031089631857285274 -0.00051953941341770292 0 -0.0048511989957634076 -0.0012628358024322824 0 -0.0038038597475009085 -0.0005066467910838032 0 -0.0041426879345895203 -9.7927185124180484e-05 0 -0.0048511989957634076 -0.0012628358024322824 0 -0.0038038597475009085 -0.0005066467910838032 0 -0.0031089631857285274 -0.00051953941341770292 0 -0.0031089631857285274 -0.00051953941341770292 0 -0.0033430559489975994 -0.00028590683031971207 0 -0.0024031124890563859 -1.4874230647273687e-05 0 -0.0020425540717048142 0.0020652042282944334 0 -0.0020848787223445445 0.0013358263986230964 0 -0.0024031124890563859 -1.4874230647273687e-05 0 -0.0041426879345895203 -9.7927185124180484e-05 0 -0.0010163602821946273 0.00038352705443911011 0 -0.0038038597475009085 -0.0005066467910838032 0 -0.0031089631857285274 -0.00051953941341770292 0 -0.0033430559489975994 -0.00028590683031971207 0 -0.0033430559489975994 -0.00028590683031971207 0 -0.0024031124890563859 -1.4874230647273687e-05 0 -0.0041426879345895203 -9.7927185124180484e-05 0 -0.0038038597475009085 -0.0005066467910838032 0 -0.0033430559489975994 -0.00028590683031971207 0 -0.0041426879345895203 -9.7927185124180484e-05 0 0.0022474057504321804 0.0065981124521640785 0 0.0026478129755378435 0.0048070377054986206 0 0.0014134833598275134 0.0020745042797980515 0 0.00082977258142409994 0.0056860377241129897 0 0.00211797571330462 0.0058589710912169352 0 0.0014134833598275134 0.0020745042797980515 0 0.00057212718340590393 0.0058598440178990437 0 0.00057028076338788301 0.0049862603057520879 0 0.0031056533959137314 0.0038899867163953426 0 0.0026478129755378435 0.0048070377054986206 0 0.0014134833598275134 0.0020745042797980515 0 0.0034979457568413887 0.0053409754179401829 0 0.0043148902923959937 0.0061781383028981403 0 0.0043911430909949747 0.0044658135295571662 0 0.0031056533959137314 0.0038899867163953426 0 0.0034979457568413887 0.0053409754179401829 0 0.0043911430909949747 0.0044658135295571662 0 0.0031056533959137314 0.0038899867163953426 0 0.0026478129755378435 0.0048070377054986206 0 0.0034979457568413887 0.0053409754179401829 0 0.0026478129755378435 0.0048070377054986206 0 0.0034979457568413887 0.0053409754179401829 0 0.0031095014062294522 0.0058391114373828367 0 0.0034979457568413887 0.0053409754179401829 0 0.0031095014062294522 0.0058391114373828367 0 0.0043148902923959937 0.0061781383028981403 0 0.0022474057504321804 0.0065981124521640785 0 0.0031095014062294522 0.0058391114373828367 0 0.0043148902923959937 0.0061781383028981403 0 0.0022474057504321804 0.0065981124521640785 0 0.0026478129755378435 0.0048070377054986206 0 0.0031095014062294522 0.0058391114373828367 0 0.00057212718340590393 0.0058598440178990437 0 -0.00042794541587786085 0.0054871507714546446 0 0.0022600293091210423 0.0088959961476413434 0 0.00082977258142409994 0.0056860377241129897 0 0.0025731899110653647 0.0077531828030819438 0 -0.0010635556695039264 0.0052048232758429569 0 -0.001163893796575832 0.0048262241461340836 0 -0.0016296582097363259 0.0048845997906926857 0 -0.0065484810202404639 -0.0022905942058726184 0 -0.0048511989957634076 -0.0012628358024322824 0 -0.0041426879345895203 -9.7927185124180484e-05 0 -0.0020972385624492738 0.0028847380268830231 0 -0.0020425540717048142 0.0020652042282944334 0 0.00082977258142409994 0.0056860377241129897 0 0.00211797571330462 0.0058589710912169352 0 0.0025731899110653647 0.0077531828030819438 0 -0.0057302175875325288 -0.0011531149305434793 0 -0.0063589958802687972 -0.0014591821418905011 0 -0.0054735449746108064 -0.00064323788662763932 0 -0.0057302175875325288 -0.0011531149305434793 0 -0.0054735449746108064 -0.00064323788662763932 0 -0.0055781452713586713 -0.0010555119455864636 0 -0.0057302175875325288 -0.0011531149305434793 0 -0.0055781452713586713 -0.0010555119455864636 0 -0.0057638144801677336 -0.0011263843614439876 0 -0.0057736703976104062 -0.00128050094989699 0 -0.0057302175875325288 -0.0011531149305434793 0 -0.0057638144801677336 -0.0011263843614439876 0 -0.0060755706636114043 -0.0015663536425458667 0 -0.0057736703976104062 -0.00128050094989699 0 -0.0057302175875325288 -0.0011531149305434793 0 -0.0060755706636114043 -0.0015663536425458667 0 -0.0057302175875325288 -0.0011531149305434793 0 -0.0063589958802687972 -0.0014591821418905011 0 -0.0067683315816658681 -0.0021423249757443232 0 -0.0060755706636114043 -0.0015663536425458667 0 -0.0063589958802687972 -0.0014591821418905011 0 -0.0067683315816658681 -0.0021423249757443232 0 -0.0063589958802687972 -0.0014591821418905011 0 -0.0074455065349710095 -0.0019298728710035152 0 -0.0063589958802687972 -0.0014591821418905011 0 -0.0074455065349710095 -0.0019298728710035152 0 -0.0075661381644593741 -0.001120918752173212 0 -0.0081032987802185635 -0.0019604386931519704 0 -0.0074455065349710095 -0.0019298728710035152 0 -0.0075661381644593741 -0.001120918752173212 0 -0.0063589958802687972 -0.0014591821418905011 0 -0.0075661381644593741 -0.001120918752173212 0 -0.0054735449746108064 -0.00064323788662763932 0 -0.0054026523800231162 -0.0011530110452222556 0 -0.0053496304972340501 -0.0010191773798804414 0 -0.0032873476485017544 -0.0002250727966090174 0 -0.0043001002594807601 -0.0012897056126526531 0 -0.0054735449746108064 -0.00064323788662763932 0 -0.0030096409506238327 -0.00077396998924970678 0 -0.0032873476485017544 -0.0002250727966090174 0 -0.0043001002594807601 -0.0012897056126526531 0 -0.0030096409506238327 -0.00077396998924970678 0 -0.0043001002594807601 -0.0012897056126526531 0 -0.0030268219852183794 -0.0013180134049408201 0 -0.0043001002594807601 -0.0012897056126526531 0 -0.0051906664121348645 -0.0014154631979638747 0 -0.0054735449746108064 -0.00064323788662763932 0 -0.0051906664121348645 -0.0014154631979638747 0 -0.0054735449746108064 -0.00064323788662763932 0 -0.0055781452713586713 -0.0010555119455864636 0 -0.0051906664121348645 -0.0014154631979638747 0 -0.0055781452713586713 -0.0010555119455864636 0 -0.0055493338477386502 -0.0014507044656412796 0 -0.0055493338477386502 -0.0014507044656412796 0 -0.0061338660669075281 -0.0013595513438377468 0 -0.0059132321984486438 -0.0011789135492593864 0 -0.0055493338477386502 -0.0014507044656412796 0 -0.0061338660669075281 -0.0013595513438377468 0 -0.0055534818890330745 -0.0018424130337737015 0 -0.0061338660669075281 -0.0013595513438377468 0 -0.0059132321984486438 -0.0011789135492593864 0 -0.0063533581776968433 -0.001187788930568883 0 -0.0055781452713586713 -0.0010555119455864636 0 -0.0055493338477386502 -0.0014507044656412796 0 -0.0059132321984486438 -0.0011789135492593864 0 -0.0059132321984486438 -0.0011789135492593864 0 -0.0060580043937076408 -0.0011005818836689811 0 -0.0057638144801677336 -0.0011263843614439876 0 -0.0055781452713586713 -0.0010555119455864636 0 -0.0059132321984486438 -0.0011789135492593864 0 -0.0057638144801677336 -0.0011263843614439876 0 -0.0059132321984486438 -0.0011789135492593864 0 -0.0060580043937076408 -0.0011005818836689811 0 -0.0063533581776968433 -0.001187788930568883 0 -0.0060580043937076408 -0.0011005818836689811 0 -0.0059150434825809978 -0.0010863270588216665 0 -0.0062578206829437795 -0.00092021370237864593 0 -0.0060580043937076408 -0.0011005818836689811 0 -0.0057638144801677336 -0.0011263843614439876 0 -0.0059150434825809978 -0.0010863270588216665 0 -0.0057736703976104062 -0.00128050094989699 0 -0.0057638144801677336 -0.0011263843614439876 0 -0.0059150434825809978 -0.0010863270588216665 0 -0.0069066214575635868 -0.001023314715126267 0 -0.0068998625937301628 -0.0011545825914186809 0 -0.0075008040069530308 -0.00098104727558507264 0 -0.0069066214575635868 -0.001023314715126267 0 -0.0065330455775311344 -0.0010755820565700835 0 -0.0067047573210506006 -0.00079138078772029909 0 -0.0069066214575635868 -0.001023314715126267 0 -0.0075008040069530308 -0.00098104727558507264 0 -0.0073240982837878875 -0.00039277669986916963 0 -0.0065330455775311344 -0.0010755820565700835 0 -0.0062578206829437795 -0.00092021370237864593 0 -0.0067047573210506006 -0.00079138078772029909 0 -0.0060580043937076408 -0.0011005818836689811 0 -0.0065330455775311344 -0.0010755820565700835 0 -0.0062578206829437795 -0.00092021370237864593 0 -0.0060580043937076408 -0.0011005818836689811 0 -0.0065330455775311344 -0.0010755820565700835 0 -0.0063533581776968433 -0.001187788930568883 0 -0.0065330455775311344 -0.0010755820565700835 0 -0.0068998625937301628 -0.0011545825914186809 0 -0.0063533581776968433 -0.001187788930568883 0 -0.0069066214575635868 -0.001023314715126267 0 -0.0065330455775311344 -0.0010755820565700835 0 -0.0068998625937301628 -0.0011545825914186809 0 -0.0068998625937301628 -0.0011545825914186809 0 -0.0065983738445524664 -0.0012365319120044977 0 -0.0067870649299484288 -0.0011498166004851179 0 -0.0068998625937301628 -0.0011545825914186809 0 -0.0065983738445524664 -0.0012365319120044977 0 -0.0063533581776968433 -0.001187788930568883 0 -0.0061338660669075281 -0.0013595513438377468 0 -0.0065983738445524664 -0.0012365319120044977 0 -0.0063533581776968433 -0.001187788930568883 0 -0.0061338660669075281 -0.0013595513438377468 0 -0.0065983738445524664 -0.0012365319120044977 0 -0.006530544843333398 -0.00144781959205114 0 -0.0065983738445524664 -0.0012365319120044977 0 -0.0066492176601085362 -0.0011284958057473182 0 -0.006530544843333398 -0.00144781959205114 0 -0.0066492176601085362 -0.0011284958057473182 0 -0.005988010361642559 -0.00098357160823564168 0 -0.0065131543427673693 -0.00095013462286946298 0 -0.005988010361642559 -0.00098357160823564168 0 -0.0065131543427673693 -0.00095013462286946298 0 -0.0061313508715401099 -0.00074745459177092571 0 -0.0066492176601085362 -0.0011284958057473182 0 -0.0065131543427673693 -0.00095013462286946298 0 -0.0070112136585374187 -0.0010630708603041085 0 -0.0065131543427673693 -0.00095013462286946298 0 -0.0070494229335527287 -0.00087665640241585093 0 -0.0066532564171010201 -0.00063425957428741621 0 -0.0065131543427673693 -0.00095013462286946298 0 -0.0070494229335527287 -0.00087665640241585093 0 -0.0070112136585374187 -0.0010630708603041085 0 -0.0068998625937301628 -0.0011545825914186809 0 -0.0070112136585374187 -0.0010630708603041085 0 -0.0067870649299484288 -0.0011498166004851179 0 -0.0065983738445524664 -0.0012365319120044977 0 -0.0066492176601085362 -0.0011284958057473182 0 -0.0067870649299484288 -0.0011498166004851179 0 -0.0066492176601085362 -0.0011284958057473182 0 -0.0070112136585374187 -0.0010630708603041085 0 -0.0067870649299484288 -0.0011498166004851179 0 -0.0017230820340349026 1.1371292278440293e-06 0 -0.0010476049714704815 3.104602058386726e-05 0 0.0023994679476445572 -0.00013482358923333753 0 -0.0061341412205497044 -0.00068078393282554035 0 -0.0055954159865769394 -0.00082644472745676449 0 -0.0061313508715401099 -0.00074745459177092571 0 -0.0061341412205497044 -0.00068078393282554035 0 -0.0061313508715401099 -0.00074745459177092571 0 -0.0062884406762219692 -0.00043048750735727415 0 -0.005988010361642559 -0.00098357160823564168 0 -0.0055954159865769394 -0.00082644472745676449 0 -0.0061313508715401099 -0.00074745459177092571 0 -0.0065131543427673693 -0.00095013462286946298 0 -0.0061313508715401099 -0.00074745459177092571 0 -0.0066532564171010201 -0.00063425957428741621 0 -0.0066532564171010201 -0.00063425957428741621 0 -0.0062884406762219692 -0.00043048750735727415 0 -0.0066703490678769687 -0.00044828644560993545 0 -0.0061313508715401099 -0.00074745459177092571 0 -0.0066532564171010201 -0.00063425957428741621 0 -0.0062884406762219692 -0.00043048750735727415 0 -0.0017230820340349026 1.1371292278440293e-06 0 -0.0010476049714704815 3.104602058386726e-05 0 -0.0055866032369686685 -6.5613810686175684e-05 0 -0.0061341412205497044 -0.00068078393282554035 0 -0.0062884406762219692 -0.00043048750735727415 0 -0.0055866032369686685 -6.5613810686175684e-05 0 -0.0017230820340349026 1.1371292278440293e-06 0 -0.0061519141809287317 -1.4475745775370376e-06 0 -0.0055866032369686685 -6.5613810686175684e-05 0 -0.0015818827486769479 -0.00085920091150028775 0 -0.0021620820470641248 -0.0010031462346941067 0 -0.0062884406762219692 -0.00043048750735727415 0 -0.0055866032369686685 -6.5613810686175684e-05 0 -0.0066703490678769687 -0.00044828644560993545 0 -0.0061519141809287317 -1.4475745775370376e-06 0 -0.0069412505508468373 -0.00038371001703730521 0 -0.0085938028369062728 -0.00043282813429656124 0 -0.0061519141809287317 -1.4475745775370376e-06 0 -0.0055866032369686685 -6.5613810686175684e-05 0 -0.0069412505508468373 -0.00038371001703730521 0 -0.0055866032369686685 -6.5613810686175684e-05 0 -0.0069412505508468373 -0.00038371001703730521 0 -0.0066703490678769687 -0.00044828644560993545 0 -0.0069412505508468373 -0.00038371001703730521 0 -0.0074314151281988684 -0.00070680825038381228 0 -0.0085938028369062728 -0.00043282813429656124 0 -0.0069412505508468373 -0.00038371001703730521 0 -0.0074314151281988684 -0.00070680825038381228 0 -0.0066703490678769687 -0.00044828644560993545 0 -0.0066532564171010201 -0.00063425957428741621 0 -0.0074314151281988684 -0.00070680825038381228 0 -0.0066703490678769687 -0.00044828644560993545 0 -0.0070494229335527287 -0.00087665640241585093 0 -0.0066532564171010201 -0.00063425957428741621 0 -0.0074314151281988684 -0.00070680825038381228 0 -0.0074314151281988684 -0.00070680825038381228 0 -0.0085302043535083576 -0.00079723193045689493 0 -0.007563182752936235 -0.00095226569416461716 0 -0.0074314151281988684 -0.00070680825038381228 0 -0.0085302043535083576 -0.00079723193045689493 0 -0.0085938028369062728 -0.00043282813429656124 0 -0.0085302043535083576 -0.00079723193045689493 0 -0.0085938028369062728 -0.00043282813429656124 0 -0.0098330554470385106 -0.00045381160132287152 0 -0.0061519141809287317 -1.4475745775370376e-06 0 -0.0085938028369062728 -0.00043282813429656124 0 -0.010577401907347236 -1.1097795869152799e-06 0 -0.0068998625937301628 -0.0011545825914186809 0 -0.0070112136585374187 -0.0010630708603041085 0 -0.0073351347071871336 -0.0010509959330875813 0 -0.0068998625937301628 -0.0011545825914186809 0 -0.0073351347071871336 -0.0010509959330875813 0 -0.0075008040069530308 -0.00098104727558507264 0 -0.0070112136585374187 -0.0010630708603041085 0 -0.0073351347071871336 -0.0010509959330875813 0 -0.007563182752936235 -0.00095226569416461716 0 -0.0070494229335527287 -0.00087665640241585093 0 -0.0070112136585374187 -0.0010630708603041085 0 -0.007563182752936235 -0.00095226569416461716 0 -0.0070494229335527287 -0.00087665640241585093 0 -0.0074314151281988684 -0.00070680825038381228 0 -0.007563182752936235 -0.00095226569416461716 0 -0.0073351347071871336 -0.0010509959330875813 0 -0.007563182752936235 -0.00095226569416461716 0 -0.0079745408245758872 -0.00091313271410439073 0 -0.0085302043535083576 -0.00079723193045689493 0 -0.0079745408245758872 -0.00091313271410439073 0 -0.0086912269759829852 -0.00069228550945703358 0 -0.0085302043535083576 -0.00079723193045689493 0 -0.007563182752936235 -0.00095226569416461716 0 -0.0079745408245758872 -0.00091313271410439073 0 -0.0079745408245758872 -0.00091313271410439073 0 -0.0075008040069530308 -0.00098104727558507264 0 -0.0086912269759829852 -0.00069228550945703358 0 -0.0073351347071871336 -0.0010509959330875813 0 -0.0079745408245758872 -0.00091313271410439073 0 -0.0075008040069530308 -0.00098104727558507264 0 -0.0075008040069530308 -0.00098104727558507264 0 -0.0086912269759829852 -0.00069228550945703358 0 -0.0073240982837878875 -0.00039277669986916963 0 -0.0086912269759829852 -0.00069228550945703358 0 -0.011792965329200192 -2.0908510056810475e-05 0 -0.0084504825075126227 0.00073984348876402861 0 -0.011341909652397184 3.5396220581055393e-05 0 -0.011093700631306666 8.650201111394465e-05 0 -0.0086912269759829852 -0.00069228550945703358 0 -0.0084504825075126227 0.00073984348876402861 0 -0.0073240982837878875 -0.00039277669986916963 0 -0.0084504825075126227 0.00073984348876402861 0 -0.0071427062632480219 0.00048214045850935065 0 -0.0073240982837878875 -0.00039277669986916963 0 -0.0085938028369062728 -0.00043282813429656124 0 -0.010577401907347236 -1.1097795869152799e-06 0 -0.0098330554470385106 -0.00045381160132287152 0 -0.0085302043535083576 -0.00079723193045689493 0 -0.0086912269759829852 -0.00069228550945703358 0 -0.0098330554470385106 -0.00045381160132287152 0 -0.0086912269759829852 -0.00069228550945703358 0 -0.0098330554470385106 -0.00045381160132287152 0 -0.011792965329200192 -2.0908510056810475e-05 0 -0.010577401907347236 -1.1097795869152799e-06 0 -0.0098330554470385106 -0.00045381160132287152 0 -0.011792965329200192 -2.0908510056810475e-05 0 -0.010577401907347236 -1.1097795869152799e-06 0 -0.011792965329200192 -2.0908510056810475e-05 0 -0.015002597439657008 1.0468224943323343e-08 0 -0.011792965329200192 -2.0908510056810475e-05 0 -0.015002597439657008 1.0468224943323343e-08 0 -0.01447950572983572 -0.00014744472262551733 0 -0.011792965329200192 -2.0908510056810475e-05 0 -0.01447950572983572 -0.00014744472262551733 0 -0.013091308765555918 -0.00022284613009258399 0 -0.017811789364956688 0.00028431593279112054 0 -0.01447950572983572 -0.00014744472262551733 0 -0.01318760211288109 0.00066717745274553662 0 -0.016719433747363472 0.00019312191662613975 0 -0.016389425007596548 0.0001057547532354317 0 -0.017811789364956688 0.00028431593279112054 0 -0.015002597439657008 1.0468224943323343e-08 0 -0.01447950572983572 -0.00014744472262551733 0 -0.019430392360097564 -4.9996448676345378e-07 0 -0.017811789364956688 0.00028431593279112054 0 -0.015002597439657008 1.0468224943323343e-08 0 -0.011093700631306666 8.650201111394465e-05 0 -0.011351352392714835 -3.6208786798395637e-05 0 -0.012888742298269331 6.3107634424041124e-05 0 -0.01257733823705012 0.00025253325802484963 0 -0.012470848758060869 -4.7233337635411186e-05 0 -0.012888742298269331 6.3107634424041124e-05 0 -0.013073806851368538 -0.00011629015302099381 0 -0.012470848758060869 -4.7233337635411186e-05 0 -0.011792965329200192 -2.0908510056810475e-05 0 -0.013073806851368538 -0.00011629015302099381 0 -0.013091308765555918 -0.00022284613009258399 0 -0.012888742298269331 6.3107634424041124e-05 0 -0.013073806851368538 -0.00011629015302099381 0 -0.013091308765555918 -0.00022284613009258399 0 -0.01447950572983572 -0.00014744472262551733 0 -0.013091308765555918 -0.00022284613009258399 0 -0.01318760211288109 0.00066717745274553662 0 -0.012888742298269331 6.3107634424041124e-05 0 -0.013091308765555918 -0.00022284613009258399 0 -0.01318760211288109 0.00066717745274553662 0 -0.019322947337531746 -2.2269349612836416e-05 0 -0.019216246961179569 0.00035264100717030444 0 -0.019608733462815078 0.00039108119319071342 0 -0.012888742298269331 6.3107634424041124e-05 0 -0.01318760211288109 0.00066717745274553662 0 -0.01257733823705012 0.00025253325802484963 0 -0.019322947337531746 -2.2269349612836416e-05 0 -0.019701263073745975 0.00024585529263222326 0 -0.019608733462815078 0.00039108119319071342 0 -0.016389425007596548 0.0001057547532354317 0 -0.016216073453724066 -0.00014428901037955559 0 -0.019701263073745975 0.00024585529263222326 0 -0.019608733462815078 0.00039108119319071342 0 -0.020011741948942015 0.00045626003672032226 0 -0.016216073453724066 -0.00014428901037955559 0 -0.016017326139866537 -0.00071881952850135768 0 -0.028882262179026494 -0.00041878345253202611 0 -0.029364317958157384 -0.000787226975737475 0 -0.028573316983290485 -0.00099078952919569871 0 -0.01257733823705012 0.00025253325802484963 0 -0.012470848758060869 -4.7233337635411186e-05 0 -0.012093519242744866 0.00010536772827565941 0 -0.0071427062632480219 0.00048214045850935065 0 -0.0066337304225501728 -8.7638021801218928e-06 0 -0.0063632555416664434 0.00029844547372229131 0 -0.012470848758060869 -4.7233337635411186e-05 0 -0.012045447425883477 7.0716714866523811e-05 0 -0.012093519242744866 0.00010536772827565941 0 -0.011351352392714835 -3.6208786798395637e-05 0 -0.014844024568388035 -0.0010086842210226988 0 -0.0066337304225501728 -8.7638021801218928e-06 0 -0.0063632555416664434 0.00029844547372229131 0 -0.0062968520282439119 -0.00020801957557572165 0 -0.028085964813237583 -0.0024531222212939318 0 -0.027835477394825704 -0.00231373426371123 0 -0.027706491017228625 -0.0026030914108755346 0 -0.016017326139866537 -0.00071881952850135768 0 -0.015524679714681501 -0.0011163203312221032 0 -0.014690422039991515 -0.0013368002760907496 0 -0.014622180668012389 -0.0013820399589010977 0 -0.014752607852556688 -0.001356132391012388 0 -0.014844024568388035 -0.0010086842210226988 0 -0.016017326139866537 -0.00071881952850135768 0 -0.029364317958157384 -0.000787226975737475 0 -0.028317276256936041 -0.0016715871717512436 0 -0.028573316983290485 -0.00099078952919569871 0 -0.028085964813237583 -0.0024531222212939318 0 -0.027997750673726327 -0.0020970923924385314 0 -0.028317276256936041 -0.0016715871717512436 0 -0.027997750673726327 -0.0020970923924385314 0 -0.027835477394825704 -0.00231373426371123 0 -0.027751641309103244 -0.0019583710918038765 0 -0.029364317958157384 -0.000787226975737475 0 -0.028085964813237583 -0.0024531222212939318 0 -0.028317276256936041 -0.0016715871717512436 0 -0.028085964813237583 -0.0024531222212939318 0 -0.027997750673726327 -0.0020970923924385314 0 -0.027835477394825704 -0.00231373426371123 0 -0.021961844118071935 0.00062255579334209536 0 -0.016017326139866537 -0.00071881952850135768 0 -0.027997750673726327 -0.0020970923924385314 0 -0.028317276256936041 -0.0016715871717512436 0 -0.027751641309103244 -0.0019583710918038765 0 -0.028064517621573394 -0.0011668901194931123 0 -0.027616127636745695 -0.0013274756328024327 0 -0.027751641309103244 -0.0019583710918038765 0 -0.028317276256936041 -0.0016715871717512436 0 -0.028064517621573394 -0.0011668901194931123 0 -0.027751641309103244 -0.0019583710918038765 0 -0.028317276256936041 -0.0016715871717512436 0 -0.028573316983290485 -0.00099078952919569871 0 -0.028064517621573394 -0.0011668901194931123 0 -0.026946739869454076 -0.00092395499845009891 0 -0.027616127636745695 -0.0013274756328024327 0 -0.027203694792355501 -0.001704934115939799 0 -0.027137185396942931 -0.0022853808074642227 0 -0.025426223627659752 -0.0028036469275056959 0 -0.027706491017228625 -0.0026030914108755346 0 -0.027702070593771992 -0.00058540587989529833 0 -0.028064517621573394 -0.0011668901194931123 0 -0.027616127636745695 -0.0013274756328024327 0 -0.026522810308837998 -0.0019758182559628914 0 -0.027137185396942931 -0.0022853808074642227 0 -0.025426223627659752 -0.0028036469275056959 0 -0.019652426237938062 -0.0020776506320125294 0 -0.015524679714681501 -0.0011163203312221032 0 -0.027616127636745695 -0.0013274756328024327 0 -0.027203694792355501 -0.001704934115939799 0 -0.027751641309103244 -0.0019583710918038765 0 -0.026946739869454076 -0.00092395499845009891 0 -0.027203694792355501 -0.001704934115939799 0 -0.026522810308837998 -0.0019758182559628914 0 -0.027203694792355501 -0.001704934115939799 0 -0.026522810308837998 -0.0019758182559628914 0 -0.027137185396942931 -0.0022853808074642227 0 -0.027835477394825704 -0.00231373426371123 0 -0.027608787262478514 -0.0022948328017463652 0 -0.027706491017228625 -0.0026030914108755346 0 -0.027835477394825704 -0.00231373426371123 0 -0.027608787262478514 -0.0022948328017463652 0 -0.027751641309103244 -0.0019583710918038765 0 -0.027137185396942931 -0.0022853808074642227 0 -0.027608787262478514 -0.0022948328017463652 0 -0.027751641309103244 -0.0019583710918038765 0 -0.027137185396942931 -0.0022853808074642227 0 -0.027608787262478514 -0.0022948328017463652 0 -0.027706491017228625 -0.0026030914108755346 0 -0.027203694792355501 -0.001704934115939799 0 -0.027137185396942931 -0.0022853808074642227 0 -0.027751641309103244 -0.0019583710918038765 0 -0.025429606372991985 -0.0012835534442883693 0 -0.026522810308837998 -0.0019758182559628914 0 -0.025426223627659752 -0.0028036469275056959 0 -0.025429606372991985 -0.0012835534442883693 0 -0.026946739869454076 -0.00092395499845009891 0 -0.026522810308837998 -0.0019758182559628914 0 -0.018634169898241737 -0.001842807186708612 0 -0.018487981823498985 -0.0027011780841086097 0 -0.020186323011968897 -0.0022817671886241672 0 -0.0055588895660618918 -0.0020019572378342076 0 -0.0052554129760337149 -0.0018242965902405706 0 -0.0056791094946184477 -0.0014192535108780455 0 -0.017340282661368289 -0.0022283530056787628 0 -0.018634169898241737 -0.001842807186708612 0 -0.018487981823498985 -0.0027011780841086097 0 -0.0055588895660618918 -0.0020019572378342076 0 -0.0049538917354552438 -0.0020878283094874516 0 -0.0052554129760337149 -0.0018242965902405706 0 -0.012634883443555754 -0.0021106198442511718 0 -0.015524679714681501 -0.0011163203312221032 0 -0.0049022648671596253 -0.0020719863323840869 0 -0.0049538917354552438 -0.0020878283094874516 0 -0.0052554129760337149 -0.0018242965902405706 0 -0.014844024568388035 -0.0010086842210226988 0 -0.015524679714681501 -0.0011163203312221032 0 -0.014844024568388035 -0.0010086842210226988 0 -0.0100227354688576 -0.0024850912598876804 0 -0.0063632555416664434 0.00029844547372229131 0 -0.0059262072511791983 -0.00034864761978023408 0 -0.0062968520282439119 -0.00020801957557572165 0 -0.0062968520282439119 -0.00020801957557572165 0 -0.0060278802792011867 -0.00078271599367690748 0 -0.0064796735027574728 -0.00046849570365435975 0 -0.0059262072511791983 -0.00034864761978023408 0 -0.0062968520282439119 -0.00020801957557572165 0 -0.0060278802792011867 -0.00078271599367690748 0 -0.0059262072511791983 -0.00034864761978023408 0 -0.0060278802792011867 -0.00078271599367690748 0 -0.0056791094946184477 -0.0014192535108780455 0 -0.0060278802792011867 -0.00078271599367690748 0 -0.0056791094946184477 -0.0014192535108780455 0 -0.0058108161563082553 -0.0011546647655486936 0 -0.0100227354688576 -0.0024850912598876804 0 -0.0088718168220130733 -0.0027376161899558046 0 -0.0060278802792011867 -0.00078271599367690748 0 -0.0059150434825809978 -0.0010863270588216665 0 -0.0058108161563082553 -0.0011546647655486936 0 -0.0057736703976104062 -0.00128050094989699 0 -0.0056791094946184477 -0.0014192535108780455 0 -0.0058108161563082553 -0.0011546647655486936 0 -0.0057736703976104062 -0.00128050094989699 0 -0.0059150434825809978 -0.0010863270588216665 0 -0.0058108161563082553 -0.0011546647655486936 0 -0.0060278802792011867 -0.00078271599367690748 0 -0.0062578206829437795 -0.00092021370237864593 0 -0.0064796735027574728 -0.00046849570365435975 0 -0.0060278802792011867 -0.00078271599367690748 0 -0.0059150434825809978 -0.0010863270588216665 0 -0.0062578206829437795 -0.00092021370237864593 0 -0.0067047573210506006 -0.00079138078772029909 0 -0.0068711314814011628 -0.00023666028254269795 0 -0.0064796735027574728 -0.00046849570365435975 0 -0.0062578206829437795 -0.00092021370237864593 0 -0.0067047573210506006 -0.00079138078772029909 0 -0.0064796735027574728 -0.00046849570365435975 0 -0.0067047573210506006 -0.00079138078772029909 0 -0.0073240982837878875 -0.00039277669986916963 0 -0.0068711314814011628 -0.00023666028254269795 0 -0.0069066214575635868 -0.001023314715126267 0 -0.0067047573210506006 -0.00079138078772029909 0 -0.0073240982837878875 -0.00039277669986916963 0 -0.0071427062632480219 0.00048214045850935065 0 -0.0073240982837878875 -0.00039277669986916963 0 -0.0068711314814011628 -0.00023666028254269795 0 -0.0071427062632480219 0.00048214045850935065 0 -0.0066337304225501728 -8.7638021801218928e-06 0 -0.0068711314814011628 -0.00023666028254269795 0 -0.0066337304225501728 -8.7638021801218928e-06 0 -0.0068711314814011628 -0.00023666028254269795 0 -0.0064796735027574728 -0.00046849570365435975 0 -0.0066337304225501728 -8.7638021801218928e-06 0 -0.0062968520282439119 -0.00020801957557572165 0 -0.0064796735027574728 -0.00046849570365435975 0 -0.0081274025249365531 0.0051546838121757314 0 -0.0073212871259897196 0.0028843263681041587 0 -0.010146288115367821 0.002330112119230089 0 -0.0081274025249365531 0.0051546838121757314 0 -0.0050424473347382773 0.0034719775865974111 0 -0.0073212871259897196 0.0028843263681041587 0 -0.016447066473251549 0.0038100108792783159 0 -0.017537635680886923 0.0045751802334759277 0 -0.0081274025249365531 0.0051546838121757314 0 -0.011543801291927943 0.0054797324544877523 0 -0.010146288115367821 0.002330112119230089 0 -0.011543801291927943 0.0054797324544877523 0 -0.010146288115367821 0.002330112119230089 0 -0.014096420451453401 0.0048987168243062396 0 -0.0081274025249365531 0.0051546838121757314 0 -0.0099886024404157933 0.0066514049983776623 0 -0.011543801291927943 0.0054797324544877523 0 -0.0099886024404157933 0.0066514049983776623 0 -0.011543801291927943 0.0054797324544877523 0 -0.011363820682030287 0.0077733721647894431 0 -0.011543801291927943 0.0054797324544877523 0 -0.011363820682030287 0.0077733721647894431 0 -0.01410519408353115 0.0068464654860283915 0 -0.011543801291927943 0.0054797324544877523 0 -0.014096420451453401 0.0048987168243062396 0 -0.01410519408353115 0.0068464654860283915 0 -0.011363820682030287 0.0077733721647894431 0 -0.01410519408353115 0.0068464654860283915 0 -0.012985084762176425 0.0091881631641601517 0 -0.0099886024404157933 0.0066514049983776623 0 -0.011363820682030287 0.0077733721647894431 0 -0.0089883524289665079 0.0086010511774829972 0 -0.011363820682030287 0.0077733721647894431 0 -0.0089883524289665079 0.0086010511774829972 0 -0.010762228901087911 0.0099076643285970645 0 -0.0081274025249365531 0.0051546838121757314 0 -0.0089883524289665079 0.0086010511774829972 0 -0.0050920326760548829 0.0080174627697301541 0 -0.0081274025249365531 0.0051546838121757314 0 -0.0099886024404157933 0.0066514049983776623 0 -0.0089883524289665079 0.0086010511774829972 0 -0.0061848525039419058 0.0092030209090073027 0 -0.0036120085054814595 0.008453230476286093 0 -0.0050424473347382773 0.0034719775865974111 0 -0.0061848525039419058 0.0092030209090073027 0 -0.0036120085054814595 0.008453230476286093 0 -0.0039933552621275936 0.011478927320440766 0 -0.0019004200377761564 0.0069166233722686285 0 -0.0036120085054814595 0.008453230476286093 0 -0.00095111932186397747 0.010110260565549522 0 -0.0019004200377761564 0.0069166233722686285 0 -0.0021803485444255068 0.0041092561857090032 0 -0.0050424473347382773 0.0034719775865974111 0 -0.0019004200377761564 0.0069166233722686285 0 -0.0036120085054814595 0.008453230476286093 0 -0.0050424473347382773 0.0034719775865974111 0 -0.0052656643968984661 0.0093380129458904265 0 -0.0049468984262232389 0.0065921146414132815 0 -0.0081274025249365531 0.0051546838121757314 0 -0.0050920326760548829 0.0080174627697301541 0 -0.0050424473347382773 0.0034719775865974111 0 -0.0050424473347382773 0.0034719775865974111 0 -0.0020308670737431236 0.0019505490539774616 0 -0.0060931860176322017 0.0007678863241211678 0 -0.0050424473347382773 0.0034719775865974111 0 -0.0060931860176322017 0.0007678863241211678 0 -0.0073212871259897196 0.0028843263681041587 0 -0.0021803485444255068 0.0041092561857090032 0 -0.0050424473347382773 0.0034719775865974111 0 -0.0020308670737431236 0.0019505490539774616 0 -0.0020308670737431236 0.0019505490539774616 0 -0.0060931860176322017 0.0007678863241211678 0 -0.0025331649485192107 -0.001487519928328435 0 -0.014702805494595034 0.0027270454726790161 0 -0.012706626995621658 0.0014031754926080878 0 -0.024506945103703773 0.004709852489133832 0 -0.025141265540028858 0.0047091011367535913 0 -0.023301711279188186 0.0049392136555803795 0 -0.022639924311942238 0.0049548586555528684 0 -0.023262234440541853 0.0051391073890664583 0 -0.023301711279188186 0.0049392136555803795 0 -0.021946921720463506 0.0038762919830801325 0 -0.022639924311942238 0.0049548586555528684 0 -0.014702805494595034 0.0027270454726790161 0 -0.016447066473251549 0.0038100108792783159 0 -0.0060931860176322017 0.0007678863241211678 0 -0.0073212871259897196 0.0028843263681041587 0 -0.010146288115367821 0.002330112119230089 0 -0.021946921720463506 0.0038762919830801325 0 -0.020890722096304912 0.0045587287261232923 0 -0.022639924311942238 0.0049548586555528684 0 -0.021946921720463506 0.0038762919830801325 0 -0.020890722096304912 0.0045587287261232923 0 -0.019620667809906282 0.0042188585531442307 0 -0.020890722096304912 0.0045587287261232923 0 -0.022639924311942238 0.0049548586555528684 0 -0.020727580725814116 0.0055143829912386727 0 -0.022639924311942238 0.0049548586555528684 0 -0.020727580725814116 0.0055143829912386727 0 -0.024470243079526621 0.006225289900217386 0 -0.022804803117388438 0.0050019727166441767 0 -0.021534081968666678 0.0050957230582135129 0 -0.021061129426335447 0.0046200770810337502 0 -0.022804803117388438 0.0050019727166441767 0 -0.021534081968666678 0.0050957230582135129 0 -0.021898168923208991 0.0059282549203094328 0 -0.020456166834061814 0.0052416795192334366 0 -0.020413794178211386 0.00588277800184477 0 -0.021281863243168525 0.0060573888539124697 0 -0.020448204588445224 0.0048853628456301153 0 -0.021534081968666678 0.0050957230582135129 0 -0.021898168923208991 0.0059282549203094328 0 -0.020448204588445224 0.0048853628456301153 0 -0.020456166834061814 0.0052416795192334366 0 -0.021281863243168525 0.0060573888539124697 0 -0.021646713345202427 0.0051777033755290632 0 -0.02222397399766194 0.0056386421633422695 0 -0.020456166834061814 0.0052416795192334366 0 -0.019727073682746961 0.0056585545022416516 0 -0.020413794178211386 0.00588277800184477 0 -0.020448204588445224 0.0048853628456301153 0 -0.021534081968666678 0.0050957230582135129 0 -0.021061129426335447 0.0046200770810337502 0 -0.020448204588445224 0.0048853628456301153 0 -0.020456166834061814 0.0052416795192334366 0 -0.020247019560149241 0.0042003030783854828 0 -0.020448204588445224 0.0048853628456301153 0 -0.021061129426335447 0.0046200770810337502 0 -0.020247019560149241 0.0042003030783854828 0 -0.021061129426335447 0.0046200770810337502 0 -0.020889221239302706 0.0040557268615236943 0 -0.020247019560149241 0.0042003030783854828 0 -0.022804803117388438 0.0050019727166441767 0 -0.021061129426335447 0.0046200770810337502 0 -0.020889221239302706 0.0040557268615236943 0 -0.020890722096304912 0.0045587287261232923 0 -0.020727580725814116 0.0055143829912386727 0 -0.01970397062724609 0.0044754229311951676 0 -0.020727580725814116 0.0055143829912386727 0 -0.018551098132047177 0.0042640549241404618 0 -0.01970397062724609 0.0044754229311951676 0 -0.018551098132047177 0.0042640549241404618 0 -0.01970397062724609 0.0044754229311951676 0 -0.018798128899374746 0.0042211626768339774 0 -0.021589727524073 0.0051402266210267928 0 -0.020612599610929844 0.004543856837244435 0 -0.020890722096304912 0.0045587287261232923 0 -0.01970397062724609 0.0044754229311951676 0 -0.019620667809906282 0.0042188585531442307 0 0.0051723267539423795 0.0094409309013345696 0 0.0056075218983682529 0.010344158965763486 0 -0.018777378504987778 0.0057556293951256622 0 -0.019303745682026877 0.0048210573930355669 0 -0.018362172273313326 0.0042163013098685089 0 -0.018777378504987778 0.0057556293951256622 0 -0.018362172273313326 0.0042163013098685089 0 -0.017419300509720008 0.00601954894475822 0 -0.018777378504987778 0.0057556293951256622 0 -0.019303745682026877 0.0048210573930355669 0 -0.019727073682746961 0.0056585545022416516 0 -0.020456166834061814 0.0052416795192334366 0 -0.019727073682746961 0.0056585545022416516 0 -0.019823649605893567 0.0048796229458421313 0 -0.019303745682026877 0.0048210573930355669 0 -0.019727073682746961 0.0056585545022416516 0 -0.019823649605893567 0.0048796229458421313 0 -0.0065680646901670704 0.0087892215983083125 0 -0.0040323580259400841 0.0088864104040234232 0 -0.019303745682026877 0.0048210573930355669 0 -0.019791522229728829 0.0037952248760933136 0 -0.018362172273313326 0.0042163013098685089 0 -0.020456166834061814 0.0052416795192334366 0 -0.019823649605893567 0.0048796229458421313 0 -0.019791522229728829 0.0037952248760933136 0 -0.019303745682026877 0.0048210573930355669 0 -0.019823649605893567 0.0048796229458421313 0 -0.019791522229728829 0.0037952248760933136 0 0.031024431386874541 0.013205567164514872 0 0.031020698508685704 0.012810049354161177 0 0.030480770219451395 0.012615545318059933 0 0.0051723267539423795 0.0094409309013345696 0 0.0042719389793441477 0.0096374145514747829 0 0.031024431386874541 0.013205567164514872 0 0.031020698508685704 0.012810049354161177 0 0.031412673716460046 0.012961663724364159 0 0.031020698508685704 0.012810049354161177 0 0.030893270055134304 0.012470841062580434 0 0.031224401767491583 0.012627824119236217 0 0.031020698508685704 0.012810049354161177 0 0.030480770219451395 0.012615545318059933 0 0.030893270055134304 0.012470841062580434 0 -0.0040323580259400841 0.0088864104040234232 0 0.0042719389793441477 0.0096374145514747829 0 -0.020247019560149241 0.0042003030783854828 0 -0.019896507935003912 0.0044182215515073458 0 -0.019749641770654469 0.0044738418396960715 0 -0.019791522229728829 0.0037952248760933136 0 -0.018362172273313326 0.0042163013098685089 0 -0.019247134228742368 0.0024300505405537537 0 0.028641743974939918 0.015774674608467536 0 0.027226543200402586 0.012950984386992151 0 0.029579549698410614 0.013319694185527161 0 0.0042719389793441477 0.0096374145514747829 0 0.0029119030620900466 0.01520902044170673 0 -0.019749641770654469 0.0044738418396960715 0 -0.019183225631661509 0.0047584807030194602 0 -0.01918781126274623 0.0062707828704689399 0 -0.019896507935003912 0.0044182215515073458 0 -0.019749641770654469 0.0044738418396960715 0 -0.01918781126274623 0.0062707828704689399 0 0.0042719389793441477 0.0096374145514747829 0 0.014268838040623597 0.0085470528761789743 0 0.030480770219451395 0.012615545318059933 0 0.030893270055134304 0.012470841062580434 0 0.030524228508830988 0.011932901583853347 0 0.030893270055134304 0.012470841062580434 0 0.030524228508830988 0.011932901583853347 0 0.031286233159711428 0.01230015687198821 0 0.030893270055134304 0.012470841062580434 0 0.031224401767491583 0.012627824119236217 0 0.031286233159711428 0.01230015687198821 0 -0.021946921720463506 0.0038762919830801325 0 -0.019620667809906282 0.0042188585531442307 0 -0.017520318577281417 0.0044780255874515146 0 -0.010146288115367821 0.002330112119230089 0 -0.014096420451453401 0.0048987168243062396 0 -0.017520318577281417 0.0044780255874515146 0 -0.018603518136489711 0.0042928653117046377 0 -0.019620667809906282 0.0042188585531442307 0 -0.017520318577281417 0.0044780255874515146 0 -0.018603518136489711 0.0042928653117046377 0 -0.01816854451146907 0.0043700582661530358 0 -0.018415295771983132 0.0043436120703722811 0 -0.01816854451146907 0.0043700582661530358 0 -0.018078607276907778 0.0044946246328750848 0 -0.018415295771983132 0.0043436120703722811 0 -0.01816854451146907 0.0043700582661530358 0 -0.018078607276907778 0.0044946246328750848 0 -0.017520318577281417 0.0044780255874515146 0 -0.018603518136489711 0.0042928653117046377 0 -0.01816854451146907 0.0043700582661530358 0 -0.017520318577281417 0.0044780255874515146 0 -0.018603518136489711 0.0042928653117046377 0 -0.018798128899374746 0.0042211626768339774 0 -0.018415295771983132 0.0043436120703722811 0 -0.018603518136489711 0.0042928653117046377 0 -0.019620667809906282 0.0042188585531442307 0 -0.018798128899374746 0.0042211626768339774 0 -0.01970397062724609 0.0044754229311951676 0 -0.019620667809906282 0.0042188585531442307 0 -0.018798128899374746 0.0042211626768339774 0 -0.018551098132047177 0.0042640549241404618 0 -0.018645394865386203 0.0042718760668993116 0 -0.018942216297564259 0.0044126307810207228 0 -0.020889221239302706 0.0040557268615236943 0 -0.020247019560149241 0.0042003030783854828 0 -0.019749641770654469 0.0044738418396960715 0 -0.018551098132047177 0.0042640549241404618 0 -0.019749641770654469 0.0044738418396960715 0 -0.018942216297564259 0.0044126307810207228 0 -0.020612599610929844 0.004543856837244435 0 -0.020398811748178095 0.0044925815701155726 0 -0.018798128899374746 0.0042211626768339774 0 -0.018645394865386203 0.0042718760668993116 0 -0.018415295771983132 0.0043436120703722811 0 -0.018551098132047177 0.0042640549241404618 0 -0.018798128899374746 0.0042211626768339774 0 -0.018645394865386203 0.0042718760668993116 0 -0.019749641770654469 0.0044738418396960715 0 -0.018942216297564259 0.0044126307810207228 0 -0.019183225631661509 0.0047584807030194602 0 -0.018942216297564259 0.0044126307810207228 0 -0.018415295771983132 0.0043436120703722811 0 -0.018664405328771581 0.0048551426465314514 0 -0.018645394865386203 0.0042718760668993116 0 -0.018942216297564259 0.0044126307810207228 0 -0.018415295771983132 0.0043436120703722811 0 -0.018415295771983132 0.0043436120703722811 0 -0.01828657635214663 0.0046328590324899834 0 -0.018664405328771581 0.0048551426465314514 0 -0.018078607276907778 0.0044946246328750848 0 -0.018415295771983132 0.0043436120703722811 0 -0.01828657635214663 0.0046328590324899834 0 -0.0032091924146945587 0.014833759759562155 0 0.0029119030620900466 0.01520902044170673 0 -0.01828657635214663 0.0046328590324899834 0 -0.018664405328771581 0.0048551426465314514 0 -0.017913618632607799 0.0049432716173121701 0 -0.018664405328771581 0.0048551426465314514 0 -0.019183225631661509 0.0047584807030194602 0 -0.01918781126274623 0.0062707828704689399 0 -0.017913618632607799 0.0049432716173121701 0 -0.017863563936271989 0.0088895944719305196 0 -0.020990739371603562 0.010544325458202773 0 -0.018664405328771581 0.0048551426465314514 0 -0.017913618632607799 0.0049432716173121701 0 -0.01918781126274623 0.0062707828704689399 0 -0.018942216297564259 0.0044126307810207228 0 -0.018664405328771581 0.0048551426465314514 0 -0.019183225631661509 0.0047584807030194602 0 -0.016470114123281837 0.0078263388089399293 0 -0.017913618632607799 0.0049432716173121701 0 -0.017863563936271989 0.0088895944719305196 0 -0.016470114123281837 0.0078263388089399293 0 -0.016761409183613071 0.0059070643564863752 0 -0.015749645004708782 0.006801508570984916 0 -0.016470114123281837 0.0078263388089399293 0 -0.016761409183613071 0.0059070643564863752 0 -0.017913618632607799 0.0049432716173121701 0 -0.016761409183613071 0.0059070643564863752 0 -0.01565309943638972 0.0058091355082625223 0 -0.015749645004708782 0.006801508570984916 0 -0.016761409183613071 0.0059070643564863752 0 -0.017520318577281417 0.0044780255874515146 0 -0.01565309943638972 0.0058091355082625223 0 -0.018078607276907778 0.0044946246328750848 0 -0.017520318577281417 0.0044780255874515146 0 -0.017913618632607799 0.0049432716173121701 0 -0.016761409183613071 0.0059070643564863752 0 -0.017520318577281417 0.0044780255874515146 0 -0.017913618632607799 0.0049432716173121701 0 -0.018078607276907778 0.0044946246328750848 0 -0.01828657635214663 0.0046328590324899834 0 -0.017913618632607799 0.0049432716173121701 0 -0.014096420451453401 0.0048987168243062396 0 -0.01565309943638972 0.0058091355082625223 0 -0.01410519408353115 0.0068464654860283915 0 -0.014096420451453401 0.0048987168243062396 0 -0.017520318577281417 0.0044780255874515146 0 -0.01565309943638972 0.0058091355082625223 0 -0.01565309943638972 0.0058091355082625223 0 -0.01410519408353115 0.0068464654860283915 0 -0.015749645004708782 0.006801508570984916 0 -0.01410519408353115 0.0068464654860283915 0 -0.014929428806990209 0.0082372720811505814 0 -0.012985084762176425 0.0091881631641601517 0 -0.01410519408353115 0.0068464654860283915 0 -0.015749645004708782 0.006801508570984916 0 -0.014929428806990209 0.0082372720811505814 0 -0.016470114123281837 0.0078263388089399293 0 -0.015749645004708782 0.006801508570984916 0 -0.014929428806990209 0.0082372720811505814 0 -0.014929428806990209 0.0082372720811505814 0 -0.015093484371759265 0.010307995117467305 0 -0.012985084762176425 0.0091881631641601517 0 -0.016470114123281837 0.0078263388089399293 0 -0.014929428806990209 0.0082372720811505814 0 -0.015093484371759265 0.010307995117467305 0 -0.015093484371759265 0.010307995117467305 0 -0.014378932964976547 0.013853062404296438 0 -0.011976736872456775 0.011893066597117915 0 -0.015093484371759265 0.010307995117467305 0 -0.0170250201780427 0.011812118798050449 0 -0.014378932964976547 0.013853062404296438 0 -0.015093484371759265 0.010307995117467305 0 -0.0170250201780427 0.011812118798050449 0 -0.017863563936271989 0.0088895944719305196 0 -0.016470114123281837 0.0078263388089399293 0 -0.015093484371759265 0.010307995117467305 0 -0.017863563936271989 0.0088895944719305196 0 -0.0170250201780427 0.011812118798050449 0 -0.017863563936271989 0.0088895944719305196 0 -0.020990739371603562 0.010544325458202773 0 -0.0170250201780427 0.011812118798050449 0 -0.020990739371603562 0.010544325458202773 0 -0.01778194724694148 0.016103744826170375 0 0.0029119030620900466 0.01520902044170673 0 0.0010425847769351406 0.021139546179684728 0 0.01383778263421187 0.038127456253662505 0 0.011396531718906309 0.03346396105783124 0 0.014283520680728235 0.033240904869891404 0 -0.0170250201780427 0.011812118798050449 0 -0.01778194724694148 0.016103744826170375 0 -0.014378932964976547 0.013853062404296438 0 -0.01778194724694148 0.016103744826170375 0 -0.014378932964976547 0.013853062404296438 0 -0.013586934603939484 0.017462877019691191 0 0.030524228508830988 0.011932901583853347 0 0.031458044262957154 0.011898761965993198 0 0.031386249834598638 0.011260263264899963 0 0.014268838040623597 0.0085470528761789743 0 0.017228968951183001 0.0081532555260560979 0 0.030524228508830988 0.011932901583853347 0 0.031286233159711428 0.01230015687198821 0 0.031458044262957154 0.011898761965993198 0 0.027226543200402586 0.012950984386992151 0 0.029579549698410614 0.013319694185527161 0 0.029087502775781194 0.010675959802302742 0 0.01383778263421187 0.038127456253662505 0 0.016847826298289278 0.034284098281642687 0 0.014283520680728235 0.033240904869891404 0 0.0029119030620900466 0.01520902044170673 0 0.014903462202613932 0.017106025481441516 0 0.029579549698410614 0.013319694185527161 0 0.029087502775781194 0.010675959802302742 0 0.030518349315334131 0.010860616300415396 0 0.030524228508830988 0.011932901583853347 0 0.030518349315334131 0.010860616300415396 0 0.031386249834598638 0.011260263264899963 0 0.029087502775781194 0.010675959802302742 0 0.030518349315334131 0.010860616300415396 0 0.030396807287247946 0.010008944912486935 0 0.030518349315334131 0.010860616300415396 0 0.030960194087726007 0.010065139456147093 0 0.030396807287247946 0.010008944912486935 0 0.030518349315334131 0.010860616300415396 0 0.030960194087726007 0.010065139456147093 0 0.031143015186152832 0.010659061595682001 0 0.030518349315334131 0.010860616300415396 0 0.031143015186152832 0.010659061595682001 0 0.031386249834598638 0.011260263264899963 0 0.016847826298289278 0.034284098281642687 0 0.020004342559404045 0.030448009919401768 0 0.019668412505099382 0.030617542430198763 0 0.029087502775781194 0.010675959802302742 0 0.030571287158939479 0.0088805117906901477 0 0.030396807287247946 0.010008944912486935 0 0.016847826298289278 0.034284098281642687 0 0.019668412505099382 0.030617542430198763 0 0.016350738773609933 0.030855521450072379 0 0.014903462202613932 0.017106025481441516 0 0.022297288510717751 0.01728874558309515 0 0.020027766072302715 0.030459969777190208 0 0.019668412505099382 0.030617542430198763 0 0.019782870935581301 0.029642968139267561 0 0.022297288510717751 0.01728874558309515 0 0.022266477377214364 0.017320313892546194 0 0.030571287158939479 0.0088805117906901477 0 0.030757422978971383 0.0095733236233307342 0 0.031270721808848823 0.0092428887435858486 0 0.030757422978971383 0.0095733236233307342 0 0.030960194087726007 0.010065139456147093 0 0.031270721808848823 0.0092428887435858486 0 0.030571287158939479 0.0088805117906901477 0 0.030757422978971383 0.0095733236233307342 0 0.030396807287247946 0.010008944912486935 0 0.030757422978971383 0.0095733236233307342 0 0.030960194087726007 0.010065139456147093 0 0.030396807287247946 0.010008944912486935 0 0.019668412505099382 0.030617542430198763 0 0.016350738773609933 0.030855521450072379 0 0.01872471646003103 0.029079304479504256 0 0.016847826298289278 0.034284098281642687 0 0.016350738773609933 0.030855521450072379 0 0.014283520680728235 0.033240904869891404 0 0.016350738773609933 0.030855521450072379 0 0.014283520680728235 0.033240904869891404 0 0.013171103128514607 0.03006909922452022 0 0.016052069872531761 0.028323057371049277 0 0.018116452044098938 0.026914246340812624 0 0.013790491179876024 0.02634781143687033 0 0.016052069872531761 0.028323057371049277 0 0.013171103128514607 0.03006909922452022 0 0.013790491179876024 0.02634781143687033 0 0.016350738773609933 0.030855521450072379 0 0.016052069872531761 0.028323057371049277 0 0.013171103128514607 0.03006909922452022 0 0.016350738773609933 0.030855521450072379 0 0.016052069872531761 0.028323057371049277 0 0.01872471646003103 0.029079304479504256 0 0.01872471646003103 0.029079304479504256 0 0.018116452044098938 0.026914246340812624 0 0.0203102650659539 0.028290202826684964 0 0.016052069872531761 0.028323057371049277 0 0.01872471646003103 0.029079304479504256 0 0.018116452044098938 0.026914246340812624 0 0.018116452044098938 0.026914246340812624 0 0.0203102650659539 0.028290202826684964 0 0.021023732910672086 0.026395306966923118 0 0.0203102650659539 0.028290202826684964 0 0.019782870935581301 0.029642968139267561 0 0.020729780719862305 0.029717930508162477 0 0.01872471646003103 0.029079304479504256 0 0.0203102650659539 0.028290202826684964 0 0.019782870935581301 0.029642968139267561 0 0.019668412505099382 0.030617542430198763 0 0.01872471646003103 0.029079304479504256 0 0.019782870935581301 0.029642968139267561 0 0.020027766072302715 0.030459969777190208 0 0.019782870935581301 0.029642968139267561 0 0.020729780719862305 0.029717930508162477 0 0.022297288510717751 0.01728874558309515 0 0.022109245683345307 0.017627666490397785 0 0.0010425847769351406 0.021139546179684728 0 9.3389268557385148e-05 0.022017445873173957 0 -0.01778194724694148 0.016103744826170375 0 -0.013586934603939484 0.017462877019691191 0 -0.014517101556002778 0.022120189068465541 0 0.011396531718906309 0.03346396105783124 0 0.014283520680728235 0.033240904869891404 0 0.013171103128514607 0.03006909922452022 0 0.011396531718906309 0.03346396105783124 0 0.013171103128514607 0.03006909922452022 0 0.0088922653357966109 0.028696607577492868 0 9.3389268557385148e-05 0.022017445873173957 0 0.0091800126123242846 0.022538537571074324 0 0.013171103128514607 0.03006909922452022 0 0.0088922653357966109 0.028696607577492868 0 0.013790491179876024 0.02634781143687033 0 0.0041211452414110011 0.031105633686568022 0 0.011761881847290365 0.027371252385705595 0 0.0058981981518070083 0.025479237149541086 0 9.3389268557385148e-05 0.022017445873173957 0 -0.00036941141598135395 0.021652640483191741 0 -0.0041318973472988336 0.018298487831950202 0 -0.003892862818264827 0.018353320709599285 0 -0.0036762106490836792 0.018668944856059664 0 -0.003892862818264827 0.018353320709599285 0 -0.0046084343899394156 0.018288135698086381 0 -0.0043494037018840118 0.018164022208256383 0 9.3389268557385148e-05 0.022017445873173957 0 -0.0029840240892201014 0.021914041410042918 0 -0.0041318973472988336 0.018298487831950202 0 -0.003892862818264827 0.018353320709599285 0 -0.0043494037018840118 0.018164022208256383 0 -0.0046084343899394156 0.018288135698086381 0 -0.0039378526034996725 0.018134418441529909 0 -0.0033397424956583353 0.018628467671623152 0 -0.003892862818264827 0.018353320709599285 0 -0.0046084343899394156 0.018288135698086381 0 -0.0033397424956583353 0.018628467671623152 0 -0.0056956890140295027 0.016002613918289253 0 -0.0056352565812307362 0.013873974605852726 0 -0.0046084343899394156 0.018288135698086381 0 -0.005719113748504606 0.017360412255980985 0 -0.0043494037018840118 0.018164022208256383 0 -0.0046084343899394156 0.018288135698086381 0 -0.005719113748504606 0.017360412255980985 0 -0.0053822178883857754 0.01513394796205993 0 -0.0034610325310929163 0.021617641888066787 0 -0.0029840240892201014 0.021914041410042918 0 -0.005719113748504606 0.017360412255980985 0 -0.010498923614243398 0.020176885135220705 0 -0.010642938780098402 0.015243577453366705 0 -0.013586934603939484 0.017462877019691191 0 -0.010498923614243398 0.020176885135220705 0 -0.010642938780098402 0.015243577453366705 0 -0.013586934603939484 0.017462877019691191 0 -0.014517101556002778 0.022120189068465541 0 -0.010498923614243398 0.020176885135220705 0 -0.014378932964976547 0.013853062404296438 0 -0.013586934603939484 0.017462877019691191 0 -0.010642938780098402 0.015243577453366705 0 -0.014378932964976547 0.013853062404296438 0 -0.010642938780098402 0.015243577453366705 0 -0.011976736872456775 0.011893066597117915 0 -0.010642938780098402 0.015243577453366705 0 -0.008530736316937227 0.012147820655008095 0 -0.011976736872456775 0.011893066597117915 0 -0.005719113748504606 0.017360412255980985 0 -0.010642938780098402 0.015243577453366705 0 -0.0074704916805088785 0.015037892022909735 0 -0.005719113748504606 0.017360412255980985 0 -0.0074704916805088785 0.015037892022909735 0 -0.0053822178883857754 0.01513394796205993 0 -0.0074704916805088785 0.015037892022909735 0 -0.008530736316937227 0.012147820655008095 0 -0.0053822178883857754 0.01513394796205993 0 -0.010642938780098402 0.015243577453366705 0 -0.0074704916805088785 0.015037892022909735 0 -0.008530736316937227 0.012147820655008095 0 -0.0089883524289665079 0.0086010511774829972 0 -0.0050920326760548829 0.0080174627697301541 0 -0.008530736316937227 0.012147820655008095 0 -0.0050920326760548829 0.0080174627697301541 0 -0.008530736316937227 0.012147820655008095 0 -0.0053822178883857754 0.01513394796205993 0 -0.0089883524289665079 0.0086010511774829972 0 -0.008530736316937227 0.012147820655008095 0 -0.010762228901087911 0.0099076643285970645 0 -0.015093484371759265 0.010307995117467305 0 -0.012985084762176425 0.0091881631641601517 0 -0.011976736872456775 0.011893066597117915 0 -0.010762228901087911 0.0099076643285970645 0 -0.012985084762176425 0.0091881631641601517 0 -0.011976736872456775 0.011893066597117915 0 -0.011363820682030287 0.0077733721647894431 0 -0.010762228901087911 0.0099076643285970645 0 -0.012985084762176425 0.0091881631641601517 0 -0.008530736316937227 0.012147820655008095 0 -0.010762228901087911 0.0099076643285970645 0 -0.011976736872456775 0.011893066597117915 0 -0.0036120085054814595 0.008453230476286093 0 -0.0039933552621275936 0.011478927320440766 0 -0.00095111932186397747 0.010110260565549522 0 -0.0039933552621275936 0.011478927320440766 0 -0.00095111932186397747 0.010110260565549522 0 -0.0011056918627399259 0.013933164105773346 0 -0.0061848525039419058 0.0092030209090073027 0 -0.0039933552621275936 0.011478927320440766 0 -0.0061344446034508858 0.01490415873770767 0 -0.0052656643968984661 0.0093380129458904265 0 -0.0056352565812307362 0.013873974605852726 0 -0.0039933552621275936 0.011478927320440766 0 -0.0061344446034508858 0.01490415873770767 0 -0.0040635062229477251 0.01505573813225237 0 -0.0020901646215524209 0.01198282774782424 0 -0.00052805227622021618 0.013046212482641444 0 -0.0039933552621275936 0.011478927320440766 0 -0.0040635062229477251 0.01505573813225237 0 -0.002483313816277425 0.015944217331024128 0 -0.0038305924094158865 0.017179217948984794 0 -0.0032368912045045218 0.017254265602586267 0 -0.002483313816277425 0.015944217331024128 0 -0.0040635062229477251 0.01505573813225237 0 -0.0038305924094158865 0.017179217948984794 0 -0.002483313816277425 0.015944217331024128 0 -0.0046084343899394156 0.018288135698086381 0 -0.0061344446034508858 0.01490415873770767 0 -0.0038305924094158865 0.017179217948984794 0 -0.0061344446034508858 0.01490415873770767 0 -0.0040635062229477251 0.01505573813225237 0 -0.0038305924094158865 0.017179217948984794 0 -0.0038305924094158865 0.017179217948984794 0 -0.0039378526034996725 0.018134418441529909 0 -0.0036819132383566341 0.017866364808764357 0 -0.0046084343899394156 0.018288135698086381 0 -0.0038305924094158865 0.017179217948984794 0 -0.0039378526034996725 0.018134418441529909 0 -0.0038305924094158865 0.017179217948984794 0 -0.0032368912045045218 0.017254265602586267 0 -0.0036819132383566341 0.017866364808764357 0 -0.0032368912045045218 0.017254265602586267 0 -0.0034806413288285178 0.017542682070014044 0 -0.0036819132383566341 0.017866364808764357 0 0.0016826617685803996 0.016999172420528813 0 0.0040384109995072488 0.013674717091119858 0 -0.0011056918627399259 0.013933164105773346 0 -0.0032368912045045218 0.017254265602586267 0 -0.0033594428548900414 0.017481348247216477 0 -0.0034806413288285178 0.017542682070014044 0 0.0026818107581731924 0.013531437874121574 0 -0.00052805227622021618 0.013046212482641444 0 -0.0032368912045045218 0.017254265602586267 0 -0.0033594428548900414 0.017481348247216477 0 -0.002483313816277425 0.015944217331024128 0 0.0026818107581731924 0.013531437874121574 0 0.0083073740276324703 0.011240655843767057 0 0.0016826617685803996 0.016999172420528813 0 0.0060671852468791327 0.017424756933634749 0 0.0044946658602868566 0.020163994914054205 0 0.018198020241096 0.0064845289494722706 0 0.015439938274938943 0.0054873316386581357 0 0.016110403671971169 0.0097841906097352362 0 0.018198020241096 0.0064845289494722706 0 0.015439938274938943 0.0054873316386581357 0 0.01844421289627796 0.0043836276865852038 0 0.0091941486594309535 0.01054755038949246 0 0.0086393367782910454 0.0098150677646957323 0 0.0060671852468791327 0.017424756933634749 0 0.0040384109995072488 0.013674717091119858 0 0.0076884625473313678 0.014642316497456408 0 0.0016826617685803996 0.016999172420528813 0 0.0060671852468791327 0.017424756933634749 0 0.0040384109995072488 0.013674717091119858 0 0.0040384109995072488 0.013674717091119858 0 0.0065764573583361246 0.01240675887272665 0 0.0076884625473313678 0.014642316497456408 0 0.0040384109995072488 0.013674717091119858 0 0.0065764573583361246 0.01240675887272665 0 0.0052234046248478593 0.0094859411262721328 0 0.0065764573583361246 0.01240675887272665 0 0.0052234046248478593 0.0094859411262721328 0 0.0093593580152878005 0.011780209789759724 0 0.0072032451226695287 0.0084845017325292666 0 0.0071360970804225715 0.0075921726151878454 0 0.0040384109995072488 0.013674717091119858 0 0.0052234046248478593 0.0094859411262721328 0 0.0017935224434031908 0.011011121633946493 0 0.0052234046248478593 0.0094859411262721328 0 0.0017935224434031908 0.011011121633946493 0 0.0018675299082328706 0.0077292101793620081 0 0.0017935224434031908 0.011011121633946493 0 -0.00095111932186397747 0.010110260565549522 0 0.0018675299082328706 0.0077292101793620081 0 0.0040384109995072488 0.013674717091119858 0 0.0017935224434031908 0.011011121633946493 0 -0.0011056918627399259 0.013933164105773346 0 0.0017935224434031908 0.011011121633946493 0 -0.00095111932186397747 0.010110260565549522 0 -0.0011056918627399259 0.013933164105773346 0 -0.001163893796575832 0.0048262241461340836 0 -0.0016296582097363259 0.0048845997906926857 0 -0.0014972596968564221 0.0045357301388153784 0 0.00057212718340590393 0.0058598440178990437 0 0.0025474904844340514 0.0065865487458997701 0 0.0022474057504321804 0.0065981124521640785 0 0.0063832197224100943 0.0089019446552300492 0 0.0043148902923959937 0.0061781383028981403 0 0.0063832197224100943 0.0089019446552300492 0 0.0060856193763951464 0.0054075167587071321 0 0.0080165471167805303 0.0059945414133123782 0 0.0063832197224100943 0.0089019446552300492 0 0.0043148902923959937 0.0061781383028981403 0 0.0060856193763951464 0.0054075167587071321 0 0.0043148902923959937 0.0061781383028981403 0 0.0043911430909949747 0.0044658135295571662 0 0.0060856193763951464 0.0054075167587071321 0 0.0043911430909949747 0.0044658135295571662 0 0.0060856193763951464 0.0054075167587071321 0 0.0054758353371597316 0.0034224517934138897 0 0.0060856193763951464 0.0054075167587071321 0 0.0054758353371597316 0.0034224517934138897 0 0.0072686041385707639 0.0037877061341697648 0 0.0060856193763951464 0.0054075167587071321 0 0.0080165471167805303 0.0059945414133123782 0 0.0072686041385707639 0.0037877061341697648 0 0.0080165471167805303 0.0059945414133123782 0 0.0099292324399862554 0.0045199771662484825 0 0.010057582712836421 0.0079567628159314951 0 0.0080165471167805303 0.0059945414133123782 0 0.0099292324399862554 0.0045199771662484825 0 0.0072686041385707639 0.0037877061341697648 0 0.0063832197224100943 0.0089019446552300492 0 0.0080165471167805303 0.0059945414133123782 0 0.010057582712836421 0.0079567628159314951 0 0.0063832197224100943 0.0089019446552300492 0 0.010057582712836421 0.0079567628159314951 0 0.010260887409330169 0.011136260867582175 0 0.0025474904844340514 0.0065865487458997701 0 0.0046018348445198637 0.0071753065483192687 0 0.010057582712836421 0.0079567628159314951 0 0.012881694327055158 0.0097226039876390901 0 0.010260887409330169 0.011136260867582175 0 0.010057582712836421 0.0079567628159314951 0 0.012881694327055158 0.0097226039876390901 0 0.012697033922900955 0.0066478396901552784 0 0.0099292324399862554 0.0045199771662484825 0 0.010057582712836421 0.0079567628159314951 0 0.012697033922900955 0.0066478396901552784 0 0.0099292324399862554 0.0045199771662484825 0 0.012697033922900955 0.0066478396901552784 0 0.011910789648860777 0.0025922511961795525 0 0.012697033922900955 0.0066478396901552784 0 0.015439938274938943 0.0054873316386581357 0 0.011910789648860777 0.0025922511961795525 0 0.012697033922900955 0.0066478396901552784 0 0.015439938274938943 0.0054873316386581357 0 0.016110403671971169 0.0097841906097352362 0 0.012881694327055158 0.0097226039876390901 0 0.012697033922900955 0.0066478396901552784 0 0.016110403671971169 0.0097841906097352362 0 0.0065764573583361246 0.01240675887272665 0 0.0076884625473313678 0.014642316497456408 0 0.0093593580152878005 0.011780209789759724 0 0.0086393367782910454 0.0098150677646957323 0 0.0071360970804225715 0.0075921726151878454 0 0.012881694327055158 0.0097226039876390901 0 0.016110403671971169 0.0097841906097352362 0 0.014085043975844045 0.013254368442079275 0 0.0088237925235038588 0.011298214553691491 0 0.010545463036892076 0.008223419622917021 0 0.0082639322602720919 0.0089698484243577598 0 0.0052234046248478593 0.0094859411262721328 0 0.0088237925235038588 0.011298214553691491 0 0.0082639322602720919 0.0089698484243577598 0 0.0071360970804225715 0.0075921726151878454 0 0.0042600810837817877 0.0056871795534683455 0 -0.0026737236751018154 0.0042682882373860512 0 -0.0021289426103958289 0.0040255323832692081 0 -0.0023550802476868505 0.0036858266524917548 0 -0.0026737236751018154 0.0042682882373860512 0 -0.0021660235860821377 0.0045659574639683193 0 -0.0021289426103958289 0.0040255323832692081 0 0.0071360970804225715 0.0075921726151878454 0 0.0046018348445198637 0.0071753065483192687 0 0.012881694327055158 0.0097226039876390901 0 0.014085043975844045 0.013254368442079275 0 0.010260887409330169 0.011136260867582175 0 -0.0021660235860821377 0.0045659574639683193 0 -0.0018032485165870441 0.0043108676288025694 0 -0.0021289426103958289 0.0040255323832692081 0 -0.0016296582097363259 0.0048845997906926857 0 -0.0021660235860821377 0.0045659574639683193 0 -0.0018032485165870441 0.0043108676288025694 0 -0.0018032485165870441 0.0043108676288025694 0 -0.0021289426103958289 0.0040255323832692081 0 -0.0018142684928598855 0.0038390589121291953 0 -0.0018142684928598855 0.0038390589121291953 0 -0.0013602195940460272 0.0041462954630842024 0 -0.0015300309954257533 0.0035424803623886601 0 -0.0016929971644366365 0.0039076007561007053 0 -0.0029075501819873372 0.0022734575554114837 0 -0.0017209557741698631 0.0033158987021478271 0 -0.0017335309868079091 0.0038744102981947662 0 -0.0022148595377017347 0.0021030362335516676 0 -0.0018032485165870441 0.0043108676288025694 0 -0.0018142684928598855 0.0038390589121291953 0 -0.0013602195940460272 0.0041462954630842024 0 -0.0014497155276702522 0.0046019532694433225 0 -0.0017209557741698631 0.0033158987021478271 0 -0.0017335309868079091 0.0038744102981947662 0 -0.0018032485165870441 0.0043108676288025694 0 -0.0013602195940460272 0.0041462954630842024 0 -0.0014972596968564221 0.0045357301388153784 0 -0.0016296582097363259 0.0048845997906926857 0 -0.0018032485165870441 0.0043108676288025694 0 -0.0014972596968564221 0.0045357301388153784 0 -0.001163893796575832 0.0048262241461340836 0 -0.0013602195940460272 0.0041462954630842024 0 -0.0014972596968564221 0.0045357301388153784 0 -0.0059096564219894817 -0.0028781407784734584 0 -0.0044069963159489587 -0.0038302360782589973 0 -0.0045856631155582932 -0.0047228696298334226 0 -0.0017212219684547561 0.0032052140595312884 0 -0.0017753500998876537 0.0032009116808068348 0 -0.0018028029795134643 0.0029856394057862922 0 -0.0017753500998876537 0.0032009116808068348 0 -0.0016481668890615502 0.00350873949457643 0 -0.0019641238781330896 0.003526367521433748 0 -0.0030230685869134075 0.002265872497088311 0 -0.0032131349852965656 0.0018477281559832997 0 -0.0017753500998876537 0.0032009116808068348 0 -0.0017054163421040837 0.0033148391494242637 0 -0.0017335807330360329 0.003353546418082626 0 -0.0017212219684547561 0.0032052140595312884 0 -0.0017753500998876537 0.0032009116808068348 0 -0.0017054163421040837 0.0033148391494242637 0 -0.0047006976804274091 0.00064138607021013716 0 -0.0037158959519210744 0.001274779451734909 0 -0.0030103490096450732 0.0028329622144328947 0 -0.0032162304191423611 0.0018172060934495281 0 -0.0032937971598542819 0.0021247111837707808 0 -0.002336665344008794 0.0030256502251663777 0 -0.0037158959519210744 0.001274779451734909 0 -0.0032162304191423611 0.0018172060934495281 0 -0.0032937971598542819 0.0021247111837707808 0 -0.003331408902705937 0.0019824568679641815 0 -0.0037158959519210744 0.001274779451734909 0 -0.0032131349852965656 0.0018477281559832997 0 -0.0029075501819873372 0.0022734575554114837 0 -0.0032131349852965656 0.0018477281559832997 0 -0.002336665344008794 0.0030256502251663777 0 -0.0029075501819873372 0.0022734575554114837 0 -0.0018142684928598855 0.0038390589121291953 0 -0.0015300309954257533 0.0035424803623886601 0 -0.0015530488182615039 0.0034577698630542802 0 -0.0031634780585663674 0.0021659199857363373 0 -0.0032131349852965656 0.0018477281559832997 0 -0.0019641238781330896 0.003526367521433748 0 -0.0020492876269519282 0.0031620295412512953 0 -0.0023550802476868505 0.0036858266524917548 0 -0.0021289426103958289 0.0040255323832692081 0 -0.0018142684928598855 0.0038390589121291953 0 -0.0019641238781330896 0.003526367521433748 0 -0.0021289426103958289 0.0040255323832692081 0 -0.0019641238781330896 0.003526367521433748 0 -0.0023550802476868505 0.0036858266524917548 0 -0.0018142684928598855 0.0038390589121291953 0 -0.0016481668890615502 0.00350873949457643 0 -0.0019641238781330896 0.003526367521433748 0 -0.0017753500998876537 0.0032009116808068348 0 -0.0019641238781330896 0.003526367521433748 0 -0.0020492876269519282 0.0031620295412512953 0 -0.0017753500998876537 0.0032009116808068348 0 -0.0020492876269519282 0.0031620295412512953 0 -0.0018028029795134643 0.0029856394057862922 0 0.0019024119597105245 0.00289118319893767 0 0.0042600810837817877 0.0056871795534683455 0 0.012226129035853435 0.0050480489272531842 0 0.0099856959167463344 0.0058782103254244114 0 0.0090569276763307078 0.0037067549026044105 0 0.012226129035853435 0.0050480489272531842 0 0.0099856959167463344 0.0058782103254244114 0 0.010545463036892076 0.008223419622917021 0 0.0099856959167463344 0.0058782103254244114 0 0.010545463036892076 0.008223419622917021 0 0.0081326083599440931 0.0065279345823890172 0 0.010545463036892076 0.008223419622917021 0 0.0082639322602720919 0.0089698484243577598 0 0.0081326083599440931 0.0065279345823890172 0 0.0081326083599440931 0.0065279345823890172 0 0.0090569276763307078 0.0037067549026044105 0 0.0053313650548133251 0.0050615170926254383 0 0.0099856959167463344 0.0058782103254244114 0 0.0081326083599440931 0.0065279345823890172 0 0.0090569276763307078 0.0037067549026044105 0 0.0057611259131981523 0.0033862759429726156 0 0.0039424873376801006 0.0024965429757714836 0 0.0095067878814373181 0.00050006716500825205 0 0.0059271091538493264 0.0013528678728264743 0 0.0069177176606525339 -0.0016261248548474457 0 0.0090569276763307078 0.0037067549026044105 0 0.0095067878814373181 0.00050006716500825205 0 0.0059271091538493264 0.0013528678728264743 0 0.0095067878814373181 0.00050006716500825205 0 0.011365938429853319 0.0024786695110033527 0 0.01183360897182709 0.00066959913639259828 0 0.0095067878814373181 0.00050006716500825205 0 0.01183360897182709 0.00066959913639259828 0 0.011225649895897607 -0.00095404078649455044 0 0.012226129035853435 0.0050480489272531842 0 0.0090569276763307078 0.0037067549026044105 0 0.011365938429853319 0.0024786695110033527 0 0.0090569276763307078 0.0037067549026044105 0 0.0095067878814373181 0.00050006716500825205 0 0.011365938429853319 0.0024786695110033527 0 -0.0020492876269519282 0.0031620295412512953 0 -0.0018599947754615014 0.0028447066850922458 0 -0.0018028029795134643 0.0029856394057862922 0 0.0019024119597105245 0.00289118319893767 0 -0.00284221193410955 0.00045726762691782698 0 0.012226129035853435 0.0050480489272531842 0 0.011365938429853319 0.0024786695110033527 0 0.013937689055825478 0.0018509484674948382 0 0.01183360897182709 0.00066959913639259828 0 0.013937689055825478 0.0018509484674948382 0 0.013017962168401996 -0.00048845436298643717 0 0.011365938429853319 0.0024786695110033527 0 0.01183360897182709 0.00066959913639259828 0 0.013937689055825478 0.0018509484674948382 0 -0.0017705097698379052 0.0026846806394760832 0 -0.0017951261120394343 0.0027696713660556489 0 -0.0017514093630306546 0.0028758930087806217 0 -0.00284221193410955 0.00045726762691782698 0 -0.016020852621001978 0.0030033042581729063 0 -0.0018599947754615014 0.0028447066850922458 0 -0.0017951261120394343 0.0027696713660556489 0 -0.0017989659364389522 0.0026756446441188906 0 0.013937689055825478 0.0018509484674948382 0 0.015658432880852613 -0.0013330622407310031 0 0.013017962168401996 -0.00048845436298643717 0 -0.0018599947754615014 0.0028447066850922458 0 -0.0017951261120394343 0.0027696713660556489 0 -0.0017514093630306546 0.0028758930087806217 0 -0.0059096564219894817 -0.0028781407784734584 0 -0.0044069963159489587 -0.0038302360782589973 0 -0.0048999109444083071 -0.001682838804973188 0 -0.0017705324388276814 0.0031151185467383114 0 -0.0017514093630306546 0.0028758930087806217 0 -0.0018028029795134643 0.0029856394057862922 0 -0.0047006976804274091 0.00064138607021013716 0 -0.0088488455240480126 0.0007588077278266721 0 -0.0018599947754615014 0.0028447066850922458 0 -0.0017514093630306546 0.0028758930087806217 0 -0.0018028029795134643 0.0029856394057862922 0 -0.0047006976804274091 0.00064138607021013716 0 -0.004401708408006846 0.0013017755996656013 0 0.0018675299082328706 0.0077292101793620081 0 0.0053313650548133251 0.0050615170926254383 0 0.00081581776775642943 0.0038858417153904241 0 -0.0019004200377761564 0.0069166233722686285 0 -0.0021803485444255068 0.0041092561857090032 0 0.00081581776775642943 0.0038858417153904241 0 -0.0019004200377761564 0.0069166233722686285 0 0.0018675299082328706 0.0077292101793620081 0 0.00081581776775642943 0.0038858417153904241 0 -0.0019004200377761564 0.0069166233722686285 0 -0.00095111932186397747 0.010110260565549522 0 0.0018675299082328706 0.0077292101793620081 0 0.0052234046248478593 0.0094859411262721328 0 0.0018675299082328706 0.0077292101793620081 0 0.0053313650548133251 0.0050615170926254383 0 0.0052234046248478593 0.0094859411262721328 0 0.0081326083599440931 0.0065279345823890172 0 0.0053313650548133251 0.0050615170926254383 0 0.0052234046248478593 0.0094859411262721328 0 0.0082639322602720919 0.0089698484243577598 0 0.0081326083599440931 0.0065279345823890172 0 0.0053313650548133251 0.0050615170926254383 0 0.0034807365908171945 0.0017460386014841438 0 0.00081581776775642943 0.0038858417153904241 0 0.0090569276763307078 0.0037067549026044105 0 0.0053313650548133251 0.0050615170926254383 0 0.0065923511180670273 0.0011541572297612953 0 0.0053313650548133251 0.0050615170926254383 0 0.0065923511180670273 0.0011541572297612953 0 0.0034807365908171945 0.0017460386014841438 0 0.0039424873376801006 0.0024965429757714836 0 -0.00052738580414279717 0.0010745249474238159 0 0.0065923511180670273 0.0011541572297612953 0 0.0034807365908171945 0.0017460386014841438 0 0.0038277578763787844 -0.0015280382759634145 0 0.0034807365908171945 0.0017460386014841438 0 0.000783459649044886 9.177636312265446e-05 0 0.0038277578763787844 -0.0015280382759634145 0 0.0034807365908171945 0.0017460386014841438 0 0.000783459649044886 9.177636312265446e-05 0 0.00081581776775642943 0.0038858417153904241 0 -0.0020308670737431236 0.0019505490539774616 0 0.000783459649044886 9.177636312265446e-05 0 0.00081581776775642943 0.0038858417153904241 0 -0.0021803485444255068 0.0041092561857090032 0 -0.0020308670737431236 0.0019505490539774616 0 0.00081581776775642943 0.0038858417153904241 0 -0.0020308670737431236 0.0019505490539774616 0 0.000783459649044886 9.177636312265446e-05 0 -0.0025331649485192107 -0.001487519928328435 0 0.000783459649044886 9.177636312265446e-05 0 0.00097826974439800887 -0.004056372658727359 0 -0.0025331649485192107 -0.001487519928328435 0 -0.0094494853726923775 -0.0010842466469508001 0 -0.012706626995621658 0.0014031754926080878 0 -0.022837166618103432 0.0049203989660582936 0 -0.022805902178021108 0.0049436567669754626 0 -0.02316061394754115 0.0051132050764340692 0 -0.023020048439526933 0.0048765259431540935 0 -0.022837166618103432 0.0049203989660582936 0 -0.02316061394754115 0.0051132050764340692 0 -0.023020048439526933 0.0048765259431540935 0 -0.022837166618103432 0.0049203989660582936 0 -0.022875205774195627 0.0048387392471311045 0 -0.022788357933230311 0.0048669838525940284 0 -0.022796012291907104 0.0049537991324179386 0 -0.022688779206627797 0.0048010992801647981 0 -0.022824677796901945 0.0048549155072776405 0 -0.022837166618103432 0.0049203989660582936 0 -0.022875205774195627 0.0048387392471311045 0 -0.022788357933230311 0.0048669838525940284 0 -0.022824677796901945 0.0048549155072776405 0 -0.022837166618103432 0.0049203989660582936 0 -0.022788357933230311 0.0048669838525940284 0 -0.022837166618103432 0.0049203989660582936 0 -0.022796012291907104 0.0049537991324179386 0 -0.0095407855717912562 -0.0011043080201706005 0 -0.0094494853726923775 -0.0010842466469508001 0 0.000783459649044886 9.177636312265446e-05 0 0.00097826974439800887 -0.004056372658727359 0 0.0038277578763787844 -0.0015280382759634145 0 -0.0094494853726923775 -0.0010842466469508001 0 -0.00052738580414279717 0.0010745249474238159 0 0.0028676751184200668 -0.0011451568102585276 0 0.004887506360477213 -0.0035799287073606427 0 0.0069177176606525339 -0.0016261248548474457 0 0.0059271091538493264 0.0013528678728264743 0 0.0028676751184200668 -0.0011451568102585276 0 0.0069177176606525339 -0.0016261248548474457 0 0.004887506360477213 -0.0035799287073606427 0 0.0033796051231589903 -0.0064218712696028782 0 0.007681437697785118 -0.0047026145496160731 0 0.004887506360477213 -0.0035799287073606427 0 0.0069177176606525339 -0.0016261248548474457 0 0.007681437697785118 -0.0047026145496160731 0 0.004887506360477213 -0.0035799287073606427 0 0.0028340406826810102 -0.0037485573597550253 0 0.0033796051231589903 -0.0064218712696028782 0 -0.00016915474556707189 -0.0037245128830171222 0 0.0028676751184200668 -0.0011451568102585276 0 0.0028340406826810102 -0.0037485573597550253 0 -0.00016915474556707189 -0.0037245128830171222 0 0.0028340406826810102 -0.0037485573597550253 0 0.0033796051231589903 -0.0064218712696028782 0 0.0028676751184200668 -0.0011451568102585276 0 0.004887506360477213 -0.0035799287073606427 0 0.0028340406826810102 -0.0037485573597550253 0 -0.021582860799899274 0.00078492293997649547 0 -0.027132381639006491 0.0007755180935874698 0 -0.02245326835637312 0.0047056957767972448 0 -0.022688779206627797 0.0048010992801647981 0 -0.022701673360924313 0.004611437642711551 0 -0.042644963352674169 -0.0030418930865291857 0 -0.044881648309936406 -0.001386693785617738 0 -0.046955519011415377 -0.0024533891012573244 0 -0.042644963352674169 -0.0030418930865291857 0 -0.047216164316266469 -0.0047725297593994229 0 -0.046955519011415377 -0.0024533891012573244 0 -0.021582860799899274 0.00078492293997649547 0 -0.021187372965467709 -0.001105064407977298 0 -0.021582860799899274 0.00078492293997649547 0 -0.026933815858149 0.0028371811882558716 0 -0.044881648309936406 -0.001386693785617738 0 -0.042377333381622195 -0.00034147505627260164 0 -0.045646078027477166 0.0010895133964151974 0 -0.042740174772855175 -0.0030484123297377292 0 -0.044881648309936406 -0.001386693785617738 0 -0.042377333381622195 -0.00034147505627260164 0 -0.042740174772855175 -0.0030484123297377292 0 -0.042377333381622195 -0.00034147505627260164 0 -0.040216164800314334 -0.0020934853315527353 0 -0.042377333381622195 -0.00034147505627260164 0 -0.040216164800314334 -0.0020934853315527353 0 -0.039430038162497801 0.00068752801435326952 0 -0.037733374145912768 -0.0011434175588549021 0 -0.040216164800314334 -0.0020934853315527353 0 -0.039430038162497801 0.00068752801435326952 0 -0.028717472219197432 0.0018041034923840828 0 -0.027132381639006491 0.0007755180935874698 0 -0.028717472219197432 0.0018041034923840828 0 -0.030488361965193726 0.0025347506571893018 0 -0.037420889779347488 -0.0015259649759200142 0 -0.03682688955753384 0.0022191953658108792 0 -0.033580194841618401 -1.4799391022548068e-05 0 -0.028717472219197432 0.0018041034923840828 0 -0.029262845410875617 0.0016995155275466725 0 -0.023020048439526933 0.0048765259431540935 0 -0.02289354031077739 0.0047325674766951781 0 -0.023185019592997888 0.0048761266216470981 0 -0.022940627749045525 0.0045303073817691405 0 -0.02289354031077739 0.0047325674766951781 0 -0.023185019592997888 0.0048761266216470981 0 -0.028717472219197432 0.0018041034923840828 0 -0.026083472718776247 0.003704684897405025 0 -0.023020048439526933 0.0048765259431540935 0 -0.02289354031077739 0.0047325674766951781 0 -0.022875205774195627 0.0048387392471311045 0 -0.02289354031077739 0.0047325674766951781 0 -0.022875205774195627 0.0048387392471311045 0 -0.022798427543538374 0.0047919976628112695 0 -0.0094494853726923775 -0.0010842466469508001 0 -0.021582860799899274 0.00078492293997649547 0 -0.022796012291907104 0.0049537991324179386 0 -0.02245326835637312 0.0047056957767972448 0 -0.022688779206627797 0.0048010992801647981 0 -0.022824677796901945 0.0048549155072776405 0 -0.022875205774195627 0.0048387392471311045 0 -0.022798427543538374 0.0047919976628112695 0 -0.022788357933230311 0.0048669838525940284 0 -0.022824677796901945 0.0048549155072776405 0 -0.022798427543538374 0.0047919976628112695 0 -0.022788357933230311 0.0048669838525940284 0 -0.022798427543538374 0.0047919976628112695 0 -0.022688779206627797 0.0048010992801647981 0 -0.022798427543538374 0.0047919976628112695 0 -0.022688779206627797 0.0048010992801647981 0 -0.022701673360924313 0.004611437642711551 0 -0.022940627749045525 0.0045303073817691405 0 -0.02289354031077739 0.0047325674766951781 0 -0.022701673360924313 0.004611437642711551 0 -0.02289354031077739 0.0047325674766951781 0 -0.022798427543538374 0.0047919976628112695 0 -0.022701673360924313 0.004611437642711551 0 -0.057786366798508099 -0.0049122805088506957 0 -0.056046289302419582 -0.0050134236034570798 0 -0.054550661756953278 -0.0075308543347023587 0 -0.025480861836994845 0.0031229342354149865 0 -0.022817546963036464 0.0019309310191802913 0 -0.05476512592837713 -0.0049264019016303688 0 -0.054550661756953278 -0.0075308543347023587 0 -0.052894331051752404 -0.0048107856228029947 0 -0.056046289302419582 -0.0050134236034570798 0 -0.05476512592837713 -0.0049264019016303688 0 -0.055848873852835434 -0.0037897004673548233 0 -0.056046289302419582 -0.0050134236034570798 0 -0.05476512592837713 -0.0049264019016303688 0 -0.054550661756953278 -0.0075308543347023587 0 -0.022471743094425779 0.001569571578478541 0 -0.020944481427363083 -0.0011076972966705281 0 -0.01861256803172762 -0.00019940027713130127 0 0.015658432880852613 -0.0013330622407310031 0 0.014161356369038385 -0.0019392680230500645 0 0.013017962168401996 -0.00048845436298643717 0 -0.016020852621001978 0.0030033042581729063 0 -0.022817546963036464 0.0019309310191802913 0 -0.0017705097698379052 0.0026846806394760832 0 -0.0017951261120394343 0.0027696713660556489 0 -0.0017989659364389522 0.0026756446441188906 0 0.013017962168401996 -0.00048845436298643717 0 0.011795872275147029 -0.0029576205136599629 0 0.011225649895897607 -0.00095404078649455044 0 0.014161356369038385 -0.0019392680230500645 0 0.013017962168401996 -0.00048845436298643717 0 0.011795872275147029 -0.0029576205136599629 0 0.01183360897182709 0.00066959913639259828 0 0.013017962168401996 -0.00048845436298643717 0 0.011225649895897607 -0.00095404078649455044 0 -0.022817546963036464 0.0019309310191802913 0 -0.021812302290301722 -0.00017831212101962094 0 -0.051790464895606167 -0.0064740887791257598 0 -0.052894331051752404 -0.0048107856228029947 0 -0.050725933183120103 -0.003212822926031885 0 -0.054550661756953278 -0.0075308543347023587 0 -0.051790464895606167 -0.0064740887791257598 0 -0.052894331051752404 -0.0048107856228029947 0 -0.021812302290301722 -0.00017831212101962094 0 -0.021187372965467709 -0.001105064407977298 0 0.011795872275147029 -0.0029576205136599629 0 0.0094491796389511908 -0.0019545454175427706 0 0.007681437697785118 -0.0047026145496160731 0 -0.051790464895606167 -0.0064740887791257598 0 -0.047216164316266469 -0.0047725297593994229 0 -0.050725933183120103 -0.003212822926031885 0 0.011795872275147029 -0.0029576205136599629 0 0.0094491796389511908 -0.0019545454175427706 0 0.011225649895897607 -0.00095404078649455044 0 0.0095067878814373181 0.00050006716500825205 0 0.0094491796389511908 -0.0019545454175427706 0 0.011225649895897607 -0.00095404078649455044 0 0.0095067878814373181 0.00050006716500825205 0 0.0094491796389511908 -0.0019545454175427706 0 0.0069177176606525339 -0.0016261248548474457 0 0.0094491796389511908 -0.0019545454175427706 0 0.0069177176606525339 -0.0016261248548474457 0 0.007681437697785118 -0.0047026145496160731 0 -0.046955519011415377 -0.0024533891012573244 0 -0.048444851047414202 -0.00061569521807663052 0 -0.050725933183120103 -0.003212822926031885 0 -0.047216164316266469 -0.0047725297593994229 0 -0.046955519011415377 -0.0024533891012573244 0 -0.050725933183120103 -0.003212822926031885 0 -0.044881648309936406 -0.001386693785617738 0 -0.046955519011415377 -0.0024533891012573244 0 -0.048444851047414202 -0.00061569521807663052 0 -0.044881648309936406 -0.001386693785617738 0 -0.048444851047414202 -0.00061569521807663052 0 -0.045646078027477166 0.0010895133964151974 0 -0.048444851047414202 -0.00061569521807663052 0 -0.051096623216342237 -0.0008238070934512569 0 -0.050725933183120103 -0.003212822926031885 0 -0.048444851047414202 -0.00061569521807663052 0 -0.049704223153304999 0.00092441565844406754 0 -0.048079758971304315 0.0014480590945711968 0 -0.048444851047414202 -0.00061569521807663052 0 -0.051096623216342237 -0.0008238070934512569 0 -0.049704223153304999 0.00092441565844406754 0 -0.051096623216342237 -0.0008238070934512569 0 -0.05169211162036548 0.0014705131874031543 0 -0.049704223153304999 0.00092441565844406754 0 -0.052894331051752404 -0.0048107856228029947 0 -0.050725933183120103 -0.003212822926031885 0 -0.052534736406942277 -0.0024020778117244223 0 -0.052894331051752404 -0.0048107856228029947 0 -0.052534736406942277 -0.0024020778117244223 0 -0.054229890982561625 -0.0032987517706029759 0 -0.05476512592837713 -0.0049264019016303688 0 -0.052894331051752404 -0.0048107856228029947 0 -0.054229890982561625 -0.0032987517706029759 0 -0.052534736406942277 -0.0024020778117244223 0 -0.053495609741398546 -0.00086362526778857758 0 -0.054229890982561625 -0.0032987517706029759 0 -0.051096623216342237 -0.0008238070934512569 0 -0.050725933183120103 -0.003212822926031885 0 -0.052534736406942277 -0.0024020778117244223 0 -0.051096623216342237 -0.0008238070934512569 0 -0.052534736406942277 -0.0024020778117244223 0 -0.053495609741398546 -0.00086362526778857758 0 -0.051096623216342237 -0.0008238070934512569 0 -0.053495609741398546 -0.00086362526778857758 0 -0.05169211162036548 0.0014705131874031543 0 -0.053495609741398546 -0.00086362526778857758 0 -0.05522031582669238 -0.00037476638102599858 0 -0.053976776278590169 0.0019006688785386356 0 -0.053495609741398546 -0.00086362526778857758 0 -0.05522031582669238 -0.00037476638102599858 0 -0.05547604012323188 -0.0022185844410229482 0 -0.056727686881793811 -0.00098442281221671857 0 -0.05522031582669238 -0.00037476638102599858 0 -0.05626587760464092 0.0010003544292609039 0 -0.056727686881793811 -0.00098442281221671857 0 -0.05522031582669238 -0.00037476638102599858 0 -0.05547604012323188 -0.0022185844410229482 0 -0.056928513863368897 -0.0026133137311640377 0 -0.056727686881793811 -0.00098442281221671857 0 -0.05547604012323188 -0.0022185844410229482 0 -0.056928513863368897 -0.0026133137311640377 0 -0.05547604012323188 -0.0022185844410229482 0 -0.055848873852835434 -0.0037897004673548233 0 -0.053495609741398546 -0.00086362526778857758 0 -0.05547604012323188 -0.0022185844410229482 0 -0.054229890982561625 -0.0032987517706029759 0 -0.05547604012323188 -0.0022185844410229482 0 -0.054229890982561625 -0.0032987517706029759 0 -0.055848873852835434 -0.0037897004673548233 0 -0.05476512592837713 -0.0049264019016303688 0 -0.054229890982561625 -0.0032987517706029759 0 -0.055848873852835434 -0.0037897004673548233 0 -0.057054761496451584 -0.0039102532813774273 0 -0.056046289302419582 -0.0050134236034570798 0 -0.055848873852835434 -0.0037897004673548233 0 -0.055698567429895658 0.0038377026050709453 0 -0.053976776278590169 0.0019006688785386356 0 -0.053494871890244731 0.0048315119437922181 0 -0.057913177212400316 0.0053611035310500588 0 -0.055698567429895658 0.0038377026050709453 0 -0.055046683627565936 0.0074402022831695624 0 -0.055698567429895658 0.0038377026050709453 0 -0.053494871890244731 0.0048315119437922181 0 -0.055046683627565936 0.0074402022831695624 0 -0.055698567429895658 0.0038377026050709453 0 -0.05626587760464092 0.0010003544292609039 0 -0.053976776278590169 0.0019006688785386356 0 -0.05522031582669238 -0.00037476638102599858 0 -0.05626587760464092 0.0010003544292609039 0 -0.053976776278590169 0.0019006688785386356 0 -0.053495609741398546 -0.00086362526778857758 0 -0.053976776278590169 0.0019006688785386356 0 -0.05169211162036548 0.0014705131874031543 0 -0.053976776278590169 0.0019006688785386356 0 -0.05169211162036548 0.0014705131874031543 0 -0.051922399226388014 0.0035900487285217726 0 -0.053494871890244731 0.0048315119437922181 0 -0.051922399226388014 0.0035900487285217726 0 -0.05102839150226466 0.0070896917098365476 0 -0.053976776278590169 0.0019006688785386356 0 -0.053494871890244731 0.0048315119437922181 0 -0.051922399226388014 0.0035900487285217726 0 -0.052188470337499654 0.00058941561354234858 0 -0.049006138572935114 0.0031689900036649234 0 -0.053091046688703895 0.0052015495323393928 0 -0.050474309587280067 0.0040172412692143916 0 -0.051645097897056576 0.0064772153226489463 0 -0.051922399226388014 0.0035900487285217726 0 -0.049951521628885949 0.003129217269047864 0 -0.05102839150226466 0.0070896917098365476 0 -0.05169211162036548 0.0014705131874031543 0 -0.051922399226388014 0.0035900487285217726 0 -0.049951521628885949 0.003129217269047864 0 -0.050851316271735822 0.0035676437216690172 0 -0.050474309587280067 0.0040172412692143916 0 -0.05169211162036548 0.0014705131874031543 0 -0.049704223153304999 0.00092441565844406754 0 -0.049452404936899438 0.0029811411806024359 0 -0.049704223153304999 0.00092441565844406754 0 -0.049452404936899438 0.0029811411806024359 0 -0.048079758971304315 0.0014480590945711968 0 -0.048444851047414202 -0.00061569521807663052 0 -0.048079758971304315 0.0014480590945711968 0 -0.045646078027477166 0.0010895133964151974 0 -0.049452404936899438 0.0029811411806024359 0 -0.048079758971304315 0.0014480590945711968 0 -0.04735491703480281 0.0029342090541882092 0 -0.048079758971304315 0.0014480590945711968 0 -0.04735491703480281 0.0029342090541882092 0 -0.045646078027477166 0.0010895133964151974 0 -0.050474309587280067 0.0040172412692143916 0 -0.048163086562655742 0.0049348825064847958 0 -0.04735491703480281 0.0029342090541882092 0 -0.046539583399975999 0.0050383719040199802 0 -0.045221620275165415 0.0031770188987795198 0 -0.049452404936899438 0.0029811411806024359 0 -0.04735491703480281 0.0029342090541882092 0 -0.046539583399975999 0.0050383719040199802 0 -0.049006138572935114 0.0031689900036649234 0 -0.050133532879586724 0.006874460524953557 0 -0.053091046688703895 0.0052015495323393928 0 -0.050133532879586724 0.006874460524953557 0 -0.053912352344795016 0.0097744926121823717 0 -0.048715874451163502 0.010369951521310551 0 -0.051645097897056576 0.0064772153226489463 0 -0.052769388286300629 0.010076357952563569 0 -0.050133532879586724 0.006874460524953557 0 -0.053091046688703895 0.0052015495323393928 0 -0.053912352344795016 0.0097744926121823717 0 -0.053494871890244731 0.0048315119437922181 0 -0.05102839150226466 0.0070896917098365476 0 -0.055046683627565936 0.0074402022831695624 0 -0.05102839150226466 0.0070896917098365476 0 -0.055046683627565936 0.0074402022831695624 0 -0.052222608559234329 0.010899388724848571 0 -0.055046683627565936 0.0074402022831695624 0 -0.056840132240793206 0.011319185786741343 0 -0.052222608559234329 0.010899388724848571 0 -0.058492125328562274 0.0082256420923486392 0 -0.055046683627565936 0.0074402022831695624 0 -0.056840132240793206 0.011319185786741343 0 -0.040318832099798134 0.0036196659070746478 0 -0.040688677105730264 0.0065523410247438638 0 -0.037354439866281001 0.0056621396045529564 0 -0.040318832099798134 0.0036196659070746478 0 -0.03682688955753384 0.0022191953658108792 0 -0.037354439866281001 0.0056621396045529564 0 -0.03682688955753384 0.0022191953658108792 0 -0.037354439866281001 0.0056621396045529564 0 -0.032467536777617101 0.0045069086286324174 0 -0.037420889779347488 -0.0015259649759200142 0 -0.03682688955753384 0.0022191953658108792 0 -0.039430038162497801 0.00068752801435326952 0 -0.040318832099798134 0.0036196659070746478 0 -0.039430038162497801 0.00068752801435326952 0 -0.041424541633694079 0.0014272250478776299 0 -0.040318832099798134 0.0036196659070746478 0 -0.03682688955753384 0.0022191953658108792 0 -0.039430038162497801 0.00068752801435326952 0 -0.040318832099798134 0.0036196659070746478 0 -0.041424541633694079 0.0014272250478776299 0 -0.043300706279607956 0.0023295933518453086 0 -0.042377333381622195 -0.00034147505627260164 0 -0.039430038162497801 0.00068752801435326952 0 -0.041424541633694079 0.0014272250478776299 0 -0.042377333381622195 -0.00034147505627260164 0 -0.041424541633694079 0.0014272250478776299 0 -0.043300706279607956 0.0023295933518453086 0 -0.042377333381622195 -0.00034147505627260164 0 -0.043300706279607956 0.0023295933518453086 0 -0.045646078027477166 0.0010895133964151974 0 -0.043300706279607956 0.0023295933518453086 0 -0.045646078027477166 0.0010895133964151974 0 -0.045221620275165415 0.0031770188987795198 0 -0.04735491703480281 0.0029342090541882092 0 -0.045646078027477166 0.0010895133964151974 0 -0.045221620275165415 0.0031770188987795198 0 -0.046539583399975999 0.0050383719040199802 0 -0.045221620275165415 0.0031770188987795198 0 -0.04329944852288372 0.0046562352642070147 0 -0.043300706279607956 0.0023295933518453086 0 -0.045221620275165415 0.0031770188987795198 0 -0.04329944852288372 0.0046562352642070147 0 -0.040318832099798134 0.0036196659070746478 0 -0.04329944852288372 0.0046562352642070147 0 -0.040688677105730264 0.0065523410247438638 0 -0.040318832099798134 0.0036196659070746478 0 -0.043300706279607956 0.0023295933518453086 0 -0.04329944852288372 0.0046562352642070147 0 -0.043831172587618122 0.0070313467345809316 0 -0.041775015146657601 0.0087888364635666828 0 -0.040688677105730264 0.0065523410247438638 0 -0.04329944852288372 0.0046562352642070147 0 -0.043831172587618122 0.0070313467345809316 0 -0.040688677105730264 0.0065523410247438638 0 -0.046539583399975999 0.0050383719040199802 0 -0.04329944852288372 0.0046562352642070147 0 -0.043831172587618122 0.0070313467345809316 0 -0.048163086562655742 0.0049348825064847958 0 -0.045632922101858653 0.0065129229436673639 0 -0.049006138572935114 0.0031689900036649234 0 -0.050133532879586724 0.006874460524953557 0 -0.045707388243581774 0.0057473008492273407 0 -0.050133532879586724 0.006874460524953557 0 -0.045707388243581774 0.0057473008492273407 0 -0.048715874451163502 0.010369951521310551 0 -0.045707388243581774 0.0057473008492273407 0 -0.048715874451163502 0.010369951521310551 0 -0.044853656215671819 0.010951980413141086 0 -0.045632922101858653 0.0065129229436673639 0 -0.044283093733834496 0.0074661557711581325 0 -0.045707388243581774 0.0057473008492273407 0 -0.041775015146657601 0.0087888364635666828 0 -0.044853656215671819 0.010951980413141086 0 -0.041775015146657601 0.0087888364635666828 0 -0.040688677105730264 0.0065523410247438638 0 -0.037800847040462507 0.0091630077486461251 0 -0.040688677105730264 0.0065523410247438638 0 -0.037354439866281001 0.0056621396045529564 0 -0.037800847040462507 0.0091630077486461251 0 -0.037354439866281001 0.0056621396045529564 0 -0.037800847040462507 0.0091630077486461251 0 -0.034824858757361098 0.00745058776444731 0 -0.037800847040462507 0.0091630077486461251 0 -0.033506441769213698 0.010474721266442725 0 -0.034824858757361098 0.00745058776444731 0 -0.033506441769213698 0.010474721266442725 0 -0.03196083854978652 0.0075618073840688551 0 -0.034824858757361098 0.00745058776444731 0 -0.030685390379721022 0.0095055862085618309 0 -0.029359187343848289 0.011294104582526627 0 -0.033506441769213698 0.010474721266442725 0 -0.03196083854978652 0.0075618073840688551 0 -0.029949653456109688 0.011002431419808745 0 -0.03196083854978652 0.0075618073840688551 0 -0.032467536777617101 0.0045069086286324174 0 -0.030585929167073742 0.0051690809249701312 0 -0.03196083854978652 0.0075618073840688551 0 -0.029336019777343524 0.0058402922020508322 0 -0.030585929167073742 0.0051690809249701312 0 -0.03196083854978652 0.0075618073840688551 0 -0.034824858757361098 0.00745058776444731 0 -0.032467536777617101 0.0045069086286324174 0 -0.037354439866281001 0.0056621396045529564 0 -0.034824858757361098 0.00745058776444731 0 -0.032467536777617101 0.0045069086286324174 0 -0.027953588641027382 0.0080222218296303969 0 -0.024914621898113436 0.0098258782169846903 0 -0.026619699787461849 0.011930311184358888 0 -0.027953588641027382 0.0080222218296303969 0 -0.026619699787461849 0.011930311184358888 0 -0.029063545443113532 0.011154412228504912 0 -0.03196083854978652 0.0075618073840688551 0 -0.027953588641027382 0.0080222218296303969 0 -0.029063545443113532 0.011154412228504912 0 -0.03196083854978652 0.0075618073840688551 0 -0.029336019777343524 0.0058402922020508322 0 -0.027953588641027382 0.0080222218296303969 0 -0.029336019777343524 0.0058402922020508322 0 -0.027953588641027382 0.0080222218296303969 0 -0.027545812244273243 0.0057865261532339604 0 -0.027953588641027382 0.0080222218296303969 0 -0.025702627298338977 0.0052508214591341362 0 -0.024914621898113436 0.0098258782169846903 0 -0.024025012319602423 0.0097535060290948623 0 -0.024679997100603254 0.011468207180522803 0 -0.027953588641027382 0.0080222218296303969 0 -0.027545812244273243 0.0057865261532339604 0 -0.025702627298338977 0.0052508214591341362 0 -0.023744501783571861 0.0091383673775418898 0 -0.025279989640469812 0.0093791047633554423 0 -0.024025012319602423 0.0097535060290948623 0 -0.025279989640469812 0.0093791047633554423 0 -0.024468652652143864 0.0096048039400491135 0 -0.024493354395376043 0.0094904618199027051 0 -0.024285597078992579 0.0095394728106517716 0 -0.027545812244273243 0.0057865261532339604 0 -0.025702627298338977 0.0052508214591341362 0 -0.028849963729926893 0.0043236251002362032 0 -0.023744501783571861 0.0091383673775418898 0 -0.024025012319602423 0.0097535060290948623 0 -0.02153736394690297 0.011176982234732352 0 -0.021447784739484627 0.011628432162829239 0 -0.021120786564889287 0.011276170674325523 0 -0.028063641663440105 0.0034654298371731723 0 -0.028849963729926893 0.0043236251002362032 0 -0.028566823168523808 0.0031423209638114851 0 -0.029336019777343524 0.0058402922020508322 0 -0.027545812244273243 0.0057865261532339604 0 -0.028849963729926893 0.0043236251002362032 0 -0.029336019777343524 0.0058402922020508322 0 -0.028849963729926893 0.0043236251002362032 0 -0.030585929167073742 0.0051690809249701312 0 -0.028849963729926893 0.0043236251002362032 0 -0.028566823168523808 0.0031423209638114851 0 -0.029659948137839058 0.0037957683043184321 0 -0.028849963729926893 0.0043236251002362032 0 -0.030585929167073742 0.0051690809249701312 0 -0.029659948137839058 0.0037957683043184321 0 -0.028566823168523808 0.0031423209638114851 0 -0.028109381230302499 0.0035294082131365058 0 -0.0285381471150641 0.0033666949756490636 0 -0.028566823168523808 0.0031423209638114851 0 -0.028794029902211121 0.0023652808615024917 0 -0.028109381230302499 0.0035294082131365058 0 -0.028566823168523808 0.0031423209638114851 0 -0.029659948137839058 0.0037957683043184321 0 -0.028794029902211121 0.0023652808615024917 0 -0.028063641663440105 0.0034654298371731723 0 -0.028566823168523808 0.0031423209638114851 0 -0.0285381471150641 0.0033666949756490636 0 -0.022732432071934337 0.011554018164813308 0 -0.02304848146689268 0.010106427911331187 0 -0.021986759921328924 0.01036637873461004 0 -0.023744501783571861 0.0091383673775418898 0 -0.024618396057740119 0.0074038202864471787 0 -0.032467536777617101 0.0045069086286324174 0 -0.030585929167073742 0.0051690809249701312 0 -0.029659948137839058 0.0037957683043184321 0 -0.032467536777617101 0.0045069086286324174 0 -0.029659948137839058 0.0037957683043184321 0 -0.028794029902211121 0.0023652808615024917 0 -0.029154089146486695 0.0017963930548999339 0 -0.029262845410875617 0.0016995155275466725 0 -0.032467536777617101 0.0045069086286324174 0 -0.028794029902211121 0.0023652808615024917 0 -0.033580194841618401 -1.4799391022548068e-05 0 -0.03682688955753384 0.0022191953658108792 0 -0.032467536777617101 0.0045069086286324174 0 -0.033580194841618401 -1.4799391022548068e-05 0 -0.025591290822770903 0.0033155299174245051 0 -0.026884490146897203 0.0044496303118201335 0 -0.025676491910986341 0.0059738841084150248 0 -0.02385090793838187 0.0040022397717352732 0 -0.025591290822770903 0.0033155299174245051 0 -0.025676491910986341 0.0059738841084150248 0 -0.026421546826953274 0.0055736172761927652 0 -0.026884490146897203 0.0044496303118201335 0 -0.025676491910986341 0.0059738841084150248 0 -0.026421546826953274 0.0055736172761927652 0 -0.027092648890539583 0.0049874874399036999 0 -0.026556276109127634 0.0059077116548473035 0 -0.026421546826953274 0.0055736172761927652 0 -0.026884490146897203 0.0044496303118201335 0 -0.027092648890539583 0.0049874874399036999 0 -0.026884490146897203 0.0044496303118201335 0 -0.028109381230302499 0.0035294082131365058 0 -0.027092648890539583 0.0049874874399036999 0 -0.028794029902211121 0.0023652808615024917 0 -0.025591290822770903 0.0033155299174245051 0 -0.026884490146897203 0.0044496303118201335 0 -0.028794029902211121 0.0023652808615024917 0 -0.026884490146897203 0.0044496303118201335 0 -0.028109381230302499 0.0035294082131365058 0 -0.028109381230302499 0.0035294082131365058 0 -0.0285381471150641 0.0033666949756490636 0 -0.027846287616347335 0.0046642051816317793 0 -0.028109381230302499 0.0035294082131365058 0 -0.027092648890539583 0.0049874874399036999 0 -0.027846287616347335 0.0046642051816317793 0 -0.02304848146689268 0.010106427911331187 0 -0.022704064104004242 0.0091154652786693928 0 -0.023368246224767662 0.0086566946337128838 0 -0.0285381471150641 0.0033666949756490636 0 -0.02822176196649882 0.005123775751204024 0 -0.027846287616347335 0.0046642051816317793 0 -0.02304848146689268 0.010106427911331187 0 -0.021998104863072965 0.00923731956706343 0 -0.021986759921328924 0.01036637873461004 0 -0.024618396057740119 0.0074038202864471787 0 -0.024892787422454155 0.0067508602934607835 0 -0.02304848146689268 0.010106427911331187 0 -0.022704064104004242 0.0091154652786693928 0 -0.021998104863072965 0.00923731956706343 0 -0.023368246224767662 0.0086566946337128838 0 -0.022400248801688991 0.0084608052605931721 0 -0.022335142332382686 0.0073743702706868895 0 -0.022704064104004242 0.0091154652786693928 0 -0.022400248801688991 0.0084608052605931721 0 -0.021998104863072965 0.00923731956706343 0 -0.022704064104004242 0.0091154652786693928 0 -0.023368246224767662 0.0086566946337128838 0 -0.022400248801688991 0.0084608052605931721 0 -0.027794972653729558 0.0053381797108040235 0 -0.026997877908494734 0.0056020032997381392 0 -0.025509116710459124 0.0066459167807202671 0 -0.027092648890539583 0.0049874874399036999 0 -0.027846287616347335 0.0046642051816317793 0 -0.026997877908494734 0.0056020032997381392 0 -0.027794972653729558 0.0053381797108040235 0 -0.027846287616347335 0.0046642051816317793 0 -0.026997877908494734 0.0056020032997381392 0 -0.024892787422454155 0.0067508602934607835 0 -0.024944613829605323 0.006709343238712414 0 -0.027092648890539583 0.0049874874399036999 0 -0.026997877908494734 0.0056020032997381392 0 -0.026556276109127634 0.0059077116548473035 0 -0.024892787422454155 0.0067508602934607835 0 -0.025047083823262938 0.0064591896170684638 0 -0.025509116710459124 0.0066459167807202671 0 -0.024470243079526621 0.006225289900217386 0 -0.026228252084850245 0.0062434281735998919 0 -0.026556276109127634 0.0059077116548473035 0 -0.025509116710459124 0.0066459167807202671 0 -0.026228252084850245 0.0062434281735998919 0 -0.026997877908494734 0.0056020032997381392 0 -0.026556276109127634 0.0059077116548473035 0 -0.025509116710459124 0.0066459167807202671 0 -0.025113680433696262 0.0084812132723818719 0 -0.025509116710459124 0.0066459167807202671 0 -0.023412170154805546 0.0067896044111645298 0 -0.024892787422454155 0.0067508602934607835 0 -0.023462463604969667 0.0064076047502135258 0 -0.025509116710459124 0.0066459167807202671 0 -0.024470243079526621 0.006225289900217386 0 -0.023412170154805546 0.0067896044111645298 0 -0.021589727524073 0.0051402266210267928 0 -0.022389122046549727 0.0056745207468024469 0 -0.022804803117388438 0.0050019727166441767 0 -0.024470243079526621 0.006225289900217386 0 -0.023153480671198247 0.0060087429618781241 0 -0.024470243079526621 0.006225289900217386 0 -0.023153480671198247 0.0060087429618781241 0 -0.023412170154805546 0.0067896044111645298 0 -0.022639924311942238 0.0049548586555528684 0 -0.024470243079526621 0.006225289900217386 0 -0.026035862863901599 0.0061162666117402526 0 -0.024470243079526621 0.006225289900217386 0 -0.026035862863901599 0.0061162666117402526 0 -0.026228252084850245 0.0062434281735998919 0 -0.023301711279188186 0.0049392136555803795 0 -0.023262234440541853 0.0051391073890664583 0 -0.02316061394754115 0.0051132050764340692 0 -0.023262234440541853 0.0051391073890664583 0 -0.02316061394754115 0.0051132050764340692 0 -0.023185019592997888 0.0048761266216470981 0 -0.023020048439526933 0.0048765259431540935 0 -0.02316061394754115 0.0051132050764340692 0 -0.023185019592997888 0.0048761266216470981 0 -0.026035862863901599 0.0061162666117402526 0 -0.025676491910986341 0.0059738841084150248 0 -0.026228252084850245 0.0062434281735998919 0 -0.026421546826953274 0.0055736172761927652 0 -0.025676491910986341 0.0059738841084150248 0 -0.026228252084850245 0.0062434281735998919 0 -0.025141265540028858 0.0047091011367535913 0 -0.026083472718776247 0.003704684897405025 0 -0.026421546826953274 0.0055736172761927652 0 -0.026556276109127634 0.0059077116548473035 0 -0.026228252084850245 0.0062434281735998919 0 -0.019346690021556694 0.0073283445924410551 0 -0.020100997089016942 0.0077853205700507229 0 -0.01957574537770107 0.0085076743488772047 0 -0.019346690021556694 0.0073283445924410551 0 -0.02012124678714906 0.0065572023052784933 0 -0.020100997089016942 0.0077853205700507229 0 -0.019346690021556694 0.0073283445924410551 0 -0.018802001528935783 0.0079264663282667801 0 -0.01957574537770107 0.0085076743488772047 0 -0.018347564598690077 0.0070427708731296184 0 -0.018012545263543789 0.0082564524058415592 0 -0.017482579410435743 0.0075338618672618051 0 -0.018802001528935783 0.0079264663282667801 0 -0.018347564598690077 0.0070427708731296184 0 -0.018012545263543789 0.0082564524058415592 0 -0.019346690021556694 0.0073283445924410551 0 -0.018802001528935783 0.0079264663282667801 0 -0.018347564598690077 0.0070427708731296184 0 -0.018777378504987778 0.0057556293951256622 0 -0.018347564598690077 0.0070427708731296184 0 -0.017419300509720008 0.00601954894475822 0 -0.018347564598690077 0.0070427708731296184 0 -0.017419300509720008 0.00601954894475822 0 -0.017482579410435743 0.0075338618672618051 0 -0.018777378504987778 0.0057556293951256622 0 -0.018347564598690077 0.0070427708731296184 0 -0.019294368472297554 0.0065333795060620176 0 -0.018777378504987778 0.0057556293951256622 0 -0.019727073682746961 0.0056585545022416516 0 -0.019294368472297554 0.0065333795060620176 0 -0.019346690021556694 0.0073283445924410551 0 -0.018347564598690077 0.0070427708731296184 0 -0.019294368472297554 0.0065333795060620176 0 -0.019346690021556694 0.0073283445924410551 0 -0.019294368472297554 0.0065333795060620176 0 -0.02012124678714906 0.0065572023052784933 0 -0.019727073682746961 0.0056585545022416516 0 -0.020413794178211386 0.00588277800184477 0 -0.02012124678714906 0.0065572023052784933 0 -0.019727073682746961 0.0056585545022416516 0 -0.019294368472297554 0.0065333795060620176 0 -0.02012124678714906 0.0065572023052784933 0 -0.020413794178211386 0.00588277800184477 0 -0.02012124678714906 0.0065572023052784933 0 -0.021281863243168525 0.0060573888539124697 0 -0.02012124678714906 0.0065572023052784933 0 -0.021281863243168525 0.0060573888539124697 0 -0.020917279769912291 0.0073986171905428937 0 -0.02222397399766194 0.0056386421633422695 0 -0.023462463604969667 0.0064076047502135258 0 -0.021281863243168525 0.0060573888539124697 0 -0.022335142332382686 0.0073743702706868895 0 -0.020917279769912291 0.0073986171905428937 0 -0.023153480671198247 0.0060087429618781241 0 -0.021898168923208991 0.0059282549203094328 0 -0.023412170154805546 0.0067896044111645298 0 -0.022804803117388438 0.0050019727166441767 0 -0.023153480671198247 0.0060087429618781241 0 -0.021898168923208991 0.0059282549203094328 0 -0.022335142332382686 0.0073743702706868895 0 -0.020917279769912291 0.0073986171905428937 0 -0.021620728066078617 0.0081700633585409556 0 -0.022400248801688991 0.0084608052605931721 0 -0.022335142332382686 0.0073743702706868895 0 -0.021620728066078617 0.0081700633585409556 0 -0.020100997089016942 0.0077853205700507229 0 -0.020917279769912291 0.0073986171905428937 0 -0.020786491805451609 0.0086854864979528639 0 -0.02012124678714906 0.0065572023052784933 0 -0.020100997089016942 0.0077853205700507229 0 -0.020917279769912291 0.0073986171905428937 0 -0.020917279769912291 0.0073986171905428937 0 -0.020786491805451609 0.0086854864979528639 0 -0.021620728066078617 0.0081700633585409556 0 -0.020100997089016942 0.0077853205700507229 0 -0.020786491805451609 0.0086854864979528639 0 -0.01957574537770107 0.0085076743488772047 0 -0.020786491805451609 0.0086854864979528639 0 -0.020013136400980742 0.0094147299683672806 0 -0.01957574537770107 0.0085076743488772047 0 -0.020786491805451609 0.0086854864979528639 0 -0.021620728066078617 0.0081700633585409556 0 -0.021998104863072965 0.00923731956706343 0 -0.022400248801688991 0.0084608052605931721 0 -0.021620728066078617 0.0081700633585409556 0 -0.021998104863072965 0.00923731956706343 0 -0.020786491805451609 0.0086854864979528639 0 -0.021998104863072965 0.00923731956706343 0 -0.020963599458604376 0.0099157166724120772 0 -0.021998104863072965 0.00923731956706343 0 -0.020963599458604376 0.0099157166724120772 0 -0.021986759921328924 0.01036637873461004 0 -0.020963599458604376 0.0099157166724120772 0 -0.020013136400980742 0.0094147299683672806 0 -0.019630541923968962 0.010458034956693011 0 -0.020786491805451609 0.0086854864979528639 0 -0.020963599458604376 0.0099157166724120772 0 -0.020013136400980742 0.0094147299683672806 0 -0.020013136400980742 0.0094147299683672806 0 -0.018935655602388635 0.0095436971459474957 0 -0.019630541923968962 0.010458034956693011 0 -0.01957574537770107 0.0085076743488772047 0 -0.018730372630317661 0.0086764505557542001 0 -0.018935655602388635 0.0095436971459474957 0 -0.020013136400980742 0.0094147299683672806 0 -0.01957574537770107 0.0085076743488772047 0 -0.018935655602388635 0.0095436971459474957 0 -0.018802001528935783 0.0079264663282667801 0 -0.01957574537770107 0.0085076743488772047 0 -0.018730372630317661 0.0086764505557542001 0 -0.018012545263543789 0.0082564524058415592 0 -0.017992803320217157 0.0089637978834139504 0 -0.0172057250490181 0.0085779753519451135 0 -0.018012545263543789 0.0082564524058415592 0 -0.018730372630317661 0.0086764505557542001 0 -0.017992803320217157 0.0089637978834139504 0 -0.018802001528935783 0.0079264663282667801 0 -0.018012545263543789 0.0082564524058415592 0 -0.018730372630317661 0.0086764505557542001 0 -0.018730372630317661 0.0086764505557542001 0 -0.017992803320217157 0.0089637978834139504 0 -0.018935655602388635 0.0095436971459474957 0 -0.018935655602388635 0.0095436971459474957 0 -0.018267720569325716 0.0098683115763417723 0 -0.019630541923968962 0.010458034956693011 0 -0.019535999969605214 0.0096251496673825584 0 -0.020213825531261529 0.0097057011435019176 0 -0.015294161724902278 0.010851276042773245 0 -0.012052067547883844 0.011161350803420081 0 -0.018935655602388635 0.0095436971459474957 0 -0.018267720569325716 0.0098683115763417723 0 -0.017590913401785997 0.0094938326547397995 0 -0.017992803320217157 0.0089637978834139504 0 -0.018935655602388635 0.0095436971459474957 0 -0.017158342048130083 0.009675115350404084 0 -0.018267720569325716 0.0098683115763417723 0 -0.018339079927726171 0.010442368678408694 0 -0.019759359440210345 0.010389584834809763 0 -0.018267720569325716 0.0098683115763417723 0 -0.018339079927726171 0.010442368678408694 0 -0.017645929548105069 0.010217806876673619 0 -0.018339079927726171 0.010442368678408694 0 -0.018624162690382456 0.010954246460455909 0 -0.019759359440210345 0.010389584834809763 0 -0.018339079927726171 0.010442368678408694 0 -0.018624162690382456 0.010954246460455909 0 -0.017411395311311337 0.010820775258263422 0 -0.018624162690382456 0.010954246460455909 0 -0.01938897076681673 0.011047367801128432 0 -0.018905775683287232 0.011441949268305687 0 -0.019759359440210345 0.010389584834809763 0 -0.01938897076681673 0.011047367801128432 0 -0.020027095968941162 0.011525630347364537 0 -0.018624162690382456 0.010954246460455909 0 -0.019759359440210345 0.010389584834809763 0 -0.01938897076681673 0.011047367801128432 0 -0.01938897076681673 0.011047367801128432 0 -0.020027095968941162 0.011525630347364537 0 -0.018905775683287232 0.011441949268305687 0 -0.020027095968941162 0.011525630347364537 0 -0.019795558925674115 0.011529773455808572 0 -0.019973931809655215 0.011635540736495724 0 -0.019096977702522427 0.011696007115743352 0 -0.018299400049451894 0.011894162311195292 0 -0.020027095968941162 0.011525630347364537 0 -0.020296641493230495 0.011811793484086005 0 -0.019973931809655215 0.011635540736495724 0 -0.020027095968941162 0.011525630347364537 0 -0.018383185808630728 0.012174565346437419 0 -0.018905775683287232 0.011441949268305687 0 -0.018624162690382456 0.010954246460455909 0 -0.018905775683287232 0.011441949268305687 0 -0.018078202802788986 0.011503654973649033 0 -0.018383185808630728 0.012174565346437419 0 -0.018905775683287232 0.011441949268305687 0 -0.018078202802788986 0.011503654973649033 0 -0.023744501783571861 0.0091383673775418898 0 -0.021624290822800332 0.0096391183501083576 0 -0.022732432071934337 0.011554018164813308 0 -0.021986759921328924 0.01036637873461004 0 -0.021187760323401004 0.011016180864717439 0 -0.02153736394690297 0.011176982234732352 0 -0.020749491938377041 0.010869434074843214 0 -0.021120786564889287 0.011276170674325523 0 -0.020963599458604376 0.0099157166724120772 0 -0.021986759921328924 0.01036637873461004 0 -0.021187760323401004 0.011016180864717439 0 -0.020963599458604376 0.0099157166724120772 0 -0.019630541923968962 0.010458034956693011 0 -0.021187760323401004 0.011016180864717439 0 -0.020213825531261529 0.0097057011435019176 0 -0.021624290822800332 0.0096391183501083576 0 -0.019759359440210345 0.010389584834809763 0 -0.020027095968941162 0.011525630347364537 0 -0.020749491938377041 0.010869434074843214 0 -0.020027095968941162 0.011525630347364537 0 -0.020751620482626791 0.011444481493996343 0 -0.020296641493230495 0.011811793484086005 0 -0.020027095968941162 0.011525630347364537 0 -0.020749491938377041 0.010869434074843214 0 -0.020751620482626791 0.011444481493996343 0 -0.021447784739484627 0.011628432162829239 0 -0.020751620482626791 0.011444481493996343 0 -0.020296641493230495 0.011811793484086005 0 -0.021447784739484627 0.011628432162829239 0 -0.020751620482626791 0.011444481493996343 0 -0.021120786564889287 0.011276170674325523 0 -0.020749491938377041 0.010869434074843214 0 -0.020751620482626791 0.011444481493996343 0 -0.021120786564889287 0.011276170674325523 0 -0.022745775036873611 0.011072253765227042 0 -0.022165073448527726 0.011668597286063804 0 -0.022436446974457923 0.012447921429833168 0 -0.022745775036873611 0.011072253765227042 0 -0.022165073448527726 0.011668597286063804 0 -0.021379928549367926 0.011391699248566612 0 -0.024025012319602423 0.0097535060290948623 0 -0.021225762806827746 0.010974700560342247 0 -0.022165073448527726 0.011668597286063804 0 -0.021379928549367926 0.011391699248566612 0 -0.021665153280282089 0.012181130433895657 0 -0.021379928549367926 0.011391699248566612 0 -0.021665153280282089 0.012181130433895657 0 -0.020864527987443513 0.012318924388626154 0 -0.021665153280282089 0.012181130433895657 0 -0.020864527987443513 0.012318924388626154 0 -0.021466560713733686 0.013051179337054011 0 -0.021665153280282089 0.012181130433895657 0 -0.022436446974457923 0.012447921429833168 0 -0.021466560713733686 0.013051179337054011 0 -0.022165073448527726 0.011668597286063804 0 -0.021665153280282089 0.012181130433895657 0 -0.022436446974457923 0.012447921429833168 0 -0.019919180622693895 0.011780680174050694 0 -0.019501439451497706 0.011796407393388464 0 -0.019622433796921798 0.012230312241847506 0 -0.019795558925674115 0.011529773455808572 0 -0.019919180622693895 0.011780680174050694 0 -0.019501439451497706 0.011796407393388464 0 -0.019795558925674115 0.011529773455808572 0 -0.019919180622693895 0.011780680174050694 0 -0.019973931809655215 0.011635540736495724 0 -0.020296641493230495 0.011811793484086005 0 -0.019919180622693895 0.011780680174050694 0 -0.019973931809655215 0.011635540736495724 0 -0.021225762806827746 0.010974700560342247 0 -0.020483202986022953 0.011292870805558053 0 -0.021379928549367926 0.011391699248566612 0 -0.019919180622693895 0.011780680174050694 0 -0.020864527987443513 0.012318924388626154 0 -0.019919180622693895 0.011780680174050694 0 -0.020864527987443513 0.012318924388626154 0 -0.020162939306880557 0.012411000334941706 0 -0.020864527987443513 0.012318924388626154 0 -0.020162939306880557 0.012411000334941706 0 -0.020537939929987776 0.013144883308217685 0 -0.019919180622693895 0.011780680174050694 0 -0.020162939306880557 0.012411000334941706 0 -0.019622433796921798 0.012230312241847506 0 -0.020162939306880557 0.012411000334941706 0 -0.019825682668675799 0.012809667127482346 0 -0.019622433796921798 0.012230312241847506 0 -0.019825682668675799 0.012809667127482346 0 -0.020537939929987776 0.013144883308217685 0 -0.01978780431670242 0.013564361695657595 0 -0.020162939306880557 0.012411000334941706 0 -0.019825682668675799 0.012809667127482346 0 -0.020537939929987776 0.013144883308217685 0 -0.020537939929987776 0.013144883308217685 0 -0.020935364763209976 0.01373103175155266 0 -0.021466560713733686 0.013051179337054011 0 -0.020864527987443513 0.012318924388626154 0 -0.020537939929987776 0.013144883308217685 0 -0.021466560713733686 0.013051179337054011 0 -0.020537939929987776 0.013144883308217685 0 -0.020935364763209976 0.01373103175155266 0 -0.020451411856781003 0.013970253654497743 0 -0.020935364763209976 0.01373103175155266 0 -0.020451411856781003 0.013970253654497743 0 -0.021154128264655118 0.014231813839055037 0 -0.020451411856781003 0.013970253654497743 0 -0.01978780431670242 0.013564361695657595 0 -0.019818816118670236 0.014587539888022713 0 -0.020537939929987776 0.013144883308217685 0 -0.020451411856781003 0.013970253654497743 0 -0.01978780431670242 0.013564361695657595 0 -0.020451411856781003 0.013970253654497743 0 -0.019818816118670236 0.014587539888022713 0 -0.020679176648679486 0.014638788322019163 0 -0.020451411856781003 0.013970253654497743 0 -0.020679176648679486 0.014638788322019163 0 -0.021154128264655118 0.014231813839055037 0 -0.020679176648679486 0.014638788322019163 0 -0.021222735371367121 0.01493193009972813 0 -0.021154128264655118 0.014231813839055037 0 -0.020679176648679486 0.014638788322019163 0 -0.020746783100341063 0.015468668911133018 0 -0.021222735371367121 0.01493193009972813 0 -0.020746783100341063 0.015468668911133018 0 -0.02138422128753072 0.015450064316115555 0 -0.021222735371367121 0.01493193009972813 0 -0.053690590109153023 -0.0021205186102850981 0 -0.052742947971591604 -0.0030484168363484653 0 -0.054048730156704687 -0.003107091759696336 0 -0.019818816118670236 0.014587539888022713 0 -0.020679176648679486 0.014638788322019163 0 -0.020746783100341063 0.015468668911133018 0 -0.036762590201876513 0.0064367254765330542 0 -0.037139697116018631 0.0070501338229831418 0 -0.024699223300388883 0.018913799209763819 0 -0.023785794838789089 0.018752814662399354 0 -0.024513285747502601 0.017994361910913179 0 -0.026143464662866812 0.018298048711627816 0 -0.025430000839006754 0.019472371312586095 0 -0.026719801347016559 0.019597588154515663 0 -0.024699223300388883 0.018913799209763819 0 -0.026143464662866812 0.018298048711627816 0 -0.025430000839006754 0.019472371312586095 0 -0.024699223300388883 0.018913799209763819 0 -0.024513285747502601 0.017994361910913179 0 -0.026143464662866812 0.018298048711627816 0 -0.025430000839006754 0.019472371312586095 0 -0.026719801347016559 0.019597588154515663 0 -0.025419308177545341 0.020680821817647896 0 -0.024699223300388883 0.018913799209763819 0 -0.023785794838789089 0.018752814662399354 0 -0.024299532005928985 0.020044522889732325 0 -0.025430000839006754 0.019472371312586095 0 -0.024299532005928985 0.020044522889732325 0 -0.025419308177545341 0.020680821817647896 0 -0.024699223300388883 0.018913799209763819 0 -0.025430000839006754 0.019472371312586095 0 -0.024299532005928985 0.020044522889732325 0 -0.021892975641964796 0.015063305043101171 0 -0.02138422128753072 0.015450064316115555 0 -0.021222735371367121 0.01493193009972813 0 -0.021892975641964796 0.015063305043101171 0 -0.021222735371367121 0.01493193009972813 0 -0.021510953743114014 0.014585613564257463 0 -0.021222735371367121 0.01493193009972813 0 -0.021510953743114014 0.014585613564257463 0 -0.021154128264655118 0.014231813839055037 0 -0.021892975641964796 0.015063305043101171 0 -0.021510953743114014 0.014585613564257463 0 -0.021677707020871521 0.014238532709331562 0 -0.021510953743114014 0.014585613564257463 0 -0.021154128264655118 0.014231813839055037 0 -0.021677707020871521 0.014238532709331562 0 -0.021892975641964796 0.015063305043101171 0 -0.021677707020871521 0.014238532709331562 0 -0.02214251393281708 0.013777861337312944 0 -0.029491557142679127 0.016455328244615583 0 -0.02592912265966664 0.014300135848074307 0 -0.024513285747502601 0.017994361910913179 0 -0.024294210955666164 0.014277910746407977 0 -0.026603784449534189 0.014517511874286317 0 -0.025816008177565793 0.016058855668490881 0 -0.02715054430070693 0.014266377346647076 0 -0.023785794838789089 0.018752814662399354 0 -0.024513285747502601 0.017994361910913179 0 -0.024294210955666164 0.014277910746407977 0 -0.024513285747502601 0.017994361910913179 0 -0.026143464662866812 0.018298048711627816 0 -0.027429754200350709 0.014454880917818103 0 -0.020935364763209976 0.01373103175155266 0 -0.021494833069707332 0.013781824548023628 0 -0.021466560713733686 0.013051179337054011 0 -0.02214251393281708 0.013777861337312944 0 -0.021494833069707332 0.013781824548023628 0 -0.021466560713733686 0.013051179337054011 0 -0.021154128264655118 0.014231813839055037 0 -0.021677707020871521 0.014238532709331562 0 -0.021494833069707332 0.013781824548023628 0 -0.020935364763209976 0.01373103175155266 0 -0.021154128264655118 0.014231813839055037 0 -0.021494833069707332 0.013781824548023628 0 -0.021677707020871521 0.014238532709331562 0 -0.02214251393281708 0.013777861337312944 0 -0.021494833069707332 0.013781824548023628 0 -0.024914621898113436 0.0098258782169846903 0 -0.024294210955666164 0.014277910746407977 0 -0.026619699787461849 0.011930311184358888 0 -0.024679997100603254 0.011468207180522803 0 -0.02592912265966664 0.014300135848074307 0 -0.022436446974457923 0.012447921429833168 0 -0.02214251393281708 0.013777861337312944 0 -0.021466560713733686 0.013051179337054011 0 -0.026619699787461849 0.011930311184358888 0 -0.029063545443113532 0.011154412228504912 0 -0.026603784449534189 0.014517511874286317 0 -0.029359187343848289 0.011294104582526627 0 -0.02715054430070693 0.014266377346647076 0 -0.029949653456109688 0.011002431419808745 0 -0.029913800441035178 0.014212152680578818 0 -0.032299735886963422 0.013497933732742738 0 -0.029913800441035178 0.014212152680578818 0 -0.032299735886963422 0.013497933732742738 0 -0.030865312096614979 0.016048304959140103 0 -0.029949653456109688 0.011002431419808745 0 -0.029913800441035178 0.014212152680578818 0 -0.027429754200350709 0.014454880917818103 0 -0.024294210955666164 0.014277910746407977 0 -0.026619699787461849 0.011930311184358888 0 -0.026603784449534189 0.014517511874286317 0 -0.029913800441035178 0.014212152680578818 0 -0.027429754200350709 0.014454880917818103 0 -0.029036162150880441 0.016114316698967235 0 -0.037800847040462507 0.0091630077486461251 0 -0.033506441769213698 0.010474721266442725 0 -0.036049816641475982 0.012795449437744062 0 -0.033506441769213698 0.010474721266442725 0 -0.036049816641475982 0.012795449437744062 0 -0.032299735886963422 0.013497933732742738 0 -0.033506441769213698 0.010474721266442725 0 -0.029949653456109688 0.011002431419808745 0 -0.032299735886963422 0.013497933732742738 0 -0.032299735886963422 0.013497933732742738 0 -0.034168633366732343 0.016624786187712889 0 -0.030865312096614979 0.016048304959140103 0 -0.036049816641475982 0.012795449437744062 0 -0.034168633366732343 0.016624786187712889 0 -0.037713782011183174 0.016099419881322834 0 -0.036049816641475982 0.012795449437744062 0 -0.032299735886963422 0.013497933732742738 0 -0.034168633366732343 0.016624786187712889 0 -0.034168633366732343 0.016624786187712889 0 -0.037713782011183174 0.016099419881322834 0 -0.037067702688201816 0.020113329172079381 0 -0.034168633366732343 0.016624786187712889 0 -0.031592642133916674 0.018121845280699857 0 -0.030865312096614979 0.016048304959140103 0 -0.033124291526549131 0.01975303385666136 0 -0.031592642133916674 0.018121845280699857 0 -0.030496958579320107 0.019777129272783901 0 -0.033124291526549131 0.01975303385666136 0 -0.030496958579320107 0.019777129272783901 0 -0.031521307503542775 0.021516453973338474 0 -0.034168633366732343 0.016624786187712889 0 -0.033124291526549131 0.01975303385666136 0 -0.031592642133916674 0.018121845280699857 0 -0.034168633366732343 0.016624786187712889 0 -0.033124291526549131 0.01975303385666136 0 -0.037067702688201816 0.020113329172079381 0 -0.026143464662866812 0.018298048711627816 0 -0.027429754200350709 0.014454880917818103 0 -0.027804800484243705 0.017719233322753724 0 -0.027429754200350709 0.014454880917818103 0 -0.027804800484243705 0.017719233322753724 0 -0.029036162150880441 0.016114316698967235 0 -0.027804800484243705 0.017719233322753724 0 -0.029036162150880441 0.016114316698967235 0 -0.029542625961651133 0.01818915311768865 0 -0.029913800441035178 0.014212152680578818 0 -0.029036162150880441 0.016114316698967235 0 -0.030865312096614979 0.016048304959140103 0 -0.031592642133916674 0.018121845280699857 0 -0.030865312096614979 0.016048304959140103 0 -0.029542625961651133 0.01818915311768865 0 -0.029036162150880441 0.016114316698967235 0 -0.030865312096614979 0.016048304959140103 0 -0.029542625961651133 0.01818915311768865 0 -0.029542625961651133 0.01818915311768865 0 -0.030496958579320107 0.019777129272783901 0 -0.028332602861100845 0.019506950681041836 0 -0.031592642133916674 0.018121845280699857 0 -0.029542625961651133 0.01818915311768865 0 -0.030496958579320107 0.019777129272783901 0 -0.030496958579320107 0.019777129272783901 0 -0.028332602861100845 0.019506950681041836 0 -0.028713920744014031 0.021094259460228883 0 -0.028332602861100845 0.019506950681041836 0 -0.027483365796797183 0.020713899680627697 0 -0.028713920744014031 0.021094259460228883 0 -0.027804800484243705 0.017719233322753724 0 -0.029542625961651133 0.01818915311768865 0 -0.028332602861100845 0.019506950681041836 0 -0.027804800484243705 0.017719233322753724 0 -0.028332602861100845 0.019506950681041836 0 -0.026719801347016559 0.019597588154515663 0 -0.026143464662866812 0.018298048711627816 0 -0.027804800484243705 0.017719233322753724 0 -0.026719801347016559 0.019597588154515663 0 -0.028332602861100845 0.019506950681041836 0 -0.026719801347016559 0.019597588154515663 0 -0.027483365796797183 0.020713899680627697 0 -0.026719801347016559 0.019597588154515663 0 -0.026429471363838782 0.021059039869217717 0 -0.027483365796797183 0.020713899680627697 0 -0.026429471363838782 0.021059039869217717 0 -0.027483365796797183 0.020713899680627697 0 -0.027229772736618727 0.022298993417063991 0 -0.026429471363838782 0.021059039869217717 0 -0.027229772736618727 0.022298993417063991 0 -0.025653631562822094 0.022428813795106632 0 -0.027229772736618727 0.022298993417063991 0 -0.028436416378805264 0.022643409779242663 0 -0.028713920744014031 0.021094259460228883 0 -0.027483365796797183 0.020713899680627697 0 -0.027229772736618727 0.022298993417063991 0 -0.028713920744014031 0.021094259460228883 0 -0.036644403785142735 0.021306365908532954 0 -0.037495795699327955 0.021318352733518627 0 -0.030496958579320107 0.019777129272783901 0 -0.031521307503542775 0.021516453973338474 0 -0.030421322233716217 0.022526955868414585 0 -0.030496958579320107 0.019777129272783901 0 -0.028713920744014031 0.021094259460228883 0 -0.029965675317135496 0.02268185188086029 0 -0.036899849552254331 0.021659869275684383 0 -0.037495795699327955 0.021318352733518627 0 -0.028436416378805264 0.022643409779242663 0 -0.028713920744014031 0.021094259460228883 0 -0.029965675317135496 0.02268185188086029 0 -0.031521307503542775 0.021516453973338474 0 -0.030940526580023293 0.022235107117772566 0 -0.03151417468067938 0.024006293570116174 0 -0.030940526580023293 0.022235107117772566 0 -0.03151417468067938 0.024006293570116174 0 -0.030715404704754673 0.025077692003899872 0 -0.041664596887083356 0.018975098960224184 0 -0.043049764980799869 0.017752997092779346 0 -0.042017410816708144 0.016703309923040737 0 -0.037495795699327955 0.021318352733518627 0 -0.041552549525611486 0.019821402811007201 0 -0.027837638244282346 0.024488004466924996 0 -0.025758173832414164 0.02629848896948829 0 -0.025769088876973975 0.024299232536012218 0 -0.038823681418338571 0.018749267126783854 0 -0.043719298422809444 0.013184521207988095 0 -0.027229772736618727 0.022298993417063991 0 -0.027837638244282346 0.024488004466924996 0 -0.025769088876973975 0.024299232536012218 0 -0.028436416378805264 0.022643409779242663 0 -0.029965675317135496 0.02268185188086029 0 -0.027837638244282346 0.024488004466924996 0 -0.037495795699327955 0.021318352733518627 0 -0.038823681418338571 0.018749267126783854 0 -0.027229772736618727 0.022298993417063991 0 -0.028436416378805264 0.022643409779242663 0 -0.027837638244282346 0.024488004466924996 0 -0.035358816641433505 0.021460445558186086 0 -0.038568019476998783 0.019277990597299281 0 -0.033124291526549131 0.01975303385666136 0 -0.033693308230434031 0.022197813941231472 0 -0.037067702688201816 0.020113329172079381 0 -0.03594653456915331 0.020930932267499727 0 -0.037855929161131417 0.0229926376803519 0 -0.039990113817049859 0.018403135710188648 0 -0.033124291526549131 0.01975303385666136 0 -0.031521307503542775 0.021516453973338474 0 -0.033693308230434031 0.022197813941231472 0 -0.03151417468067938 0.024006293570116174 0 -0.03594653456915331 0.020930932267499727 0 -0.035201705690847213 0.02436821474506401 0 -0.031521307503542775 0.021516453973338474 0 -0.03151417468067938 0.024006293570116174 0 -0.033693308230434031 0.022197813941231472 0 -0.033627813300787159 0.022678162604148348 0 -0.035358816641433505 0.021460445558186086 0 -0.03594653456915331 0.020930932267499727 0 -0.035201705690847213 0.02436821474506401 0 -0.037855929161131417 0.0229926376803519 0 -0.037855929161131417 0.0229926376803519 0 -0.038417920667614174 0.026396697083731772 0 -0.040654549217000513 0.023175498752897955 0 -0.035201705690847213 0.02436821474506401 0 -0.038417920667614174 0.026396697083731772 0 -0.035177009246748284 0.02738542839228424 0 -0.035201705690847213 0.02436821474506401 0 -0.037855929161131417 0.0229926376803519 0 -0.038417920667614174 0.026396697083731772 0 -0.035201705690847213 0.02436821474506401 0 -0.035177009246748284 0.02738542839228424 0 -0.032978760024199263 0.025819803730715817 0 -0.03151417468067938 0.024006293570116174 0 -0.035201705690847213 0.02436821474506401 0 -0.032978760024199263 0.025819803730715817 0 -0.035177009246748284 0.02738542839228424 0 -0.032978760024199263 0.025819803730715817 0 -0.032666408224047622 0.027726530139773328 0 -0.035177009246748284 0.02738542839228424 0 -0.0346033496048345 0.030013724031753793 0 -0.037719210331317012 0.029726978212806201 0 -0.035177009246748284 0.02738542839228424 0 -0.0346033496048345 0.030013724031753793 0 -0.032666408224047622 0.027726530139773328 0 -0.038417920667614174 0.026396697083731772 0 -0.037719210331317012 0.029726978212806201 0 -0.040104852744164657 0.029377656382351833 0 -0.038417920667614174 0.026396697083731772 0 -0.035177009246748284 0.02738542839228424 0 -0.037719210331317012 0.029726978212806201 0 -0.042962489373024174 0.016360427198198906 0 -0.042017410816708144 0.016703309923040737 0 -0.042367194421893031 0.014455071749416539 0 -0.048118161849317179 0.014905763586520713 0 -0.043719298422809444 0.013184521207988095 0 -0.042962489373024174 0.016360427198198906 0 -0.042367194421893031 0.014455071749416539 0 -0.044416226819816731 0.016537483993629056 0 -0.043049764980799869 0.017752997092779346 0 -0.042962489373024174 0.016360427198198906 0 -0.044416226819816731 0.016537483993629056 0 -0.043049764980799869 0.017752997092779346 0 -0.042962489373024174 0.016360427198198906 0 -0.042017410816708144 0.016703309923040737 0 -0.041552549525611486 0.019821402811007201 0 -0.048118161849317179 0.014905763586520713 0 -0.030715404704754673 0.025077692003899872 0 -0.032666408224047622 0.027726530139773328 0 -0.030182614408406624 0.029110561907533871 0 -0.03151417468067938 0.024006293570116174 0 -0.030715404704754673 0.025077692003899872 0 -0.032978760024199263 0.025819803730715817 0 -0.030715404704754673 0.025077692003899872 0 -0.032978760024199263 0.025819803730715817 0 -0.032666408224047622 0.027726530139773328 0 -0.0346033496048345 0.030013724031753793 0 -0.032666408224047622 0.027726530139773328 0 -0.030182614408406624 0.029110561907533871 0 -0.057676621584172805 0.0067068168079752535 0 -0.058364906225935757 0.0066945888397290229 0 -0.058307563813826437 0.0073363032147642027 0 -0.057676621584172805 0.0067068168079752535 0 -0.058364906225935757 0.0066945888397290229 0 -0.058044940429677123 0.0063452723418260465 0 -0.058364906225935757 0.0066945888397290229 0 -0.058307563813826437 0.0073363032147642027 0 -0.058743124724174207 0.0069333537412602743 0 -0.058364906225935757 0.0066945888397290229 0 -0.058750140821666262 0.0065240251232808284 0 -0.058575474227237592 0.0062743962496672146 0 -0.058364906225935757 0.0066945888397290229 0 -0.058743124724174207 0.0069333537412602743 0 -0.058750140821666262 0.0065240251232808284 0 -0.043719298422809444 0.013184521207988095 0 -0.049229488943473752 0.0084256321476768713 0 -0.044484845834310401 0.0099867173614216678 0 -0.045793460611454215 0.010394270523925069 0 -0.045910363772566957 0.0087231949360606631 0 -0.057265408878886356 0.0050166489169392835 0 -0.057769755641252737 0.0049222910184192475 0 -0.057067420856373403 0.005785247849882171 0 -0.045793460611454215 0.010394270523925069 0 -0.046883978679013658 0.0095427932876571055 0 -0.046417294087491109 0.011610266536870193 0 -0.045793460611454215 0.010394270523925069 0 -0.046883978679013658 0.0095427932876571055 0 -0.045910363772566957 0.0087231949360606631 0 -0.049229488943473752 0.0084256321476768713 0 -0.052027113765223405 0.005502629754890436 0 -0.04770342292767929 0.0070925801730336389 0 -0.052027113765223405 0.005502629754890436 0 -0.046883978679013658 0.0095427932876571055 0 -0.045910363772566957 0.0087231949360606631 0 -0.047355006910562332 0.0074513536436005435 0 -0.058743124724174207 0.0069333537412602743 0 -0.058750140821666262 0.0065240251232808284 0 -0.059104738164258909 0.0065475825301528632 0 -0.057445632697652765 0.0042948808273036466 0 -0.057733998191659239 0.0042415376075057238 0 -0.057881626955922368 0.0044746210592490569 0 -0.057445632697652765 0.0042948808273036466 0 -0.057881626955922368 0.0044746210592490569 0 -0.057769755641252737 0.0049222910184192475 0 -0.057881626955922368 0.0044746210592490569 0 -0.058265525451375332 0.0048318428694978837 0 -0.057977260312892062 0.0039023759845036132 0 -0.057265408878886356 0.0050166489169392835 0 -0.057445632697652765 0.0042948808273036466 0 -0.057769755641252737 0.0049222910184192475 0 -0.057733998191659239 0.0042415376075057238 0 -0.057881626955922368 0.0044746210592490569 0 -0.057977260312892062 0.0039023759845036132 0 -0.057881626955922368 0.0044746210592490569 0 -0.058265525451375332 0.0048318428694978837 0 -0.057769755641252737 0.0049222910184192475 0 -0.057724922071220458 0.0046576438734988309 0 -0.057523097749593979 0.0044711633213122643 0 -0.058427594028905246 0.0045414392051042422 0 -0.058265525451375332 0.0048318428694978837 0 -0.058392257027400522 0.0043560854172260115 0 -0.058518093835958768 0.0045064003898268234 0 -0.058427594028905246 0.0045414392051042422 0 -0.058537152024591865 0.0047194241329674858 0 -0.058427594028905246 0.0045414392051042422 0 -0.058537152024591865 0.0047194241329674858 0 -0.058265525451375332 0.0048318428694978837 0 -0.058537152024591865 0.0047194241329674858 0 -0.058160804741009091 0.0052065454962397055 0 -0.058855450839498585 0.0047499224554062129 0 -0.058537152024591865 0.0047194241329674858 0 -0.058265525451375332 0.0048318428694978837 0 -0.058160804741009091 0.0052065454962397055 0 -0.054436138456814644 0.0022877834464552966 0 -0.058345673008022556 0.00069900741775306692 0 -0.058160804741009091 0.0052065454962397055 0 -0.057769755641252737 0.0049222910184192475 0 -0.057067420856373403 0.005785247849882171 0 -0.058265525451375332 0.0048318428694978837 0 -0.058160804741009091 0.0052065454962397055 0 -0.057769755641252737 0.0049222910184192475 0 -0.053128705221526455 -0.00477546031413422 0 -0.05260388901534907 -0.0039509337749706053 0 -0.051805482648403726 -0.0040926419216247845 0 -0.054436138456814644 0.0022877834464552966 0 -0.041742068019731307 0.0095212272629634134 0 -0.053128705221526455 -0.00477546031413422 0 -0.053561991819647055 -0.0038742828923513952 0 -0.054099596801535907 -0.004463660235350623 0 -0.053128705221526455 -0.00477546031413422 0 -0.05260388901534907 -0.0039509337749706053 0 -0.053561991819647055 -0.0038742828923513952 0 -0.052742947971591604 -0.0030484168363484653 0 -0.053561991819647055 -0.0038742828923513952 0 -0.054048730156704687 -0.003107091759696336 0 -0.037139697116018631 0.0070501338229831418 0 -0.039989683853388282 0.010464826251990907 0 -0.052742947971591604 -0.0030484168363484653 0 -0.05260388901534907 -0.0039509337749706053 0 -0.053561991819647055 -0.0038742828923513952 0 -0.052742947971591604 -0.0030484168363484653 0 -0.05260388901534907 -0.0039509337749706053 0 -0.051778459151379616 -0.0039672553935373904 0 -0.021892975641964796 0.015063305043101171 0 -0.02138422128753072 0.015450064316115555 0 -0.021671518981154079 0.016335633286994857 0 -0.023785794838789089 0.018752814662399354 0 -0.024299532005928985 0.020044522889732325 0 -0.022895990359999202 0.023437031724771962 0 -0.029491557142679127 0.016455328244615583 0 -0.039989683853388282 0.010464826251990907 0 -0.020746783100341063 0.015468668911133018 0 -0.02138422128753072 0.015450064316115555 0 -0.021671518981154079 0.016335633286994857 0 -0.024299532005928985 0.020044522889732325 0 -0.024359940885336811 0.02125860911750007 0 -0.022895990359999202 0.023437031724771962 0 -0.024299532005928985 0.020044522889732325 0 -0.024359940885336811 0.02125860911750007 0 -0.025419308177545341 0.020680821817647896 0 -0.024359940885336811 0.02125860911750007 0 -0.025419308177545341 0.020680821817647896 0 -0.025097042714573737 0.021538941826357166 0 -0.026429471363838782 0.021059039869217717 0 -0.025097042714573737 0.021538941826357166 0 -0.025653631562822094 0.022428813795106632 0 -0.026719801347016559 0.019597588154515663 0 -0.026429471363838782 0.021059039869217717 0 -0.025419308177545341 0.020680821817647896 0 -0.026429471363838782 0.021059039869217717 0 -0.025419308177545341 0.020680821817647896 0 -0.025097042714573737 0.021538941826357166 0 -0.024359940885336811 0.02125860911750007 0 -0.024456034360990319 0.022362287871041577 0 -0.022895990359999202 0.023437031724771962 0 -0.025097042714573737 0.021538941826357166 0 -0.025653631562822094 0.022428813795106632 0 -0.024456034360990319 0.022362287871041577 0 -0.024359940885336811 0.02125860911750007 0 -0.025097042714573737 0.021538941826357166 0 -0.024456034360990319 0.022362287871041577 0 -0.025653631562822094 0.022428813795106632 0 -0.024878753756852875 0.022887544034500169 0 -0.024456034360990319 0.022362287871041577 0 -0.024878753756852875 0.022887544034500169 0 -0.024456034360990319 0.022362287871041577 0 -0.024061065259418837 0.023205888329340753 0 -0.044484845834310401 0.0099867173614216678 0 -0.045793460611454215 0.010394270523925069 0 -0.046199768446459018 0.011721230127194482 0 -0.024061065259418837 0.023205888329340753 0 -0.025769088876973975 0.024299232536012218 0 -0.023145131955378751 0.023673347628649713 0 -0.043719298422809444 0.013184521207988095 0 -0.040370401044961979 0.010534514580701992 0 -0.024878753756852875 0.022887544034500169 0 -0.024061065259418837 0.023205888329340753 0 -0.025769088876973975 0.024299232536012218 0 -0.025758173832414164 0.02629848896948829 0 -0.025769088876973975 0.024299232536012218 0 -0.023145131955378751 0.023673347628649713 0 -0.027229772736618727 0.022298993417063991 0 -0.025653631562822094 0.022428813795106632 0 -0.025769088876973975 0.024299232536012218 0 -0.025653631562822094 0.022428813795106632 0 -0.024878753756852875 0.022887544034500169 0 -0.025769088876973975 0.024299232536012218 0 -0.045793460611454215 0.010394270523925069 0 -0.046417294087491109 0.011610266536870193 0 -0.046199768446459018 0.011721230127194482 0 -0.05260388901534907 -0.0039509337749706053 0 -0.051778459151379616 -0.0039672553935373904 0 -0.051805482648403726 -0.0040926419216247845 0 -0.04770342292767929 0.0070925801730336389 0 -0.041742068019731307 0.0095212272629634134 0 -0.024456034360990319 0.022362287871041577 0 -0.024061065259418837 0.023205888329340753 0 -0.022895990359999202 0.023437031724771962 0 -0.039989683853388282 0.010464826251990907 0 -0.040370401044961979 0.010534514580701992 0 -0.039216880917351024 0.011195572490864199 0 -0.040370401044961979 0.010534514580701992 0 -0.024061065259418837 0.023205888329340753 0 -0.022895990359999202 0.023437031724771962 0 -0.023137206902771119 0.023676165400625789 0 -0.039989683853388282 0.010464826251990907 0 -0.041742068019731307 0.0095212272629634134 0 -0.038246321653515575 0.0082732249700227158 0 -0.036224304239579674 0.017612253980563639 0 -0.043707519888689546 0.013793190419002102 0 -0.041742068019731307 0.0095212272629634134 0 -0.040370401044961979 0.010534514580701992 0 -0.057439332295835858 0.016401946427290731 0 -0.057664604717030686 0.018389041000948566 0 -0.056786964450523808 0.018273410436990829 0 -0.056786964450523808 0.018273410436990829 0 -0.055178678002775768 0.017516067095064203 0 -0.056366865967651281 0.019543063569206057 0 -0.057439332295835858 0.016401946427290731 0 -0.056786964450523808 0.018273410436990829 0 -0.055178678002775768 0.017516067095064203 0 -0.057664604717030686 0.018389041000948566 0 -0.056786964450523808 0.018273410436990829 0 -0.057249861133971097 0.019315474360058069 0 -0.054137191385164131 0.015068080646142635 0 -0.053688933988328143 0.01337655850912192 0 -0.055178678002775768 0.017516067095064203 0 -0.056098048855821626 0.014130147664471905 0 -0.05353495897185051 0.014412785378850932 0 -0.055178678002775768 0.017516067095064203 0 -0.054670424305590479 0.013915296491480092 0 -0.05281378980697319 0.0166802430501003 0 -0.057439332295835858 0.016401946427290731 0 -0.055178678002775768 0.017516067095064203 0 -0.056098048855821626 0.014130147664471905 0 -0.056098048855821626 0.014130147664471905 0 -0.056840132240793206 0.011319185786741343 0 -0.052222608559234329 0.010899388724848571 0 -0.053688933988328143 0.01337655850912192 0 -0.052769388286300629 0.010076357952563569 0 -0.056098048855821626 0.014130147664471905 0 -0.05353495897185051 0.014412785378850932 0 -0.052222608559234329 0.010899388724848571 0 -0.054670424305590479 0.013915296491480092 0 -0.053912352344795016 0.0097744926121823717 0 -0.050710813716853813 0.014151147729133959 0 -0.053912352344795016 0.0097744926121823717 0 -0.048715874451163502 0.010369951521310551 0 -0.050710813716853813 0.014151147729133959 0 -0.050710813716853813 0.014151147729133959 0 -0.05281378980697319 0.0166802430501003 0 -0.049947143896072653 0.017609551482833743 0 -0.05281378980697319 0.0166802430501003 0 -0.049947143896072653 0.017609551482833743 0 -0.054767221025311966 0.020638885248836916 0 -0.055178678002775768 0.017516067095064203 0 -0.05281378980697319 0.0166802430501003 0 -0.054767221025311966 0.020638885248836916 0 -0.054670424305590479 0.013915296491480092 0 -0.050710813716853813 0.014151147729133959 0 -0.05281378980697319 0.0166802430501003 0 -0.049947143896072653 0.017609551482833743 0 -0.046307227820161133 0.018251699151037762 0 -0.049680838903439675 0.020367225335682436 0 -0.046307227820161133 0.018251699151037762 0 -0.043555596517973194 0.01624208206774988 0 -0.043627797484866837 0.020419005274444353 0 -0.043644612728903534 0.01581982228687483 0 -0.041821901004715847 0.017082212676437267 0 -0.046307227820161133 0.018251699151037762 0 -0.045977832370366518 0.014466070545411743 0 -0.043555596517973194 0.01624208206774988 0 -0.050710813716853813 0.014151147729133959 0 -0.049947143896072653 0.017609551482833743 0 -0.045977832370366518 0.014466070545411743 0 -0.049947143896072653 0.017609551482833743 0 -0.046307227820161133 0.018251699151037762 0 -0.045977832370366518 0.014466070545411743 0 -0.048715874451163502 0.010369951521310551 0 -0.050710813716853813 0.014151147729133959 0 -0.045977832370366518 0.014466070545411743 0 -0.048715874451163502 0.010369951521310551 0 -0.044853656215671819 0.010951980413141086 0 -0.045977832370366518 0.014466070545411743 0 -0.041775015146657601 0.0087888364635666828 0 -0.044853656215671819 0.010951980413141086 0 -0.040679954337465664 0.012878537381537965 0 -0.045977832370366518 0.014466070545411743 0 -0.040679954337465664 0.012878537381537965 0 -0.04102463740212893 0.01777962528059145 0 -0.044853656215671819 0.010951980413141086 0 -0.045977832370366518 0.014466070545411743 0 -0.040679954337465664 0.012878537381537965 0 -0.041775015146657601 0.0087888364635666828 0 -0.037800847040462507 0.0091630077486461251 0 -0.040679954337465664 0.012878537381537965 0 -0.037800847040462507 0.0091630077486461251 0 -0.036049816641475982 0.012795449437744062 0 -0.040679954337465664 0.012878537381537965 0 -0.036049816641475982 0.012795449437744062 0 -0.040679954337465664 0.012878537381537965 0 -0.037713782011183174 0.016099419881322834 0 -0.037713782011183174 0.016099419881322834 0 -0.04102463740212893 0.01777962528059145 0 -0.037067702688201816 0.020113329172079381 0 -0.040679954337465664 0.012878537381537965 0 -0.037713782011183174 0.016099419881322834 0 -0.04102463740212893 0.01777962528059145 0 -0.043555596517973194 0.01624208206774988 0 -0.039990113817049859 0.018403135710188648 0 -0.043627797484866837 0.020419005274444353 0 -0.041821901004715847 0.017082212676437267 0 -0.038568019476998783 0.019277990597299281 0 -0.037855929161131417 0.0229926376803519 0 -0.039990113817049859 0.018403135710188648 0 -0.040654549217000513 0.023175498752897955 0 -0.039990113817049859 0.018403135710188648 0 -0.043627797484866837 0.020419005274444353 0 -0.040654549217000513 0.023175498752897955 0 -0.043627797484866837 0.020419005274444353 0 -0.040654549217000513 0.023175498752897955 0 -0.044159104943055444 0.024296324789976027 0 -0.0502494820735934 0.022956544515402681 0 -0.052492757955515314 0.023188330668957459 0 -0.038417920667614174 0.026396697083731772 0 -0.040654549217000513 0.023175498752897955 0 -0.041570400654106617 0.027356055494271829 0 -0.038417920667614174 0.026396697083731772 0 -0.041570400654106617 0.027356055494271829 0 -0.040104852744164657 0.029377656382351833 0 -0.041570400654106617 0.027356055494271829 0 -0.040104852744164657 0.029377656382351833 0 -0.042699163347607746 0.031233906193977128 0 -0.052492757955515314 0.023188330668957459 0 -0.058909298538527714 0.020537693204586954 0 -0.041617306247417475 0.026859260462174562 0 -0.044712925033079991 0.027895146338787497 0 -0.042703641885592322 0.030393571325144003 0 -0.054068574281826459 0.025163063803622168 0 -0.058909298538527714 0.020537693204586954 0 -0.044712925033079991 0.027895146338787497 0 -0.045279561743391379 0.030047337252218857 0 -0.042774039529018766 0.030374940720694382 0 -0.040654549217000513 0.023175498752897955 0 -0.041617306247417475 0.026859260462174562 0 -0.044159104943055444 0.024296324789976027 0 -0.041617306247417475 0.026859260462174562 0 -0.044159104943055444 0.024296324789976027 0 -0.044712925033079991 0.027895146338787497 0 -0.044159104943055444 0.024296324789976027 0 -0.046401368688843099 0.025832812789117449 0 -0.044712925033079991 0.027895146338787497 0 -0.044712925033079991 0.027895146338787497 0 -0.047619954242905556 0.029292103698288687 0 -0.045279561743391379 0.030047337252218857 0 -0.046401368688843099 0.025832812789117449 0 -0.044712925033079991 0.027895146338787497 0 -0.047619954242905556 0.029292103698288687 0 -0.047619954242905556 0.029292103698288687 0 -0.049419999006607394 0.025689972350707975 0 -0.05080766741324038 0.028511241631489003 0 -0.046401368688843099 0.025832812789117449 0 -0.047619954242905556 0.029292103698288687 0 -0.049419999006607394 0.025689972350707975 0 -0.046401368688843099 0.025832812789117449 0 -0.049419999006607394 0.025689972350707975 0 -0.047112856361663069 0.022554467291980979 0 -0.049419999006607394 0.025689972350707975 0 -0.047112856361663069 0.022554467291980979 0 -0.050877392901921038 0.022918781078548178 0 -0.047112856361663069 0.022554467291980979 0 -0.049680838903439675 0.020367225335682436 0 -0.050877392901921038 0.022918781078548178 0 -0.043627797484866837 0.020419005274444353 0 -0.044159104943055444 0.024296324789976027 0 -0.047112856361663069 0.022554467291980979 0 -0.044159104943055444 0.024296324789976027 0 -0.046401368688843099 0.025832812789117449 0 -0.047112856361663069 0.022554467291980979 0 -0.046307227820161133 0.018251699151037762 0 -0.043627797484866837 0.020419005274444353 0 -0.047112856361663069 0.022554467291980979 0 -0.046307227820161133 0.018251699151037762 0 -0.047112856361663069 0.022554467291980979 0 -0.049680838903439675 0.020367225335682436 0 -0.049947143896072653 0.017609551482833743 0 -0.049680838903439675 0.020367225335682436 0 -0.054767221025311966 0.020638885248836916 0 -0.056380971420402784 0.020970508853947269 0 -0.056596465869839373 0.021603759252660351 0 -0.054767221025311966 0.020638885248836916 0 -0.050877392901921038 0.022918781078548178 0 -0.053971196629500964 0.025363900718276381 0 -0.054767221025311966 0.020638885248836916 0 -0.058238177181842626 0.02046436385004306 0 -0.056724680864537504 0.020525153446741426 0 -0.049680838903439675 0.020367225335682436 0 -0.054767221025311966 0.020638885248836916 0 -0.050877392901921038 0.022918781078548178 0 -0.049419999006607394 0.025689972350707975 0 -0.05080766741324038 0.028511241631489003 0 -0.053971196629500964 0.025363900718276381 0 -0.049419999006607394 0.025689972350707975 0 -0.050877392901921038 0.022918781078548178 0 -0.053971196629500964 0.025363900718276381 0 -0.05080766741324038 0.028511241631489003 0 -0.053407599906073827 0.029306360854186544 0 -0.053971196629500964 0.025363900718276381 0 -0.057024034345399155 0.021886643221001843 0 -0.056596465869839373 0.021603759252660351 0 -0.061716096231396095 0.01824657538912015 0 -0.058238177181842626 0.02046436385004306 0 -0.059140502553745207 0.019155942272434254 0 -0.061716096231396095 0.01824657538912015 0 -0.059140502553745207 0.019155942272434254 0 -0.05987404925810802 0.017358302719680668 0 -0.058238177181842626 0.02046436385004306 0 -0.057717956034888988 0.019798452134996772 0 -0.056724680864537504 0.020525153446741426 0 -0.058238177181842626 0.02046436385004306 0 -0.057717956034888988 0.019798452134996772 0 -0.059140502553745207 0.019155942272434254 0 -0.057717956034888988 0.019798452134996772 0 -0.059140502553745207 0.019155942272434254 0 -0.058405350829183751 0.018786506854992016 0 -0.059140502553745207 0.019155942272434254 0 -0.058405350829183751 0.018786506854992016 0 -0.05987404925810802 0.017358302719680668 0 -0.057717956034888988 0.019798452134996772 0 -0.058405350829183751 0.018786506854992016 0 -0.057047329456995775 0.018633947357652714 0 -0.057027494513531361 0.019655953645334751 0 -0.057717956034888988 0.019798452134996772 0 -0.057047329456995775 0.018633947357652714 0 -0.057717956034888988 0.019798452134996772 0 -0.057093955244746961 0.020160421116833391 0 -0.056724680864537504 0.020525153446741426 0 -0.057027494513531361 0.019655953645334751 0 -0.057717956034888988 0.019798452134996772 0 -0.057093955244746961 0.020160421116833391 0 -0.057243687707225765 0.019892536135569822 0 -0.057093955244746961 0.020160421116833391 0 -0.056930135121505826 0.019996934554979869 0 -0.057243687707225765 0.019892536135569822 0 -0.056930135121505826 0.019996934554979869 0 -0.057249861133971097 0.019315474360058069 0 -0.057093955244746961 0.020160421116833391 0 -0.056930135121505826 0.019996934554979869 0 -0.056724680864537504 0.020525153446741426 0 -0.054767221025311966 0.020638885248836916 0 -0.056724680864537504 0.020525153446741426 0 -0.056366865967651281 0.019543063569206057 0 -0.056930135121505826 0.019996934554979869 0 -0.056724680864537504 0.020525153446741426 0 -0.056366865967651281 0.019543063569206057 0 -0.055178678002775768 0.017516067095064203 0 -0.054767221025311966 0.020638885248836916 0 -0.056366865967651281 0.019543063569206057 0 -0.056786964450523808 0.018273410436990829 0 -0.056366865967651281 0.019543063569206057 0 -0.057249861133971097 0.019315474360058069 0 -0.056930135121505826 0.019996934554979869 0 -0.056366865967651281 0.019543063569206057 0 -0.057249861133971097 0.019315474360058069 0 -0.065972775758723332 0.0028154432252920532 0 -0.065722560602778354 0.0013373295402976076 0 -0.051323147310487489 0.00057537355375361784 0 -0.055313730702047849 0.0034704120512071982 0 -0.05777843256671069 -0.00093592738130216175 0 -0.055313730702047849 0.0034704120512071982 0 -0.058543473159077118 0.0037375042648753114 0 -0.056637787846256761 0.006441830154145632 0 -0.051323147310487489 0.00057537355375361784 0 -0.055313730702047849 0.0034704120512071982 0 -0.053355621413331764 0.0042860605929328196 0 -0.055313730702047849 0.0034704120512071982 0 -0.058543473159077118 0.0037375042648753114 0 -0.05777843256671069 -0.00093592738130216175 0 -0.061161952443652481 0.0018389595074231279 0 -0.058543473159077118 0.0037375042648753114 0 -0.05777843256671069 -0.00093592738130216175 0 -0.061161952443652481 0.0018389595074231279 0 -0.067046763096913431 -0.0018435559758902848 0 -0.05777843256671069 -0.00093592738130216175 0 -0.061161952443652481 0.0018389595074231279 0 -0.064258994412466866 0.0015471353402976573 0 -0.067046763096913431 -0.0018435559758902848 0 -0.064258994412466866 0.0015471353402976573 0 -0.061418385147030408 0.0044751800541264711 0 -0.063388907690614255 0.0044067148350418828 0 -0.061161952443652481 0.0018389595074231279 0 -0.064258994412466866 0.0015471353402976573 0 -0.061418385147030408 0.0044751800541264711 0 -0.061161952443652481 0.0018389595074231279 0 -0.061418385147030408 0.0044751800541264711 0 -0.058543473159077118 0.0037375042648753114 0 -0.061418385147030408 0.0044751800541264711 0 -0.058543473159077118 0.0037375042648753114 0 -0.059041983804456445 0.0063599349104539677 0 -0.061418385147030408 0.0044751800541264711 0 -0.059041983804456445 0.0063599349104539677 0 -0.060690360274129038 0.0079187282911738037 0 -0.059041983804456445 0.0063599349104539677 0 -0.058248941601523184 0.009179225142070176 0 -0.056637787846256761 0.006441830154145632 0 -0.061418385147030408 0.0044751800541264711 0 -0.060690360274129038 0.0079187282911738037 0 -0.063159138928410297 0.0064478050540858183 0 -0.061418385147030408 0.0044751800541264711 0 -0.063159138928410297 0.0064478050540858183 0 -0.063388907690614255 0.0044067148350418828 0 -0.060690360274129038 0.0079187282911738037 0 -0.058248941601523184 0.009179225142070176 0 -0.060575189095816391 0.011512442468921354 0 -0.060690360274129038 0.0079187282911738037 0 -0.062893409088266058 0.0090672741478983881 0 -0.063159138928410297 0.0064478050540858183 0 -0.060690360274129038 0.0079187282911738037 0 -0.060575189095816391 0.011512442468921354 0 -0.062893409088266058 0.0090672741478983881 0 -0.059041983804456445 0.0063599349104539677 0 -0.060690360274129038 0.0079187282911738037 0 -0.058248941601523184 0.009179225142070176 0 -0.058248941601523184 0.009179225142070176 0 -0.055859704758892834 0.0085948968219789097 0 -0.056637787846256761 0.006441830154145632 0 -0.058543473159077118 0.0037375042648753114 0 -0.059041983804456445 0.0063599349104539677 0 -0.056637787846256761 0.006441830154145632 0 -0.055859704758892834 0.0085948968219789097 0 -0.056637787846256761 0.006441830154145632 0 -0.054218086015139083 0.0066192771690400786 0 -0.055313730702047849 0.0034704120512071982 0 -0.053355621413331764 0.0042860605929328196 0 -0.054218086015139083 0.0066192771690400786 0 -0.055313730702047849 0.0034704120512071982 0 -0.056637787846256761 0.006441830154145632 0 -0.054218086015139083 0.0066192771690400786 0 -0.052541995080322736 0.0064496695780941263 0 -0.053355621413331764 0.0042860605929328196 0 -0.054218086015139083 0.0066192771690400786 0 -0.052168343037318862 0.0073538694412156229 0 -0.054218086015139083 0.0066192771690400786 0 -0.05387039164408676 0.0089114312345623947 0 -0.055859704758892834 0.0085948968219789097 0 -0.054218086015139083 0.0066192771690400786 0 -0.05387039164408676 0.0089114312345623947 0 -0.052583499999573555 0.010616896176081796 0 -0.05387039164408676 0.0089114312345623947 0 -0.056023808387083124 0.011323058254952308 0 -0.055859704758892834 0.0085948968219789097 0 -0.05387039164408676 0.0089114312345623947 0 -0.056023808387083124 0.011323058254952308 0 -0.058248941601523184 0.009179225142070176 0 -0.055859704758892834 0.0085948968219789097 0 -0.056023808387083124 0.011323058254952308 0 -0.055225008100070583 0.011638039913908039 0 -0.055203044392482387 0.014120512357438228 0 -0.057489002397083031 0.014888836517912401 0 -0.053041831174793552 0.013250454986461655 0 -0.055225008100070583 0.011638039913908039 0 -0.055203044392482387 0.014120512357438228 0 -0.053041831174793552 0.013250454986461655 0 -0.055203044392482387 0.014120512357438228 0 -0.054369796965320918 0.017112525593910216 0 -0.055203044392482387 0.014120512357438228 0 -0.054369796965320918 0.017112525593910216 0 -0.057489002397083031 0.014888836517912401 0 -0.056866234321470976 0.015083770431589472 0 -0.058106298325772757 0.015632430264907172 0 -0.054369796965320918 0.017112525593910216 0 -0.05987404925810802 0.017358302719680668 0 -0.057489002397083031 0.014888836517912401 0 -0.058405350829183751 0.018786506854992016 0 -0.057047329456995775 0.018633947357652714 0 -0.05987404925810802 0.017358302719680668 0 -0.05987404925810802 0.017358302719680668 0 -0.057489002397083031 0.014888836517912401 0 -0.06118442840643807 0.014788393704187195 0 -0.058248941601523184 0.009179225142070176 0 -0.056023808387083124 0.011323058254952308 0 -0.060575189095816391 0.011512442468921354 0 -0.057498256117066153 0.0094106374856348929 0 -0.058141707061622236 0.0096910783979936212 0 -0.057489002397083031 0.014888836517912401 0 -0.060575189095816391 0.011512442468921354 0 -0.06118442840643807 0.014788393704187195 0 -0.055225008100070583 0.011638039913908039 0 -0.057489002397083031 0.014888836517912401 0 -0.060575189095816391 0.011512442468921354 0 -0.060575189095816391 0.011512442468921354 0 -0.064969512016941955 0.012228321047585346 0 -0.062893409088266058 0.0090672741478983881 0 -0.060575189095816391 0.011512442468921354 0 -0.064969512016941955 0.012228321047585346 0 -0.06118442840643807 0.014788393704187195 0 -0.064969512016941955 0.012228321047585346 0 -0.064605162876215427 0.0075981486087674036 0 -0.062893409088266058 0.0090672741478983881 0 -0.053407599906073827 0.029306360854186544 0 -0.052963000974349736 0.033153133334196699 0 -0.051561022311519128 0.03094811728566885 0 -0.061716096231396095 0.01824657538912015 0 -0.064969512016941955 0.012228321047585346 0 -0.06118442840643807 0.014788393704187195 0 -0.057024034345399155 0.021886643221001843 0 -0.057284736681139134 0.020430689195221636 0 -0.061716096231396095 0.01824657538912015 0 -0.05987404925810802 0.017358302719680668 0 -0.06118442840643807 0.014788393704187195 0 -0.05080766741324038 0.028511241631489003 0 -0.051561022311519128 0.03094811728566885 0 -0.049921298157525343 0.030856123952225843 0 -0.05080766741324038 0.028511241631489003 0 -0.053407599906073827 0.029306360854186544 0 -0.051561022311519128 0.03094811728566885 0 -0.051561022311519128 0.03094811728566885 0 -0.050690710840580473 0.032868431268295251 0 -0.049921298157525343 0.030856123952225843 0 -0.052963000974349736 0.033153133334196699 0 -0.051561022311519128 0.03094811728566885 0 -0.050690710840580473 0.032868431268295251 0 -0.052963000974349736 0.033153133334196699 0 -0.050690710840580473 0.032868431268295251 0 -0.051414065344782968 0.034467499376143872 0 -0.050690710840580473 0.032868431268295251 0 -0.051414065344782968 0.034467499376143872 0 -0.049400924799303872 0.034807766528781613 0 -0.052963000974349736 0.033153133334196699 0 -0.051414065344782968 0.034467499376143872 0 -0.052614383002982212 0.036922378896195693 0 -0.070337390258075089 0.0033973226578446498 0 -0.068446003321329094 0.0033012617050363889 0 -0.071374253898170648 0.0049512338567803361 0 -0.057034285199478174 0.015133511088016489 0 -0.059494310531078752 0.018423303180642382 0 -0.051414065344782968 0.034467499376143872 0 -0.052614383002982212 0.036922378896195693 0 -0.049400924799303872 0.034807766528781613 0 -0.064969512016941955 0.012228321047585346 0 -0.064605162876215427 0.0075981486087674036 0 -0.066880246027849657 0.0054317471193028417 0 -0.057284736681139134 0.020430689195221636 0 -0.057034285199478174 0.015133511088016489 0 -0.064605162876215427 0.0075981486087674036 0 -0.062893409088266058 0.0090672741478983881 0 -0.063159138928410297 0.0064478050540858183 0 -0.064605162876215427 0.0075981486087674036 0 -0.063159138928410297 0.0064478050540858183 0 -0.064671521888930689 0.0050222411200960835 0 -0.063159138928410297 0.0064478050540858183 0 -0.064671521888930689 0.0050222411200960835 0 -0.063388907690614255 0.0044067148350418828 0 -0.064605162876215427 0.0075981486087674036 0 -0.064671521888930689 0.0050222411200960835 0 -0.066880246027849657 0.0054317471193028417 0 -0.068293504740841365 0.0022857727894338518 0 -0.067124779943930443 0.00021824755824519104 0 -0.067649157643013019 -0.0014596010456147585 0 -0.057034285199478174 0.015133511088016489 0 -0.057149617535557008 0.014721199946477701 0 -0.064258994412466866 0.0015471353402976573 0 -0.068218204163701099 0.0032766656333445298 0 -0.068293504740841365 0.0022857727894338518 0 -0.064258994412466866 0.0015471353402976573 0 -0.068293504740841365 0.0022857727894338518 0 -0.067124779943930443 0.00021824755824519104 0 -0.064258994412466866 0.0015471353402976573 0 -0.064671521888930689 0.0050222411200960835 0 -0.063388907690614255 0.0044067148350418828 0 -0.057759517769712367 0.013261502007352186 0 -0.057034285199478174 0.015133511088016489 0 -0.064258994412466866 0.0015471353402976573 0 -0.064671521888930689 0.0050222411200960835 0 -0.066880246027849657 0.0054317471193028417 0 -0.064258994412466866 0.0015471353402976573 0 -0.067124779943930443 0.00021824755824519104 0 -0.067046763096913431 -0.0018435559758902848 0 -0.070818750182043935 0.0015023067744030477 0 -0.070792277618065752 0.00071433436464191113 0 -0.070337390258075089 0.0033973226578446498 0 -0.07132192295076771 0.0027928405241528305 0 -0.070754253954208937 0.0022905548445271112 0 -0.070337390258075089 0.0033973226578446498 0 -0.068293504740841365 0.0022857727894338518 0 -0.067649157643013019 -0.0014596010456147585 0 -0.070337390258075089 0.0033973226578446498 0 -0.070754253954208937 0.0022905548445271112 0 -0.070037715662889841 0.0020577996459751639 0 -0.070337390258075089 0.0033973226578446498 0 -0.068446003321329094 0.0033012617050363889 0 -0.068293504740841365 0.0022857727894338518 0 -0.072128897830909491 0.0032932584250494391 0 -0.07132192295076771 0.0027928405241528305 0 -0.071490661324391608 0.0038162893622642326 0 -0.070337390258075089 0.0033973226578446498 0 -0.07132192295076771 0.0027928405241528305 0 -0.071490661324391608 0.0038162893622642326 0 -0.07132192295076771 0.0027928405241528305 0 -0.072013330360220978 0.0025754414970326962 0 -0.071437335772182683 0.0018969328996966297 0 -0.072128897830909491 0.0032932584250494391 0 -0.07132192295076771 0.0027928405241528305 0 -0.072013330360220978 0.0025754414970326962 0 -0.072128897830909491 0.0032932584250494391 0 -0.072013330360220978 0.0025754414970326962 0 -0.072620776888527472 0.0028550101991951398 0 -0.072013330360220978 0.0025754414970326962 0 -0.072620776888527472 0.0028550101991951398 0 -0.072566400539440815 0.0021321641286136048 0 -0.072620776888527472 0.0028550101991951398 0 -0.073485036520148761 0.0028474838247004872 0 -0.072566400539440815 0.0021321641286136048 0 -0.072620776888527472 0.0028550101991951398 0 -0.072994529572377037 0.0036646887252234943 0 -0.073485036520148761 0.0028474838247004872 0 -0.072128897830909491 0.0032932584250494391 0 -0.072620776888527472 0.0028550101991951398 0 -0.072994529572377037 0.0036646887252234943 0 -0.072128897830909491 0.0032932584250494391 0 -0.072994529572377037 0.0036646887252234943 0 -0.072639493132245228 0.0045235536684524076 0 -0.072994529572377037 0.0036646887252234943 0 -0.072639493132245228 0.0045235536684524076 0 -0.073988563471015512 0.0048707861586103672 0 -0.072639493132245228 0.0045235536684524076 0 -0.071490661324391608 0.0038162893622642326 0 -0.071374253898170648 0.0049512338567803361 0 -0.072128897830909491 0.0032932584250494391 0 -0.072639493132245228 0.0045235536684524076 0 -0.071490661324391608 0.0038162893622642326 0 -0.070337390258075089 0.0033973226578446498 0 -0.071490661324391608 0.0038162893622642326 0 -0.071374253898170648 0.0049512338567803361 0 -0.050690710840580473 0.032868431268295251 0 -0.049400924799303872 0.034807766528781613 0 -0.048566427893101088 0.032419208390454368 0 -0.049400924799303872 0.034807766528781613 0 -0.048566427893101088 0.032419208390454368 0 -0.04606728556902949 0.032620981546298292 0 -0.059494310531078752 0.018423303180642382 0 -0.059270066292913808 0.019450895125948324 0 -0.047619954242905556 0.029292103698288687 0 -0.05080766741324038 0.028511241631489003 0 -0.049921298157525343 0.030856123952225843 0 -0.047619954242905556 0.029292103698288687 0 -0.048566427893101088 0.032419208390454368 0 -0.049921298157525343 0.030856123952225843 0 -0.047619954242905556 0.029292103698288687 0 -0.048566427893101088 0.032419208390454368 0 -0.04606728556902949 0.032620981546298292 0 -0.050690710840580473 0.032868431268295251 0 -0.048566427893101088 0.032419208390454368 0 -0.049921298157525343 0.030856123952225843 0 -0.047619954242905556 0.029292103698288687 0 -0.045279561743391379 0.030047337252218857 0 -0.04606728556902949 0.032620981546298292 0 -0.045279561743391379 0.030047337252218857 0 -0.04606728556902949 0.032620981546298292 0 -0.042774039529018766 0.030374940720694382 0 -0.072639493132245228 0.0045235536684524076 0 -0.072812161933025768 0.0058837740428351448 0 -0.073988563471015512 0.0048707861586103672 0 -0.072639493132245228 0.0045235536684524076 0 -0.071374253898170648 0.0049512338567803361 0 -0.072812161933025768 0.0058837740428351448 0 -0.072812161933025768 0.0058837740428351448 0 -0.074311115327117164 0.0069763908359494146 0 -0.073988563471015512 0.0048707861586103672 0 -0.074004404904642329 0.0088776427086448267 0 -0.075402604785876154 0.0071350694962927881 0 -0.07357908783104819 0.0060298292738659017 0 -0.058909298538527714 0.020537693204586954 0 -0.065933103721957362 0.0088160805415383285 0 -0.059270066292913808 0.019450895125948324 0 -0.058909298538527714 0.020537693204586954 0 -0.042699163347607746 0.031233906193977128 0 -0.039842333126571296 0.031670349614769354 0 -0.04031360234924658 0.034168660453325075 0 -0.058909298538527714 0.020537693204586954 0 -0.05831129707499684 0.017476545977679916 0 -0.037719210331317012 0.029726978212806201 0 -0.040104852744164657 0.029377656382351833 0 -0.039842333126571296 0.031670349614769354 0 -0.040104852744164657 0.029377656382351833 0 -0.042699163347607746 0.031233906193977128 0 -0.039842333126571296 0.031670349614769354 0 -0.039842333126571296 0.031670349614769354 0 -0.04031360234924658 0.034168660453325075 0 -0.037652423274080284 0.033079410221364229 0 -0.075402604785876154 0.0071350694962927881 0 -0.075493943504997718 0.0058847795009118655 0 -0.07357908783104819 0.0060298292738659017 0 -0.075402604785876154 0.0071350694962927881 0 -0.075493943504997718 0.0058847795009118655 0 -0.076619952120659959 0.0055791400059980673 0 -0.05831129707499684 0.017476545977679916 0 -0.059883509554733171 0.011233605095338465 0 -0.075493943504997718 0.0058847795009118655 0 -0.075803540054053875 0.0047451637864511387 0 -0.076619952120659959 0.0055791400059980673 0 -0.075803540054053875 0.0047451637864511387 0 -0.074649250476991474 0.0051408762662681603 0 -0.074206860590599277 0.0038919825951248257 0 -0.075493943504997718 0.0058847795009118655 0 -0.074649250476991474 0.0051408762662681603 0 -0.07357908783104819 0.0060298292738659017 0 -0.075493943504997718 0.0058847795009118655 0 -0.075803540054053875 0.0047451637864511387 0 -0.074649250476991474 0.0051408762662681603 0 -0.065933103721957362 0.0088160805415383285 0 -0.068923842803507274 0.0049286711101974899 0 -0.072994529572377037 0.0036646887252234943 0 -0.073988563471015512 0.0048707861586103672 0 -0.073485036520148761 0.0028474838247004872 0 -0.074649250476991474 0.0051408762662681603 0 -0.07357908783104819 0.0060298292738659017 0 -0.074206860590599277 0.0038919825951248257 0 -0.07357908783104819 0.0060298292738659017 0 -0.074206860590599277 0.0038919825951248257 0 -0.07320132318751206 0.0034495742975813185 0 -0.07320132318751206 0.0034495742975813185 0 -0.074254007759296872 0.0031368435077553636 0 -0.073549111865807829 0.002347178224426121 0 -0.074206860590599277 0.0038919825951248257 0 -0.07320132318751206 0.0034495742975813185 0 -0.074254007759296872 0.0031368435077553636 0 -0.064997520908532849 0.010089928187305747 0 -0.067247684841414662 0.0094750551201225053 0 -0.07566378786469824 0.0046799305755384013 0 -0.074206860590599277 0.0038919825951248257 0 -0.074254007759296872 0.0031368435077553636 0 -0.064997520908532849 0.010089928187305747 0 -0.067612610996285266 0.010100629775034335 0 -0.075377460603354193 0.0043597973987697988 0 -0.074254007759296872 0.0031368435077553636 0 -0.074962819631553296 0.0032672699302961072 0 -0.075377460603354193 0.0043597973987697988 0 -0.074962819631553296 0.0032672699302961072 0 -0.07613833665054269 0.0046968833627554201 0 -0.068845469803620371 0.0066287975568138395 0 -0.063025743400753328 0.0085670775301853568 0 -0.074330296046407188 0.0018759973964775172 0 -0.074559538953653956 0.0018757710503756232 0 -0.074498804788670381 0.0017166465083478502 0 -0.074330296046407188 0.0018759973964775172 0 -0.074371087425080473 0.001559860751300363 0 -0.073748426107558288 0.0015605305103008832 0 -0.074371087425080473 0.001559860751300363 0 -0.07447454441613334 0.0013817525796789604 0 -0.074564044229127574 0.0015497139646610775 0 -0.074371087425080473 0.001559860751300363 0 -0.074564044229127574 0.0015497139646610775 0 -0.074498804788670381 0.0017166465083478502 0 -0.074330296046407188 0.0018759973964775172 0 -0.074371087425080473 0.001559860751300363 0 -0.074498804788670381 0.0017166465083478502 0 -0.074254007759296872 0.0031368435077553636 0 -0.074962819631553296 0.0032672699302961072 0 -0.073748426107558288 0.0015605305103008832 0 -0.074254007759296872 0.0031368435077553636 0 -0.073549111865807829 0.002347178224426121 0 -0.073748426107558288 0.0015605305103008832 0 -0.074371087425080473 0.001559860751300363 0 -0.073748426107558288 0.0015605305103008832 0 -0.074237307040516287 0.0013461081680856252 0 -0.068845469803620371 0.0066287975568138395 0 -0.069960381835246624 0.00551921077687164 0 -0.073549111865807829 0.002347178224426121 0 -0.073748426107558288 0.0015605305103008832 0 -0.073040425771114553 0.0012635224071047288 0 -0.073748426107558288 0.0015605305103008832 0 -0.074237307040516287 0.0013461081680856252 0 -0.07383552103681755 0.00072639243222437702 0 -0.073748426107558288 0.0015605305103008832 0 -0.07383552103681755 0.00072639243222437702 0 -0.073040425771114553 0.0012635224071047288 0 -0.074237307040516287 0.0013461081680856252 0 -0.07383552103681755 0.00072639243222437702 0 -0.074484514948041508 0.00049640839580739461 0 -0.074237307040516287 0.0013461081680856252 0 -0.074484514948041508 0.00049640839580739461 0 -0.075078372089443485 0.00012560646735635143 0 -0.074237307040516287 0.0013461081680856252 0 -0.07447454441613334 0.0013817525796789604 0 -0.074538841491743876 0.0011536328789006963 0 -0.074354490235944593 0.00093629693723552658 0 -0.074536785547235279 0.00064433705044211233 0 -0.074371087425080473 0.001559860751300363 0 -0.074237307040516287 0.0013461081680856252 0 -0.07447454441613334 0.0013817525796789604 0 -0.074484514948041508 0.00049640839580739461 0 -0.074708449046797437 -8.9843833794505119e-05 0 -0.075078372089443485 0.00012560646735635143 0 -0.074999706000346861 -1.6014209543788539e-07 0 -0.074708449046797437 -8.9843833794505119e-05 0 -0.074999588771766573 7.961942342525557e-08 0 -0.074999706000346861 -1.6014209543788539e-07 0 -0.074708449046797437 -8.9843833794505119e-05 0 -0.075078372089443485 0.00012560646735635143 0 -0.074708449046797437 -8.9843833794505119e-05 0 -0.074999588771766573 7.961942342525557e-08 0 -0.074982145012631771 -9.3196603802612638e-05 0 -0.07383552103681755 0.00072639243222437702 0 -0.074484514948041508 0.00049640839580739461 0 -0.074708449046797437 -8.9843833794505119e-05 0 -0.074118978719735856 2.9165461933201315e-05 0 -0.073936785007547287 8.6692183276593679e-05 0 -0.07383552103681755 0.00072639243222437702 0 -0.074708449046797437 -8.9843833794505119e-05 0 -0.073248471107780391 -5.8310299833281212e-05 0 -0.073248471107780391 -5.8310299833281212e-05 0 -0.072526857039198936 0.00076154992342318528 0 -0.073161520136650088 0.0006776388721854102 0 -0.07383552103681755 0.00072639243222437702 0 -0.073248471107780391 -5.8310299833281212e-05 0 -0.073161520136650088 0.0006776388721854102 0 -0.073248471107780391 -5.8310299833281212e-05 0 -0.072005338720859 0.00021589733365836772 0 -0.072526857039198936 0.00076154992342318528 0 -0.073936785007547287 8.6692183276593679e-05 0 -0.073597426219278228 0.00022332076809387124 0 -0.074999588771766573 7.961942342525557e-08 0 -0.074982145012631771 -9.3196603802612638e-05 0 -0.075000297404534982 -1.032739896257493e-07 0 -0.074982145012631771 -9.3196603802612638e-05 0 -0.075000297404534982 -1.032739896257493e-07 0 -0.075034988345196993 -0.000106134923553949 0 -0.074997611607433901 -1.0461258075905411e-07 0 -0.073597426219278228 0.00022332076809387124 0 -0.075000101667446209 3.1184759720455881e-08 0 -0.075017535113612033 5.5266333951317441e-05 0 -0.074996073104053984 3.2183535867435128e-05 0 -0.073597426219278228 0.00022332076809387124 0 -0.072752153312776055 0.00026497420751796582 0 -0.071757662264787525 -0.00025121618627202993 0 -0.071589454980341069 0.00081816656865053199 0 -0.070539620972852324 0.00015150890380404445 0 -0.071801186984708165 0.0010754518975794982 0 -0.072526857039198936 0.00076154992342318528 0 -0.072317871228007785 0.0014540769576806807 0 -0.073597426219278228 0.00022332076809387124 0 -0.073110737849772733 0.00082029247835123495 0 -0.072005338720859 0.00021589733365836772 0 -0.071801186984708165 0.0010754518975794982 0 -0.072526857039198936 0.00076154992342318528 0 -0.072526857039198936 0.00076154992342318528 0 -0.073161520136650088 0.0006776388721854102 0 -0.073040425771114553 0.0012635224071047288 0 -0.07383552103681755 0.00072639243222437702 0 -0.073161520136650088 0.0006776388721854102 0 -0.073040425771114553 0.0012635224071047288 0 -0.072526857039198936 0.00076154992342318528 0 -0.073040425771114553 0.0012635224071047288 0 -0.072317871228007785 0.0014540769576806807 0 -0.073040425771114553 0.0012635224071047288 0 -0.072317871228007785 0.0014540769576806807 0 -0.072566400539440815 0.0021321641286136048 0 -0.073485036520148761 0.0028474838247004872 0 -0.073040425771114553 0.0012635224071047288 0 -0.072566400539440815 0.0021321641286136048 0 -0.068923842803507274 0.0049286711101974899 0 -0.069702485855725013 0.0035330487139764279 0 -0.07320132318751206 0.0034495742975813185 0 -0.073549111865807829 0.002347178224426121 0 -0.073040425771114553 0.0012635224071047288 0 -0.072013330360220978 0.0025754414970326962 0 -0.072566400539440815 0.0021321641286136048 0 -0.071437335772182683 0.0018969328996966297 0 -0.07132192295076771 0.0027928405241528305 0 -0.071437335772182683 0.0018969328996966297 0 -0.070754253954208937 0.0022905548445271112 0 -0.071589454980341069 0.00081816656865053199 0 -0.071437335772182683 0.0018969328996966297 0 -0.070605077552444467 0.0012158722996549261 0 -0.073110737849772733 0.00082029247835123495 0 -0.072936867612206649 0.0011209264038494556 0 -0.071801186984708165 0.0010754518975794982 0 -0.072317871228007785 0.0014540769576806807 0 -0.071437335772182683 0.0018969328996966297 0 -0.072317871228007785 0.0014540769576806807 0 -0.072566400539440815 0.0021321641286136048 0 -0.071437335772182683 0.0018969328996966297 0 -0.071437335772182683 0.0018969328996966297 0 -0.070754253954208937 0.0022905548445271112 0 -0.070605077552444467 0.0012158722996549261 0 -0.070754253954208937 0.0022905548445271112 0 -0.070037715662889841 0.0020577996459751639 0 -0.070605077552444467 0.0012158722996549261 0 -0.070037715662889841 0.0020577996459751639 0 -0.069350506445278084 0.0005533653162537981 0 -0.070605077552444467 0.0012158722996549261 0 -0.067649157643013019 -0.0014596010456147585 0 -0.067415682737922089 0.0008311285202242338 0 -0.068498265969775818 -0.00062468208348020571 0 -0.067124779943930443 0.00021824755824519104 0 -0.067649157643013019 -0.0014596010456147585 0 -0.067046763096913431 -0.0018435559758902848 0 -0.067649157643013019 -0.0014596010456147585 0 -0.067046763096913431 -0.0018435559758902848 0 -0.068498265969775818 -0.00062468208348020571 0 -0.070792277618065752 0.00071433436464191113 0 -0.071856332967504544 0.00036159035723480322 0 -0.071856332967504544 0.00036159035723480322 0 -0.072752153312776055 0.00026497420751796582 0 -0.069350506445278084 0.0005533653162537981 0 -0.070605077552444467 0.0012158722996549261 0 -0.070539620972852324 0.00015150890380404445 0 -0.071589454980341069 0.00081816656865053199 0 -0.070605077552444467 0.0012158722996549261 0 -0.070539620972852324 0.00015150890380404445 0 -0.075017535113612033 5.5266333951317441e-05 0 -0.07498270856618669 8.3103467651259548e-05 0 -0.074996073104053984 3.2183535867435128e-05 0 -0.07498270856618669 8.3103467651259548e-05 0 -0.074996073104053984 3.2183535867435128e-05 0 -0.074962494018892392 5.8376247354429946e-05 0 -0.074999885769842262 -2.0868195972804042e-09 0 -0.074996073104053984 3.2183535867435128e-05 0 -0.074962494018892392 5.8376247354429946e-05 0 -0.075000101667446209 3.1184759720455881e-08 0 -0.074999885769842262 -2.0868195972804042e-09 0 -0.074996073104053984 3.2183535867435128e-05 0 -0.074999885769842262 -2.0868195972804042e-09 0 -0.074898057669247661 6.5527539647900461e-05 0 -0.074840726818182574 -2.8470098545405598e-08 0 -0.074999885769842262 -2.0868195972804042e-09 0 -0.074962494018892392 5.8376247354429946e-05 0 -0.074898057669247661 6.5527539647900461e-05 0 -0.071856332967504544 0.00036159035723480322 0 -0.072659318850677501 0.00029757902105858957 0 -0.074929583718103113 0.00011147321703908903 0 -0.074962494018892392 5.8376247354429946e-05 0 -0.074898057669247661 6.5527539647900461e-05 0 -0.074929583718103113 0.00011147321703908903 0 -0.07498270856618669 8.3103467651259548e-05 0 -0.074962494018892392 5.8376247354429946e-05 0 -0.073147604078170544 6.3095980237991815e-05 0 -0.073362467242901394 -1.8415827096309287e-05 0 -0.072851046847306117 -5.6758023918591758e-05 0 -0.073362467242901394 -1.8415827096309287e-05 0 -0.074195872048594402 6.8271156119009658e-05 0 -0.073473646632083736 0.00010438093937421726 0 -0.073362467242901394 -1.8415827096309287e-05 0 -0.073473646632083736 0.00010438093937421726 0 -0.072851046847306117 -5.6758023918591758e-05 0 -0.073362467242901394 -1.8415827096309287e-05 0 -0.074195872048594402 6.8271156119009658e-05 0 -0.074837935760817306 6.7714090859605634e-07 0 -0.072659318850677501 0.00029757902105858957 0 -0.072915681526572546 0.00022938181940015362 0 -0.074195872048594402 6.8271156119009658e-05 0 -0.074837935760817306 6.7714090859605634e-07 0 -0.07441070258181022 0.00014658538794200577 0 -0.074999783841728354 2.436624577019395e-07 0 -0.074837935760817306 6.7714090859605634e-07 0 -0.07441070258181022 0.00014658538794200577 0 -0.074195872048594402 6.8271156119009658e-05 0 -0.07441070258181022 0.00014658538794200577 0 -0.073473646632083736 0.00010438093937421726 0 -0.074768850468462544 0.00012068157487241761 0 -0.07441070258181022 0.00014658538794200577 0 -0.073473646632083736 0.00010438093937421726 0 -0.074518368014721573 -0.00072523528052469567 0 -0.073473646632083736 0.00010438093937421726 0 -0.073326801338406591 -0.0011898670546618424 0 -0.073473646632083736 0.00010438093937421726 0 -0.071870345905126101 -7.4618972776518608e-05 0 -0.073326801338406591 -0.0011898670546618424 0 -0.073147604078170544 6.3095980237991815e-05 0 -0.072851046847306117 -5.6758023918591758e-05 0 -0.071870345905126101 -7.4618972776518608e-05 0 -0.071856332967504544 0.00036159035723480322 0 -0.071813253855613518 0.00031748732048724273 0 -0.073473646632083736 0.00010438093937421726 0 -0.072851046847306117 -5.6758023918591758e-05 0 -0.071870345905126101 -7.4618972776518608e-05 0 -0.067415682737922089 0.0008311285202242338 0 -0.068498265969775818 -0.00062468208348020571 0 -0.071870345905126101 -7.4618972776518608e-05 0 -0.068498265969775818 -0.00062468208348020571 0 -0.071870345905126101 -7.4618972776518608e-05 0 -0.072074039544937227 -0.0030177348894005885 0 -0.066082875684119011 0.0008327142446004932 0 -0.065722560602778354 0.0013373295402976076 0 -0.067046763096913431 -0.0018435559758902848 0 -0.068498265969775818 -0.00062468208348020571 0 -0.072074039544937227 -0.0030177348894005885 0 -0.071870345905126101 -7.4618972776518608e-05 0 -0.073326801338406591 -0.0011898670546618424 0 -0.072074039544937227 -0.0030177348894005885 0 -0.074621469159794368 -0.0031492863444966723 0 -0.073326801338406591 -0.0011898670546618424 0 -0.072074039544937227 -0.0030177348894005885 0 -0.058939071036560826 0.0056329730648498316 0 -0.058604485440611725 0.0057001335988547805 0 -0.058824067075167852 0.0054235372690520749 0 -0.058939071036560826 0.0056329730648498316 0 -0.058604485440611725 0.0057001335988547805 0 -0.058760655157816914 0.0059082481092195245 0 -0.058939071036560826 0.0056329730648498316 0 -0.059219209410217549 0.0057420086420585451 0 -0.059020167609257768 0.0058820668760831678 0 -0.058604485440611725 0.0057001335988547805 0 -0.05854667300019202 0.005438301703100148 0 -0.05840012334473501 0.0056306607996500866 0 -0.058604485440611725 0.0057001335988547805 0 -0.05854667300019202 0.005438301703100148 0 -0.058824067075167852 0.0054235372690520749 0 -0.05854667300019202 0.005438301703100148 0 -0.058824067075167852 0.0054235372690520749 0 -0.058819979180692081 0.0051049915378600912 0 -0.05854667300019202 0.005438301703100148 0 -0.058819979180692081 0.0051049915378600912 0 -0.058611386960355831 0.0049956386223941329 0 -0.058939071036560826 0.0056329730648498316 0 -0.058824067075167852 0.0054235372690520749 0 -0.059106835270998984 0.0053079375518086894 0 -0.058824067075167852 0.0054235372690520749 0 -0.059106835270998984 0.0053079375518086894 0 -0.058819979180692081 0.0051049915378600912 0 -0.061351629668818186 0.0029336431503090943 0 -0.062023155468550049 0.0030190895033376211 0 -0.064272496619369832 0.0017910527878687531 0 -0.064314590996437923 0.0015434160434467849 0 -0.064524006040078449 0.0020210786750396357 0 -0.058829981128133965 0.0045989442019623251 0 -0.058643640712767391 0.0044025703171577382 0 -0.058785019007007812 0.0047201112758551182 0 -0.058497780086633179 0.0043470326758007875 0 -0.058643640712767391 0.0044025703171577382 0 -0.058785019007007812 0.0047201112758551182 0 -0.064319017149012392 0.0019867625897128371 0 -0.064272496619369832 0.0017910527878687531 0 -0.064524006040078449 0.0020210786750396357 0 -0.067809549402011338 0.0021245967929844887 0 -0.066186833986417601 0.0023600842348111242 0 -0.060440486967014644 0.0061491440205519469 0 -0.060600837258239587 0.005768616108201524 0 -0.061388139701830609 0.0067872758882598517 0 -0.064319017149012392 0.0019867625897128371 0 -0.064272496619369832 0.0017910527878687531 0 -0.064036402659874092 0.001778966836046557 0 -0.063812859535174779 0.0027413759426273758 0 -0.066186833986417601 0.0023600842348111242 0 -0.064272496619369832 0.0017910527878687531 0 -0.064165204629122202 0.0016248245036906154 0 -0.064036402659874092 0.001778966836046557 0 -0.064272496619369832 0.0017910527878687531 0 -0.064165204629122202 0.0016248245036906154 0 -0.064314590996437923 0.0015434160434467849 0 -0.064165204629122202 0.0016248245036906154 0 -0.064314590996437923 0.0015434160434467849 0 -0.064163643936213571 0.0014396499129165042 0 -0.064165204629122202 0.0016248245036906154 0 -0.064163643936213571 0.0014396499129165042 0 -0.064031620261017219 0.0015007492314124246 0 -0.057846771967282488 0.0050192583424338031 0 -0.056970158433440263 0.0045537503333964403 0 -0.058939071036560826 0.0056329730648498316 0 -0.059106835270998984 0.0053079375518086894 0 -0.059219209410217549 0.0057420086420585451 0 -0.058829981128133965 0.0045989442019623251 0 -0.058643640712767391 0.0044025703171577382 0 -0.058655998502798193 0.0042569673531391685 0 -0.058497780086633179 0.0043470326758007875 0 -0.058643640712767391 0.0044025703171577382 0 -0.05857191372049126 0.0043220872693129526 0 -0.057038091219975294 0.0045025843011917109 0 -0.056970158433440263 0.0045537503333964403 0 -0.056970158433440263 0.0045537503333964403 0 -0.055011928971793293 0.0047677127708392426 0 -0.057722386144665863 0.0030309051754823404 0 -0.057590418364826125 0.0036545094263484043 0 -0.057977260312892062 0.0039023759845036132 0 -0.059219209410217549 0.0057420086420585451 0 -0.059159270200070183 0.0061030089838079171 0 -0.059020167609257768 0.0058820668760831678 0 -0.05857191372049126 0.0043220872693129526 0 -0.058483874888408609 0.0043274521151717479 0 -0.058392257027400522 0.0043560854172260115 0 -0.056970158433440263 0.0045537503333964403 0 -0.057523097749593979 0.0044711633213122643 0 -0.058497780086633179 0.0043470326758007875 0 -0.05857191372049126 0.0043220872693129526 0 -0.058483874888408609 0.0043274521151717479 0 -0.064314590996437923 0.0015434160434467849 0 -0.064163643936213571 0.0014396499129165042 0 -0.064132817907296455 0.0010418100653976339 0 -0.058497780086633179 0.0043470326758007875 0 -0.058483874888408609 0.0043274521151717479 0 -0.058524793971318469 0.0043209152650432918 0 -0.061351629668818186 0.0029336431503090943 0 -0.060522715066206947 0.0026194652743773703 0 -0.064163643936213571 0.0014396499129165042 0 -0.064132817907296455 0.0010418100653976339 0 -0.064074644420123519 0.0013340224503936939 0 -0.058483874888408609 0.0043274521151717479 0 -0.058463184875060741 0.0043562859769111003 0 -0.058524793971318469 0.0043209152650432918 0 -0.058483874888408609 0.0043274521151717479 0 -0.058463184875060741 0.0043562859769111003 0 -0.058392257027400522 0.0043560854172260115 0 -0.058463184875060741 0.0043562859769111003 0 -0.058447996426507207 0.0044214470307535093 0 -0.058392257027400522 0.0043560854172260115 0 -0.058427594028905246 0.0045414392051042422 0 -0.058447996426507207 0.0044214470307535093 0 -0.058392257027400522 0.0043560854172260115 0 -0.058518093835958768 0.0045064003898268234 0 -0.058463184875060741 0.0043562859769111003 0 -0.058524793971318469 0.0043209152650432918 0 -0.058518093835958768 0.0045064003898268234 0 -0.058463184875060741 0.0043562859769111003 0 -0.058447996426507207 0.0044214470307535093 0 -0.058518093835958768 0.0045064003898268234 0 -0.058427594028905246 0.0045414392051042422 0 -0.058447996426507207 0.0044214470307535093 0 -0.057436768121464407 0.0043014337882301013 0 -0.057590418364826125 0.0036545094263484043 0 -0.057762096631849932 0.0040196359095012188 0 -0.052027113765223405 0.005502629754890436 0 -0.055011928971793293 0.0047677127708392426 0 -0.057590418364826125 0.0036545094263484043 0 -0.057977260312892062 0.0039023759845036132 0 -0.057762096631849932 0.0040196359095012188 0 -0.057733998191659239 0.0042415376075057238 0 -0.057977260312892062 0.0039023759845036132 0 -0.057762096631849932 0.0040196359095012188 0 -0.057445632697652765 0.0042948808273036466 0 -0.057733998191659239 0.0042415376075057238 0 -0.057762096631849932 0.0040196359095012188 0 -0.052027113765223405 0.005502629754890436 0 -0.052820352718181571 0.0049825478620656371 0 -0.058903017693413225 0.0062252484932705026 0 -0.058760655157816914 0.0059082481092195245 0 -0.058575474227237592 0.0062743962496672146 0 -0.058750140821666262 0.0065240251232808284 0 -0.059104738164258909 0.0065475825301528632 0 -0.058903017693413225 0.0062252484932705026 0 -0.059104738164258909 0.0065475825301528632 0 -0.059159270200070183 0.0061030089838079171 0 -0.058903017693413225 0.0062252484932705026 0 -0.058750140821666262 0.0065240251232808284 0 -0.058903017693413225 0.0062252484932705026 0 -0.058575474227237592 0.0062743962496672146 0 -0.058903017693413225 0.0062252484932705026 0 -0.058760655157816914 0.0059082481092195245 0 -0.059020167609257768 0.0058820668760831678 0 -0.059159270200070183 0.0061030089838079171 0 -0.058903017693413225 0.0062252484932705026 0 -0.059020167609257768 0.0058820668760831678 0 -0.058939071036560826 0.0056329730648498316 0 -0.058760655157816914 0.0059082481092195245 0 -0.059020167609257768 0.0058820668760831678 0 -0.058760655157816914 0.0059082481092195245 0 -0.058483222164143187 0.0059569206336399713 0 -0.058575474227237592 0.0062743962496672146 0 -0.058604485440611725 0.0057001335988547805 0 -0.058483222164143187 0.0059569206336399713 0 -0.05841147416741467 0.0057884790385054601 0 -0.058604485440611725 0.0057001335988547805 0 -0.058760655157816914 0.0059082481092195245 0 -0.058483222164143187 0.0059569206336399713 0 -0.058364906225935757 0.0066945888397290229 0 -0.058575474227237592 0.0062743962496672146 0 -0.058044940429677123 0.0063452723418260465 0 -0.058575474227237592 0.0062743962496672146 0 -0.058044940429677123 0.0063452723418260465 0 -0.057790435585767866 0.0058969502510830395 0 -0.048118161849317179 0.014905763586520713 0 -0.055032161012197274 0.0080905639499713085 0 -0.058483222164143187 0.0059569206336399713 0 -0.058575474227237592 0.0062743962496672146 0 -0.058271504006870756 0.0059961547512059456 0 -0.056489320141691599 0.0080604691387702564 0 -0.055032161012197274 0.0080905639499713085 0 -0.057676621584172805 0.0067068168079752535 0 -0.058044940429677123 0.0063452723418260465 0 -0.057790435585767866 0.0058969502510830395 0 -0.05363622501999793 0.0077217228028374661 0 -0.053220017946913813 0.010631368123853973 0 -0.05624500648314551 0.01030843576443998 0 -0.048118161849317179 0.014905763586520713 0 -0.051447204297077886 0.015512174161526757 0 -0.0346033496048345 0.030013724031753793 0 -0.030182614408406624 0.029110561907533871 0 -0.034190612845069426 0.033018379440408627 0 -0.053220017946913813 0.010631368123853973 0 -0.05624500648314551 0.01030843576443998 0 -0.056244420472420127 0.010939151345342568 0 -0.055032161012197274 0.0080905639499713085 0 -0.057840771502458505 0.0082175295753180513 0 -0.053220017946913813 0.010631368123853973 0 -0.056244420472420127 0.010939151345342568 0 -0.05573824919825441 0.01187603041901881 0 -0.058194343911977253 0.005809491969624987 0 -0.058287735983211658 0.0059537639985969672 0 -0.058065182036005136 0.0058261550519199167 0 -0.058194343911977253 0.005809491969624987 0 -0.058297681634022963 0.0058867344315752992 0 -0.058302402267178338 0.00575616582397891 0 -0.058297681634022963 0.0058867344315752992 0 -0.05841147416741467 0.0057884790385054601 0 -0.058302402267178338 0.00575616582397891 0 -0.058483222164143187 0.0059569206336399713 0 -0.058297681634022963 0.0058867344315752992 0 -0.05841147416741467 0.0057884790385054601 0 -0.058483222164143187 0.0059569206336399713 0 -0.058297681634022963 0.0058867344315752992 0 -0.058271504006870756 0.0059961547512059456 0 -0.058194343911977253 0.005809491969624987 0 -0.058297681634022963 0.0058867344315752992 0 -0.058287735983211658 0.0059537639985969672 0 -0.055097174615470076 0.0079468762797788219 0 -0.055032161012197274 0.0080905639499713085 0 -0.037719210331317012 0.029726978212806201 0 -0.039842333126571296 0.031670349614769354 0 -0.037652423274080284 0.033079410221364229 0 -0.0346033496048345 0.030013724031753793 0 -0.037719210331317012 0.029726978212806201 0 -0.037652423274080284 0.033079410221364229 0 -0.0346033496048345 0.030013724031753793 0 -0.037652423274080284 0.033079410221364229 0 -0.034190612845069426 0.033018379440408627 0 -0.056244420472420127 0.010939151345342568 0 -0.05573824919825441 0.01187603041901881 0 -0.058257012078973387 0.013096982386049378 0 -0.05624500648314551 0.01030843576443998 0 -0.056244420472420127 0.010939151345342568 0 -0.058922587899302728 0.01295399168929748 0 -0.060736668223863373 0.0088640265378745996 0 -0.062047382296515574 0.0085526946681539102 0 -0.04031360234924658 0.034168660453325075 0 -0.037652423274080284 0.033079410221364229 0 -0.038143988571569989 0.036856295520828794 0 -0.051447204297077886 0.015512174161526757 0 -0.059883509554733171 0.011233605095338465 0 -0.037652423274080284 0.033079410221364229 0 -0.034190612845069426 0.033018379440408627 0 -0.038143988571569989 0.036856295520828794 0 -0.056244420472420127 0.010939151345342568 0 -0.058922587899302728 0.01295399168929748 0 -0.058309257547719096 0.013164535124621667 0 -0.06437861931939555 0.010874285174011558 0 -0.059278138462054014 0.0057208265772269399 0 -0.057371378083723494 0.0080827525578478984 0 -0.064997520908532849 0.010089928187305747 0 -0.059883509554733171 0.011233605095338465 0 -0.064997520908532849 0.010089928187305747 0 -0.063025743400753328 0.0085670775301853568 0 -0.058922587899302728 0.01295399168929748 0 -0.058309257547719096 0.013164535124621667 0 -0.058547373838835175 0.013423963787224696 0 -0.059883509554733171 0.011233605095338465 0 -0.063025743400753328 0.0085670775301853568 0 -0.062047382296515574 0.0085526946681539102 0 -0.063025743400753328 0.0085670775301853568 0 -0.057591638939601342 0.0056680499476780173 0 -0.057517984598632388 0.0056042266457926098 0 -0.057898087854491263 0.0056083061994683442 0 -0.057840771502458505 0.0082175295753180513 0 -0.062047382296515574 0.0085526946681539102 0 -0.057517984598632388 0.0056042266457926098 0 -0.057898087854491263 0.0056083061994683442 0 -0.057929829025230528 0.0049151612350234108 0 -0.058065182036005136 0.0058261550519199167 0 -0.057591638939601342 0.0056680499476780173 0 -0.057898087854491263 0.0056083061994683442 0 -0.057898087854491263 0.0056083061994683442 0 -0.058100018770342494 0.0056458896039909895 0 -0.058143211275079341 0.0053907598917755251 0 -0.058065182036005136 0.0058261550519199167 0 -0.057898087854491263 0.0056083061994683442 0 -0.058100018770342494 0.0056458896039909895 0 -0.057929829025230528 0.0049151612350234108 0 -0.058799332782284594 0.0049264232260563205 0 -0.058584710806231413 0.0040605505862498868 0 -0.057898087854491263 0.0056083061994683442 0 -0.057929829025230528 0.0049151612350234108 0 -0.058799332782284594 0.0049264232260563205 0 -0.059453998327120165 0.0058238759744221246 0 -0.060269238895084815 0.0054409099961803681 0 -0.074568722900771739 0.0021293527497856825 0 -0.074770103063458368 0.0018791839045648978 0 -0.074559538953653956 0.0018757710503756232 0 -0.063025743400753328 0.0085670775301853568 0 -0.065496688155718324 0.0047836183425589568 0 -0.074330296046407188 0.0018759973964775172 0 -0.074568722900771739 0.0021293527497856825 0 -0.074559538953653956 0.0018757710503756232 0 -0.074770103063458368 0.0018791839045648978 0 -0.074559538953653956 0.0018757710503756232 0 -0.074645483123663009 0.0017248798873753287 0 -0.074559538953653956 0.0018757710503756232 0 -0.074498804788670381 0.0017166465083478502 0 -0.074645483123663009 0.0017248798873753287 0 -0.05840012334473501 0.0056306607996500866 0 -0.058237672499734106 0.0056178966623923821 0 -0.058335768802466964 0.0054447308670998807 0 -0.05854667300019202 0.005438301703100148 0 -0.05840012334473501 0.0056306607996500866 0 -0.058335768802466964 0.0054447308670998807 0 -0.058604485440611725 0.0057001335988547805 0 -0.05841147416741467 0.0057884790385054601 0 -0.05840012334473501 0.0056306607996500866 0 -0.05841147416741467 0.0057884790385054601 0 -0.05840012334473501 0.0056306607996500866 0 -0.058302402267178338 0.00575616582397891 0 -0.05840012334473501 0.0056306607996500866 0 -0.058302402267178338 0.00575616582397891 0 -0.058237672499734106 0.0056178966623923821 0 -0.058100018770342494 0.0056458896039909895 0 -0.058237672499734106 0.0056178966623923821 0 -0.058143211275079341 0.0053907598917755251 0 -0.058194343911977253 0.005809491969624987 0 -0.058100018770342494 0.0056458896039909895 0 -0.058237672499734106 0.0056178966623923821 0 -0.058194343911977253 0.005809491969624987 0 -0.058302402267178338 0.00575616582397891 0 -0.058237672499734106 0.0056178966623923821 0 -0.058194343911977253 0.005809491969624987 0 -0.058065182036005136 0.0058261550519199167 0 -0.058100018770342494 0.0056458896039909895 0 -0.058237672499734106 0.0056178966623923821 0 -0.058143211275079341 0.0053907598917755251 0 -0.058335768802466964 0.0054447308670998807 0 -0.062263544849429885 0.0037668015714994669 0 -0.063433622461385522 0.0037761826937231313 0 -0.058143211275079341 0.0053907598917755251 0 -0.058335768802466964 0.0054447308670998807 0 -0.058389262717253428 0.0051586467077090808 0 -0.05854667300019202 0.005438301703100148 0 -0.058335768802466964 0.0054447308670998807 0 -0.058389262717253428 0.0051586467077090808 0 -0.063433622461385522 0.0037761826937231313 0 -0.064737350249306228 0.0032721580767496867 0 -0.059760161257723855 0.0040738349840707937 0 -0.058584710806231413 0.0040605505862498868 0 -0.059295825919566073 0.0031859058137859273 0 -0.060269238895084815 0.0054409099961803681 0 -0.063433622461385522 0.0037761826937231313 0 -0.058799332782284594 0.0049264232260563205 0 -0.059760161257723855 0.0040738349840707937 0 -0.058584710806231413 0.0040605505862498868 0 -0.074948215433365384 0.0016134354371269378 0 -0.074943304294336488 0.001315779297269049 0 -0.075112397707250173 0.0013802367675860377 0 -0.066301665608954646 0.0031742486802084358 0 -0.066492139726417127 0.002242528867609049 0 -0.074943304294336488 0.001315779297269049 0 -0.075112397707250173 0.0013802367675860377 0 -0.074998727101119073 0.0011649746680650116 0 -0.065822899321818215 0.0025061956149604551 0 -0.065568403075051518 0.0020232853658459526 0 -0.066247598182005971 0.0021117953893281939 0 -0.065568403075051518 0.0020232853658459526 0 -0.065885937465328531 0.0016312163682417936 0 -0.066247598182005971 0.0021117953893281939 0 -0.066492139726417127 0.002242528867609049 0 -0.068229598230872643 0.0014632422634931841 0 -0.063433622461385522 0.0037761826937231313 0 -0.066492139726417127 0.002242528867609049 0 -0.074564044229127574 0.0015497139646610775 0 -0.074498804788670381 0.0017166465083478502 0 -0.074645483123663009 0.0017248798873753287 0 -0.074564044229127574 0.0015497139646610775 0 -0.074645483123663009 0.0017248798873753287 0 -0.074766079124029036 0.0015690235806903991 0 -0.065496688155718324 0.0047836183425589568 0 -0.066301665608954646 0.0031742486802084358 0 -0.074770103063458368 0.0018791839045648978 0 -0.074948215433365384 0.0016134354371269378 0 -0.074766079124029036 0.0015690235806903991 0 -0.074770103063458368 0.0018791839045648978 0 -0.074645483123663009 0.0017248798873753287 0 -0.074766079124029036 0.0015690235806903991 0 -0.074948215433365384 0.0016134354371269378 0 -0.074766079124029036 0.0015690235806903991 0 -0.074802003244339069 0.0013812523621726403 0 -0.074948215433365384 0.0016134354371269378 0 -0.074943304294336488 0.001315779297269049 0 -0.074802003244339069 0.0013812523621726403 0 -0.074943304294336488 0.001315779297269049 0 -0.074802003244339069 0.0013812523621726403 0 -0.074846498319639285 0.0012471881174786164 0 -0.074802003244339069 0.0013812523621726403 0 -0.074641121235912836 0.0013595885871322425 0 -0.074740331229049287 0.0011995190961735286 0 -0.074766079124029036 0.0015690235806903991 0 -0.074802003244339069 0.0013812523621726403 0 -0.074641121235912836 0.0013595885871322425 0 -0.07447454441613334 0.0013817525796789604 0 -0.074641121235912836 0.0013595885871322425 0 -0.074538841491743876 0.0011536328789006963 0 -0.074564044229127574 0.0015497139646610775 0 -0.074766079124029036 0.0015690235806903991 0 -0.074641121235912836 0.0013595885871322425 0 -0.07447454441613334 0.0013817525796789604 0 -0.074564044229127574 0.0015497139646610775 0 -0.074641121235912836 0.0013595885871322425 0 -0.074538841491743876 0.0011536328789006963 0 -0.074740331229049287 0.0011995190961735286 0 -0.07481013535442918 0.0010340923859921548 0 -0.074641121235912836 0.0013595885871322425 0 -0.074538841491743876 0.0011536328789006963 0 -0.074740331229049287 0.0011995190961735286 0 -0.074740331229049287 0.0011995190961735286 0 -0.074827561686733171 0.0011582152694901255 0 -0.07481013535442918 0.0010340923859921548 0 -0.074802003244339069 0.0013812523621726403 0 -0.074740331229049287 0.0011995190961735286 0 -0.074846498319639285 0.0012471881174786164 0 -0.074943304294336488 0.001315779297269049 0 -0.074846498319639285 0.0012471881174786164 0 -0.074913422367403559 0.0011546478372756398 0 -0.074740331229049287 0.0011995190961735286 0 -0.074846498319639285 0.0012471881174786164 0 -0.074827561686733171 0.0011582152694901255 0 -0.074846498319639285 0.0012471881174786164 0 -0.074827561686733171 0.0011582152694901255 0 -0.074913422367403559 0.0011546478372756398 0 -0.074827561686733171 0.0011582152694901255 0 -0.07481013535442918 0.0010340923859921548 0 -0.074913422367403559 0.0011546478372756398 0 -0.07481013535442918 0.0010340923859921548 0 -0.074913422367403559 0.0011546478372756398 0 -0.074991849896118706 0.0011638406255595906 0 -0.074538841491743876 0.0011536328789006963 0 -0.07481013535442918 0.0010340923859921548 0 -0.074796069325152356 0.00087652112437747751 0 -0.07481013535442918 0.0010340923859921548 0 -0.074841364597088664 0.00087891832057221582 0 -0.074991849896118706 0.0011638406255595906 0 -0.07481013535442918 0.0010340923859921548 0 -0.074841364597088664 0.00087891832057221582 0 -0.074796069325152356 0.00087652112437747751 0 -0.074999916321796492 -1.5640049898006154e-07 0 -0.075052552214624799 9.8132576994897853e-05 0 -0.07479277713974046 1.5645986177606359e-07 0 -0.074644712003085908 0.00021866111962424176 0 -0.074636750736686866 0.0002427762528229401 0 -0.074990190195418194 5.6499031650464109e-06 0 -0.074644712003085908 0.00021866111962424176 0 -0.074999706000346861 -1.6014209543788539e-07 0 -0.075078372089443485 0.00012560646735635143 0 -0.074793123212983204 1.4496895822105123e-07 0 -0.074536785547235279 0.00064433705044211233 0 -0.074636750736686866 0.0002427762528229401 0 -0.07122092646002133 0.0004705499588930939 0 -0.071886556976621593 0.00054577092791492339 0 -0.071486917453314133 0.00082206806450063185 0 -0.068229598230872643 0.0014632422634931841 0 -0.070327815756850626 0.0017941792781488125 0 -0.071084319261863038 0.00063936368632335188 0 -0.071486917453314133 0.00082206806450063185 0 -0.071065112679766493 0.00093328036825762609 0 -0.071084319261863038 0.00063936368632335188 0 -0.07122092646002133 0.0004705499588930939 0 -0.071486917453314133 0.00082206806450063185 0 -0.068340063345915636 0.001366673773011856 0 -0.068229598230872643 0.0014632422634931841 0 -0.066492139726417127 0.002242528867609049 0 -0.070327815756850626 0.0017941792781488125 0 -0.06780328722465026 0.0012270694539130546 0 -0.067848379101429032 0.0011710233403614289 0 -0.067773132280008155 0.0011638908871169766 0 -0.074943304294336488 0.001315779297269049 0 -0.074913422367403559 0.0011546478372756398 0 -0.074998727101119073 0.0011649746680650116 0 -0.070586435470105527 0.0018064523403564989 0 -0.070327815756850626 0.0017941792781488125 0 -0.072302240052718167 0.0013066386535886944 0 -0.071482183652242348 0.001261000075938062 0 -0.071486917453314133 0.00082206806450063185 0 -0.074999999225167535 8.1191752350402645e-10 0 -0.074999916710365946 1.4611541065393023e-07 0 -0.074999998136931131 1.2091858489229955e-09 0 -0.074644712003085908 0.00021866111962424176 0 -0.073740175250976994 0.00015050406686701871 0 -0.074999916710365946 1.4611541065393023e-07 0 -0.074999998136931131 1.2091858489229955e-09 0 -0.074999763838615466 1.1791951086112817e-07 0 -0.072302240052718167 0.0013066386535886944 0 -0.071886556976621593 0.00054577092791492339 0 -0.071486917453314133 0.00082206806450063185 0 -0.074644712003085908 0.00021866111962424176 0 -0.070327815756850626 0.0017941792781488125 0 -0.074999998136931131 1.2091858489229955e-09 0 -0.074999763838615466 1.1791951086112817e-07 0 -0.074999998053857153 -2.776580224612927e-09 0 -0.073740175250976994 0.00015050406686701871 0 -0.073948327604866623 -8.4501946601373712e-05 0 -0.071482183652242348 0.001261000075938062 0 -0.071065112679766493 0.00093328036825762609 0 -0.070665014411105675 0.0012137179808271916 0 -0.071482183652242348 0.001261000075938062 0 -0.071486917453314133 0.00082206806450063185 0 -0.071065112679766493 0.00093328036825762609 0 -0.074999763838615466 1.1791951086112817e-07 0 -0.074999998053857153 -2.776580224612927e-09 0 -0.074999592337761406 -4.3435078591037456e-07 0 -0.070665014411105675 0.0012137179808271916 0 -0.07007414491290713 0.0005571451517126844 0 -0.070607467511229607 0.00072970030187906429 0 -0.07499297197691307 1.7679319994669476e-06 0 -0.073948327604866623 -8.4501946601373712e-05 0 -0.075000260864084928 4.1621690924937228e-08 0 -0.074999721886119669 -4.2978617329398293e-08 0 -0.074969014599800834 -0.00015414946910361142 0 -0.071065112679766493 0.00093328036825762609 0 -0.070665014411105675 0.0012137179808271916 0 -0.070607467511229607 0.00072970030187906429 0 -0.074999721886119669 -4.2978617329398293e-08 0 -0.074969014599800834 -0.00015414946910361142 0 -0.073931432922093726 -0.00054155645968932556 0 -0.074969014599800834 -0.00015414946910361142 0 -0.074298381935053004 -0.00088494899405370522 0 -0.073931432922093726 -0.00054155645968932556 0 -0.074998356778722228 5.4005243945964706e-07 0 -0.072701934628522535 -0.00026905610200622507 0 -0.074999997561859572 3.5897759275290244e-09 0 -0.074997921445714863 -5.9027366162860882e-07 0 -0.074999996770290289 -3.1509675286997195e-09 0 -0.073948327604866623 -8.4501946601373712e-05 0 -0.070694456324139163 0.00036249060614580481 0 -0.070694456324139163 0.00036249060614580481 0 -0.072701934628522535 -0.00026905610200622507 0 -0.07007414491290713 0.0005571451517126844 0 -0.070287018553040717 0.00035973229521832513 0 -0.070607467511229607 0.00072970030187906429 0 -0.070694456324139163 0.00036249060614580481 0 -0.068254769106561697 0.0013295233701177728 0 -0.070556865021565163 0.0016933267852309157 0 -0.071708687752946157 0.00062488761200860999 0 -0.069361710058285772 0.00035542109838509995 0 -0.058903804430448715 0.0044339752693564292 0 -0.059064752974399108 0.0046363904258481222 0 -0.05939810140588115 0.0043932376174494348 0 -0.068254769106561697 0.0013295233701177728 0 -0.069751289766842028 0.00048792380154163506 0 -0.070694456324139163 0.00036249060614580481 0 -0.069751289766842028 0.00048792380154163506 0 -0.071829643805379539 -0.00012553180010393055 0 -0.072022815960249037 9.0108157219662973e-05 0 -0.072071512478881036 -0.00012559575775348181 0 -0.071084319261863038 0.00063936368632335188 0 -0.071220023231872279 0.00047027883181439809 0 -0.070287018553040717 0.00035973229521832513 0 -0.071084319261863038 0.00063936368632335188 0 -0.070287018553040717 0.00035973229521832513 0 -0.070607467511229607 0.00072970030187906429 0 -0.068229598230872643 0.0014632422634931841 0 -0.068254769106561697 0.0013295233701177728 0 -0.071084319261863038 0.00063936368632335188 0 -0.071065112679766493 0.00093328036825762609 0 -0.070607467511229607 0.00072970030187906429 0 -0.065885937465328531 0.0016312163682417936 0 -0.066672531546593361 0.0017168608632731541 0 -0.066247598182005971 0.0021117953893281939 0 -0.058612653446227833 0.0047256309971363758 0 -0.058836552933234261 0.0047605657912278068 0 -0.058611386960355831 0.0049956386223941329 0 -0.058903804430448715 0.0044339752693564292 0 -0.058612653446227833 0.0047256309971363758 0 -0.058836552933234261 0.0047605657912278068 0 -0.068254769106561697 0.0013295233701177728 0 -0.064737350249306228 0.0032721580767496867 0 -0.061930613838240799 0.0032304867299148532 0 -0.062297802943600621 0.0029551199905084573 0 -0.059064752974399108 0.0046363904258481222 0 -0.058976067556833899 0.004829949076487438 0 -0.058900320112539643 0.004823333664563936 0 -0.059064752974399108 0.0046363904258481222 0 -0.059496533527693178 0.0055203750333601247 0 -0.059451311435255873 0.004821216950330747 0 -0.058903804430448715 0.0044339752693564292 0 -0.059064752974399108 0.0046363904258481222 0 -0.058836552933234261 0.0047605657912278068 0 -0.059064752974399108 0.0046363904258481222 0 -0.059451311435255873 0.004821216950330747 0 -0.05939810140588115 0.0043932376174494348 0 -0.059064752974399108 0.0046363904258481222 0 -0.058836552933234261 0.0047605657912278068 0 -0.058976067556833899 0.004829949076487438 0 -0.057846771967282488 0.0050192583424338031 0 -0.058076882334611911 0.0050571107809854413 0 -0.058836552933234261 0.0047605657912278068 0 -0.058976067556833899 0.004829949076487438 0 -0.058819979180692081 0.0051049915378600912 0 -0.059106835270998984 0.0053079375518086894 0 -0.058976067556833899 0.004829949076487438 0 -0.058819979180692081 0.0051049915378600912 0 -0.058836552933234261 0.0047605657912278068 0 -0.058819979180692081 0.0051049915378600912 0 -0.058611386960355831 0.0049956386223941329 0 -0.05854667300019202 0.005438301703100148 0 -0.058324424723810796 0.0049851261316041758 0 -0.058611386960355831 0.0049956386223941329 0 -0.058324424723810796 0.0049851261316041758 0 -0.058612653446227833 0.0047256309971363758 0 -0.058611386960355831 0.0049956386223941329 0 -0.074143223856771745 -4.2189493525412683e-06 0 -0.074302884215566495 -0.00018303671445238652 0 -0.074422230054820931 -5.6972613363382142e-05 0 -0.074143223856771745 -4.2189493525412683e-06 0 -0.073983068190300233 -0.0001994957395162494 0 -0.07413967816839899 -0.00019152800214888215 0 -0.074143223856771745 -4.2189493525412683e-06 0 -0.07413967816839899 -0.00019152800214888215 0 -0.074302884215566495 -0.00018303671445238652 0 -0.060440486967014644 0.0061491440205519469 0 -0.060600837258239587 0.005768616108201524 0 -0.059496533527693178 0.0055203750333601247 0 -0.058829981128133965 0.0045989442019623251 0 -0.058976067556833899 0.004829949076487438 0 -0.058785019007007812 0.0047201112758551182 0 -0.060600837258239587 0.005768616108201524 0 -0.059496533527693178 0.0055203750333601247 0 -0.059823438222873365 0.0047768763785621428 0 -0.063812859535174779 0.0027413759426273758 0 -0.062297802943600621 0.0029551199905084573 0 -0.064319017149012392 0.0019867625897128371 0 -0.064524006040078449 0.0020210786750396357 0 -0.06460081648187109 0.0021940694056044137 0 -0.062023155468550049 0.0030190895033376211 0 -0.062297802943600621 0.0029551199905084573 0 -0.058976067556833899 0.004829949076487438 0 -0.058785019007007812 0.0047201112758551182 0 -0.058900320112539643 0.004823333664563936 0 -0.067809549402011338 0.0021245967929844887 0 -0.069243945007832625 0.0010233477053534601 0 -0.073887929427426294 -0.00029315796714641552 0 -0.074128051679142631 -0.00039038299252952151 0 -0.073753629404295362 -0.00043690833778767702 0 -0.074143223856771745 -4.2189493525412683e-06 0 -0.073983068190300233 -0.0001994957395162494 0 -0.073886845844788607 -0.00028281666322871085 0 -0.069441560613122011 0.0010993678521368795 0 -0.069243945007832625 0.0010233477053534601 0 -0.059496533527693178 0.0055203750333601247 0 -0.059451311435255873 0.004821216950330747 0 -0.059823438222873365 0.0047768763785621428 0 -0.069243945007832625 0.0010233477053534601 0 -0.069751289766842028 0.00048792380154163506 0 -0.059451311435255873 0.004821216950330747 0 -0.059823438222873365 0.0047768763785621428 0 -0.05939810140588115 0.0043932376174494348 0 -0.073983068190300233 -0.0001994957395162494 0 -0.073887929427426294 -0.00029315796714641552 0 -0.074128051679142631 -0.00039038299252952151 0 -0.073983068190300233 -0.0001994957395162494 0 -0.074128051679142631 -0.00039038299252952151 0 -0.07413967816839899 -0.00019152800214888215 0 -0.074128051679142631 -0.00039038299252952151 0 -0.07413967816839899 -0.00019152800214888215 0 -0.074302884215566495 -0.00018303671445238652 0 -0.072661879960804074 0.00016186188858387563 0 -0.072708755285004423 -8.1469890698310235e-05 0 -0.073306978483207733 0.00023338786781566381 0 -0.072661879960804074 0.00016186188858387563 0 -0.072708755285004423 -8.1469890698310235e-05 0 -0.072316951197622631 -7.4590709178143458e-05 0 -0.074998363856433242 -6.1769557977316924e-06 0 -0.074998809273369493 -1.6785074777127173e-06 0 -0.074994549818841141 -4.1663868226187502e-06 0 -0.072708755285004423 -8.1469890698310235e-05 0 -0.072316951197622631 -7.4590709178143458e-05 0 -0.072117329333405658 -0.00039232006561470853 0 -0.073488308586893869 6.4879262967997787e-05 0 -0.072701934628522535 -0.00026905610200622507 0 -0.072661879960804074 0.00016186188858387563 0 -0.072022815960249037 9.0108157219662973e-05 0 -0.072316951197622631 -7.4590709178143458e-05 0 -0.074998363856433242 -6.1769557977316924e-06 0 -0.074998175826694519 -1.615173477791633e-06 0 -0.074998585418761421 -9.3667998478384767e-07 0 -0.072486778174667421 0.00035032091420523045 0 -0.069751289766842028 0.00048792380154163506 0 -0.072022815960249037 9.0108157219662973e-05 0 -0.072316951197622631 -7.4590709178143458e-05 0 -0.072071512478881036 -0.00012559575775348181 0 -0.072316951197622631 -7.4590709178143458e-05 0 -0.072071512478881036 -0.00012559575775348181 0 -0.072117329333405658 -0.00039232006561470853 0 -0.071829643805379539 -0.00012553180010393055 0 -0.072071512478881036 -0.00012559575775348181 0 -0.072117329333405658 -0.00039232006561470853 0 -0.074997921445714863 -5.9027366162860882e-07 0 -0.074998585418761421 -9.3667998478384767e-07 0 -0.074999996770290289 -3.1509675286997195e-09 0 -0.072701934628522535 -0.00026905610200622507 0 -0.072755364672890011 -0.00029536887232041339 0 -0.074998585418761421 -9.3667998478384767e-07 0 -0.074999996770290289 -3.1509675286997195e-09 0 -0.074998809273369493 -1.6785074777127173e-06 0 -0.074998809273369493 -1.6785074777127173e-06 0 -0.074999994514673443 3.7142766688554849e-11 0 -0.074994549818841141 -4.1663868226187502e-06 0 -0.074999996770290289 -3.1509675286997195e-09 0 -0.074998809273369493 -1.6785074777127173e-06 0 -0.074999994514673443 3.7142766688554849e-11 0 -0.074998363856433242 -6.1769557977316924e-06 0 -0.074998585418761421 -9.3667998478384767e-07 0 -0.074998809273369493 -1.6785074777127173e-06 0 -0.074999994514673443 3.7142766688554849e-11 0 -0.074989445474076585 -1.3045342905326218e-06 0 -0.074994549818841141 -4.1663868226187502e-06 0 -0.074989445474076585 -1.3045342905326218e-06 0 -0.074968868028722449 -5.8350485007448793e-06 0 -0.074999954685159159 5.4868876345649061e-09 0 -0.074999994514673443 3.7142766688554849e-11 0 -0.074989445474076585 -1.3045342905326218e-06 0 -0.074999954685159159 5.4868876345649061e-09 0 -0.074989445474076585 -1.3045342905326218e-06 0 -0.074968868028722449 -5.8350485007448793e-06 0 -0.074984313338814279 -9.1440900938147879e-06 0 -0.074968868028722449 -5.8350485007448793e-06 0 -0.074975875098953579 -1.3508585936276464e-05 0 -0.074984313338814279 -9.1440900938147879e-06 0 -0.074998363856433242 -6.1769557977316924e-06 0 -0.074994549818841141 -4.1663868226187502e-06 0 -0.074987631107265265 -1.7889151200278942e-05 0 -0.074984313338814279 -9.1440900938147879e-06 0 -0.074994549818841141 -4.1663868226187502e-06 0 -0.074987631107265265 -1.7889151200278942e-05 0 -0.074975875098953579 -1.3508585936276464e-05 0 -0.074984313338814279 -9.1440900938147879e-06 0 -0.074987631107265265 -1.7889151200278942e-05 0 -0.073488308586893869 6.4879262967997787e-05 0 -0.073771210736542192 0.00024707681474695349 0 -0.074989445474076585 -1.3045342905326218e-06 0 -0.074984313338814279 -9.1440900938147879e-06 0 -0.074994549818841141 -4.1663868226187502e-06 0 -0.07499996297070767 -1.6151206132183108e-08 0 -0.07496054226660985 -9.0267991800734942e-06 0 -0.074980710873026712 -9.6501512627852097e-06 0 -0.074968868028722449 -5.8350485007448793e-06 0 -0.074999954685159159 5.4868876345649061e-09 0 -0.07496054226660985 -9.0267991800734942e-06 0 -0.07499996297070767 -1.6151206132183108e-08 0 -0.074999954685159159 5.4868876345649061e-09 0 -0.07496054226660985 -9.0267991800734942e-06 0 -0.074968868028722449 -5.8350485007448793e-06 0 -0.07496054226660985 -9.0267991800734942e-06 0 -0.074928008870164792 -1.5586885419216335e-05 0 -0.07496054226660985 -9.0267991800734942e-06 0 -0.07492446584807394 -1.7262724171195481e-05 0 -0.074980710873026712 -9.6501512627852097e-06 0 -0.07492446584807394 -1.7262724171195481e-05 0 -0.074970391995460295 -6.6450799128568315e-06 0 -0.074980710873026712 -9.6501512627852097e-06 0 -0.07492446584807394 -1.7262724171195481e-05 0 -0.074863691465579058 3.3714306212767676e-05 0 -0.074970391995460295 -6.6450799128568315e-06 0 -0.07496054226660985 -9.0267991800734942e-06 0 -0.07492446584807394 -1.7262724171195481e-05 0 -0.074928008870164792 -1.5586885419216335e-05 0 -0.07492446584807394 -1.7262724171195481e-05 0 -0.074928008870164792 -1.5586885419216335e-05 0 -0.074865330293225646 -3.0198946660395684e-05 0 -0.074928008870164792 -1.5586885419216335e-05 0 -0.074865330293225646 -3.0198946660395684e-05 0 -0.074956508600693653 -2.9737356861111672e-05 0 -0.074368316379252425 0.00028764981610758874 0 -0.074233747771538502 0.00028028330748543066 0 -0.07492446584807394 -1.7262724171195481e-05 0 -0.074865330293225646 -3.0198946660395684e-05 0 -0.074863691465579058 3.3714306212767676e-05 0 -0.074865330293225646 -3.0198946660395684e-05 0 -0.074792062004887791 4.8126235397266478e-05 0 -0.074650885276010284 -2.2045398291383703e-05 0 -0.074865330293225646 -3.0198946660395684e-05 0 -0.074792062004887791 4.8126235397266478e-05 0 -0.074863691465579058 3.3714306212767676e-05 0 -0.074792062004887791 4.8126235397266478e-05 0 -0.074863691465579058 3.3714306212767676e-05 0 -0.07482644102203799 9.7220159209534182e-05 0 -0.074863691465579058 3.3714306212767676e-05 0 -0.074885661675562071 5.6071419169483349e-05 0 -0.074894771534578172 2.5761286329840073e-05 0 -0.074863691465579058 3.3714306212767676e-05 0 -0.074885661675562071 5.6071419169483349e-05 0 -0.074864842429148495 9.4440088373959393e-05 0 -0.074913387496499478 2.4209397083837824e-05 0 -0.074934045095417026 1.1778772097369881e-05 0 -0.074128051679142631 -0.00039038299252952151 0 -0.074302884215566495 -0.00018303671445238652 0 -0.074456726439756968 -0.00033600894887675554 0 -0.072486778174667421 0.00035032091420523045 0 -0.073771210736542192 0.00024707681474695349 0 -0.074514584651907398 -0.00017820602232565904 0 -0.074302884215566495 -0.00018303671445238652 0 -0.074456726439756968 -0.00033600894887675554 0 -0.074975875098953579 -1.3508585936276464e-05 0 -0.074987631107265265 -1.7889151200278942e-05 0 -0.074956508600693653 -2.9737356861111672e-05 0 -0.073771210736542192 0.00024707681474695349 0 -0.074233747771538502 0.00028028330748543066 0 -0.074968868028722449 -5.8350485007448793e-06 0 -0.074975875098953579 -1.3508585936276464e-05 0 -0.074956508600693653 -2.9737356861111672e-05 0 -0.074968868028722449 -5.8350485007448793e-06 0 -0.074928008870164792 -1.5586885419216335e-05 0 -0.074956508600693653 -2.9737356861111672e-05 0 -0.074514584651907398 -0.00017820602232565904 0 -0.074456726439756968 -0.00033600894887675554 0 -0.074665875025789447 -0.00019953350508133391 0 -0.074514584651907398 -0.00017820602232565904 0 -0.074665875025789447 -0.00019953350508133391 0 -0.074650885276010284 -2.2045398291383703e-05 0 -0.074865330293225646 -3.0198946660395684e-05 0 -0.074665875025789447 -0.00019953350508133391 0 -0.074650885276010284 -2.2045398291383703e-05 0 -0.074792062004887791 4.8126235397266478e-05 0 -0.074650885276010284 -2.2045398291383703e-05 0 -0.074678840763047302 8.8790703729324429e-05 0 -0.074650885276010284 -2.2045398291383703e-05 0 -0.074465819096079411 9.1240454641566569e-05 0 -0.074678840763047302 8.8790703729324429e-05 0 -0.074143223856771745 -4.2189493525412683e-06 0 -0.074422230054820931 -5.6972613363382142e-05 0 -0.074465819096079411 9.1240454641566569e-05 0 -0.074650885276010284 -2.2045398291383703e-05 0 -0.074422230054820931 -5.6972613363382142e-05 0 -0.074465819096079411 9.1240454641566569e-05 0 -0.074514584651907398 -0.00017820602232565904 0 -0.074650885276010284 -2.2045398291383703e-05 0 -0.074422230054820931 -5.6972613363382142e-05 0 -0.074514584651907398 -0.00017820602232565904 0 -0.074302884215566495 -0.00018303671445238652 0 -0.074422230054820931 -5.6972613363382142e-05 0 -0.074143223856771745 -4.2189493525412683e-06 0 -0.074465819096079411 9.1240454641566569e-05 0 -0.07436046033427815 0.00023011472619300846 0 -0.07436046033427815 0.00023011472619300846 0 -0.074550798623136891 0.0003422634695704558 0 -0.074601174713426324 0.00016794153613304677 0 -0.074465819096079411 9.1240454641566569e-05 0 -0.07436046033427815 0.00023011472619300846 0 -0.074601174713426324 0.00016794153613304677 0 -0.064165204629122202 0.0016248245036906154 0 -0.064036402659874092 0.001778966836046557 0 -0.064031620261017219 0.0015007492314124246 0 -0.064382217417690887 0.0021497564556850366 0 -0.063961243312574453 0.0015794272866185353 0 -0.06393744933464901 0.0018307194648588666 0 -0.064036402659874092 0.001778966836046557 0 -0.063794206685219318 0.0014492127970332418 0 -0.064031620261017219 0.0015007492314124246 0 -0.066186833986417601 0.0023600842348111242 0 -0.064933838586075654 0.0014488846397406555 0 -0.066186833986417601 0.0023600842348111242 0 -0.068270044794118884 0.0017473164135655083 0 -0.063794206685219318 0.0014492127970332418 0 -0.064031620261017219 0.0015007492314124246 0 -0.063926114767038494 0.0013356077831033712 0 -0.064163643936213571 0.0014396499129165042 0 -0.064031620261017219 0.0015007492314124246 0 -0.064074644420123519 0.0013340224503936939 0 -0.074710985027756707 0.00047151077138888063 0 -0.074550798623136891 0.0003422634695704558 0 -0.074601174713426324 0.00016794153613304677 0 -0.069885928385453794 0.0010969230942646578 0 -0.071055533129260481 0.0013276567182240013 0 -0.074728739261679653 0.00022301781344720938 0 -0.074716453491557575 0.00017976181171531071 0 -0.074601174713426324 0.00016794153613304677 0 -0.063961243312574453 0.0015794272866185353 0 -0.063535114946802029 0.0015182180567884869 0 -0.06393744933464901 0.0018307194648588666 0 -0.069885928385453794 0.0010969230942646578 0 -0.068270044794118884 0.0017473164135655083 0 -0.074716453491557575 0.00017976181171531071 0 -0.074708836368306039 0.00014028236882339124 0 -0.074601174713426324 0.00016794153613304677 0 -0.074465819096079411 9.1240454641566569e-05 0 -0.074601174713426324 0.00016794153613304677 0 -0.074678840763047302 8.8790703729324429e-05 0 -0.074708836368306039 0.00014028236882339124 0 -0.074601174713426324 0.00016794153613304677 0 -0.074678840763047302 8.8790703729324429e-05 0 -0.074708836368306039 0.00014028236882339124 0 -0.074678840763047302 8.8790703729324429e-05 0 -0.074757029165875968 0.00010501604539835256 0 -0.074792062004887791 4.8126235397266478e-05 0 -0.074757029165875968 0.00010501604539835256 0 -0.07482644102203799 9.7220159209534182e-05 0 -0.074757029165875968 0.00010501604539835256 0 -0.07482644102203799 9.7220159209534182e-05 0 -0.074767864937870604 0.00014424141865047643 0 -0.074792062004887791 4.8126235397266478e-05 0 -0.074678840763047302 8.8790703729324429e-05 0 -0.074757029165875968 0.00010501604539835256 0 -0.07482644102203799 9.7220159209534182e-05 0 -0.074767864937870604 0.00014424141865047643 0 -0.074807469713107116 0.00015443602633657665 0 -0.074708836368306039 0.00014028236882339124 0 -0.074757029165875968 0.00010501604539835256 0 -0.074767864937870604 0.00014424141865047643 0 -0.074716453491557575 0.00017976181171531071 0 -0.074708836368306039 0.00014028236882339124 0 -0.074767864937870604 0.00014424141865047643 0 -0.07482644102203799 9.7220159209534182e-05 0 -0.074864842429148495 9.4440088373959393e-05 0 -0.074838000538729271 0.00012328959452480212 0 -0.074863691465579058 3.3714306212767676e-05 0 -0.07482644102203799 9.7220159209534182e-05 0 -0.074864842429148495 9.4440088373959393e-05 0 -0.07482644102203799 9.7220159209534182e-05 0 -0.074838000538729271 0.00012328959452480212 0 -0.074807469713107116 0.00015443602633657665 0 -0.074864842429148495 9.4440088373959393e-05 0 -0.074852064955248501 0.00014827637889433542 0 -0.074898882898613225 9.6872636130269422e-05 0 -0.074864842429148495 9.4440088373959393e-05 0 -0.074838000538729271 0.00012328959452480212 0 -0.074852064955248501 0.00014827637889433542 0 -0.074852064955248501 0.00014827637889433542 0 -0.074801017313166407 0.00019615979092412527 0 -0.074839302727216075 0.00021522431948306413 0 -0.074838000538729271 0.00012328959452480212 0 -0.074852064955248501 0.00014827637889433542 0 -0.074807469713107116 0.00015443602633657665 0 -0.074852064955248501 0.00014827637889433542 0 -0.074801017313166407 0.00019615979092412527 0 -0.074807469713107116 0.00015443602633657665 0 -0.074716453491557575 0.00017976181171531071 0 -0.074767864937870604 0.00014424141865047643 0 -0.07475879487976371 0.00019763900088768345 0 -0.074767864937870604 0.00014424141865047643 0 -0.074807469713107116 0.00015443602633657665 0 -0.07475879487976371 0.00019763900088768345 0 -0.074801017313166407 0.00019615979092412527 0 -0.07475879487976371 0.00019763900088768345 0 -0.07477070478289323 0.00021001456461576897 0 -0.074801017313166407 0.00019615979092412527 0 -0.074807469713107116 0.00015443602633657665 0 -0.07475879487976371 0.00019763900088768345 0 -0.07475879487976371 0.00019763900088768345 0 -0.074744736273953324 0.00022176358082493753 0 -0.07477070478289323 0.00021001456461576897 0 -0.074728739261679653 0.00022301781344720938 0 -0.07475879487976371 0.00019763900088768345 0 -0.074744736273953324 0.00022176358082493753 0 -0.074728739261679653 0.00022301781344720938 0 -0.074716453491557575 0.00017976181171531071 0 -0.07475879487976371 0.00019763900088768345 0 -0.069885928385453794 0.0010969230942646578 0 -0.070107588114148869 0.0011811382441911146 0 -0.069885928385453794 0.0010969230942646578 0 -0.068433047166443592 0.00059164897805500836 0 -0.063535114946802029 0.0015182180567884869 0 -0.06334109539941217 0.0010269396285427141 0 -0.063569012659978677 0.0010915031323419342 0 -0.074726731251046161 0.00021250202609894014 0 -0.074744736273953324 0.00022176358082493753 0 -0.074752687990967584 0.00025722486712043515 0 -0.074744736273953324 0.00022176358082493753 0 -0.07477070478289323 0.00021001456461576897 0 -0.074779959483857503 0.00023070367909275752 0 -0.074801017313166407 0.00019615979092412527 0 -0.07477070478289323 0.00021001456461576897 0 -0.074779959483857503 0.00023070367909275752 0 -0.074744736273953324 0.00022176358082493753 0 -0.074779959483857503 0.00023070367909275752 0 -0.074752687990967584 0.00025722486712043515 0 -0.074801017313166407 0.00019615979092412527 0 -0.074779959483857503 0.00023070367909275752 0 -0.074839302727216075 0.00021522431948306413 0 -0.074779959483857503 0.00023070367909275752 0 -0.074839302727216075 0.00021522431948306413 0 -0.074799548923284206 0.00026595213609937202 0 -0.074839302727216075 0.00021522431948306413 0 -0.074799548923284206 0.00026595213609937202 0 -0.074847405608167314 0.00026099290880263556 0 -0.074799548923284206 0.00026595213609937202 0 -0.074769686110712913 0.00030982896617039152 0 -0.074809297017133139 0.00031158935591419224 0 -0.074799548923284206 0.00026595213609937202 0 -0.074847405608167314 0.00026099290880263556 0 -0.074809297017133139 0.00031158935591419224 0 -0.06334109539941217 0.0010269396285427141 0 -0.063369591010332932 0.00083080743658853836 0 -0.063199251011242574 0.00066596082255419116 0 -0.068433047166443592 0.00059164897805500836 0 -0.066586183624312817 -0.00032421653246633334 0 -0.074799548923284206 0.00026595213609937202 0 -0.074752687990967584 0.00025722486712043515 0 -0.074769686110712913 0.00030982896617039152 0 -0.06334109539941217 0.0010269396285427141 0 -0.06343719770588846 0.00091710667099586802 0 -0.063569012659978677 0.0010915031323419342 0 -0.06334109539941217 0.0010269396285427141 0 -0.06343719770588846 0.00091710667099586802 0 -0.063369591010332932 0.00083080743658853836 0 -0.074779959483857503 0.00023070367909275752 0 -0.074799548923284206 0.00026595213609937202 0 -0.074752687990967584 0.00025722486712043515 0 -0.063369591010332932 0.00083080743658853836 0 -0.063480803205761993 0.00078949775501023923 0 -0.063199251011242574 0.00066596082255419116 0 -0.06343719770588846 0.00091710667099586802 0 -0.063480803205761993 0.00078949775501023923 0 -0.063549114616475721 0.00088500754568867626 0 -0.06343719770588846 0.00091710667099586802 0 -0.063369591010332932 0.00083080743658853836 0 -0.063480803205761993 0.00078949775501023923 0 -0.063480803205761993 0.00078949775501023923 0 -0.063549114616475721 0.00088500754568867626 0 -0.063660120476372622 0.00084219769933630614 0 -0.063660120476372622 0.00084219769933630614 0 -0.06392869268024598 0.00080634232992230761 0 -0.063581445881476684 0.00069443432240104646 0 -0.063480803205761993 0.00078949775501023923 0 -0.063660120476372622 0.00084219769933630614 0 -0.063581445881476684 0.00069443432240104646 0 -0.063549114616475721 0.00088500754568867626 0 -0.063654230864918449 0.00096273389146938238 0 -0.063660120476372622 0.00084219769933630614 0 -0.063549114616475721 0.00088500754568867626 0 -0.063654230864918449 0.00096273389146938238 0 -0.063569012659978677 0.0010915031323419342 0 -0.06343719770588846 0.00091710667099586802 0 -0.063549114616475721 0.00088500754568867626 0 -0.063569012659978677 0.0010915031323419342 0 -0.063739499584888018 0.001075595132262097 0 -0.063654230864918449 0.00096273389146938238 0 -0.063569012659978677 0.0010915031323419342 0 -0.063654230864918449 0.00096273389146938238 0 -0.06375226990022223 0.00092102231366410301 0 -0.063660120476372622 0.00084219769933630614 0 -0.063739499584888018 0.001075595132262097 0 -0.063654230864918449 0.00096273389146938238 0 -0.06375226990022223 0.00092102231366410301 0 -0.06375226990022223 0.00092102231366410301 0 -0.063660120476372622 0.00084219769933630614 0 -0.06392869268024598 0.00080634232992230761 0 -0.06392869268024598 0.00080634232992230761 0 -0.064132817907296455 0.0010418100653976339 0 -0.063647946095035393 0.00010121283405732297 0 -0.06392869268024598 0.00080634232992230761 0 -0.064132817907296455 0.0010418100653976339 0 -0.063970430652455917 0.0010629521052687391 0 -0.064132817907296455 0.0010418100653976339 0 -0.063970430652455917 0.0010629521052687391 0 -0.063994639128181485 0.0011901908884765092 0 -0.06392869268024598 0.00080634232992230761 0 -0.063970430652455917 0.0010629521052687391 0 -0.063846577096180662 0.0010088892970977286 0 -0.06375226990022223 0.00092102231366410301 0 -0.06392869268024598 0.00080634232992230761 0 -0.063846577096180662 0.0010088892970977286 0 -0.063970430652455917 0.0010629521052687391 0 -0.063846577096180662 0.0010088892970977286 0 -0.063873368908969511 0.0011634155394709895 0 -0.063739499584888018 0.001075595132262097 0 -0.06375226990022223 0.00092102231366410301 0 -0.063846577096180662 0.0010088892970977286 0 -0.063739499584888018 0.001075595132262097 0 -0.063873368908969511 0.0011634155394709895 0 -0.06377756257987735 0.0012232571390017738 0 -0.063739499584888018 0.001075595132262097 0 -0.063846577096180662 0.0010088892970977286 0 -0.063873368908969511 0.0011634155394709895 0 -0.063873368908969511 0.0011634155394709895 0 -0.063994639128181485 0.0011901908884765092 0 -0.063926114767038494 0.0013356077831033712 0 -0.063873368908969511 0.0011634155394709895 0 -0.063926114767038494 0.0013356077831033712 0 -0.06377756257987735 0.0012232571390017738 0 -0.064132817907296455 0.0010418100653976339 0 -0.063994639128181485 0.0011901908884765092 0 -0.064074644420123519 0.0013340224503936939 0 -0.063970430652455917 0.0010629521052687391 0 -0.063873368908969511 0.0011634155394709895 0 -0.063994639128181485 0.0011901908884765092 0 -0.064031620261017219 0.0015007492314124246 0 -0.064074644420123519 0.0013340224503936939 0 -0.063926114767038494 0.0013356077831033712 0 -0.063994639128181485 0.0011901908884765092 0 -0.064074644420123519 0.0013340224503936939 0 -0.063926114767038494 0.0013356077831033712 0 -0.063794206685219318 0.0014492127970332418 0 -0.063926114767038494 0.0013356077831033712 0 -0.06377756257987735 0.0012232571390017738 0 -0.064933838586075654 0.0014488846397406555 0 -0.064563127502715492 0.0011797729404232117 0 -0.063961243312574453 0.0015794272866185353 0 -0.063535114946802029 0.0015182180567884869 0 -0.063569012659978677 0.0010915031323419342 0 -0.063794206685219318 0.0014492127970332418 0 -0.063569012659978677 0.0010915031323419342 0 -0.06377756257987735 0.0012232571390017738 0 -0.063739499584888018 0.001075595132262097 0 -0.063569012659978677 0.0010915031323419342 0 -0.06377756257987735 0.0012232571390017738 0 -0.073457281323813697 -0.0038212665219090353 0 -0.073507290548526408 -0.0038133611787376292 0 -0.073465870829224775 -0.0037758054860479707 0 -0.073457281323813697 -0.0038212665219090353 0 -0.073479554192961691 -0.0038499535447374697 0 -0.073507290548526408 -0.0038133611787376292 0 -0.070042428104040946 -0.0041824587311142143 0 -0.072468501979565295 -0.0045103608228687538 0 -0.073602200650802987 -0.0044058065959008451 0 -0.073400992422347031 -0.0043319361062992565 0 -0.073457271693521051 -0.0044990198532089782 0 -0.073622633539683013 -0.0041072675533292951 0 -0.073832363380551949 -0.0044097928225172488 0 -0.073400992422347031 -0.0043319361062992565 0 -0.071888813029376109 -0.0046078026687692373 0 -0.070042428104040946 -0.0041824587311142143 0 -0.073479554192961691 -0.0038499535447374697 0 -0.073507290548526408 -0.0038133611787376292 0 -0.073497044891194768 -0.0038510056376754704 0 -0.074887739652542598 0.0002240990391791049 0 -0.074949126538767369 0.00019847031665093251 0 -0.074898744580893836 0.00029281784940438885 0 -0.070042428104040946 -0.0041824587311142143 0 -0.068352324668407002 -0.0028006131520194703 0 -0.071839428036385239 -0.0024938214615125454 0 -0.068352324668407002 -0.0028006131520194703 0 -0.074847405608167314 0.00026099290880263556 0 -0.074809297017133139 0.00031158935591419224 0 -0.074898744580893836 0.00029281784940438885 0 -0.074847405608167314 0.00026099290880263556 0 -0.074887739652542598 0.0002240990391791049 0 -0.074898744580893836 0.00029281784940438885 0 -0.074839302727216075 0.00021522431948306413 0 -0.074887739652542598 0.0002240990391791049 0 -0.074896563229611968 0.00016065498380113242 0 -0.074839302727216075 0.00021522431948306413 0 -0.074847405608167314 0.00026099290880263556 0 -0.074887739652542598 0.0002240990391791049 0 -0.074887739652542598 0.0002240990391791049 0 -0.074949126538767369 0.00019847031665093251 0 -0.074896563229611968 0.00016065498380113242 0 -0.074949126538767369 0.00019847031665093251 0 -0.074896563229611968 0.00016065498380113242 0 -0.074937011636549131 0.00010164589126325673 0 -0.074852064955248501 0.00014827637889433542 0 -0.074896563229611968 0.00016065498380113242 0 -0.074898882898613225 9.6872636130269422e-05 0 -0.074852064955248501 0.00014827637889433542 0 -0.074839302727216075 0.00021522431948306413 0 -0.074896563229611968 0.00016065498380113242 0 -0.074898882898613225 9.6872636130269422e-05 0 -0.074937011636549131 0.00010164589126325673 0 -0.074911326878595613 5.2451973079021267e-05 0 -0.074896563229611968 0.00016065498380113242 0 -0.074898882898613225 9.6872636130269422e-05 0 -0.074937011636549131 0.00010164589126325673 0 -0.074885661675562071 5.6071419169483349e-05 0 -0.074864842429148495 9.4440088373959393e-05 0 -0.074898882898613225 9.6872636130269422e-05 0 -0.074937011636549131 0.00010164589126325673 0 -0.074985902768031507 0.00010563654635666097 0 -0.074970015716992675 6.1596679654800184e-05 0 -0.073507290548526408 -0.0038133611787376292 0 -0.073520932322372348 -0.0037148916882616067 0 -0.073465870829224775 -0.0037758054860479707 0 -0.071839428036385239 -0.0024938214615125454 0 -0.073394929500551417 -0.0020366025400788612 0 -0.074949126538767369 0.00019847031665093251 0 -0.074937011636549131 0.00010164589126325673 0 -0.074985902768031507 0.00010563654635666097 0 -0.073457281323813697 -0.0038212665219090353 0 -0.073465870829224775 -0.0037758054860479707 0 -0.073395851969304662 -0.0037926057895785645 0 -0.071888813029376109 -0.0046078026687692373 0 -0.072275173656054917 -0.0045421944250148743 0 -0.073465870829224775 -0.0037758054860479707 0 -0.073441438470251294 -0.0037190649992952882 0 -0.073395851969304662 -0.0037926057895785645 0 -0.073520932322372348 -0.0037148916882616067 0 -0.073465870829224775 -0.0037758054860479707 0 -0.073441438470251294 -0.0037190649992952882 0 -0.073520932322372348 -0.0037148916882616067 0 -0.073441438470251294 -0.0037190649992952882 0 -0.073443617881452095 -0.0036371872501043383 0 -0.073441438470251294 -0.0037190649992952882 0 -0.073443617881452095 -0.0036371872501043383 0 -0.073372869533575566 -0.0036592712238307464 0 -0.073443617881452095 -0.0036371872501043383 0 -0.073488903485489546 -0.0035378060981282613 0 -0.073387744605946131 -0.0035641219668488587 0 -0.073520932322372348 -0.0037148916882616067 0 -0.073443617881452095 -0.0036371872501043383 0 -0.073488903485489546 -0.0035378060981282613 0 -0.074266790587165329 -0.0015238247003781073 0 -0.074263951366010203 -0.0015299880052174291 0 -0.074985902768031507 0.00010563654635666097 0 -0.074995349924126625 3.5339889449281264e-05 0 -0.074970015716992675 6.1596679654800184e-05 0 -0.074985902768031507 0.00010563654635666097 0 -0.074995349924126625 3.5339889449281264e-05 0 -0.075002091568229262 3.1188318870734918e-05 0 -0.073394929500551417 -0.0020366025400788612 0 -0.074263951366010203 -0.0015299880052174291 0 -0.074970015716992675 6.1596679654800184e-05 0 -0.074966687462072412 4.3882846525056187e-05 0 -0.074980903997213327 3.6764618042791433e-05 0 -0.074970015716992675 6.1596679654800184e-05 0 -0.074966687462072412 4.3882846525056187e-05 0 -0.074948199682224215 5.2739939429152156e-05 0 -0.074995349924126625 3.5339889449281264e-05 0 -0.074970015716992675 6.1596679654800184e-05 0 -0.074980903997213327 3.6764618042791433e-05 0 -0.074995349924126625 3.5339889449281264e-05 0 -0.074980903997213327 3.6764618042791433e-05 0 -0.074992549788497731 2.6578246608905709e-05 0 -0.074980903997213327 3.6764618042791433e-05 0 -0.074984840223667207 2.2480366196433296e-05 0 -0.074992549788497731 2.6578246608905709e-05 0 -0.074980903997213327 3.6764618042791433e-05 0 -0.074984840223667207 2.2480366196433296e-05 0 -0.074974413834600753 2.9048705216269198e-05 0 -0.074984840223667207 2.2480366196433296e-05 0 -0.074994056172242848 1.7156111092419158e-05 0 -0.074992549788497731 2.6578246608905709e-05 0 -0.074974413834600753 2.9048705216269198e-05 0 -0.074974854855480083 1.4955317057137718e-05 0 -0.074958370018552739 3.4505639327370039e-05 0 -0.074966687462072412 4.3882846525056187e-05 0 -0.074974413834600753 2.9048705216269198e-05 0 -0.074958370018552739 3.4505639327370039e-05 0 -0.074966687462072412 4.3882846525056187e-05 0 -0.074980903997213327 3.6764618042791433e-05 0 -0.074974413834600753 2.9048705216269198e-05 0 -0.074984840223667207 2.2480366196433296e-05 0 -0.074974413834600753 2.9048705216269198e-05 0 -0.074974854855480083 1.4955317057137718e-05 0 -0.074984840223667207 2.2480366196433296e-05 0 -0.074974854855480083 1.4955317057137718e-05 0 -0.074988189975085204 1.4705413662787332e-05 0 -0.074984840223667207 2.2480366196433296e-05 0 -0.074988189975085204 1.4705413662787332e-05 0 -0.074994056172242848 1.7156111092419158e-05 0 -0.074263951366010203 -0.0015299880052174291 0 -0.074260037014491229 -0.0015168288464035636 0 -0.074994056172242848 1.7156111092419158e-05 0 -0.074996389170196825 2.2889968539291219e-05 0 -0.074997897458202678 9.9283206663535394e-06 0 -0.074988189975085204 1.4705413662787332e-05 0 -0.074994056172242848 1.7156111092419158e-05 0 -0.074994343674914463 1.0465294656198421e-05 0 -0.074994056172242848 1.7156111092419158e-05 0 -0.074997897458202678 9.9283206663535394e-06 0 -0.074994343674914463 1.0465294656198421e-05 0 -0.074996389170196825 2.2889968539291219e-05 0 -0.07499610058109589 2.4837057411839588e-05 0 -0.07500168285835318 8.1505438515362287e-06 0 -0.074996389170196825 2.2889968539291219e-05 0 -0.074997897458202678 9.9283206663535394e-06 0 -0.07500168285835318 8.1505438515362287e-06 0 -0.074995349924126625 3.5339889449281264e-05 0 -0.074992549788497731 2.6578246608905709e-05 0 -0.074997222453527024 3.0491584923076622e-05 0 -0.074996389170196825 2.2889968539291219e-05 0 -0.074992549788497731 2.6578246608905709e-05 0 -0.074997222453527024 3.0491584923076622e-05 0 -0.074261752436617437 -0.0015094953674445405 0 -0.074263951366010203 -0.0015299880052174291 0 -0.074994056172242848 1.7156111092419158e-05 0 -0.074996389170196825 2.2889968539291219e-05 0 -0.074992549788497731 2.6578246608905709e-05 0 -0.074885661675562071 5.6071419169483349e-05 0 -0.074911326878595613 5.2451973079021267e-05 0 -0.074894771534578172 2.5761286329840073e-05 0 -0.074885661675562071 5.6071419169483349e-05 0 -0.074898882898613225 9.6872636130269422e-05 0 -0.074911326878595613 5.2451973079021267e-05 0 -0.074937011636549131 0.00010164589126325673 0 -0.074970015716992675 6.1596679654800184e-05 0 -0.074948199682224215 5.2739939429152156e-05 0 -0.074937011636549131 0.00010164589126325673 0 -0.074911326878595613 5.2451973079021267e-05 0 -0.074948199682224215 5.2739939429152156e-05 0 -0.074911326878595613 5.2451973079021267e-05 0 -0.074948199682224215 5.2739939429152156e-05 0 -0.07493970373102872 2.6854091250552877e-05 0 -0.074966687462072412 4.3882846525056187e-05 0 -0.074948199682224215 5.2739939429152156e-05 0 -0.074958370018552739 3.4505639327370039e-05 0 -0.074948199682224215 5.2739939429152156e-05 0 -0.074958370018552739 3.4505639327370039e-05 0 -0.07493970373102872 2.6854091250552877e-05 0 -0.074974854855480083 1.4955317057137718e-05 0 -0.074958370018552739 3.4505639327370039e-05 0 -0.07493970373102872 2.6854091250552877e-05 0 -0.07493970373102872 2.6854091250552877e-05 0 -0.074894771534578172 2.5761286329840073e-05 0 -0.074950713193563168 -4.689851174487774e-06 0 -0.074911326878595613 5.2451973079021267e-05 0 -0.07493970373102872 2.6854091250552877e-05 0 -0.074894771534578172 2.5761286329840073e-05 0 -0.074970391995460295 -6.6450799128568315e-06 0 -0.074980710873026712 -9.6501512627852097e-06 0 -0.074991761833223938 -4.6021213854570364e-06 0 -0.074934045095417026 1.1778772097369881e-05 0 -0.074959104417857886 -7.3638723958187811e-07 0 -0.074974854855480083 1.4955317057137718e-05 0 -0.07493970373102872 2.6854091250552877e-05 0 -0.074950713193563168 -4.689851174487774e-06 0 -0.074980710873026712 -9.6501512627852097e-06 0 -0.074991761833223938 -4.6021213854570364e-06 0 -0.074999990456779575 -7.8462958422896861e-09 0 -0.074959104417857886 -7.3638723958187811e-07 0 -0.074969745522351389 -4.707233225773016e-06 0 -0.074991761833223938 -4.6021213854570364e-06 0 -0.074999990456779575 -7.8462958422896861e-09 0 -0.074998102022996019 -1.9516064961925623e-06 0 -0.07499996297070767 -1.6151206132183108e-08 0 -0.074980710873026712 -9.6501512627852097e-06 0 -0.074999990456779575 -7.8462958422896861e-09 0 -0.074996339450205229 5.0954596302359623e-06 0 -0.074996132744242452 1.7170285438700889e-07 0 -0.075000268326789493 2.3488079395703267e-06 0 -0.074996339450205229 5.0954596302359623e-06 0 -0.074989899354523229 6.7910485463551588e-06 0 -0.074996132744242452 1.7170285438700889e-07 0 -0.074996339450205229 5.0954596302359623e-06 0 -0.074997897458202678 9.9283206663535394e-06 0 -0.075000268326789493 2.3488079395703267e-06 0 -0.074996339450205229 5.0954596302359623e-06 0 -0.074994343674914463 1.0465294656198421e-05 0 -0.074989899354523229 6.7910485463551588e-06 0 -0.074988189975085204 1.4705413662787332e-05 0 -0.074994343674914463 1.0465294656198421e-05 0 -0.074989899354523229 6.7910485463551588e-06 0 -0.074996339450205229 5.0954596302359623e-06 0 -0.074997897458202678 9.9283206663535394e-06 0 -0.074994343674914463 1.0465294656198421e-05 0 -0.074974854855480083 1.4955317057137718e-05 0 -0.074989899354523229 6.7910485463551588e-06 0 -0.074983641546003704 1.0474966784727189e-06 0 -0.074974854855480083 1.4955317057137718e-05 0 -0.074950713193563168 -4.689851174487774e-06 0 -0.074983641546003704 1.0474966784727189e-06 0 -0.074974854855480083 1.4955317057137718e-05 0 -0.074988189975085204 1.4705413662787332e-05 0 -0.074989899354523229 6.7910485463551588e-06 0 -0.074989899354523229 6.7910485463551588e-06 0 -0.074983641546003704 1.0474966784727189e-06 0 -0.074996132744242452 1.7170285438700889e-07 0 -0.074983641546003704 1.0474966784727189e-06 0 -0.074998102022996019 -1.9516064961925623e-06 0 -0.074996132744242452 1.7170285438700889e-07 0 -0.074950713193563168 -4.689851174487774e-06 0 -0.074983641546003704 1.0474966784727189e-06 0 -0.074998102022996019 -1.9516064961925623e-06 0 -0.074999990456779575 -7.8462958422896861e-09 0 -0.074998102022996019 -1.9516064961925623e-06 0 -0.074999986688404421 -4.7222896993284639e-09 0 -0.074998102022996019 -1.9516064961925623e-06 0 -0.074999986688404421 -4.7222896993284639e-09 0 -0.074996132744242452 1.7170285438700889e-07 0 -0.074999986688404421 -4.7222896993284639e-09 0 -0.074996132744242452 1.7170285438700889e-07 0 -0.075000268326789493 2.3488079395703267e-06 0 -0.074999986688404421 -4.7222896993284639e-09 0 -0.075000268326789493 2.3488079395703267e-06 0 -0.075000005849931078 3.7352221212774888e-09 0 -0.074997897458202678 9.9283206663535394e-06 0 -0.075000268326789493 2.3488079395703267e-06 0 -0.07500168285835318 8.1505438515362287e-06 0 -0.075000268326789493 2.3488079395703267e-06 0 -0.075002060112160943 1.8752439165888979e-06 0 -0.07500168285835318 8.1505438515362287e-06 0 -0.074286316457651741 -0.0013826403183276402 0 -0.074260037014491229 -0.0015168288464035636 0 -0.075000268326789493 2.3488079395703267e-06 0 -0.075000005849931078 3.7352221212774888e-09 0 -0.075002060112160943 1.8752439165888979e-06 0 -0.075000005849931078 3.7352221212774888e-09 0 -0.075000000868150327 -1.7468618841494341e-09 0 -0.075002060112160943 1.8752439165888979e-06 0 -0.074998507903626832 -1.3528283985777104e-06 0 -0.074286316457651741 -0.0013826403183276402 0 -0.075000001582090858 -2.1970941339960995e-09 0 -0.074999149378373486 -6.9450961591714504e-06 0 -0.075011949443388029 -2.7042872354259579e-05 0 -0.074105045490941671 -0.0010219277921001927 0 -0.074703305430724787 -0.00047535799702681162 0 -0.074999118144477961 -3.3201784785960809e-06 0 -0.075000001582090858 -2.1970941339960995e-09 0 -0.07499999566803485 -4.4473946993372581e-09 0 -0.074999118144477961 -3.3201784785960809e-06 0 -0.074998465188825261 -7.050337343067703e-06 0 -0.074999235437161804 -1.6967338225597188e-06 0 -0.074999118144477961 -3.3201784785960809e-06 0 -0.075000001582090858 -2.1970941339960995e-09 0 -0.074999149378373486 -6.9450961591714504e-06 0 -0.074154733046000981 -0.00089329508115797412 0 -0.074105045490941671 -0.0010219277921001927 0 -0.074999118144477961 -3.3201784785960809e-06 0 -0.074999149378373486 -6.9450961591714504e-06 0 -0.074998465188825261 -7.050337343067703e-06 0 -0.075625149520877677 -9.9535202906325071e-05 0 -0.075571872386083927 -0.0010764295092030144 0 -0.075090002113707213 -0.0004296695700361488 0 -0.074105045490941671 -0.0010219277921001927 0 -0.073839607464837184 -0.002148410157316235 0 -0.074999149378373486 -6.9450961591714504e-06 0 -0.074995849835151132 -1.6774371531235917e-05 0 -0.075011949443388029 -2.7042872354259579e-05 0 -0.074105045490941671 -0.0010219277921001927 0 -0.074286316457651741 -0.0013826403183276402 0 -0.072883566222204987 -0.0030559026680986963 0 -0.073094880465615714 -0.0031582030666266834 0 -0.073024167894459605 -0.003363316835000657 0 -0.072883566222204987 -0.0030559026680986963 0 -0.073024167894459605 -0.003363316835000657 0 -0.072809933115428882 -0.0033771552026078226 0 -0.072809933115428882 -0.0033771552026078226 0 -0.072907188784184895 -0.0035615787509240431 0 -0.072740174401831018 -0.003690775278228575 0 -0.073839607464837184 -0.002148410157316235 0 -0.073400848787738643 -0.0029052094885592436 0 -0.073024167894459605 -0.003363316835000657 0 -0.072809933115428882 -0.0033771552026078226 0 -0.072907188784184895 -0.0035615787509240431 0 -0.073024167894459605 -0.003363316835000657 0 -0.072907188784184895 -0.0035615787509240431 0 -0.073073770949807465 -0.0035754451479768691 0 -0.073073770949807465 -0.0035754451479768691 0 -0.073229532762743285 -0.0035910513797338698 0 -0.073239712965858544 -0.0034050821245528813 0 -0.073024167894459605 -0.003363316835000657 0 -0.073073770949807465 -0.0035754451479768691 0 -0.073239712965858544 -0.0034050821245528813 0 -0.074088599614401368 -0.002649486555526675 0 -0.074011035312858492 -0.002975676825058237 0 -0.073443617881452095 -0.0036371872501043383 0 -0.073387744605946131 -0.0035641219668488587 0 -0.073372869533575566 -0.0036592712238307464 0 -0.073229532762743285 -0.0035910513797338698 0 -0.073239712965858544 -0.0034050821245528813 0 -0.073372869533575566 -0.0036592712238307464 0 -0.073387744605946131 -0.0035641219668488587 0 -0.073292061253650342 -0.0035305934523698302 0 -0.073372869533575566 -0.0036592712238307464 0 -0.073488903485489546 -0.0035378060981282613 0 -0.073387744605946131 -0.0035641219668488587 0 -0.073352615071441765 -0.0034635593547228298 0 -0.073387744605946131 -0.0035641219668488587 0 -0.073352615071441765 -0.0034635593547228298 0 -0.073292061253650342 -0.0035305934523698302 0 -0.073094880465615714 -0.0031582030666266834 0 -0.073024167894459605 -0.003363316835000657 0 -0.073239712965858544 -0.0034050821245528813 0 -0.073210425831168047 -0.003386661230379923 0 -0.073352615071441765 -0.0034635593547228298 0 -0.073292061253650342 -0.0035305934523698302 0 -0.074286316457651741 -0.0013826403183276402 0 -0.074088599614401368 -0.002649486555526675 0 -0.074109159551088877 -0.00029940414938526368 0 -0.073790630468054383 -0.00038508884634994229 0 -0.073508263246039401 -0.00016481076076932513 0 -0.073940789580665328 -0.00049560052473059579 0 -0.073790630468054383 -0.00038508884634994229 0 -0.073679998319567286 -0.00051404983496127334 0 -0.073940789580665328 -0.00049560052473059579 0 -0.074109159551088877 -0.00029940414938526368 0 -0.073790630468054383 -0.00038508884634994229 0 -0.074527925567788006 -7.1132560766856272e-05 0 -0.074440306079071997 -9.3709534242690024e-05 0 -0.07499947847986739 -1.9651583200901305e-07 0 -0.074690255401041433 9.6699370655976127e-06 0 -0.075034760628331282 2.2050523812437734e-05 0 -0.074109159551088877 -0.00029940414938526368 0 -0.074690255401041433 9.6699370655976127e-06 0 -0.073508263246039401 -0.00016481076076932513 0 -0.07499947847986739 -1.9651583200901305e-07 0 -0.074690255401041433 9.6699370655976127e-06 0 -0.074998763377235017 2.6809141253043617e-07 0 -0.074690255401041433 9.6699370655976127e-06 0 -0.074354795771979496 -0.00028931949627907693 0 -0.074743830970851396 -9.0073847266759576e-05 0 -0.074109159551088877 -0.00029940414938526368 0 -0.074690255401041433 9.6699370655976127e-06 0 -0.074354795771979496 -0.00028931949627907693 0 -0.073940789580665328 -0.00049560052473059579 0 -0.074109159551088877 -0.00029940414938526368 0 -0.074354795771979496 -0.00028931949627907693 0 -0.073940789580665328 -0.00049560052473059579 0 -0.074354795771979496 -0.00028931949627907693 0 -0.073931780998757773 -0.00058448218093327617 0 -0.074354795771979496 -0.00028931949627907693 0 -0.074565601079777361 -0.00036862771487456856 0 -0.073931780998757773 -0.00058448218093327617 0 -0.074565601079777361 -0.00036862771487456856 0 -0.074743830970851396 -9.0073847266759576e-05 0 -0.075057381610712848 5.8032603588959124e-05 0 -0.074354795771979496 -0.00028931949627907693 0 -0.074565601079777361 -0.00036862771487456856 0 -0.074743830970851396 -9.0073847266759576e-05 0 -0.074690255401041433 9.6699370655976127e-06 0 -0.074998763377235017 2.6809141253043617e-07 0 -0.074743830970851396 -9.0073847266759576e-05 0 -0.074998763377235017 2.6809141253043617e-07 0 -0.074743830970851396 -9.0073847266759576e-05 0 -0.075057381610712848 5.8032603588959124e-05 0 -0.07499939403011803 -1.1910823111925641e-06 0 -0.074703305430724787 -0.00047535799702681162 0 -0.075000000522250504 1.7415231435136342e-09 0 -0.07499999566803485 -4.4473946993372581e-09 0 -0.074999235437161804 -1.6967338225597188e-06 0 -0.074999118144477961 -3.3201784785960809e-06 0 -0.07499999566803485 -4.4473946993372581e-09 0 -0.074999235437161804 -1.6967338225597188e-06 0 -0.075625149520877677 -9.9535202906325071e-05 0 -0.075057381610712848 5.8032603588959124e-05 0 -0.075090002113707213 -0.0004296695700361488 0 -0.074565601079777361 -0.00036862771487456856 0 -0.075057381610712848 5.8032603588959124e-05 0 -0.075090002113707213 -0.0004296695700361488 0 -0.074565601079777361 -0.00036862771487456856 0 -0.075090002113707213 -0.0004296695700361488 0 -0.074607195488251982 -0.00092629133713038523 0 -0.075571872386083927 -0.0010764295092030144 0 -0.075090002113707213 -0.0004296695700361488 0 -0.074607195488251982 -0.00092629133713038523 0 -0.075571872386083927 -0.0010764295092030144 0 -0.07443898911618485 -0.0022726990192039726 0 -0.075307874549311482 -0.0025973144620536895 0 -0.075571872386083927 -0.0010764295092030144 0 -0.074607195488251982 -0.00092629133713038523 0 -0.07443898911618485 -0.0022726990192039726 0 -0.072999264408965675 -0.0025067922132609196 0 -0.07321632042508118 -0.0026519070437881196 0 -0.073844348513461458 -0.0012809684724290375 0 -0.07281667637306688 -0.0019839924495528216 0 -0.07443898911618485 -0.0022726990192039726 0 -0.073844348513461458 -0.0012809684724290375 0 -0.074607195488251982 -0.00092629133713038523 0 -0.07443898911618485 -0.0022726990192039726 0 -0.073844348513461458 -0.0012809684724290375 0 -0.07405644591092557 -0.00075407501078419894 0 -0.073426133407888616 -0.00079601528281713805 0 -0.073844348513461458 -0.0012809684724290375 0 -0.074607195488251982 -0.00092629133713038523 0 -0.07405644591092557 -0.00075407501078419894 0 -0.074565601079777361 -0.00036862771487456856 0 -0.074607195488251982 -0.00092629133713038523 0 -0.07405644591092557 -0.00075407501078419894 0 -0.074565601079777361 -0.00036862771487456856 0 -0.07405644591092557 -0.00075407501078419894 0 -0.073931780998757773 -0.00058448218093327617 0 -0.073940789580665328 -0.00049560052473059579 0 -0.073931780998757773 -0.00058448218093327617 0 -0.073705135803951896 -0.00070652324945648392 0 -0.073931780998757773 -0.00058448218093327617 0 -0.073426133407888616 -0.00079601528281713805 0 -0.073705135803951896 -0.00070652324945648392 0 -0.07405644591092557 -0.00075407501078419894 0 -0.073931780998757773 -0.00058448218093327617 0 -0.073426133407888616 -0.00079601528281713805 0 -0.073844348513461458 -0.0012809684724290375 0 -0.073426133407888616 -0.00079601528281713805 0 -0.07281667637306688 -0.0019839924495528216 0 -0.07281667637306688 -0.0019839924495528216 0 -0.071120789582967484 -0.0019725926889181452 0 -0.071821720827992402 -0.0025197141946422278 0 -0.072722375354121183 -0.0013559533382987148 0 -0.072457580923469586 -0.0016120819891031889 0 -0.073426133407888616 -0.00079601528281713805 0 -0.07281667637306688 -0.0019839924495528216 0 -0.071120789582967484 -0.0019725926889181452 0 -0.073690894417895988 -0.0006658127598827057 0 -0.073672115216710146 -0.00067159184819498281 0 -0.073609410855129564 -0.00069455757595795055 0 -0.073690894417895988 -0.0006658127598827057 0 -0.073672115216710146 -0.00067159184819498281 0 -0.073705135803951896 -0.00070652324945648392 0 -0.073426133407888616 -0.00079601528281713805 0 -0.073690894417895988 -0.0006658127598827057 0 -0.073705135803951896 -0.00070652324945648392 0 -0.073672115216710146 -0.00067159184819498281 0 -0.073705135803951896 -0.00070652324945648392 0 -0.073640033645563804 -0.0006196855415918428 0 -0.073705135803951896 -0.00070652324945648392 0 -0.073679998319567286 -0.00051404983496127334 0 -0.073640033645563804 -0.0006196855415918428 0 -0.073940789580665328 -0.00049560052473059579 0 -0.073705135803951896 -0.00070652324945648392 0 -0.073679998319567286 -0.00051404983496127334 0 -0.071086764793988774 -0.0030827430268224737 0 -0.070722933216431014 -0.0038235317174006452 0 -0.070149131414065716 -0.0037402667135565219 0 -0.071086764793988774 -0.0030827430268224737 0 -0.071452978409627194 -0.0035675299117905093 0 -0.070722933216431014 -0.0038235317174006452 0 -0.071120789582967484 -0.0019725926889181452 0 -0.071086764793988774 -0.0030827430268224737 0 -0.070104501015830115 -0.0028583037912826245 0 -0.071120789582967484 -0.0019725926889181452 0 -0.071086764793988774 -0.0030827430268224737 0 -0.071821720827992402 -0.0025197141946422278 0 -0.071086764793988774 -0.0030827430268224737 0 -0.071821720827992402 -0.0025197141946422278 0 -0.072121726674082356 -0.0027983666992998069 0 -0.07281667637306688 -0.0019839924495528216 0 -0.071821720827992402 -0.0025197141946422278 0 -0.072121726674082356 -0.0027983666992998069 0 -0.071086764793988774 -0.0030827430268224737 0 -0.072121726674082356 -0.0027983666992998069 0 -0.071452978409627194 -0.0035675299117905093 0 -0.072121726674082356 -0.0027983666992998069 0 -0.072159162577103086 -0.0034283938922102884 0 -0.071452978409627194 -0.0035675299117905093 0 -0.072121726674082356 -0.0027983666992998069 0 -0.072159162577103086 -0.0034283938922102884 0 -0.072556706557438608 -0.0028968695807191987 0 -0.07281667637306688 -0.0019839924495528216 0 -0.072121726674082356 -0.0027983666992998069 0 -0.072576772261608774 -0.0024338670692866638 0 -0.072121726674082356 -0.0027983666992998069 0 -0.072576772261608774 -0.0024338670692866638 0 -0.072556706557438608 -0.0028968695807191987 0 -0.072576772261608774 -0.0024338670692866638 0 -0.07298566827007015 -0.0026646154796843729 0 -0.072556706557438608 -0.0028968695807191987 0 -0.07321632042508118 -0.0026519070437881196 0 -0.073400848787738643 -0.0029052094885592436 0 -0.073400848787738643 -0.0029052094885592436 0 -0.073062890459958896 -0.0034553387462014492 0 -0.07298566827007015 -0.0026646154796843729 0 -0.072556706557438608 -0.0028968695807191987 0 -0.072784284669635727 -0.0033348649141730856 0 -0.072159162577103086 -0.0034283938922102884 0 -0.072556706557438608 -0.0028968695807191987 0 -0.072784284669635727 -0.0033348649141730856 0 -0.072159162577103086 -0.0034283938922102884 0 -0.072784284669635727 -0.0033348649141730856 0 -0.072353332435280734 -0.0041543619795744923 0 -0.073062890459958896 -0.0034553387462014492 0 -0.072938248990577187 -0.0036891046857059294 0 -0.072454290363801035 -0.0038836843685205458 0 -0.072353332435280734 -0.0041543619795744923 0 -0.072703357589032042 -0.0041030571884534024 0 -0.071736705488310598 -0.0040327268187934076 0 -0.070873926472630883 -0.0042878892663131074 0 -0.071887204856941625 -0.0050693210412037426 0 -0.072353332435280734 -0.0041543619795744923 0 -0.071736705488310598 -0.0040327268187934076 0 -0.071887204856941625 -0.0050693210412037426 0 -0.072159162577103086 -0.0034283938922102884 0 -0.071736705488310598 -0.0040327268187934076 0 -0.071452978409627194 -0.0035675299117905093 0 -0.072159162577103086 -0.0034283938922102884 0 -0.072353332435280734 -0.0041543619795744923 0 -0.071736705488310598 -0.0040327268187934076 0 -0.071452978409627194 -0.0035675299117905093 0 -0.070873926472630883 -0.0042878892663131074 0 -0.070722933216431014 -0.0038235317174006452 0 -0.071736705488310598 -0.0040327268187934076 0 -0.071452978409627194 -0.0035675299117905093 0 -0.070873926472630883 -0.0042878892663131074 0 -0.070159876388814449 -0.0046276878502111984 0 -0.070146363106209086 -0.0043271921843120011 0 -0.069728703083411864 -0.0048238979116822667 0 -0.070873926472630883 -0.0042878892663131074 0 -0.070159876388814449 -0.0046276878502111984 0 -0.070146363106209086 -0.0043271921843120011 0 -0.070873926472630883 -0.0042878892663131074 0 -0.070146363106209086 -0.0043271921843120011 0 -0.070722933216431014 -0.0038235317174006452 0 -0.070146363106209086 -0.0043271921843120011 0 -0.070722933216431014 -0.0038235317174006452 0 -0.070149131414065716 -0.0037402667135565219 0 -0.073275919576213461 -0.003919215522503466 0 -0.073229823195244015 -0.00371848496103708 0 -0.073011228838781569 -0.0038002381853397349 0 -0.073258753042371685 -0.0034584399060404564 0 -0.073196458522483396 -0.0032999062080260812 0 -0.073275919576213461 -0.003919215522503466 0 -0.072915173942571423 -0.0037507938507417024 0 -0.073024433157701157 -0.0040554724458140567 0 -0.073275919576213461 -0.003919215522503466 0 -0.073395851969304662 -0.0037926057895785645 0 -0.073381769239940553 -0.0040670537645331505 0 -0.073275919576213461 -0.003919215522503466 0 -0.073395851969304662 -0.0037926057895785645 0 -0.073229823195244015 -0.00371848496103708 0 -0.073395851969304662 -0.0037926057895785645 0 -0.073372869533575566 -0.0036592712238307464 0 -0.073229823195244015 -0.00371848496103708 0 -0.073441438470251294 -0.0037190649992952882 0 -0.073395851969304662 -0.0037926057895785645 0 -0.073372869533575566 -0.0036592712238307464 0 -0.073229532762743285 -0.0035910513797338698 0 -0.073372869533575566 -0.0036592712238307464 0 -0.073229823195244015 -0.00371848496103708 0 -0.073073770949807465 -0.0035754451479768691 0 -0.073229532762743285 -0.0035910513797338698 0 -0.073229823195244015 -0.00371848496103708 0 -0.073073770949807465 -0.0035754451479768691 0 -0.073229823195244015 -0.00371848496103708 0 -0.073011228838781569 -0.0038002381853397349 0 -0.072907188784184895 -0.0035615787509240431 0 -0.073073770949807465 -0.0035754451479768691 0 -0.073011228838781569 -0.0038002381853397349 0 -0.073400848787738643 -0.0029052094885592436 0 -0.073196458522483396 -0.0032999062080260812 0 -0.072907188784184895 -0.0035615787509240431 0 -0.072740174401831018 -0.003690775278228575 0 -0.073011228838781569 -0.0038002381853397349 0 -0.072454290363801035 -0.0038836843685205458 0 -0.072915173942571423 -0.0037507938507417024 0 -0.072703357589032042 -0.0041030571884534024 0 -0.072527834464386431 -0.0035849236680271872 0 -0.072454290363801035 -0.0038836843685205458 0 -0.072915173942571423 -0.0037507938507417024 0 -0.073024433157701157 -0.0040554724458140567 0 -0.072703357589032042 -0.0041030571884534024 0 -0.07298725097636212 -0.0043250732158072076 0 -0.072915173942571423 -0.0037507938507417024 0 -0.073024433157701157 -0.0040554724458140567 0 -0.072703357589032042 -0.0041030571884534024 0 -0.072703357589032042 -0.0041030571884534024 0 -0.07298725097636212 -0.0043250732158072076 0 -0.072721486861895071 -0.0047699208095918974 0 -0.072353332435280734 -0.0041543619795744923 0 -0.072703357589032042 -0.0041030571884534024 0 -0.072721486861895071 -0.0047699208095918974 0 -0.073217667983539611 -0.0041890108077583714 0 -0.073400992422347031 -0.0043319361062992565 0 -0.073142508247276417 -0.0045998351387253663 0 -0.07298725097636212 -0.0043250732158072076 0 -0.073217667983539611 -0.0041890108077583714 0 -0.073142508247276417 -0.0045998351387253663 0 -0.073024433157701157 -0.0040554724458140567 0 -0.07298725097636212 -0.0043250732158072076 0 -0.073217667983539611 -0.0041890108077583714 0 -0.073275919576213461 -0.003919215522503466 0 -0.073024433157701157 -0.0040554724458140567 0 -0.073217667983539611 -0.0041890108077583714 0 -0.073217667983539611 -0.0041890108077583714 0 -0.073381769239940553 -0.0040670537645331505 0 -0.073400992422347031 -0.0043319361062992565 0 -0.073622633539683013 -0.0041072675533292951 0 -0.073395851969304662 -0.0037926057895785645 0 -0.073381769239940553 -0.0040670537645331505 0 -0.073622633539683013 -0.0041072675533292951 0 -0.073381769239940553 -0.0040670537645331505 0 -0.073400992422347031 -0.0043319361062992565 0 -0.073275919576213461 -0.003919215522503466 0 -0.073217667983539611 -0.0041890108077583714 0 -0.073381769239940553 -0.0040670537645331505 0 -0.073400992422347031 -0.0043319361062992565 0 -0.073142508247276417 -0.0045998351387253663 0 -0.073457271693521051 -0.0044990198532089782 0 -0.068107978011264975 -0.0050172619299871527 0 -0.067222780251501635 -0.0044862077346843133 0 -0.061026738359501169 -0.0054963452066382678 0 -0.063189306626507652 -0.0063714162755556429 0 -0.060741753209773069 -0.0063966147878264734 0 -0.061919220612577618 -0.0049158726111066704 0 -0.062574100089600085 -0.0043239989289101735 0 -0.061026738359501169 -0.0054963452066382678 0 -0.062502913271085953 -0.00512196260533137 0 -0.062674946960817143 -0.0036469393673106173 0 -0.061026738359501169 -0.0054963452066382678 0 -0.061656005650935833 -0.0046110308585007248 0 -0.060830814983955026 -0.0048653315650531714 0 -0.061026738359501169 -0.0054963452066382678 0 -0.062502913271085953 -0.00512196260533137 0 -0.063189306626507652 -0.0063714162755556429 0 -0.062502913271085953 -0.00512196260533137 0 -0.063189306626507652 -0.0063714162755556429 0 -0.064549521688083367 -0.004351994516525408 0 -0.07298725097636212 -0.0043250732158072076 0 -0.073142508247276417 -0.0045998351387253663 0 -0.072721486861895071 -0.0047699208095918974 0 -0.068107978011264975 -0.0050172619299871527 0 -0.068975641102175481 -0.0052208473477386346 0 -0.065684243229565051 -0.0061365191610890883 0 -0.064549521688083367 -0.004351994516525408 0 -0.066993539486427459 -0.0045851773191200925 0 -0.063189306626507652 -0.0063714162755556429 0 -0.065684243229565051 -0.0061365191610890883 0 -0.064549521688083367 -0.004351994516525408 0 -0.064549521688083367 -0.004351994516525408 0 -0.06424712846253712 -0.0019673255737153628 0 -0.062674946960817143 -0.0036469393673106173 0 -0.064549521688083367 -0.004351994516525408 0 -0.066993539486427459 -0.0045851773191200925 0 -0.06637734741689659 -0.0028000285832860228 0 -0.063792614121760446 -0.0034994850897662332 0 -0.065465281894549934 -0.0037703430303501718 0 -0.064549521688083367 -0.004351994516525408 0 -0.06424712846253712 -0.0019673255737153628 0 -0.06637734741689659 -0.0028000285832860228 0 -0.064059826448625415 -0.0035755770918596236 0 -0.063051850868686449 -0.003709586146225271 0 -0.064854075644262113 -0.0043590105582917782 0 -0.064059826448625415 -0.0035755770918596236 0 -0.064854075644262113 -0.0043590105582917782 0 -0.064469862352719842 -0.0034252789183695557 0 -0.063792614121760446 -0.0034994850897662332 0 -0.063759500514689704 -0.003492616991243981 0 -0.061116644455476953 -0.0036386173432277329 0 -0.061656005650935833 -0.0046110308585007248 0 -0.061707547227770637 -0.0036044616944673406 0 -0.062322716248936469 -0.0037057420523773235 0 -0.061656005650935833 -0.0046110308585007248 0 -0.061707547227770637 -0.0036044616944673406 0 -0.062496581256465435 -0.0037692528894279686 0 -0.062322716248936469 -0.0037057420523773235 0 -0.061656005650935833 -0.0046110308585007248 0 -0.063792614121760446 -0.0034994850897662332 0 -0.062574100089600085 -0.0043239989289101735 0 -0.061116644455476953 -0.0036386173432277329 0 -0.060814138993140456 -0.0043124817525675803 0 -0.061656005650935833 -0.0046110308585007248 0 -0.061116644455476953 -0.0036386173432277329 0 -0.060814138993140456 -0.0043124817525675803 0 -0.060339889571440819 -0.0039089457513847223 0 -0.060814138993140456 -0.0043124817525675803 0 -0.061656005650935833 -0.0046110308585007248 0 -0.060830814983955026 -0.0048653315650531714 0 -0.062502913271085953 -0.00512196260533137 0 -0.064549521688083367 -0.004351994516525408 0 -0.062674946960817143 -0.0036469393673106173 0 -0.069860544285388779 -0.0050900058649306643 0 -0.069141397141249977 -0.0046133123921022739 0 -0.069728703083411864 -0.0048238979116822667 0 -0.069141397141249977 -0.0046133123921022739 0 -0.069728703083411864 -0.0048238979116822667 0 -0.069434511064731669 -0.0043720046778933661 0 -0.070159876388814449 -0.0046276878502111984 0 -0.069860544285388779 -0.0050900058649306643 0 -0.069728703083411864 -0.0048238979116822667 0 -0.070873926472630883 -0.0042878892663131074 0 -0.070159876388814449 -0.0046276878502111984 0 -0.069860544285388779 -0.0050900058649306643 0 -0.070873926472630883 -0.0042878892663131074 0 -0.069860544285388779 -0.0050900058649306643 0 -0.071887204856941625 -0.0050693210412037426 0 -0.069685749411607573 -0.0052459220993015046 0 -0.06954463423698716 -0.0052654447892623371 0 -0.069860544285388779 -0.0050900058649306643 0 -0.068785276104086052 -0.0047346354024471928 0 -0.069141397141249977 -0.0046133123921022739 0 -0.069860544285388779 -0.0050900058649306643 0 -0.068785276104086052 -0.0047346354024471928 0 -0.067875269088766621 -0.0057689084498351454 0 -0.068785276104086052 -0.0047346354024471928 0 -0.067875269088766621 -0.0057689084498351454 0 -0.066993539486427459 -0.0045851773191200925 0 -0.068975641102175481 -0.0052208473477386346 0 -0.06954463423698716 -0.0052654447892623371 0 -0.072353332435280734 -0.0041543619795744923 0 -0.072721486861895071 -0.0047699208095918974 0 -0.071887204856941625 -0.0050693210412037426 0 -0.065684243229565051 -0.0061365191610890883 0 -0.067875269088766621 -0.0057689084498351454 0 -0.066993539486427459 -0.0045851773191200925 0 -0.065465281894549934 -0.0037703430303501718 0 -0.067065754817980328 -0.0041816959698774241 0 -0.066993539486427459 -0.0045851773191200925 0 -0.06637734741689659 -0.0028000285832860228 0 -0.068312231197550616 -0.0037295142450124168 0 -0.064854075644262113 -0.0043590105582917782 0 -0.066953450815107216 -0.0047393888493295578 0 -0.065965759024767437 -0.0033950587030727036 0 -0.064854075644262113 -0.0043590105582917782 0 -0.065965759024767437 -0.0033950587030727036 0 -0.064469862352719842 -0.0034252789183695557 0 -0.066953450815107216 -0.0047393888493295578 0 -0.067908304626185551 -0.0037182882761763263 0 -0.065965759024767437 -0.0033950587030727036 0 -0.068785276104086052 -0.0047346354024471928 0 -0.066993539486427459 -0.0045851773191200925 0 -0.068312231197550616 -0.0037295142450124168 0 -0.068785276104086052 -0.0047346354024471928 0 -0.068312231197550616 -0.0037295142450124168 0 -0.069141397141249977 -0.0046133123921022739 0 -0.067065754817980328 -0.0041816959698774241 0 -0.067851238639601588 -0.0044033607013316198 0 -0.066953450815107216 -0.0047393888493295578 0 -0.067908304626185551 -0.0037182882761763263 0 -0.069141397141249977 -0.0046133123921022739 0 -0.067908304626185551 -0.0037182882761763263 0 -0.06893582175435839 -0.0037926348803026273 0 -0.069141397141249977 -0.0046133123921022739 0 -0.067908304626185551 -0.0037182882761763263 0 -0.06893582175435839 -0.0037926348803026273 0 -0.068364926773158349 -0.0031118602612281161 0 -0.06893582175435839 -0.0037926348803026273 0 -0.069141397141249977 -0.0046133123921022739 0 -0.069434511064731669 -0.0043720046778933661 0 -0.068453465413101947 -0.0025156053310278785 0 -0.068364926773158349 -0.0031118602612281161 0 -0.068895650955370299 -0.0030916135828083749 0 -0.06893582175435839 -0.0037926348803026273 0 -0.068364926773158349 -0.0031118602612281161 0 -0.068895650955370299 -0.0030916135828083749 0 -0.068453465413101947 -0.0025156053310278785 0 -0.068364926773158349 -0.0031118602612281161 0 -0.06695496003311828 -0.0023079600555694713 0 -0.067908304626185551 -0.0037182882761763263 0 -0.068364926773158349 -0.0031118602612281161 0 -0.06695496003311828 -0.0023079600555694713 0 -0.067401065947997801 -0.0025257631235720631 0 -0.066272812303953391 -0.0026207607362500177 0 -0.066904973168047902 -0.0026717615163735515 0 -0.065519522929676097 -0.0027827161978703869 0 -0.065977137919092668 -0.0017124559921145408 0 -0.065519522929676097 -0.0027827161978703869 0 -0.064851077208041036 -0.0024346308265050893 0 -0.064934416243124682 -0.001785689772364654 0 -0.067908304626185551 -0.0037182882761763263 0 -0.06695496003311828 -0.0023079600555694713 0 -0.065965759024767437 -0.0033950587030727036 0 -0.066272812303953391 -0.0026207607362500177 0 -0.065510839935238457 -0.0026971216228255596 0 -0.06695496003311828 -0.0023079600555694713 0 -0.065965759024767437 -0.0033950587030727036 0 -0.064470573469242842 -0.0027155120244014602 0 -0.065965759024767437 -0.0033950587030727036 0 -0.064469862352719842 -0.0034252789183695557 0 -0.064470573469242842 -0.0027155120244014602 0 -0.064851077208041036 -0.0024346308265050893 0 -0.064470573469242842 -0.0027155120244014602 0 -0.064222724222865721 -0.0024379981728066135 0 -0.065519522929676097 -0.0027827161978703869 0 -0.064851077208041036 -0.0024346308265050893 0 -0.064470573469242842 -0.0027155120244014602 0 -0.064851077208041036 -0.0024346308265050893 0 -0.064293272222999326 -0.0019700745029039204 0 -0.064222724222865721 -0.0024379981728066135 0 -0.064293272222999326 -0.0019700745029039204 0 -0.064934416243124682 -0.001785689772364654 0 -0.063759958270894798 -0.0011825092200102786 0 -0.064851077208041036 -0.0024346308265050893 0 -0.064293272222999326 -0.0019700745029039204 0 -0.064934416243124682 -0.001785689772364654 0 -0.064934416243124682 -0.001785689772364654 0 -0.065159610926635261 -0.0006535744850938392 0 -0.063759958270894798 -0.0011825092200102786 0 -0.065159610926635261 -0.0006535744850938392 0 -0.063759958270894798 -0.0011825092200102786 0 -0.063616615399718329 0.00063919970088646694 0 -0.064934416243124682 -0.001785689772364654 0 -0.065159610926635261 -0.0006535744850938392 0 -0.065977137919092668 -0.0017124559921145408 0 -0.065519522929676097 -0.0027827161978703869 0 -0.064934416243124682 -0.001785689772364654 0 -0.065977137919092668 -0.0017124559921145408 0 -0.066904973168047902 -0.0026717615163735515 0 -0.065977137919092668 -0.0017124559921145408 0 -0.066804466925592568 -0.001551720893130852 0 -0.065977137919092668 -0.0017124559921145408 0 -0.066451553546109224 -0.00081354077526262175 0 -0.066804466925592568 -0.001551720893130852 0 -0.065159610926635261 -0.0006535744850938392 0 -0.065977137919092668 -0.0017124559921145408 0 -0.066451553546109224 -0.00081354077526262175 0 -0.066451553546109224 -0.00081354077526262175 0 -0.067134043901622309 -0.0010545231674493603 0 -0.066804466925592568 -0.001551720893130852 0 -0.067134043901622309 -0.0010545231674493603 0 -0.066804466925592568 -0.001551720893130852 0 -0.067546530665423252 -0.0016046696169088525 0 -0.066904973168047902 -0.0026717615163735515 0 -0.066804466925592568 -0.001551720893130852 0 -0.067546530665423252 -0.0016046696169088525 0 -0.062279070360572245 -0.00270316359297039 0 -0.062699709293041458 -0.0021895343387004691 0 -0.061559345129506657 -0.0019795967853174197 0 -0.061744913321210029 -0.0030875579730105704 0 -0.062279070360572245 -0.00270316359297039 0 -0.061559345129506657 -0.0019795967853174197 0 -0.060867719765668474 -0.0027934135993672908 0 -0.061744913321210029 -0.0030875579730105704 0 -0.061559345129506657 -0.0019795967853174197 0 -0.060867719765668474 -0.0027934135993672908 0 -0.061559345129506657 -0.0019795967853174197 0 -0.060192799433449302 -0.0020622658942746558 0 -0.061116644455476953 -0.0036386173432277329 0 -0.060867719765668474 -0.0027934135993672908 0 -0.061744913321210029 -0.0030875579730105704 0 -0.061116644455476953 -0.0036386173432277329 0 -0.061707547227770637 -0.0036044616944673406 0 -0.061744913321210029 -0.0030875579730105704 0 -0.062322716248936469 -0.0037057420523773235 0 -0.061707547227770637 -0.0036044616944673406 0 -0.061744913321210029 -0.0030875579730105704 0 -0.062531031370058263 -0.0037995235286873382 0 -0.062322716248936469 -0.0037057420523773235 0 -0.062638070510357816 -0.0033124737026418846 0 -0.061744913321210029 -0.0030875579730105704 0 -0.062638070510357816 -0.0033124737026418846 0 -0.062279070360572245 -0.00270316359297039 0 -0.062322716248936469 -0.0037057420523773235 0 -0.061744913321210029 -0.0030875579730105704 0 -0.062638070510357816 -0.0033124737026418846 0 -0.063792614121760446 -0.0034994850897662332 0 -0.063851406820144507 -0.0032570964494234933 0 -0.064059826448625415 -0.0035755770918596236 0 -0.063051850868686449 -0.003709586146225271 0 -0.063878025972027908 -0.0028694575904494395 0 -0.062531031370058263 -0.0037995235286873382 0 -0.062638070510357816 -0.0033124737026418846 0 -0.063239432796850209 -0.0032462066711146658 0 -0.062638070510357816 -0.0033124737026418846 0 -0.063239432796850209 -0.0032462066711146658 0 -0.06282696705293192 -0.0028489156779178027 0 -0.062638070510357816 -0.0033124737026418846 0 -0.062279070360572245 -0.00270316359297039 0 -0.06282696705293192 -0.0028489156779178027 0 -0.064059826448625415 -0.0035755770918596236 0 -0.064469862352719842 -0.0034252789183695557 0 -0.063878025972027908 -0.0028694575904494395 0 -0.063878025972027908 -0.0028694575904494395 0 -0.064470573469242842 -0.0027155120244014602 0 -0.064222724222865721 -0.0024379981728066135 0 -0.064469862352719842 -0.0034252789183695557 0 -0.063878025972027908 -0.0028694575904494395 0 -0.064470573469242842 -0.0027155120244014602 0 -0.063851406820144507 -0.0032570964494234933 0 -0.063978128414432872 -0.0030667949605112325 0 -0.063239432796850209 -0.0032462066711146658 0 -0.064222724222865721 -0.0024379981728066135 0 -0.063299680682407947 -0.0025142621598024345 0 -0.064222724222865721 -0.0024379981728066135 0 -0.063299680682407947 -0.0025142621598024345 0 -0.063536387836606742 -0.0019106354772423714 0 -0.063299680682407947 -0.0025142621598024345 0 -0.062699709293041458 -0.0021895343387004691 0 -0.063536387836606742 -0.0019106354772423714 0 -0.064293272222999326 -0.0019700745029039204 0 -0.064222724222865721 -0.0024379981728066135 0 -0.063536387836606742 -0.0019106354772423714 0 -0.062279070360572245 -0.00270316359297039 0 -0.06282696705293192 -0.0028489156779178027 0 -0.062699709293041458 -0.0021895343387004691 0 -0.063239432796850209 -0.0032462066711146658 0 -0.063299680682407947 -0.0025142621598024345 0 -0.06282696705293192 -0.0028489156779178027 0 -0.063299680682407947 -0.0025142621598024345 0 -0.06282696705293192 -0.0028489156779178027 0 -0.062699709293041458 -0.0021895343387004691 0 -0.062699709293041458 -0.0021895343387004691 0 -0.062452207792572829 -0.0013532032523155295 0 -0.063536387836606742 -0.0019106354772423714 0 -0.062699709293041458 -0.0021895343387004691 0 -0.062452207792572829 -0.0013532032523155295 0 -0.061559345129506657 -0.0019795967853174197 0 -0.062452207792572829 -0.0013532032523155295 0 -0.063536387836606742 -0.0019106354772423714 0 -0.063759958270894798 -0.0011825092200102786 0 -0.064293272222999326 -0.0019700745029039204 0 -0.063536387836606742 -0.0019106354772423714 0 -0.063759958270894798 -0.0011825092200102786 0 -0.062452207792572829 -0.0013532032523155295 0 -0.063759958270894798 -0.0011825092200102786 0 -0.062001595118288899 -0.00013599559865738265 0 -0.062452207792572829 -0.0013532032523155295 0 -0.061483670369768866 -0.00080622074334132205 0 -0.062001595118288899 -0.00013599559865738265 0 -0.062452207792572829 -0.0013532032523155295 0 -0.061483670369768866 -0.00080622074334132205 0 -0.061559345129506657 -0.0019795967853174197 0 -0.061483670369768866 -0.00080622074334132205 0 -0.061559345129506657 -0.0019795967853174197 0 -0.060504628997325234 -0.00089119377770109491 0 -0.061559345129506657 -0.0019795967853174197 0 -0.060504628997325234 -0.00089119377770109491 0 -0.060192799433449302 -0.0020622658942746558 0 -0.061483670369768866 -0.00080622074334132205 0 -0.060504628997325234 -0.00089119377770109491 0 -0.061061071275528733 0.00011704862255663463 0 -0.060504628997325234 -0.00089119377770109491 0 -0.059768255277741246 -0.00058071767360503353 0 -0.05935706033516909 -0.0012726445183968039 0 -0.059768255277741246 -0.00058071767360503353 0 -0.05935706033516909 -0.0012726445183968039 0 -0.059145648834275318 -0.00026546293401819411 0 -0.05935706033516909 -0.0012726445183968039 0 -0.059242939055921408 -0.0022769446296211668 0 -0.058376134287802479 -0.0016622510777819402 0 -0.05935706033516909 -0.0012726445183968039 0 -0.060192799433449302 -0.0020622658942746558 0 -0.059242939055921408 -0.0022769446296211668 0 -0.060504628997325234 -0.00089119377770109491 0 -0.05935706033516909 -0.0012726445183968039 0 -0.060192799433449302 -0.0020622658942746558 0 -0.060867719765668474 -0.0027934135993672908 0 -0.060192799433449302 -0.0020622658942746558 0 -0.059679624307127969 -0.003208339431048775 0 -0.060192799433449302 -0.0020622658942746558 0 -0.059242939055921408 -0.0022769446296211668 0 -0.059679624307127969 -0.003208339431048775 0 -0.059242939055921408 -0.0022769446296211668 0 -0.059679624307127969 -0.003208339431048775 0 -0.058379180133935366 -0.0027735565732686074 0 -0.059638282634560204 -0.0030718897055014263 0 -0.05839313231780318 -0.0026506024271067833 0 -0.061116644455476953 -0.0036386173432277329 0 -0.060867719765668474 -0.0027934135993672908 0 -0.059679624307127969 -0.003208339431048775 0 -0.060316793979751017 -0.0033012210208048483 0 -0.059638282634560204 -0.0030718897055014263 0 -0.057648044855516604 -0.0026141670158081011 0 -0.058048180489474896 -0.0031992228353224135 0 -0.057367538156910022 -0.0036202387298301174 0 -0.057648044855516604 -0.0026141670158081011 0 -0.058048180489474896 -0.0031992228353224135 0 -0.058528046097013633 -0.0025404669745313444 0 -0.05994164281051019 -0.0030906107262692012 0 -0.058528046097013633 -0.0025404669745313444 0 -0.058639230578426856 -0.0034277807871066807 0 -0.058048180489474896 -0.0031992228353224135 0 -0.058528046097013633 -0.0025404669745313444 0 -0.058639230578426856 -0.0034277807871066807 0 -0.059242939055921408 -0.0022769446296211668 0 -0.058379180133935366 -0.0027735565732686074 0 -0.058376134287802479 -0.0016622510777819402 0 -0.058379180133935366 -0.0027735565732686074 0 -0.057206894311908785 -0.0021662602687917603 0 -0.056894328162369084 -0.0022685304311438888 0 -0.05839313231780318 -0.0026506024271067833 0 -0.05706612274508191 -0.0022102230496200072 0 -0.057648044855516604 -0.0026141670158081011 0 -0.058528046097013633 -0.0025404669745313444 0 -0.056963950224311687 -0.00199495972158235 0 -0.058379180133935366 -0.0027735565732686074 0 -0.058376134287802479 -0.0016622510777819402 0 -0.057206894311908785 -0.0021662602687917603 0 -0.058376134287802479 -0.0016622510777819402 0 -0.057670180747625838 -0.0010500204635209502 0 -0.057206894311908785 -0.0021662602687917603 0 -0.051667780033120808 0.00047305607264682775 0 -0.052820330818260292 -0.00044100088769031897 0 -0.05935706033516909 -0.0012726445183968039 0 -0.058403050545851765 -0.00063275217514697146 0 -0.059145648834275318 -0.00026546293401819411 0 -0.05935706033516909 -0.0012726445183968039 0 -0.058376134287802479 -0.0016622510777819402 0 -0.058403050545851765 -0.00063275217514697146 0 -0.051667780033120808 0.00047305607264682775 0 -0.047310508222567438 0.0026005412006487017 0 -0.058403050545851765 -0.00063275217514697146 0 -0.057670180747625838 -0.0010500204635209502 0 -0.05805289418468626 -1.894926751455004e-05 0 -0.058376134287802479 -0.0016622510777819402 0 -0.058403050545851765 -0.00063275217514697146 0 -0.057670180747625838 -0.0010500204635209502 0 -0.05573340373976652 -2.0772150478007649e-05 0 -0.056610507610575025 -0.0011935141969302706 0 -0.056908986918499792 0.00015206351099249124 0 -0.057361505049590346 -0.00059458590285607724 0 -0.056610507610575025 -0.0011935141969302706 0 -0.056908986918499792 0.00015206351099249124 0 -0.05573340373976652 -2.0772150478007649e-05 0 -0.055676346726916147 -0.00092911986970885361 0 -0.056610507610575025 -0.0011935141969302706 0 -0.055676346726916147 -0.00092911986970885361 0 -0.056610507610575025 -0.0011935141969302706 0 -0.055287825476158202 -0.0016076219056037912 0 -0.056610507610575025 -0.0011935141969302706 0 -0.055287825476158202 -0.0016076219056037912 0 -0.056894328162369084 -0.0022685304311438888 0 -0.057361505049590346 -0.00059458590285607724 0 -0.056610507610575025 -0.0011935141969302706 0 -0.057206894311908785 -0.0021662602687917603 0 -0.019825682668675799 0.012809667127482346 0 -0.01978780431670242 0.013564361695657595 0 -0.019119041292654959 0.012758269815338296 0 -0.01978780431670242 0.013564361695657595 0 -0.019119041292654959 0.012758269815338296 0 -0.018898973758985839 0.013710471249506813 0 -0.017903984946980766 0.012821572540196547 0 -0.019119041292654959 0.012758269815338296 0 -0.018898973758985839 0.013710471249506813 0 -0.05573340373976652 -2.0772150478007649e-05 0 -0.055676346726916147 -0.00092911986970885361 0 -0.054668876721396482 -0.0011138304951910807 0 -0.03682698587522882 0.0063373036284148799 0 -0.036767748949886672 0.0063411805395401132 0 -0.054668876721396482 -0.0011138304951910807 0 -0.054656581432685113 -0.0019561851078084215 0 -0.055287825476158202 -0.0016076219056037912 0 -0.055676346726916147 -0.00092911986970885361 0 -0.054668876721396482 -0.0011138304951910807 0 -0.055287825476158202 -0.0016076219056037912 0 -0.01978780431670242 0.013564361695657595 0 -0.019818816118670236 0.014587539888022713 0 -0.018898973758985839 0.013710471249506813 0 -0.053690590109153023 -0.0021205186102850981 0 -0.054668876721396482 -0.0011138304951910807 0 -0.054656581432685113 -0.0019561851078084215 0 -0.053690590109153023 -0.0021205186102850981 0 -0.054656581432685113 -0.0019561851078084215 0 -0.054517587067427806 -0.0025479198326362005 0 -0.036762590201876513 0.0064367254765330542 0 -0.036767748949886672 0.0063411805395401132 0 -0.054656581432685113 -0.0019561851078084215 0 -0.055145377123199925 -0.0023915349303365958 0 -0.054517587067427806 -0.0025479198326362005 0 -0.054656581432685113 -0.0019561851078084215 0 -0.055287825476158202 -0.0016076219056037912 0 -0.055145377123199925 -0.0023915349303365958 0 -0.055287825476158202 -0.0016076219056037912 0 -0.055145377123199925 -0.0023915349303365958 0 -0.055655923550716281 -0.0022423055879423966 0 -0.055145377123199925 -0.0023915349303365958 0 -0.054920189851423273 -0.0030879559606912764 0 -0.055846308026889842 -0.0028753218373978053 0 -0.054920189851423273 -0.0030879559606912764 0 -0.055846308026889842 -0.0028753218373978053 0 -0.0554457561570188 -0.0036616622456912087 0 -0.055145377123199925 -0.0023915349303365958 0 -0.054920189851423273 -0.0030879559606912764 0 -0.054517587067427806 -0.0025479198326362005 0 -0.054920189851423273 -0.0030879559606912764 0 -0.054048730156704687 -0.003107091759696336 0 -0.054517587067427806 -0.0025479198326362005 0 -0.053690590109153023 -0.0021205186102850981 0 -0.054048730156704687 -0.003107091759696336 0 -0.054517587067427806 -0.0025479198326362005 0 -0.056610507610575025 -0.0011935141969302706 0 -0.057206894311908785 -0.0021662602687917603 0 -0.056894328162369084 -0.0022685304311438888 0 -0.056963950224311687 -0.00199495972158235 0 -0.05635336999800214 -0.0020823885888432321 0 -0.056678027516485881 -0.0024935528007666331 0 -0.056963950224311687 -0.00199495972158235 0 -0.056678027516485881 -0.0024935528007666331 0 -0.057046672015711515 -0.0025160377462592307 0 -0.057648044855516604 -0.0026141670158081011 0 -0.056963950224311687 -0.00199495972158235 0 -0.057046672015711515 -0.0025160377462592307 0 -0.055287825476158202 -0.0016076219056037912 0 -0.056963950224311687 -0.00199495972158235 0 -0.05635336999800214 -0.0020823885888432321 0 -0.05627937229226139 -0.001956051721414455 0 -0.05706612274508191 -0.0022102230496200072 0 -0.055287825476158202 -0.0016076219056037912 0 -0.055655923550716281 -0.0022423055879423966 0 -0.05635336999800214 -0.0020823885888432321 0 -0.055655923550716281 -0.0022423055879423966 0 -0.05635336999800214 -0.0020823885888432321 0 -0.055846308026889842 -0.0028753218373978053 0 -0.05635336999800214 -0.0020823885888432321 0 -0.056035110808232688 -0.0029565189198552302 0 -0.056678027516485881 -0.0024935528007666331 0 -0.057737862218910529 -0.0028319231506156663 0 -0.057932750381961398 -0.0028401304446603851 0 -0.055145377123199925 -0.0023915349303365958 0 -0.055655923550716281 -0.0022423055879423966 0 -0.055846308026889842 -0.0028753218373978053 0 -0.056035110808232688 -0.0029565189198552302 0 -0.056893970848544195 -0.0029463705596115106 0 -0.056446464315583506 -0.0036582472139367341 0 -0.057648044855516604 -0.0026141670158081011 0 -0.056893970848544195 -0.0029463705596115106 0 -0.057367538156910022 -0.0036202387298301174 0 -0.056035110808232688 -0.0029565189198552302 0 -0.056893970848544195 -0.0029463705596115106 0 -0.056678027516485881 -0.0024935528007666331 0 -0.056893970848544195 -0.0029463705596115106 0 -0.056678027516485881 -0.0024935528007666331 0 -0.057046672015711515 -0.0025160377462592307 0 -0.057648044855516604 -0.0026141670158081011 0 -0.056893970848544195 -0.0029463705596115106 0 -0.057046672015711515 -0.0025160377462592307 0 -0.056859059638176293 -0.0040949558595111827 0 -0.056446464315583506 -0.0036582472139367341 0 -0.056408637396690664 -0.0045862405513875546 0 -0.057367538156910022 -0.0036202387298301174 0 -0.056859059638176293 -0.0040949558595111827 0 -0.056446464315583506 -0.0036582472139367341 0 -0.056893970848544195 -0.0029463705596115106 0 -0.057367538156910022 -0.0036202387298301174 0 -0.056446464315583506 -0.0036582472139367341 0 -0.057367538156910022 -0.0036202387298301174 0 -0.057301038309381644 -0.00423725505517607 0 -0.056859059638176293 -0.0040949558595111827 0 -0.056446464315583506 -0.0036582472139367341 0 -0.055658647467003129 -0.0038026435905980116 0 -0.056408637396690664 -0.0045862405513875546 0 -0.056035110808232688 -0.0029565189198552302 0 -0.056446464315583506 -0.0036582472139367341 0 -0.055658647467003129 -0.0038026435905980116 0 -0.057932750381961398 -0.0028401304446603851 0 -0.058873681718931758 -0.0022127503189026372 0 -0.058873681718931758 -0.0022127503189026372 0 -0.060550576071338152 -0.0021681800302880477 0 -0.062266060472844803 -0.0011176535525943205 0 -0.063257687525177769 -0.00083535427192010184 0 -0.062597992074995723 -0.00045002306930765724 0 -0.062829188249082721 -0.001731189281306227 0 -0.062266060472844803 -0.0011176535525943205 0 -0.063257687525177769 -0.00083535427192010184 0 -0.062266060472844803 -0.0011176535525943205 0 -0.062169878687661891 -0.00054454215316444615 0 -0.062597992074995723 -0.00045002306930765724 0 -0.062266060472844803 -0.0011176535525943205 0 -0.061697894481923823 -0.0005055483562242069 0 -0.062169878687661891 -0.00054454215316444615 0 -0.060550576071338152 -0.0021681800302880477 0 -0.062842471321270216 -0.0021884340297202306 0 -0.056408637396690664 -0.0045862405513875546 0 -0.057026593410800144 -0.0046168203440997181 0 -0.057170466225541436 -0.0053718042549206228 0 -0.057369166027997222 -0.0049493030010051868 0 -0.057026593410800144 -0.0046168203440997181 0 -0.057493971322323575 -0.0045879388031544489 0 -0.057369166027997222 -0.0049493030010051868 0 -0.057026593410800144 -0.0046168203440997181 0 -0.057170466225541436 -0.0053718042549206228 0 -0.057301038309381644 -0.00423725505517607 0 -0.057026593410800144 -0.0046168203440997181 0 -0.057493971322323575 -0.0045879388031544489 0 -0.057301038309381644 -0.00423725505517607 0 -0.056859059638176293 -0.0040949558595111827 0 -0.057026593410800144 -0.0046168203440997181 0 -0.056859059638176293 -0.0040949558595111827 0 -0.056408637396690664 -0.0045862405513875546 0 -0.057026593410800144 -0.0046168203440997181 0 -0.054920189851423273 -0.0030879559606912764 0 -0.054048730156704687 -0.003107091759696336 0 -0.054491433845444505 -0.003792402106379586 0 -0.053561991819647055 -0.0038742828923513952 0 -0.054048730156704687 -0.003107091759696336 0 -0.054491433845444505 -0.003792402106379586 0 -0.054920189851423273 -0.0030879559606912764 0 -0.055332244803454306 -0.0035312945003923243 0 -0.054491433845444505 -0.003792402106379586 0 -0.058384409247714014 -0.0020505314593208261 0 -0.058873681718931758 -0.0022127503189026372 0 -0.058873681718931758 -0.0022127503189026372 0 -0.058466861811027893 -0.001559434122479533 0 -0.055332244803454306 -0.0035312945003923243 0 -0.054491433845444505 -0.003792402106379586 0 -0.05487693949493521 -0.0044618647128996354 0 -0.054491433845444505 -0.003792402106379586 0 -0.05487693949493521 -0.0044618647128996354 0 -0.054099596801535907 -0.004463660235350623 0 -0.053561991819647055 -0.0038742828923513952 0 -0.054491433845444505 -0.003792402106379586 0 -0.054099596801535907 -0.004463660235350623 0 -0.05487693949493521 -0.0044618647128996354 0 -0.054099596801535907 -0.004463660235350623 0 -0.054424679605523295 -0.0054188340836822061 0 -0.053128705221526455 -0.00477546031413422 0 -0.054099596801535907 -0.004463660235350623 0 -0.054424679605523295 -0.0054188340836822061 0 -0.058466861811027893 -0.001559434122479533 0 -0.058345673008022556 0.00069900741775306692 0 -0.063257687525177769 -0.00083535427192010184 0 -0.063040824411201554 -0.00010275041483139427 0 -0.062597992074995723 -0.00045002306930765724 0 -0.063257687525177769 -0.00083535427192010184 0 -0.063040824411201554 -0.00010275041483139427 0 -0.063674753854445626 6.0421873439547979e-05 0 -0.063040824411201554 -0.00010275041483139427 0 -0.06293062552955736 0.00010155764973079121 0 -0.062682626089714616 1.2090708191725956e-06 0 -0.06392869268024598 0.00080634232992230761 0 -0.063541216766464056 0.00064011048350070382 0 -0.063581445881476684 0.00069443432240104646 0 -0.06392869268024598 0.00080634232992230761 0 -0.062931368754423886 0.00035465855872201363 0 -0.063341626572723006 0.00023338310873439165 0 -0.063904958817176893 -0.00010171764406094648 0 -0.063710515807430396 -0.00050459934843130876 0 -0.063067611499982079 0.00015127005497460035 0 -0.062931368754423886 0.00035465855872201363 0 -0.063341626572723006 0.00023338310873439165 0 -0.063040824411201554 -0.00010275041483139427 0 -0.06293062552955736 0.00010155764973079121 0 -0.063067611499982079 0.00015127005497460035 0 -0.063040824411201554 -0.00010275041483139427 0 -0.063067611499982079 0.00015127005497460035 0 -0.063341626572723006 0.00023338310873439165 0 -0.06293062552955736 0.00010155764973079121 0 -0.063067611499982079 0.00015127005497460035 0 -0.062931368754423886 0.00035465855872201363 0 -0.063040824411201554 -0.00010275041483139427 0 -0.063341626572723006 0.00023338310873439165 0 -0.063674753854445626 6.0421873439547979e-05 0 -0.058832864132802004 0.00051057626441361156 0 -0.058345673008022556 0.00069900741775306692 0 -0.06392869268024598 0.00080634232992230761 0 -0.063341626572723006 0.00023338310873439165 0 -0.063647946095035393 0.00010121283405732297 0 -0.060522715066206947 0.0026194652743773703 0 -0.058345673008022556 0.00069900741775306692 0 -0.058518093835958768 0.0045064003898268234 0 -0.058524793971318469 0.0043209152650432918 0 -0.058855450839498585 0.0047499224554062129 0 -0.058518093835958768 0.0045064003898268234 0 -0.058537152024591865 0.0047194241329674858 0 -0.058855450839498585 0.0047499224554062129 0 -0.061838428052762115 -0.00020463515019879713 0 -0.062169878687661891 -0.00054454215316444615 0 -0.06234950794127677 -0.00015366136615218803 0 -0.064702289589077241 -0.0013967246654572074 0 -0.064898793562271254 -0.001294577017183241 0 -0.0648877949969041 -0.0016270275259417581 0 -0.063724596183838134 -0.0016179204293017945 0 -0.063300921103541088 -0.0021250089489549019 0 -0.062581458147956154 -0.0023310762886668882 0 -0.062780063651963397 -0.0019107612080426044 0 -0.062979110937037869 -0.0021245804498254842 0 -0.063724596183838134 -0.0016179204293017945 0 -0.062842471321270216 -0.0021884340297202306 0 -0.057181862221276823 -0.0053621983948851527 0 -0.057361870035036976 -0.0055567883639221884 0 -0.057553683523853448 -0.0051725820140939476 0 -0.062842471321270216 -0.0021884340297202306 0 -0.063300921103541088 -0.0021250089489549019 0 -0.062544984903013162 -0.002589471085061734 0 -0.062842471321270216 -0.0021884340297202306 0 -0.057369166027997222 -0.0049493030010051868 0 -0.057181862221276823 -0.0053621983948851527 0 -0.057553683523853448 -0.0051725820140939476 0 -0.061838428052762115 -0.00020463515019879713 0 -0.061697894481923823 -0.0005055483562242069 0 -0.062169878687661891 -0.00054454215316444615 0 -0.062169878687661891 -0.00054454215316444615 0 -0.062597992074995723 -0.00045002306930765724 0 -0.06234950794127677 -0.00015366136615218803 0 -0.062931368754423886 0.00035465855872201363 0 -0.061838428052762115 -0.00020463515019879713 0 -0.06234950794127677 -0.00015366136615218803 0 -0.063040824411201554 -0.00010275041483139427 0 -0.062597992074995723 -0.00045002306930765724 0 -0.062682626089714616 1.2090708191725956e-06 0 -0.062597992074995723 -0.00045002306930765724 0 -0.06234950794127677 -0.00015366136615218803 0 -0.062682626089714616 1.2090708191725956e-06 0 -0.063541216766464056 0.00064011048350070382 0 -0.063301226453818943 0.00049433748502529583 0 -0.063427430064262519 0.00062646239431767209 0 -0.065247245024490946 -0.00021921306966200376 0 -0.066586183624312817 -0.00032421653246633334 0 -0.063710515807430396 -0.00050459934843130876 0 -0.063724596183838134 -0.0016179204293017945 0 -0.063581445881476684 0.00069443432240104646 0 -0.063427430064262519 0.00062646239431767209 0 -0.063371282983232344 0.00066233682298956476 0 -0.063480803205761993 0.00078949775501023923 0 -0.063581445881476684 0.00069443432240104646 0 -0.063199251011242574 0.00066596082255419116 0 -0.06293062552955736 0.00010155764973079121 0 -0.062931368754423886 0.00035465855872201363 0 -0.062682626089714616 1.2090708191725956e-06 0 -0.062931368754423886 0.00035465855872201363 0 -0.06234950794127677 -0.00015366136615218803 0 -0.062682626089714616 1.2090708191725956e-06 0 -0.063541216766464056 0.00064011048350070382 0 -0.063581445881476684 0.00069443432240104646 0 -0.063427430064262519 0.00062646239431767209 0 -0.063427430064262519 0.00062646239431767209 0 -0.063371282983232344 0.00066233682298956476 0 -0.063360557392153696 0.00063730988826671178 0 -0.065967813075591311 -0.00056840703662476349 0 -0.066160959998464358 -0.0006178840045040733 0 -0.066586183624312817 -0.00032421653246633334 0 -0.067244557409339545 -0.0011574070806727587 0 -0.066160959998464358 -0.0006178840045040733 0 -0.067244557409339545 -0.0011574070806727587 0 -0.065838991383197154 -0.0011328264186607597 0 -0.06596371526627183 -0.00086996501016385651 0 -0.067088157194689135 -0.0010861340766948554 0 -0.066586183624312817 -0.00032421653246633334 0 -0.066160959998464358 -0.0006178840045040733 0 -0.063724596183838134 -0.0016179204293017945 0 -0.066160959998464358 -0.0006178840045040733 0 -0.064702289589077241 -0.0013967246654572074 0 -0.064511077548224063 -0.0018038287966206463 0 -0.0648877949969041 -0.0016270275259417581 0 -0.063301226453818943 0.00049433748502529583 0 -0.063427430064262519 0.00062646239431767209 0 -0.063363279465361286 0.00063601760349660567 0 -0.064511077548224063 -0.0018038287966206463 0 -0.0648877949969041 -0.0016270275259417581 0 -0.064832972442396913 -0.001867358853163004 0 -0.063300921103541088 -0.0021250089489549019 0 -0.066114113938893382 -0.0022215115047076405 0 -0.0648877949969041 -0.0016270275259417581 0 -0.064832972442396913 -0.001867358853163004 0 -0.065413860819217684 -0.0018481199956254567 0 -0.067420349127919943 -0.0014735858549821442 0 -0.066927468859456316 -0.0015006490761263116 0 -0.066890273066329414 -0.0014613291611880431 0 -0.065011100511742803 -0.0022313011132743831 0 -0.06495202150469459 -0.0019779964463656598 0 -0.065051958246782893 -0.002229772121444954 0 -0.067420349127919943 -0.0014735858549821442 0 -0.066890273066329414 -0.0014613291611880431 0 -0.066773308397954215 -0.0013605358722650655 0 -0.064898793562271254 -0.001294577017183241 0 -0.0648877949969041 -0.0016270275259417581 0 -0.065413860819217684 -0.0018481199956254567 0 -0.067244557409339545 -0.0011574070806727587 0 -0.068352324668407002 -0.0028006131520194703 0 -0.067244557409339545 -0.0011574070806727587 0 -0.066114113938893382 -0.0022215115047076405 0 -0.066114113938893382 -0.0022215115047076405 0 -0.066115434572147039 -0.0022201643099368602 0 -0.058037185268256991 -0.0051465785931413856 0 -0.058430181165330379 -0.0052595724007349727 0 -0.058562445983769931 -0.0064458348156593518 0 -0.063600377619655799 -0.003117879491647553 0 -0.06660838219542671 -0.0023684388878671453 0 -0.064829231661673953 -0.0020411584320120502 0 -0.065011100511742803 -0.0022313011132743831 0 -0.06495202150469459 -0.0019779964463656598 0 -0.058183474010662629 -0.0050800338551326004 0 -0.058430181165330379 -0.0052595724007349727 0 -0.058485530297925373 -0.0049584707854854219 0 -0.058183474010662629 -0.0050800338551326004 0 -0.058037185268256991 -0.0051465785931413856 0 -0.058430181165330379 -0.0052595724007349727 0 -0.063520693599153633 -0.003156065399344181 0 -0.063600377619655799 -0.003117879491647553 0 -0.057361870035036976 -0.0055567883639221884 0 -0.058020162226971254 -0.0052185165839630093 0 -0.057553683523853448 -0.0051725820140939476 0 -0.063300921103541088 -0.0021250089489549019 0 -0.063600377619655799 -0.003117879491647553 0 -0.064198335186482089 -0.002899461853557874 0 -0.066691071904132787 -0.0032563171741013439 0 -0.058430181165330379 -0.0052595724007349727 0 -0.059216956511140756 -0.0063299898209164766 0 -0.059205648548423508 -0.0054728358328463393 0 -0.058818354663819482 -0.0050958895487857895 0 -0.058430181165330379 -0.0052595724007349727 0 -0.059205648548423508 -0.0054728358328463393 0 -0.058818354663819482 -0.0050958895487857895 0 -0.059205648548423508 -0.0054728358328463393 0 -0.059192204567667259 -0.0050733728776988481 0 -0.058818354663819482 -0.0050958895487857895 0 -0.058430181165330379 -0.0052595724007349727 0 -0.058485530297925373 -0.0049584707854854219 0 -0.067435751793749277 -0.0029327135816010087 0 -0.068281056871116769 -0.0030895871526806541 0 -0.067757191735977634 -0.0033697727648561884 0 -0.058430181165330379 -0.0052595724007349727 0 -0.058562445983769931 -0.0064458348156593518 0 -0.059336942111396347 -0.0064136302106457899 0 -0.066928073146242328 -0.0015026867579044662 0 -0.066890273066329414 -0.0014613291611880431 0 -0.066827524586695733 -0.0015063032655851438 0 -0.066114113938893382 -0.0022215115047076405 0 -0.06660838219542671 -0.0023684388878671453 0 -0.06660838219542671 -0.0023684388878671453 0 -0.068352324668407002 -0.0028006131520194703 0 -0.066890273066329414 -0.0014613291611880431 0 -0.066827524586695733 -0.0015063032655851438 0 -0.066773308397954215 -0.0013605358722650655 0 -0.068375911378479912 -0.0033428193625023406 0 -0.068281056871116769 -0.0030895871526806541 0 -0.067757191735977634 -0.0033697727648561884 0 -0.06660838219542671 -0.0023684388878671453 0 -0.066691071904132787 -0.0032563171741013439 0 -0.066691071904132787 -0.0032563171741013439 0 -0.067222780251501635 -0.0044862077346843133 0 -0.070042428104040946 -0.0041824587311142143 0 -0.066691071904132787 -0.0032563171741013439 0 -0.059216956511140756 -0.0063299898209164766 0 -0.059953497461875303 -0.0058937225833150461 0 -0.059205648548423508 -0.0054728358328463393 0 -0.059216956511140756 -0.0063299898209164766 0 -0.059953497461875303 -0.0058937225833150461 0 -0.060741753209773069 -0.0063966147878264734 0 -0.073602200650802987 -0.0044058065959008451 0 -0.073642124798066783 -0.0044677182054129183 0 -0.073457271693521051 -0.0044990198532089782 0 -0.059953497461875303 -0.0058937225833150461 0 -0.060741753209773069 -0.0063966147878264734 0 -0.060504317717483533 -0.0057734556418595545 0 -0.061026738359501169 -0.0054963452066382678 0 -0.060741753209773069 -0.0063966147878264734 0 -0.060504317717483533 -0.0057734556418595545 0 -0.061026738359501169 -0.0054963452066382678 0 -0.060504317717483533 -0.0057734556418595545 0 -0.060345862216182926 -0.0053394295388292648 0 -0.059953497461875303 -0.0058937225833150461 0 -0.060504317717483533 -0.0057734556418595545 0 -0.060345862216182926 -0.0053394295388292648 0 -0.060345862216182926 -0.0053394295388292648 0 -0.059728998562293606 -0.0051142379460617244 0 -0.060155650209986568 -0.0046128832459451964 0 -0.061026738359501169 -0.0054963452066382678 0 -0.060345862216182926 -0.0053394295388292648 0 -0.060830814983955026 -0.0048653315650531714 0 -0.059953497461875303 -0.0058937225833150461 0 -0.059205648548423508 -0.0054728358328463393 0 -0.059728998562293606 -0.0051142379460617244 0 -0.059953497461875303 -0.0058937225833150461 0 -0.060345862216182926 -0.0053394295388292648 0 -0.059728998562293606 -0.0051142379460617244 0 -0.059205648548423508 -0.0054728358328463393 0 -0.059728998562293606 -0.0051142379460617244 0 -0.059192204567667259 -0.0050733728776988481 0 -0.059728998562293606 -0.0051142379460617244 0 -0.059192204567667259 -0.0050733728776988481 0 -0.059380619445671461 -0.004611778898185921 0 -0.059728998562293606 -0.0051142379460617244 0 -0.059380619445671461 -0.004611778898185921 0 -0.060155650209986568 -0.0046128832459451964 0 -0.059380619445671461 -0.004611778898185921 0 -0.060155650209986568 -0.0046128832459451964 0 -0.059769821789027351 -0.0040562645173146247 0 -0.060345862216182926 -0.0053394295388292648 0 -0.060830814983955026 -0.0048653315650531714 0 -0.060155650209986568 -0.0046128832459451964 0 -0.060814138993140456 -0.0043124817525675803 0 -0.060155650209986568 -0.0046128832459451964 0 -0.060339889571440819 -0.0039089457513847223 0 -0.060814138993140456 -0.0043124817525675803 0 -0.060830814983955026 -0.0048653315650531714 0 -0.060155650209986568 -0.0046128832459451964 0 -0.061116644455476953 -0.0036386173432277329 0 -0.05994164281051019 -0.0030906107262692012 0 -0.060339889571440819 -0.0039089457513847223 0 -0.05994164281051019 -0.0030906107262692012 0 -0.060339889571440819 -0.0039089457513847223 0 -0.059769821789027351 -0.0040562645173146247 0 -0.060155650209986568 -0.0046128832459451964 0 -0.060339889571440819 -0.0039089457513847223 0 -0.059769821789027351 -0.0040562645173146247 0 -0.05994164281051019 -0.0030906107262692012 0 -0.059769821789027351 -0.0040562645173146247 0 -0.059008590551131508 -0.0040433093836148085 0 -0.05994164281051019 -0.0030906107262692012 0 -0.059008590551131508 -0.0040433093836148085 0 -0.058639230578426856 -0.0034277807871066807 0 -0.059380619445671461 -0.004611778898185921 0 -0.059769821789027351 -0.0040562645173146247 0 -0.059008590551131508 -0.0040433093836148085 0 -0.059008590551131508 -0.0040433093836148085 0 -0.058458058141690479 -0.0042077990810219139 0 -0.058639230578426856 -0.0034277807871066807 0 -0.058458058141690479 -0.0042077990810219139 0 -0.058639230578426856 -0.0034277807871066807 0 -0.058050594136947894 -0.0037810748703377018 0 -0.058048180489474896 -0.0031992228353224135 0 -0.058639230578426856 -0.0034277807871066807 0 -0.058050594136947894 -0.0037810748703377018 0 -0.058048180489474896 -0.0031992228353224135 0 -0.057367538156910022 -0.0036202387298301174 0 -0.058050594136947894 -0.0037810748703377018 0 -0.057367538156910022 -0.0036202387298301174 0 -0.058050594136947894 -0.0037810748703377018 0 -0.057837599533818694 -0.0042800358233853041 0 -0.057367538156910022 -0.0036202387298301174 0 -0.057301038309381644 -0.00423725505517607 0 -0.057837599533818694 -0.0042800358233853041 0 -0.058458058141690479 -0.0042077990810219139 0 -0.058050594136947894 -0.0037810748703377018 0 -0.057837599533818694 -0.0042800358233853041 0 -0.057837599533818694 -0.0042800358233853041 0 -0.057848102856635698 -0.0047638293892384269 0 -0.058274781906005872 -0.0046809238915365529 0 -0.058458058141690479 -0.0042077990810219139 0 -0.057837599533818694 -0.0042800358233853041 0 -0.058274781906005872 -0.0046809238915365529 0 -0.057493971322323575 -0.0045879388031544489 0 -0.057837599533818694 -0.0042800358233853041 0 -0.057848102856635698 -0.0047638293892384269 0 -0.057301038309381644 -0.00423725505517607 0 -0.057493971322323575 -0.0045879388031544489 0 -0.057837599533818694 -0.0042800358233853041 0 -0.057369166027997222 -0.0049493030010051868 0 -0.057493971322323575 -0.0045879388031544489 0 -0.057848102856635698 -0.0047638293892384269 0 -0.057369166027997222 -0.0049493030010051868 0 -0.057553683523853448 -0.0051725820140939476 0 -0.057848102856635698 -0.0047638293892384269 0 -0.058020162226971254 -0.0052185165839630093 0 -0.057553683523853448 -0.0051725820140939476 0 -0.057848102856635698 -0.0047638293892384269 0 -0.058183474010662629 -0.0050800338551326004 0 -0.057848102856635698 -0.0047638293892384269 0 -0.058274781906005872 -0.0046809238915365529 0 -0.058183474010662629 -0.0050800338551326004 0 -0.058034833194199192 -0.0051583244993515433 0 -0.057848102856635698 -0.0047638293892384269 0 -0.063600377619655799 -0.003117879491647553 0 -0.063434915626529614 -0.0031405785425116959 0 -0.058183474010662629 -0.0050800338551326004 0 -0.058274781906005872 -0.0046809238915365529 0 -0.058485530297925373 -0.0049584707854854219 0 -0.058274781906005872 -0.0046809238915365529 0 -0.058485530297925373 -0.0049584707854854219 0 -0.05877784472960898 -0.0047090965171563814 0 -0.058818354663819482 -0.0050958895487857895 0 -0.058485530297925373 -0.0049584707854854219 0 -0.05877784472960898 -0.0047090965171563814 0 -0.058818354663819482 -0.0050958895487857895 0 -0.059192204567667259 -0.0050733728776988481 0 -0.05877784472960898 -0.0047090965171563814 0 -0.059192204567667259 -0.0050733728776988481 0 -0.059380619445671461 -0.004611778898185921 0 -0.05877784472960898 -0.0047090965171563814 0 -0.059380619445671461 -0.004611778898185921 0 -0.059008590551131508 -0.0040433093836148085 0 -0.05877784472960898 -0.0047090965171563814 0 -0.059008590551131508 -0.0040433093836148085 0 -0.058458058141690479 -0.0042077990810219139 0 -0.05877784472960898 -0.0047090965171563814 0 -0.058458058141690479 -0.0042077990810219139 0 -0.058274781906005872 -0.0046809238915365529 0 -0.05877784472960898 -0.0047090965171563814 0 -0.059246963947016985 0.00019125516773492641 0 -0.063261789135672139 -5.3723057625639854e-07 0 -0.054604645171566241 3.3598810742107867e-06 0 -0.059246963947016985 0.00019125516773492641 0 -0.057198895200222477 0.00027050996228920572 0 -0.056816465819346684 0.00021562639194868218 0 -0.061528903437587552 0.00092445294966060469 0 -0.060686324690930382 0.00093746949396802915 0 -0.059246963947016985 0.00019125516773492641 0 -0.060939460311969319 0.00020885586603262228 0 -0.057198895200222477 0.00027050996228920572 0 -0.05714893231209002 0.00032999616010502932 0 -0.057024627100863805 0.00051222098467522978 0 -0.057198895200222477 0.00027050996228920572 0 -0.05714893231209002 0.00032999616010502932 0 -0.057024627100863805 0.00051222098467522978 0 -0.057381389124093837 0.00067708810174105412 0 -0.059246963947016985 0.00019125516773492641 0 -0.060939460311969319 0.00020885586603262228 0 -0.063154697672091684 0.00019438338868843554 0 -0.060939460311969319 0.00020885586603262228 0 -0.064296784468475157 0.00037161760788617394 0 -0.063154697672091684 0.00019438338868843554 0 -0.057039137933612392 0.0010538790870036814 0 -0.05740764282071642 0.0011129065107669954 0 -0.057381389124093837 0.00067708810174105412 0 -0.061528903437587552 0.00092445294966060469 0 -0.063831809098548797 0.00060202866550441482 0 -0.057024627100863805 0.00051222098467522978 0 -0.057039137933612392 0.0010538790870036814 0 -0.057381389124093837 0.00067708810174105412 0 -0.064296784468475157 0.00037161760788617394 0 -0.065849604664786246 9.3599046208138115e-05 0 -0.065886581827319657 -0.00057111679945677095 0 -0.063831809098548797 0.00060202866550441482 0 -0.067993343310371754 -0.0007608697847243305 0 -0.057039137933612392 0.0010538790870036814 0 -0.057261700763884413 0.0014079164083507381 0 -0.057066102145131949 0.0017705021032123902 0 -0.057039137933612392 0.0010538790870036814 0 -0.057261700763884413 0.0014079164083507381 0 -0.05740764282071642 0.0011129065107669954 0 -0.064296784468475157 0.00037161760788617394 0 -0.065849604664786246 9.3599046208138115e-05 0 -0.063154697672091684 0.00019438338868843554 0 -0.063154697672091684 0.00019438338868843554 0 -0.063261789135672139 -5.3723057625639854e-07 0 -0.066439658865360518 -0.00013177526315661005 0 -0.065849604664786246 9.3599046208138115e-05 0 -0.063154697672091684 0.00019438338868843554 0 -0.066439658865360518 -0.00013177526315661005 0 -0.059246963947016985 0.00019125516773492641 0 -0.063154697672091684 0.00019438338868843554 0 -0.063261789135672139 -5.3723057625639854e-07 0 -0.063261789135672139 -5.3723057625639854e-07 0 -0.066439658865360518 -0.00013177526315661005 0 -0.071997580039987172 7.800886755526404e-05 0 -0.063261789135672139 -5.3723057625639854e-07 0 -0.074995214559672133 2.8726259716793915e-07 0 -0.071997580039987172 7.800886755526404e-05 0 -0.066439658865360518 -0.00013177526315661005 0 -0.071997580039987172 7.800886755526404e-05 0 -0.068001536981427232 -0.00054143151068728097 0 -0.074995214559672133 2.8726259716793915e-07 0 -0.071997580039987172 7.800886755526404e-05 0 -0.074992526995716069 6.1135510723029203e-07 0 -0.071997580039987172 7.800886755526404e-05 0 -0.072323480918471725 0.00020419442255253955 0 -0.070723426827696959 -4.3996656689610957e-05 0 -0.071997580039987172 7.800886755526404e-05 0 -0.074992526995716069 6.1135510723029203e-07 0 -0.072323480918471725 0.00020419442255253955 0 -0.074999956381761185 5.1941724806250424e-09 0 -0.074964888119496198 -1.1977051344507143e-05 0 -0.074987677359974095 -5.8955392453218205e-06 0 -0.074994705081485757 1.237084136311528e-06 0 -0.072070789257314791 0.00025555071904616962 0 -0.072323480918471725 0.00020419442255253955 0 -0.070723426827696959 -4.3996656689610957e-05 0 -0.07073883749033999 -0.00095099047558820204 0 -0.072070789257314791 0.00025555071904616962 0 -0.067993343310371754 -0.0007608697847243305 0 -0.074964888119496198 -1.1977051344507143e-05 0 -0.074936763216218297 -4.6914269302202559e-05 0 -0.074966409763759539 -2.6149910155435102e-05 0 -0.074936763216218297 -4.6914269302202559e-05 0 -0.07495787047969904 -4.7022841690680842e-05 0 -0.074966409763759539 -2.6149910155435102e-05 0 -0.071997580039987172 7.800886755526404e-05 0 -0.070723426827696959 -4.3996656689610957e-05 0 -0.068001536981427232 -0.00054143151068728097 0 -0.070723426827696959 -4.3996656689610957e-05 0 -0.068001536981427232 -0.00054143151068728097 0 -0.07073883749033999 -0.00095099047558820204 0 -0.068070546457945136 -0.00074893182996183091 0 -0.067993343310371754 -0.0007608697847243305 0 -0.065849604664786246 9.3599046208138115e-05 0 -0.068001536981427232 -0.00054143151068728097 0 -0.065886581827319657 -0.00057111679945677095 0 -0.065849604664786246 9.3599046208138115e-05 0 -0.066439658865360518 -0.00013177526315661005 0 -0.068001536981427232 -0.00054143151068728097 0 -0.057066102145131949 0.0017705021032123902 0 -0.057288670672545818 0.0016889202596316207 0 -0.057368712969935579 0.0017830351793370507 0 -0.067993343310371754 -0.0007608697847243305 0 -0.068872789749912525 -0.00029504695609079479 0 -0.057261700763884413 0.0014079164083507381 0 -0.057066102145131949 0.0017705021032123902 0 -0.057288670672545818 0.0016889202596316207 0 -0.057866182265759 0.0016978540519073416 0 -0.057317916611312754 0.0018386733857216606 0 -0.058596986118375806 0.0019683044510216234 0 -0.068872789749912525 -0.00029504695609079479 0 -0.067572408369605125 0.00024520695050799245 0 -0.0575391706673377 0.0014464584675042108 0 -0.057866182265759 0.0016978540519073416 0 -0.057317916611312754 0.0018386733857216606 0 -0.057261700763884413 0.0014079164083507381 0 -0.057288670672545818 0.0016889202596316207 0 -0.0575391706673377 0.0014464584675042108 0 -0.057288670672545818 0.0016889202596316207 0 -0.0575391706673377 0.0014464584675042108 0 -0.057317916611312754 0.0018386733857216606 0 -0.068683179779213399 -0.0003878482665688179 0 -0.068872789749912525 -0.00029504695609079479 0 -0.057866182265759 0.0016978540519073416 0 -0.058596986118375806 0.0019683044510216234 0 -0.058420883123242756 8.8525795980143191e-05 0 -0.074869832399107772 -8.9063153323028208e-05 0 -0.074848245488852758 -2.786891610771115e-05 0 -0.074925059395017757 -3.24980970383868e-05 0 -0.068872789749912525 -0.00029504695609079479 0 -0.072472442468122733 0.00057410160382090618 0 -0.074770146192297923 -9.9645947890218003e-05 0 -0.074869832399107772 -8.9063153323028208e-05 0 -0.074848245488852758 -2.786891610771115e-05 0 -0.07495787047969904 -4.7022841690680842e-05 0 -0.074986016833804764 -2.1085183095861385e-05 0 -0.074966409763759539 -2.6149910155435102e-05 0 -0.074964888119496198 -1.1977051344507143e-05 0 -0.074966409763759539 -2.6149910155435102e-05 0 -0.074987677359974095 -5.8955392453218205e-06 0 -0.074986016833804764 -2.1085183095861385e-05 0 -0.074966409763759539 -2.6149910155435102e-05 0 -0.074987677359974095 -5.8955392453218205e-06 0 -0.074848245488852758 -2.786891610771115e-05 0 -0.074926061931137128 7.4653691370751122e-06 0 -0.074925059395017757 -3.24980970383868e-05 0 -0.072472442468122733 0.00057410160382090618 0 -0.074047135977454756 0.00037267769600268861 0 -0.074986016833804764 -2.1085183095861385e-05 0 -0.074987677359974095 -5.8955392453218205e-06 0 -0.074999276449901689 -4.498562965583376e-06 0 -0.074999276449901689 -4.498562965583376e-06 0 -0.074999998689483677 -1.9346417449418844e-09 0 -0.07500000258297794 -5.4678189452435844e-10 0 -0.074987677359974095 -5.8955392453218205e-06 0 -0.074999276449901689 -4.498562965583376e-06 0 -0.074999998689483677 -1.9346417449418844e-09 0 -0.074999956381761185 5.1941724806250424e-09 0 -0.074987677359974095 -5.8955392453218205e-06 0 -0.074999998689483677 -1.9346417449418844e-09 0 -0.074987492392277297 8.3706974695479196e-06 0 -0.074999813004855406 9.881276348039414e-08 0 -0.074970843374268403 6.2550338045341892e-07 0 -0.074987492392277297 8.3706974695479196e-06 0 -0.074999813004855406 9.881276348039414e-08 0 -0.075000143674942496 -7.7934574323160175e-08 0 -0.074926061931137128 7.4653691370751122e-06 0 -0.074999813004855406 9.881276348039414e-08 0 -0.074970843374268403 6.2550338045341892e-07 0 -0.074047135977454756 0.00037267769600268861 0 -0.074998174199655779 1.0872789277764792e-06 0 -0.074926061931137128 7.4653691370751122e-06 0 -0.074970843374268403 6.2550338045341892e-07 0 -0.074925059395017757 -3.24980970383868e-05 0 -0.074987492392277297 8.3706974695479196e-06 0 -0.074970843374268403 6.2550338045341892e-07 0 -0.074980335260343103 2.6297250261543899e-05 0 -0.074970843374268403 6.2550338045341892e-07 0 -0.074959782671574271 -3.3580984951078584e-05 0 -0.074925059395017757 -3.24980970383868e-05 0 -0.074970843374268403 6.2550338045341892e-07 0 -0.074959782671574271 -3.3580984951078584e-05 0 -0.074980936111955943 -1.6472137181049232e-05 0 -0.074869832399107772 -8.9063153323028208e-05 0 -0.074925059395017757 -3.24980970383868e-05 0 -0.074934422633728223 -6.6536272332285115e-05 0 -0.074959782671574271 -3.3580984951078584e-05 0 -0.074925059395017757 -3.24980970383868e-05 0 -0.074934422633728223 -6.6536272332285115e-05 0 -0.058596986118375806 0.0019683044510216234 0 -0.060345690891842121 0.0020153954150260935 0 -0.059506136533729707 0.0010718929722382837 0 -0.067572408369605125 0.00024520695050799245 0 -0.067782963148615968 0.00051885112770337193 0 -0.060345690891842121 0.0020153954150260935 0 -0.060447646450523626 0.0013002966842187737 0 -0.059506136533729707 0.0010718929722382837 0 -0.060345690891842121 0.0020153954150260935 0 -0.060447646450523626 0.0013002966842187737 0 -0.061621533647527538 0.0019416102780137532 0 -0.067782963148615968 0.00051885112770337193 0 -0.068289481004687541 0.00061779377606533954 0 -0.060345690891842121 0.0020153954150260935 0 -0.061621533647527538 0.0019416102780137532 0 -0.062010899236886755 0.0019990437957343957 0 -0.060447646450523626 0.0013002966842187737 0 -0.061621533647527538 0.0019416102780137532 0 -0.060302896423867228 0.00017323660717706568 0 -0.074959782671574271 -3.3580984951078584e-05 0 -0.074934422633728223 -6.6536272332285115e-05 0 -0.074971445751422214 -5.2832438844500193e-05 0 -0.061621533647527538 0.0019416102780137532 0 -0.061660591945410105 0.0005232854024757814 0 -0.060715673113050365 0.00053801677704587675 0 -0.060167417138323985 0.0017164713665477887 0 -0.059348624849503907 0.0012101928902450087 0 -0.061660591945410105 0.0005232854024757814 0 -0.061132735432876895 -0.00013044448792263159 0 -0.061378663126262355 -0.00082451178644410439 0 -0.065387594055662024 -6.3749846295374683e-05 0 -0.06449564943243967 -0.00055508546414937971 0 -0.061660591945410105 0.0005232854024757814 0 -0.061132735432876895 -0.00013044448792263159 0 -0.060715673113050365 0.00053801677704587675 0 -0.061716926766515731 0.00048116584167411802 0 -0.061378663126262355 -0.00082451178644410439 0 -0.061767874922280308 -0.00084750065639949189 0 -0.061132735432876895 -0.00013044448792263159 0 -0.06069165562369571 -0.00043963597107458973 0 -0.061013246152688154 -0.00057643196654895185 0 -0.061132735432876895 -0.00013044448792263159 0 -0.061378663126262355 -0.00082451178644410439 0 -0.061013246152688154 -0.00057643196654895185 0 -0.06069165562369571 -0.00043963597107458973 0 -0.060715673113050365 0.00053801677704587675 0 -0.059830850940415299 -0.00074575302188758261 0 -0.059348624849503907 0.0012101928902450087 0 -0.057671620036863047 0.0012360107601809452 0 -0.061132735432876895 -0.00013044448792263159 0 -0.06069165562369571 -0.00043963597107458973 0 -0.060715673113050365 0.00053801677704587675 0 -0.060302896423867228 0.00017323660717706568 0 -0.059506136533729707 0.0010718929722382837 0 -0.058420883123242756 8.8525795980143191e-05 0 -0.060447646450523626 0.0013002966842187737 0 -0.060302896423867228 0.00017323660717706568 0 -0.059506136533729707 0.0010718929722382837 0 -0.058596986118375806 0.0019683044510216234 0 -0.059506136533729707 0.0010718929722382837 0 -0.058420883123242756 8.8525795980143191e-05 0 -0.057846077597393852 0.0011231343302292925 0 -0.057900690888982621 0.00087194974617406861 0 -0.0575391706673377 0.0014464584675042108 0 -0.057866182265759 0.0016978540519073416 0 -0.057794789831436363 0.0010697299903103413 0 -0.0575391706673377 0.0014464584675042108 0 -0.057794789831436363 0.0010697299903103413 0 -0.05740764282071642 0.0011129065107669954 0 -0.057261700763884413 0.0014079164083507381 0 -0.0575391706673377 0.0014464584675042108 0 -0.05740764282071642 0.0011129065107669954 0 -0.057794789831436363 0.0010697299903103413 0 -0.05740764282071642 0.0011129065107669954 0 -0.057381389124093837 0.00067708810174105412 0 -0.060302896423867228 0.00017323660717706568 0 -0.058420883123242756 8.8525795980143191e-05 0 -0.059037445729031329 -0.0015560147414665128 0 -0.057794789831436363 0.0010697299903103413 0 -0.057844355108354152 0.00065117136767377324 0 -0.057381389124093837 0.00067708810174105412 0 -0.057900690888982621 0.00087194974617406861 0 -0.057671620036863047 0.0012360107601809452 0 -0.057671620036863047 0.0012360107601809452 0 -0.056202727522217777 0.0023468245579590956 0 -0.057844355108354152 0.00065117136767377324 0 -0.057381389124093837 0.00067708810174105412 0 -0.057399672353459774 0.00027730765498440788 0 -0.05714893231209002 0.00032999616010502932 0 -0.057381389124093837 0.00067708810174105412 0 -0.057399672353459774 0.00027730765498440788 0 -0.054994055963750788 0.0075809713900376894 0 -0.053683998135310142 0.0058071032157180477 0 -0.055702193842878889 0.0057144095295161151 0 -0.060365344124530033 -0.0021157120570739563 0 -0.060742784556692499 -0.0014615407415063089 0 -0.061306424778984285 -0.0021642926843470412 0 -0.059830850940415299 -0.00074575302188758261 0 -0.060365344124530033 -0.0021157120570739563 0 -0.060742784556692499 -0.0014615407415063089 0 -0.057671620036863047 0.0012360107601809452 0 -0.058441461441070604 0.0012107629064969402 0 -0.061306424778984285 -0.0021642926843470412 0 -0.061210016665602988 -0.0012430510024700756 0 -0.061767874922280308 -0.00084750065639949189 0 -0.060742784556692499 -0.0014615407415063089 0 -0.061306424778984285 -0.0021642926843470412 0 -0.061210016665602988 -0.0012430510024700756 0 -0.062448152265734184 -0.0039475102215224839 0 -0.064421428128720301 -0.0036007068712588684 0 -0.067062222900416996 -0.0094475025358526209 0 -0.067849559084256952 -0.0073430748114322181 0 -0.068081851132629531 -0.0083525971307469877 0 -0.061210016665602988 -0.0012430510024700756 0 -0.061378663126262355 -0.00082451178644410439 0 -0.060851818309901037 -0.00091061433840040863 0 -0.060742784556692499 -0.0014615407415063089 0 -0.061210016665602988 -0.0012430510024700756 0 -0.060851818309901037 -0.00091061433840040863 0 -0.061210016665602988 -0.0012430510024700756 0 -0.061378663126262355 -0.00082451178644410439 0 -0.061767874922280308 -0.00084750065639949189 0 -0.061378663126262355 -0.00082451178644410439 0 -0.061013246152688154 -0.00057643196654895185 0 -0.060851818309901037 -0.00091061433840040863 0 -0.06069165562369571 -0.00043963597107458973 0 -0.061013246152688154 -0.00057643196654895185 0 -0.060851818309901037 -0.00091061433840040863 0 -0.059830850940415299 -0.00074575302188758261 0 -0.060742784556692499 -0.0014615407415063089 0 -0.060851818309901037 -0.00091061433840040863 0 -0.06069165562369571 -0.00043963597107458973 0 -0.059830850940415299 -0.00074575302188758261 0 -0.060851818309901037 -0.00091061433840040863 0 -0.070204448545926446 -0.008278673648741899 0 -0.07141128896875612 -0.0072397672206228093 0 -0.072408699535947349 -0.0066483144530657028 0 -0.067149360468001351 -0.0094622043017977015 0 -0.067027855634577527 -0.0094394072328276794 0 -0.066980559762568948 -0.00956138008348437 0 -0.068962593776678585 -0.0071417435557975207 0 -0.07081205422986607 -0.0049215405273565511 0 -0.070204448545926446 -0.008278673648741899 0 -0.06999663181862989 -0.0074041622953143213 0 -0.068970599631792071 -0.0080895817605808155 0 -0.070204448545926446 -0.008278673648741899 0 -0.07141128896875612 -0.0072397672206228093 0 -0.06999663181862989 -0.0074041622953143213 0 -0.067149360468001351 -0.0094622043017977015 0 -0.067027855634577527 -0.0094394072328276794 0 -0.067067028632874004 -0.0093434504914550378 0 -0.07141128896875612 -0.0072397672206228093 0 -0.070489402243068919 -0.0067592944193024503 0 -0.071116294033383654 -0.0063395522949384452 0 -0.07141128896875612 -0.0072397672206228093 0 -0.071757896618528522 -0.0064256716801883162 0 -0.071116294033383654 -0.0063395522949384452 0 -0.07141128896875612 -0.0072397672206228093 0 -0.070489402243068919 -0.0067592944193024503 0 -0.06999663181862989 -0.0074041622953143213 0 -0.070489402243068919 -0.0067592944193024503 0 -0.06999663181862989 -0.0074041622953143213 0 -0.069749019634276058 -0.0067438215634692284 0 -0.069749019634276058 -0.0067438215634692284 0 -0.069027109334457937 -0.0067836936299356066 0 -0.069124890040916431 -0.0073455421576552387 0 -0.069027109334457937 -0.0067836936299356066 0 -0.069124890040916431 -0.0073455421576552387 0 -0.068541996766568886 -0.0076292508653602164 0 -0.06999663181862989 -0.0074041622953143213 0 -0.069749019634276058 -0.0067438215634692284 0 -0.069124890040916431 -0.0073455421576552387 0 -0.069027109334457937 -0.0067836936299356066 0 -0.067849559084256952 -0.0073430748114322181 0 -0.068541996766568886 -0.0076292508653602164 0 -0.067849559084256952 -0.0073430748114322181 0 -0.068541996766568886 -0.0076292508653602164 0 -0.068081851132629531 -0.0083525971307469877 0 -0.068541996766568886 -0.0076292508653602164 0 -0.068970599631792071 -0.0080895817605808155 0 -0.068081851132629531 -0.0083525971307469877 0 -0.06999663181862989 -0.0074041622953143213 0 -0.069124890040916431 -0.0073455421576552387 0 -0.068970599631792071 -0.0080895817605808155 0 -0.069124890040916431 -0.0073455421576552387 0 -0.068541996766568886 -0.0076292508653602164 0 -0.068970599631792071 -0.0080895817605808155 0 -0.070204448545926446 -0.008278673648741899 0 -0.068970599631792071 -0.0080895817605808155 0 -0.067577976491176028 -0.0092848072295764611 0 -0.067577976491176028 -0.0092848072295764611 0 -0.067121395687148172 -0.0092526463954898767 0 -0.067153302147368713 -0.0091965137519848823 0 -0.067149360468001351 -0.0094622043017977015 0 -0.067577976491176028 -0.0092848072295764611 0 -0.067121395687148172 -0.0092526463954898767 0 -0.068962593776678585 -0.0071417435557975207 0 -0.068408706068632294 -0.0077771152165468076 0 -0.068970599631792071 -0.0080895817605808155 0 -0.068081851132629531 -0.0083525971307469877 0 -0.067577976491176028 -0.0092848072295764611 0 -0.067062222900416996 -0.0094475025358526209 0 -0.068081851132629531 -0.0083525971307469877 0 -0.067577976491176028 -0.0092848072295764611 0 -0.067121395687148172 -0.0092526463954898767 0 -0.067067028632874004 -0.0093434504914550378 0 -0.066993341158673267 -0.009258093371633391 0 -0.067149360468001351 -0.0094622043017977015 0 -0.067121395687148172 -0.0092526463954898767 0 -0.067067028632874004 -0.0093434504914550378 0 -0.070401729413399672 -0.0041245854672519499 0 -0.070572424530604361 -0.0041122765019874011 0 -0.070623891893077509 -0.0038478712307288402 0 -0.067027855634577527 -0.0094394072328276794 0 -0.067067028632874004 -0.0093434504914550378 0 -0.066993341158673267 -0.009258093371633391 0 -0.071249141835018973 -0.0036420593074399129 0 -0.0711981013520777 -0.0037248028800551847 0 -0.070572424530604361 -0.0041122765019874011 0 -0.070623891893077509 -0.0038478712307288402 0 -0.070811066647113591 -0.0041849841502757832 0 -0.070982152021785039 -0.0036856775297308608 0 -0.07048138802518375 -0.0034370183616380958 0 -0.070811066647113591 -0.0041849841502757832 0 -0.070982152021785039 -0.0036856775297308608 0 -0.070811066647113591 -0.0041849841502757832 0 -0.071046094915215047 -0.0042291503365967402 0 -0.07048138802518375 -0.0034370183616380958 0 -0.070823699571888263 -0.002826010067739504 0 -0.070107319971213 -0.0025600428940499623 0 -0.070982152021785039 -0.0036856775297308608 0 -0.071217818780899583 -0.0031033919319964818 0 -0.07048138802518375 -0.0034370183616380958 0 -0.071217818780899583 -0.0031033919319964818 0 -0.07048138802518375 -0.0034370183616380958 0 -0.070823699571888263 -0.002826010067739504 0 -0.071217818780899583 -0.0031033919319964818 0 -0.070823699571888263 -0.002826010067739504 0 -0.071234816285152269 -0.002606269532043915 0 -0.069415901787520634 -0.0063593149861259305 0 -0.07126033191145037 -0.0043349001469353849 0 -0.071249141835018973 -0.0036420593074399129 0 -0.071639288003548629 -0.0038552951997614759 0 -0.070623891893077509 -0.0038478712307288402 0 -0.070437063304265995 -0.0035186464380406448 0 -0.070474333303694819 -0.0034884719768014162 0 -0.070401729413399672 -0.0041245854672519499 0 -0.070623891893077509 -0.0038478712307288402 0 -0.070437063304265995 -0.0035186464380406448 0 -0.067027855634577527 -0.0094394072328276794 0 -0.066993341158673267 -0.009258093371633391 0 -0.066955185094309255 -0.0095821580397254524 0 -0.067027855634577527 -0.0094394072328276794 0 -0.066980559762568948 -0.00956138008348437 0 -0.066955185094309255 -0.0095821580397254524 0 -0.070805139354051375 -0.0050079548297495167 0 -0.07081205422986607 -0.0049215405273565511 0 -0.07141128896875612 -0.0072397672206228093 0 -0.07224118461561839 -0.0066635801678601777 0 -0.071757896618528522 -0.0064256716801883162 0 -0.071757896618528522 -0.0064256716801883162 0 -0.072017943598980436 -0.006070103939994141 0 -0.072204349363745021 -0.006316561246342966 0 -0.07224118461561839 -0.0066635801678601777 0 -0.071757896618528522 -0.0064256716801883162 0 -0.072204349363745021 -0.006316561246342966 0 -0.071757896618528522 -0.0064256716801883162 0 -0.072017943598980436 -0.006070103939994141 0 -0.071560162067084515 -0.0058194958065599127 0 -0.072017943598980436 -0.006070103939994141 0 -0.072487100908099927 -0.0058931483475957065 0 -0.072003312708654496 -0.0057492510886664218 0 -0.072017943598980436 -0.006070103939994141 0 -0.072003312708654496 -0.0057492510886664218 0 -0.071560162067084515 -0.0058194958065599127 0 -0.072017943598980436 -0.006070103939994141 0 -0.072487100908099927 -0.0058931483475957065 0 -0.072204349363745021 -0.006316561246342966 0 -0.071711340412772356 -0.0038736838347263472 0 -0.07126033191145037 -0.0043349001469353849 0 -0.072487100908099927 -0.0058931483475957065 0 -0.072204349363745021 -0.006316561246342966 0 -0.072484267686102458 -0.0064455773912951535 0 -0.071855225176171267 -0.0047411124912696495 0 -0.072027734739325014 -0.0022787858101973191 0 -0.071125847110304924 -0.0030167946957261179 0 -0.07126033191145037 -0.0043349001469353849 0 -0.071639288003548629 -0.0038552951997614759 0 -0.07224118461561839 -0.0066635801678601777 0 -0.072204349363745021 -0.006316561246342966 0 -0.072484267686102458 -0.0064455773912951535 0 -0.07081205422986607 -0.0049215405273565511 0 -0.07126033191145037 -0.0043349001469353849 0 -0.071711340412772356 -0.0038736838347263472 0 -0.071639288003548629 -0.0038552951997614759 0 -0.071639288003548629 -0.0038552951997614759 0 -0.072965634404421581 -0.0020721808992232851 0 -0.075067449272507095 0.0010719517567036674 0 -0.075022205328932889 0.00092330256048867531 0 -0.074890447420795481 0.00093440610824587823 0 -0.075086878280032757 0.001027642376958134 0 -0.075067449272507095 0.0010719517567036674 0 -0.075022205328932889 0.00092330256048867531 0 -0.072487100908099927 -0.0058931483475957065 0 -0.071865292920330698 -0.0051994864486466456 0 -0.072003312708654496 -0.0057492510886664218 0 -0.071865292920330698 -0.0051994864486466456 0 -0.072003312708654496 -0.0057492510886664218 0 -0.071560162067084515 -0.0058194958065599127 0 -0.070107319971213 -0.0025600428940499623 0 -0.070994321506082744 -0.0020632393884112733 0 -0.071088433545709553 -0.0019365782551436939 0 -0.070107319971213 -0.0025600428940499623 0 -0.070891324897172356 -0.0024547464713139135 0 -0.070994321506082744 -0.0020632393884112733 0 -0.071639288003548629 -0.0038552951997614759 0 -0.072496797358408374 -0.0021756191071826345 0 -0.071645357895879822 -0.0031681861418483169 0 -0.072497421331449624 -0.0024603813944932217 0 -0.072882536108125076 -0.0023831416705131993 0 -0.070891324897172356 -0.0024547464713139135 0 -0.071234816285152269 -0.002606269532043915 0 -0.071301590411281451 -0.0021900224228884324 0 -0.070823699571888263 -0.002826010067739504 0 -0.070891324897172356 -0.0024547464713139135 0 -0.071234816285152269 -0.002606269532043915 0 -0.070823699571888263 -0.002826010067739504 0 -0.070107319971213 -0.0025600428940499623 0 -0.070891324897172356 -0.0024547464713139135 0 -0.070891324897172356 -0.0024547464713139135 0 -0.070994321506082744 -0.0020632393884112733 0 -0.071301590411281451 -0.0021900224228884324 0 -0.072485944565540028 -0.0021819208973700697 0 -0.072496797358408374 -0.0021756191071826345 0 -0.070994321506082744 -0.0020632393884112733 0 -0.071091277576367268 -0.001929844980763099 0 -0.071301590411281451 -0.0021900224228884324 0 -0.074890447420795481 0.00093440610824587823 0 -0.074876397857897306 0.00069257760942027314 0 -0.074689237769528377 0.0007931748528089463 0 -0.074890447420795481 0.00093440610824587823 0 -0.074970585395849637 0.00080804144632191585 0 -0.074876397857897306 0.00069257760942027314 0 -0.072497421331449624 -0.0024603813944932217 0 -0.072882536108125076 -0.0023831416705131993 0 -0.07334928601313527 -0.0017534889451494829 0 -0.072965634404421581 -0.0020721808992232851 0 -0.073147271145861378 -0.0014048233026180122 0 -0.075022205328932889 0.00092330256048867531 0 -0.074890447420795481 0.00093440610824587823 0 -0.074970585395849637 0.00080804144632191585 0 -0.074970585395849637 0.00080804144632191585 0 -0.075092502031037192 0.00070336829434771233 0 -0.074876397857897306 0.00069257760942027314 0 -0.074876397857897306 0.00069257760942027314 0 -0.074752350784260041 0.00066554824576744239 0 -0.074689237769528377 0.0007931748528089463 0 -0.071711340412772356 -0.0038736838347263472 0 -0.073243558220694449 -0.0020394185053424908 0 -0.075022205328932889 0.00092330256048867531 0 -0.074970585395849637 0.00080804144632191585 0 -0.075092502031037192 0.00070336829434771233 0 -0.072487100908099927 -0.0058931483475957065 0 -0.071865292920330698 -0.0051994864486466456 0 -0.071672768617550689 -0.003890122436661995 0 -0.075086878280032757 0.001027642376958134 0 -0.075022205328932889 0.00092330256048867531 0 -0.075092502031037192 0.00070336829434771233 0 -0.071711340412772356 -0.0038736838347263472 0 -0.072039367295577666 -0.0039680030092490567 0 -0.074294495012863435 -0.0070739515992328736 0 -0.074504184384575858 -0.0043657639996321279 0 -0.073299690500072012 -0.0047164776907865644 0 -0.071672768617550689 -0.003890122436661995 0 -0.071077213083839796 -0.0041923401155227434 0 -0.071322262847350271 -0.0046192659881531791 0 -0.071672768617550689 -0.003890122436661995 0 -0.070851850438237607 -0.0037797656368444401 0 -0.071063501062428452 -0.0033326514605447172 0 -0.070851850438237607 -0.0037797656368444401 0 -0.071077213083839796 -0.0041923401155227434 0 -0.07047036532185097 -0.0044247305306538715 0 -0.071672768617550689 -0.003890122436661995 0 -0.070851850438237607 -0.0037797656368444401 0 -0.071077213083839796 -0.0041923401155227434 0 -0.071077213083839796 -0.0041923401155227434 0 -0.070768566753322784 -0.0046905652698547339 0 -0.071322262847350271 -0.0046192659881531791 0 -0.071077213083839796 -0.0041923401155227434 0 -0.07047036532185097 -0.0044247305306538715 0 -0.070768566753322784 -0.0046905652698547339 0 -0.07047036532185097 -0.0044247305306538715 0 -0.070768566753322784 -0.0046905652698547339 0 -0.070118103645443616 -0.0049574150214934734 0 -0.071865292920330698 -0.0051994864486466456 0 -0.071672768617550689 -0.003890122436661995 0 -0.071322262847350271 -0.0046192659881531791 0 -0.070768566753322784 -0.0046905652698547339 0 -0.071322262847350271 -0.0046192659881531791 0 -0.071221047034766033 -0.0051929042952515566 0 -0.071865292920330698 -0.0051994864486466456 0 -0.071322262847350271 -0.0046192659881531791 0 -0.071221047034766033 -0.0051929042952515566 0 -0.071865292920330698 -0.0051994864486466456 0 -0.071221047034766033 -0.0051929042952515566 0 -0.071560162067084515 -0.0058194958065599127 0 -0.071221047034766033 -0.0051929042952515566 0 -0.071560162067084515 -0.0058194958065599127 0 -0.07102480317633017 -0.005786989287807803 0 -0.070768566753322784 -0.0046905652698547339 0 -0.071221047034766033 -0.0051929042952515566 0 -0.070416848482284106 -0.0054206637740607279 0 -0.070768566753322784 -0.0046905652698547339 0 -0.070416848482284106 -0.0054206637740607279 0 -0.070118103645443616 -0.0049574150214934734 0 -0.071221047034766033 -0.0051929042952515566 0 -0.070416848482284106 -0.0054206637740607279 0 -0.07102480317633017 -0.005786989287807803 0 -0.070416848482284106 -0.0054206637740607279 0 -0.070455918091002684 -0.006094959254846404 0 -0.07102480317633017 -0.005786989287807803 0 -0.070455918091002684 -0.006094959254846404 0 -0.071116294033383654 -0.0063395522949384452 0 -0.07102480317633017 -0.005786989287807803 0 -0.070416848482284106 -0.0054206637740607279 0 -0.070455918091002684 -0.006094959254846404 0 -0.069712318412142163 -0.0060966040005546833 0 -0.069749019634276058 -0.0067438215634692284 0 -0.070455918091002684 -0.006094959254846404 0 -0.069712318412142163 -0.0060966040005546833 0 -0.070489402243068919 -0.0067592944193024503 0 -0.069749019634276058 -0.0067438215634692284 0 -0.070455918091002684 -0.006094959254846404 0 -0.070489402243068919 -0.0067592944193024503 0 -0.070455918091002684 -0.006094959254846404 0 -0.071116294033383654 -0.0063395522949384452 0 -0.071757896618528522 -0.0064256716801883162 0 -0.071116294033383654 -0.0063395522949384452 0 -0.071560162067084515 -0.0058194958065599127 0 -0.071116294033383654 -0.0063395522949384452 0 -0.071560162067084515 -0.0058194958065599127 0 -0.07102480317633017 -0.005786989287807803 0 -0.061716926766515731 0.00048116584167411802 0 -0.061767874922280308 -0.00084750065639949189 0 -0.062258348629540501 0.00047007136188232637 0 -0.064421428128720301 -0.0036007068712588684 0 -0.066440809759874792 -0.0020882629343970281 0 -0.067849559084256952 -0.0073430748114322181 0 -0.069445635504854025 -0.0058474183234140378 0 -0.069464594751415837 -0.004610725610545964 0 -0.069027109334457937 -0.0067836936299356066 0 -0.067849559084256952 -0.0073430748114322181 0 -0.069445635504854025 -0.0058474183234140378 0 -0.069027109334457937 -0.0067836936299356066 0 -0.069712318412142163 -0.0060966040005546833 0 -0.069445635504854025 -0.0058474183234140378 0 -0.069749019634276058 -0.0067438215634692284 0 -0.069027109334457937 -0.0067836936299356066 0 -0.069712318412142163 -0.0060966040005546833 0 -0.070416848482284106 -0.0054206637740607279 0 -0.069445635504854025 -0.0058474183234140378 0 -0.070118103645443616 -0.0049574150214934734 0 -0.069445635504854025 -0.0058474183234140378 0 -0.069464594751415837 -0.004610725610545964 0 -0.070118103645443616 -0.0049574150214934734 0 -0.070416848482284106 -0.0054206637740607279 0 -0.069712318412142163 -0.0060966040005546833 0 -0.069445635504854025 -0.0058474183234140378 0 -0.065387594055662024 -6.3749846295374683e-05 0 -0.068289481004687541 0.00061779377606533954 0 -0.061716926766515731 0.00048116584167411802 0 -0.062258348629540501 0.00047007136188232637 0 -0.062026429869969875 0.00180132297706169 0 -0.066440809759874792 -0.0020882629343970281 0 -0.069158363479329937 0.00060928225764756685 0 -0.070851850438237607 -0.0037797656368444401 0 -0.069464594751415837 -0.004610725610545964 0 -0.071063501062428452 -0.0033326514605447172 0 -0.070851850438237607 -0.0037797656368444401 0 -0.07047036532185097 -0.0044247305306538715 0 -0.069464594751415837 -0.004610725610545964 0 -0.07047036532185097 -0.0044247305306538715 0 -0.069464594751415837 -0.004610725610545964 0 -0.070118103645443616 -0.0049574150214934734 0 -0.062258348629540501 0.00047007136188232637 0 -0.062026429869969875 0.00180132297706169 0 -0.062722917057029509 0.0018015941426944857 0 -0.061621533647527538 0.0019416102780137532 0 -0.061660591945410105 0.0005232854024757814 0 -0.062010899236886755 0.0019990437957343957 0 -0.069464594751415837 -0.004610725610545964 0 -0.071063501062428452 -0.0033326514605447172 0 -0.071234355971896798 -0.0027064970251727129 0 -0.068289481004687541 0.00061779377606533954 0 -0.069158363479329937 0.00060928225764756685 0 -0.074955123092756884 0.00010541599564979311 0 -0.074939029188856088 0.00010510258787986101 0 -0.07495327882550086 9.3182987096110799e-05 0 -0.073299690500072012 -0.0047164776907865644 0 -0.072095465303610787 -0.0022414066230980229 0 -0.073660922922685307 -0.00297499963732976 0 -0.072039367295577666 -0.0039680030092490567 0 -0.07188438620476606 -0.0033283049985926389 0 -0.071672768617550689 -0.003890122436661995 0 -0.071507290091231537 -0.0027308225519461038 0 -0.072095465303610787 -0.0022414066230980229 0 -0.071672768617550689 -0.003890122436661995 0 -0.071063501062428452 -0.0033326514605447172 0 -0.071507290091231537 -0.0027308225519461038 0 -0.071063501062428452 -0.0033326514605447172 0 -0.071507290091231537 -0.0027308225519461038 0 -0.071234355971896798 -0.0027064970251727129 0 -0.069172878396511164 0.00060355098640326853 0 -0.069158363479329937 0.00060928225764756685 0 -0.071507290091231537 -0.0027308225519461038 0 -0.071291782902003054 -0.0027552546686453725 0 -0.072095465303610787 -0.0022414066230980229 0 -0.071291782902003054 -0.0027552546686453725 0 -0.072095465303610787 -0.0022414066230980229 0 -0.073283743322380232 -0.00073736387639620387 0 -0.069158363479329937 0.00060928225764756685 0 -0.071246778293196214 0.00016070663492438809 0 -0.074939029188856088 0.00010510258787986101 0 -0.07495327882550086 9.3182987096110799e-05 0 -0.074940534896003566 6.6975411521858286e-05 0 -0.073432091361103444 -0.0018406261396352876 0 -0.072095465303610787 -0.0022414066230980229 0 -0.073283743322380232 -0.00073736387639620387 0 -0.073432091361103444 -0.0018406261396352876 0 -0.072095465303610787 -0.0022414066230980229 0 -0.073660922922685307 -0.00297499963732976 0 -0.074965431875186284 7.7110088540328876e-05 0 -0.07495327882550086 9.3182987096110799e-05 0 -0.074940534896003566 6.6975411521858286e-05 0 -0.074959782671574271 -3.3580984951078584e-05 0 -0.074971445751422214 -5.2832438844500193e-05 0 -0.074980936111955943 -1.6472137181049232e-05 0 -0.068289481004687541 0.00061779377606533954 0 -0.070109901772131722 0.00072827295936423743 0 -0.074955123092756884 0.00010541599564979311 0 -0.074965431875186284 7.7110088540328876e-05 0 -0.07495327882550086 9.3182987096110799e-05 0 -0.074970843374268403 6.2550338045341892e-07 0 -0.074980936111955943 -1.6472137181049232e-05 0 -0.074980335260343103 2.6297250261543899e-05 0 -0.074965431875186284 7.7110088540328876e-05 0 -0.074980335260343103 2.6297250261543899e-05 0 -0.074940534896003566 6.6975411521858286e-05 0 -0.070109901772131722 0.00072827295936423743 0 -0.070663766236610109 0.0007295520717758902 0 -0.071246778293196214 0.00016070663492438809 0 -0.071963744690196049 0.0002143039494390371 0 -0.074940534896003566 6.6975411521858286e-05 0 -0.074945224466852423 3.8536394383057589e-05 0 -0.074867242897736747 3.8146710330215977e-05 0 -0.074980335260343103 2.6297250261543899e-05 0 -0.074940534896003566 6.6975411521858286e-05 0 -0.074945224466852423 3.8536394383057589e-05 0 -0.074980335260343103 2.6297250261543899e-05 0 -0.074964718287470436 1.2704404787070442e-05 0 -0.074945224466852423 3.8536394383057589e-05 0 -0.074964718287470436 1.2704404787070442e-05 0 -0.075000143674942496 -7.7934574323160175e-08 0 -0.074999322680680561 2.6306622866876434e-07 0 -0.074964718287470436 1.2704404787070442e-05 0 -0.074945224466852423 3.8536394383057589e-05 0 -0.074867242897736747 3.8146710330215977e-05 0 -0.074964718287470436 1.2704404787070442e-05 0 -0.074867242897736747 3.8146710330215977e-05 0 -0.074999322680680561 2.6306622866876434e-07 0 -0.074987492392277297 8.3706974695479196e-06 0 -0.074980335260343103 2.6297250261543899e-05 0 -0.075000143674942496 -7.7934574323160175e-08 0 -0.074980335260343103 2.6297250261543899e-05 0 -0.074964718287470436 1.2704404787070442e-05 0 -0.075000143674942496 -7.7934574323160175e-08 0 -0.074939497189377716 -4.9875940495699081e-05 0 -0.074999975408666639 -1.977644298008824e-07 0 -0.074967385630013608 -7.4784729766335124e-05 0 -0.074939497189377716 -4.9875940495699081e-05 0 -0.074999975408666639 -1.977644298008824e-07 0 -0.074880709409843926 -9.2301108265939341e-05 0 -0.074999975408666639 -1.977644298008824e-07 0 -0.074999322680680561 2.6306622866876434e-07 0 -0.074967385630013608 -7.4784729766335124e-05 0 -0.074867242897736747 3.8146710330215977e-05 0 -0.074999322680680561 2.6306622866876434e-07 0 -0.074967385630013608 -7.4784729766335124e-05 0 -0.074173274300703917 -0.00048355235402476913 0 -0.073955631835355418 -0.00093543157453855 0 -0.073283743322380232 -0.00073736387639620387 0 -0.074867242897736747 3.8146710330215977e-05 0 -0.074967385630013608 -7.4784729766335124e-05 0 -0.073283743322380232 -0.00073736387639620387 0 -0.074967385630013608 -7.4784729766335124e-05 0 -0.074607883742918421 -0.0016674811951690963 0 -0.074967385630013608 -7.4784729766335124e-05 0 -0.074901055951648685 0.00010850956591241247 0 -0.075090487940357331 0.00030152699570575579 0 -0.074939497189377716 -4.9875940495699081e-05 0 -0.074967385630013608 -7.4784729766335124e-05 0 -0.074901055951648685 0.00010850956591241247 0 -0.074939497189377716 -4.9875940495699081e-05 0 -0.074901055951648685 0.00010850956591241247 0 -0.074880709409843926 -9.2301108265939341e-05 0 -0.074901055951648685 0.00010850956591241247 0 -0.074786056529058953 0.00029284852643794056 0 -0.075090487940357331 0.00030152699570575579 0 -0.074786056529058953 0.00029284852643794056 0 -0.075090487940357331 0.00030152699570575579 0 -0.074805722783497217 0.00048642334109746851 0 -0.073432091361103444 -0.0018406261396352876 0 -0.073283743322380232 -0.00073736387639620387 0 -0.074607883742918421 -0.0016674811951690963 0 -0.073432091361103444 -0.0018406261396352876 0 -0.074607883742918421 -0.0016674811951690963 0 -0.073660922922685307 -0.00297499963732976 0 -0.073243558220694449 -0.0020394185053424908 0 -0.073955631835355418 -0.00093543157453855 0 -0.074504184384575858 -0.0043657639996321279 0 -0.074607883742918421 -0.0016674811951690963 0 -0.073660922922685307 -0.00297499963732976 0 -0.075092502031037192 0.00070336829434771233 0 -0.075090487940357331 0.00030152699570575579 0 -0.074876397857897306 0.00069257760942027314 0 -0.074504184384575858 -0.0043657639996321279 0 -0.073299690500072012 -0.0047164776907865644 0 -0.073660922922685307 -0.00297499963732976 0 -0.075090487940357331 0.00030152699570575579 0 -0.074805722783497217 0.00048642334109746851 0 -0.074876397857897306 0.00069257760942027314 0 -0.074805722783497217 0.00048642334109746851 0 -0.074876397857897306 0.00069257760942027314 0 -0.074752350784260041 0.00066554824576744239 0 -0.073098321272140984 -0.0013380237293436682 0 -0.073147271145861378 -0.0014048233026180122 0 -0.073574351584647771 -0.00056962972935588796 0 -0.073147271145861378 -0.0014048233026180122 0 -0.07464870388464824 0.00062299014803993385 0 -0.074459340524084455 0.00058192865104388645 0 -0.074689237769528377 0.0007931748528089463 0 -0.074752350784260041 0.00066554824576744239 0 -0.07464870388464824 0.00062299014803993385 0 -0.074689237769528377 0.0007931748528089463 0 -0.072938046796060862 -0.00088962456752757191 0 -0.072849547619269261 -0.00080272421444297401 0 -0.072552122400425245 -0.0012136972311930143 0 -0.074805722783497217 0.00048642334109746851 0 -0.074752350784260041 0.00066554824576744239 0 -0.07464870388464824 0.00062299014803993385 0 -0.07464870388464824 0.00062299014803993385 0 -0.074561684403106204 0.0005364105283936476 0 -0.074626419775398273 0.00044185466646463526 0 -0.07464870388464824 0.00062299014803993385 0 -0.074561684403106204 0.0005364105283936476 0 -0.074459340524084455 0.00058192865104388645 0 -0.074516189279888387 0.00049297367560461214 0 -0.074561684403106204 0.0005364105283936476 0 -0.074459340524084455 0.00058192865104388645 0 -0.074516189279888387 0.00049297367560461214 0 -0.074561684403106204 0.0005364105283936476 0 -0.074626419775398273 0.00044185466646463526 0 -0.074805722783497217 0.00048642334109746851 0 -0.07464870388464824 0.00062299014803993385 0 -0.074626419775398273 0.00044185466646463526 0 -0.07292479902456582 -0.0014241894926931504 0 -0.072703952351571802 -0.0016671315416669065 0 -0.072938046796060862 -0.00088962456752757191 0 -0.073246268217798893 -0.0008407074403316559 0 -0.072856973477253589 -0.0010973003669551913 0 -0.073246268217798893 -0.0008407074403316559 0 -0.072771500087084121 -0.0013843005008083195 0 -0.072167122795583849 -0.0012794286909282391 0 -0.072849547619269261 -0.00080272421444297401 0 -0.073006431968606941 -0.00077839620012562136 0 -0.073091551417856754 -0.00066915424525327085 0 -0.072938046796060862 -0.00088962456752757191 0 -0.072849547619269261 -0.00080272421444297401 0 -0.073006431968606941 -0.00077839620012562136 0 -0.072938046796060862 -0.00088962456752757191 0 -0.073006431968606941 -0.00077839620012562136 0 -0.073246268217798893 -0.0008407074403316559 0 -0.073006431968606941 -0.00077839620012562136 0 -0.073091551417856754 -0.00066915424525327085 0 -0.073246268217798893 -0.0008407074403316559 0 -0.072849547619269261 -0.00080272421444297401 0 -0.073091551417856754 -0.00066915424525327085 0 -0.073207214327260753 -0.00041721982091163693 0 -0.074459340524084455 0.00058192865104388645 0 -0.074404503780128223 0.00038706163000444663 0 -0.074069239863492634 0.00030859237435752068 0 -0.073574351584647771 -0.00056962972935588796 0 -0.073654165358546367 -0.00033214837220199182 0 -0.074516189279888387 0.00049297367560461214 0 -0.074459340524084455 0.00058192865104388645 0 -0.074404503780128223 0.00038706163000444663 0 -0.074404503780128223 0.00038706163000444663 0 -0.074382166520079354 0.00021728969015416522 0 -0.074069239863492634 0.00030859237435752068 0 -0.074786056529058953 0.00029284852643794056 0 -0.074805722783497217 0.00048642334109746851 0 -0.074626419775398273 0.00044185466646463526 0 -0.074516189279888387 0.00049297367560461214 0 -0.074404503780128223 0.00038706163000444663 0 -0.074626419775398273 0.00044185466646463526 0 -0.074404503780128223 0.00038706163000444663 0 -0.074626419775398273 0.00044185466646463526 0 -0.074626477915929884 0.00024214034559802867 0 -0.074404503780128223 0.00038706163000444663 0 -0.074382166520079354 0.00021728969015416522 0 -0.074626477915929884 0.00024214034559802867 0 -0.074901055951648685 0.00010850956591241247 0 -0.074786056529058953 0.00029284852643794056 0 -0.074626477915929884 0.00024214034559802867 0 -0.074786056529058953 0.00029284852643794056 0 -0.074626419775398273 0.00044185466646463526 0 -0.074626477915929884 0.00024214034559802867 0 -0.074655367075065954 7.7968751212045094e-05 0 -0.07430713741601136 9.9871850990579219e-06 0 -0.074880709409843926 -9.2301108265939341e-05 0 -0.074901055951648685 0.00010850956591241247 0 -0.074626477915929884 0.00024214034559802867 0 -0.074655367075065954 7.7968751212045094e-05 0 -0.074901055951648685 0.00010850956591241247 0 -0.074655367075065954 7.7968751212045094e-05 0 -0.074880709409843926 -9.2301108265939341e-05 0 -0.074382166520079354 0.00021728969015416522 0 -0.074626477915929884 0.00024214034559802867 0 -0.074655367075065954 7.7968751212045094e-05 0 -0.074382166520079354 0.00021728969015416522 0 -0.074069239863492634 0.00030859237435752068 0 -0.07430713741601136 9.9871850990579219e-06 0 -0.07430713741601136 9.9871850990579219e-06 0 -0.07389067335464361 -0.00036377633864058265 0 -0.074880709409843926 -9.2301108265939341e-05 0 -0.074382166520079354 0.00021728969015416522 0 -0.074655367075065954 7.7968751212045094e-05 0 -0.07430713741601136 9.9871850990579219e-06 0 -0.074069239863492634 0.00030859237435752068 0 -0.073966375073507631 -6.3455400773423896e-05 0 -0.07430713741601136 9.9871850990579219e-06 0 -0.073966375073507631 -6.3455400773423896e-05 0 -0.07430713741601136 9.9871850990579219e-06 0 -0.07389067335464361 -0.00036377633864058265 0 -0.074999872518430447 1.1068344364868083e-08 0 -0.075010380746842215 -2.6442488604822836e-05 0 -0.074880709409843926 -9.2301108265939341e-05 0 -0.074496327499082693 -0.00011972656708564785 0 -0.074613850062644524 -0.00011760547197910743 0 -0.074999975408666639 -1.977644298008824e-07 0 -0.074999872518430447 1.1068344364868083e-08 0 -0.074880709409843926 -9.2301108265939341e-05 0 -0.07499947847986739 -1.9651583200901305e-07 0 -0.07500027292281132 6.8801986810213032e-08 0 -0.075034760628331282 2.2050523812437734e-05 0 -0.07389067335464361 -0.00036377633864058265 0 -0.073508263246039401 -0.00016481076076932513 0 -0.073619888749445028 -0.00021863391892724298 0 -0.075010380746842215 -2.6442488604822836e-05 0 -0.07500027292281132 6.8801986810213032e-08 0 -0.075034760628331282 2.2050523812437734e-05 0 -0.074496327499082693 -0.00011972656708564785 0 -0.074440306079071997 -9.3709534242690024e-05 0 -0.074999872518430447 1.1068344364868083e-08 0 -0.075010380746842215 -2.6442488604822836e-05 0 -0.07500027292281132 6.8801986810213032e-08 0 -0.073654165358546367 -0.00033214837220199182 0 -0.073651592053760248 -0.00030354777890134206 0 -0.074069239863492634 0.00030859237435752068 0 -0.073966375073507631 -6.3455400773423896e-05 0 -0.073624712560232855 -0.00021915800476065721 0 -0.073186611926928907 -0.00043544108417525857 0 -0.073058787044716439 -0.00065667333856961015 0 -0.07389067335464361 -0.00036377633864058265 0 -0.073619888749445028 -0.00021863391892724298 0 -0.073624712560232855 -0.00021915800476065721 0 -0.073619888749445028 -0.00021863391892724298 0 -0.073624712560232855 -0.00021915800476065721 0 -0.073496615171309246 -0.00033406731556081561 0 -0.073207214327260753 -0.00041721982091163693 0 -0.073624712560232855 -0.00021915800476065721 0 -0.073496615171309246 -0.00033406731556081561 0 -0.073619888749445028 -0.00021863391892724298 0 -0.073608987284104074 -0.00045756881072336658 0 -0.073497799796879079 -0.0005988575239924169 0 -0.073619888749445028 -0.00021863391892724298 0 -0.073496615171309246 -0.00033406731556081561 0 -0.073478616825007101 -0.00050265538029310827 0 -0.073966375073507631 -6.3455400773423896e-05 0 -0.07389067335464361 -0.00036377633864058265 0 -0.073624712560232855 -0.00021915800476065721 0 -0.073508263246039401 -0.00016481076076932513 0 -0.073619888749445028 -0.00021863391892724298 0 -0.073614235111272325 -0.00034593530457995031 0 -0.073619888749445028 -0.00021863391892724298 0 -0.073608987284104074 -0.00045756881072336658 0 -0.073614235111272325 -0.00034593530457995031 0 -0.073790630468054383 -0.00038508884634994229 0 -0.073508263246039401 -0.00016481076076932513 0 -0.073614235111272325 -0.00034593530457995031 0 -0.073790630468054383 -0.00038508884634994229 0 -0.073614235111272325 -0.00034593530457995031 0 -0.073679998319567286 -0.00051404983496127334 0 -0.073608987284104074 -0.00045756881072336658 0 -0.073614235111272325 -0.00034593530457995031 0 -0.073679998319567286 -0.00051404983496127334 0 -0.073608987284104074 -0.00045756881072336658 0 -0.073679998319567286 -0.00051404983496127334 0 -0.073640033645563804 -0.0006196855415918428 0 -0.073608987284104074 -0.00045756881072336658 0 -0.073640033645563804 -0.0006196855415918428 0 -0.073497799796879079 -0.0005988575239924169 0 -0.073640033645563804 -0.0006196855415918428 0 -0.073497799796879079 -0.0005988575239924169 0 -0.073609410855129564 -0.00069455757595795055 0 -0.073091551417856754 -0.00066915424525327085 0 -0.073207214327260753 -0.00041721982091163693 0 -0.073478616825007101 -0.00050265538029310827 0 -0.073091551417856754 -0.00066915424525327085 0 -0.073478616825007101 -0.00050265538029310827 0 -0.073246268217798893 -0.0008407074403316559 0 -0.073207214327260753 -0.00041721982091163693 0 -0.073496615171309246 -0.00033406731556081561 0 -0.073478616825007101 -0.00050265538029310827 0 -0.073058787044716439 -0.00065667333856961015 0 -0.072651429239495927 -0.0012754060189107299 0 -0.073497799796879079 -0.0005988575239924169 0 -0.073609410855129564 -0.00069455757595795055 0 -0.073501271701662069 -0.00076376824860181758 0 -0.073478616825007101 -0.00050265538029310827 0 -0.073246268217798893 -0.0008407074403316559 0 -0.073343261500323151 -0.0012947710098469437 0 -0.073246268217798893 -0.0008407074403316559 0 -0.073343261500323151 -0.0012947710098469437 0 -0.072771500087084121 -0.0013843005008083195 0 -0.073672115216710146 -0.00067159184819498281 0 -0.073640033645563804 -0.0006196855415918428 0 -0.073609410855129564 -0.00069455757595795055 0 -0.073690894417895988 -0.0006658127598827057 0 -0.073609410855129564 -0.00069455757595795055 0 -0.073599150067234345 -0.00082218614889194167 0 -0.072457580923469586 -0.0016120819891031889 0 -0.072084263134011353 -0.002090552276965349 0 -0.073609410855129564 -0.00069455757595795055 0 -0.073599150067234345 -0.00082218614889194167 0 -0.073501271701662069 -0.00076376824860181758 0 -0.070104501015830115 -0.0028583037912826245 0 -0.069492746271233877 -0.0036695473659750597 0 -0.070149131414065716 -0.0037402667135565219 0 -0.071086764793988774 -0.0030827430268224737 0 -0.070104501015830115 -0.0028583037912826245 0 -0.070149131414065716 -0.0037402667135565219 0 -0.071743720330862196 -0.002740612248082194 0 -0.072651429239495927 -0.0012754060189107299 0 -0.072084263134011353 -0.002090552276965349 0 -0.071743720330862196 -0.002740612248082194 0 -0.073599150067234345 -0.00082218614889194167 0 -0.073473695827859425 -0.00094452994477105658 0 -0.073501271701662069 -0.00076376824860181758 0 -0.073182805014560579 -0.0025480204319472772 0 -0.073343261500323151 -0.0012947710098469437 0 -0.072767256243344902 -0.0018596449000337044 0 -0.073343261500323151 -0.0012947710098469437 0 -0.072771500087084121 -0.0013843005008083195 0 -0.072767256243344902 -0.0018596449000337044 0 -0.072771500087084121 -0.0013843005008083195 0 -0.072167122795583849 -0.0012794286909282391 0 -0.07232076676832036 -0.0017476220089250132 0 -0.072771500087084121 -0.0013843005008083195 0 -0.07232076676832036 -0.0017476220089250132 0 -0.072767256243344902 -0.0018596449000337044 0 -0.072496797358408374 -0.0021756191071826345 0 -0.072703952351571802 -0.0016671315416669065 0 -0.071091277576367268 -0.001929844980763099 0 -0.072167122795583849 -0.0012794286909282391 0 -0.071810495411533365 -0.0018881113435805744 0 -0.072938046796060862 -0.00088962456752757191 0 -0.072856973477253589 -0.0010973003669551913 0 -0.072613595609679546 -0.0011607962297017912 0 -0.072466051356165614 -0.0013628671925913342 0 -0.072856973477253589 -0.0010973003669551913 0 -0.072613595609679546 -0.0011607962297017912 0 -0.072167122795583849 -0.0012794286909282391 0 -0.07232076676832036 -0.0017476220089250132 0 -0.071810495411533365 -0.0018881113435805744 0 -0.072496797358408374 -0.0021756191071826345 0 -0.073147271145861378 -0.0014048233026180122 0 -0.071810495411533365 -0.0018881113435805744 0 -0.071301590411281451 -0.0021900224228884324 0 -0.071728348737597189 -0.0026137763298357611 0 -0.071091277576367268 -0.001929844980763099 0 -0.071810495411533365 -0.0018881113435805744 0 -0.071301590411281451 -0.0021900224228884324 0 -0.071810495411533365 -0.0018881113435805744 0 -0.071728348737597189 -0.0026137763298357611 0 -0.072370715007227235 -0.0023883603167952805 0 -0.071234816285152269 -0.002606269532043915 0 -0.071301590411281451 -0.0021900224228884324 0 -0.071728348737597189 -0.0026137763298357611 0 -0.073182805014560579 -0.0025480204319472772 0 -0.072767256243344902 -0.0018596449000337044 0 -0.072370715007227235 -0.0023883603167952805 0 -0.07232076676832036 -0.0017476220089250132 0 -0.072767256243344902 -0.0018596449000337044 0 -0.072370715007227235 -0.0023883603167952805 0 -0.07232076676832036 -0.0017476220089250132 0 -0.071810495411533365 -0.0018881113435805744 0 -0.072370715007227235 -0.0023883603167952805 0 -0.069598064427184192 -0.004389569045274864 0 -0.069722363964696693 -0.0044553153477527672 0 -0.069607192336132939 -0.0043294429689714172 0 -0.071743720330862196 -0.002740612248082194 0 -0.071015271613376008 -0.0036556999583889161 0 -0.071728348737597189 -0.0026137763298357611 0 -0.072370715007227235 -0.0023883603167952805 0 -0.072138598959384792 -0.003443840176897325 0 -0.073182805014560579 -0.0025480204319472772 0 -0.072370715007227235 -0.0023883603167952805 0 -0.072138598959384792 -0.003443840176897325 0 -0.070982152021785039 -0.0036856775297308608 0 -0.071217818780899583 -0.0031033919319964818 0 -0.072138598959384792 -0.003443840176897325 0 -0.071217818780899583 -0.0031033919319964818 0 -0.071728348737597189 -0.0026137763298357611 0 -0.072138598959384792 -0.003443840176897325 0 -0.071217818780899583 -0.0031033919319964818 0 -0.071234816285152269 -0.002606269532043915 0 -0.071728348737597189 -0.0026137763298357611 0 -0.069722363964696693 -0.0044553153477527672 0 -0.069823711975587455 -0.0045104702989157142 0 -0.070002975420170449 -0.0045766354598819467 0 -0.070982152021785039 -0.0036856775297308608 0 -0.072138598959384792 -0.003443840176897325 0 -0.071046094915215047 -0.0042291503365967402 0 -0.071015271613376008 -0.0036556999583889161 0 -0.070659440332366569 -0.0040958268223410558 0 -0.069722363964696693 -0.0044553153477527672 0 -0.069823711975587455 -0.0045104702989157142 0 -0.069692411958689554 -0.0044994293614557621 0 -0.069722363964696693 -0.0044553153477527672 0 -0.069692411958689554 -0.0044994293614557621 0 -0.069607192336132939 -0.0043294429689714172 0 -0.069692411958689554 -0.0044994293614557621 0 -0.069735882449902684 -0.0045626731050290295 0 -0.069607192336132939 -0.0043294429689714172 0 -0.069735882449902684 -0.0045626731050290295 0 -0.069877246341930391 -0.0042296345530964622 0 -0.069607192336132939 -0.0043294429689714172 0 -0.070146363106209086 -0.0043271921843120011 0 -0.069735882449902684 -0.0045626731050290295 0 -0.069877246341930391 -0.0042296345530964622 0 -0.070146363106209086 -0.0043271921843120011 0 -0.069735882449902684 -0.0045626731050290295 0 -0.069728703083411864 -0.0048238979116822667 0 -0.069492746271233877 -0.0036695473659750597 0 -0.070149131414065716 -0.0037402667135565219 0 -0.069877246341930391 -0.0042296345530964622 0 -0.070146363106209086 -0.0043271921843120011 0 -0.070149131414065716 -0.0037402667135565219 0 -0.069877246341930391 -0.0042296345530964622 0 -0.069492746271233877 -0.0036695473659750597 0 -0.069877246341930391 -0.0042296345530964622 0 -0.069607192336132939 -0.0043294429689714172 0 -0.071743720330862196 -0.002740612248082194 0 -0.071492684999047346 -0.0032507910525085932 0 -0.069694105735896808 -0.0045459511279472313 0 -0.069728703083411864 -0.0048238979116822667 0 -0.069434511064731669 -0.0043720046778933661 0 -0.069735882449902684 -0.0045626731050290295 0 -0.069694105735896808 -0.0045459511279472313 0 -0.069728703083411864 -0.0048238979116822667 0 -0.069692411958689554 -0.0044994293614557621 0 -0.069735882449902684 -0.0045626731050290295 0 -0.069694105735896808 -0.0045459511279472313 0 -0.069823711975587455 -0.0045104702989157142 0 -0.069692411958689554 -0.0044994293614557621 0 -0.069798980371972644 -0.0044976610317197085 0 -0.069692411958689554 -0.0044994293614557621 0 -0.069694105735896808 -0.0045459511279472313 0 -0.069798980371972644 -0.0044976610317197085 0 -0.069823711975587455 -0.0045104702989157142 0 -0.069913420022972725 -0.004505599209716056 0 -0.070002975420170449 -0.0045766354598819467 0 -0.069913420022972725 -0.004505599209716056 0 -0.070064545861202879 -0.0044623630939685218 0 -0.070002975420170449 -0.0045766354598819467 0 -0.069823711975587455 -0.0045104702989157142 0 -0.069798980371972644 -0.0044976610317197085 0 -0.069913420022972725 -0.004505599209716056 0 -0.069798980371972644 -0.0044976610317197085 0 -0.069913420022972725 -0.004505599209716056 0 -0.06995640031894805 -0.0044387419405652545 0 -0.069798980371972644 -0.0044976610317197085 0 -0.06995640031894805 -0.0044387419405652545 0 -0.069864665958460054 -0.004408353989409499 0 -0.069913420022972725 -0.004505599209716056 0 -0.06995640031894805 -0.0044387419405652545 0 -0.070064545861202879 -0.0044623630939685218 0 -0.06995640031894805 -0.0044387419405652545 0 -0.069864665958460054 -0.004408353989409499 0 -0.070060076598950402 -0.0042826529773601907 0 -0.06995640031894805 -0.0044387419405652545 0 -0.070060076598950402 -0.0042826529773601907 0 -0.070131883319148519 -0.0043820475366207973 0 -0.06995640031894805 -0.0044387419405652545 0 -0.070131883319148519 -0.0043820475366207973 0 -0.070064545861202879 -0.0044623630939685218 0 -0.069694105735896808 -0.0045459511279472313 0 -0.069798980371972644 -0.0044976610317197085 0 -0.069864665958460054 -0.004408353989409499 0 -0.069694105735896808 -0.0045459511279472313 0 -0.069864665958460054 -0.004408353989409499 0 -0.069834406791404763 -0.0041825471287633247 0 -0.069864665958460054 -0.004408353989409499 0 -0.069834406791404763 -0.0041825471287633247 0 -0.070060076598950402 -0.0042826529773601907 0 -0.069834406791404763 -0.0041825471287633247 0 -0.069733559499822892 -0.003830212369306718 0 -0.069605303005187108 -0.0041589303929783824 0 -0.069696311456778556 -0.0040228188265001288 0 -0.069580459038778866 -0.003826502728960784 0 -0.070060076598950402 -0.0042826529773601907 0 -0.070050988729444638 -0.0040486434485539321 0 -0.070192938597977803 -0.0042181071740204044 0 -0.069834406791404763 -0.0041825471287633247 0 -0.070060076598950402 -0.0042826529773601907 0 -0.070161621615639644 -0.0037856224139731658 0 -0.069834406791404763 -0.0041825471287633247 0 -0.070161621615639644 -0.0037856224139731658 0 -0.069733559499822892 -0.003830212369306718 0 -0.070161621615639644 -0.0037856224139731658 0 -0.069733559499822892 -0.003830212369306718 0 -0.069808651851137174 -0.0035423132423299899 0 -0.069733559499822892 -0.003830212369306718 0 -0.069325755961674243 -0.0036726494986586999 0 -0.069605303005187108 -0.0041589303929783824 0 -0.069733559499822892 -0.003830212369306718 0 -0.069325755961674243 -0.0036726494986586999 0 -0.069808651851137174 -0.0035423132423299899 0 -0.069694105735896808 -0.0045459511279472313 0 -0.069834406791404763 -0.0041825471287633247 0 -0.069605303005187108 -0.0041589303929783824 0 -0.069694105735896808 -0.0045459511279472313 0 -0.069605303005187108 -0.0041589303929783824 0 -0.069434511064731669 -0.0043720046778933661 0 -0.069325755961674243 -0.0036726494986586999 0 -0.069605303005187108 -0.0041589303929783824 0 -0.069434511064731669 -0.0043720046778933661 0 -0.06893582175435839 -0.0037926348803026273 0 -0.069325755961674243 -0.0036726494986586999 0 -0.069434511064731669 -0.0043720046778933661 0 -0.06893582175435839 -0.0037926348803026273 0 -0.069325755961674243 -0.0036726494986586999 0 -0.068895650955370299 -0.0030916135828083749 0 -0.069325755961674243 -0.0036726494986586999 0 -0.068895650955370299 -0.0030916135828083749 0 -0.069212861320368524 -0.0029068158147480235 0 -0.069325755961674243 -0.0036726494986586999 0 -0.069212861320368524 -0.0029068158147480235 0 -0.069469250770200774 -0.0029384754733207566 0 -0.069290503272439782 -0.0034418378532315827 0 -0.069400451285038661 -0.0033145837664514594 0 -0.069212861320368524 -0.0029068158147480235 0 -0.069288125939614156 -0.0026530411202604514 0 -0.069469250770200774 -0.0029384754733207566 0 -0.069212861320368524 -0.0029068158147480235 0 -0.069288125939614156 -0.0026530411202604514 0 -0.06902917622444163 -0.0023331483970283891 0 -0.068895650955370299 -0.0030916135828083749 0 -0.069212861320368524 -0.0029068158147480235 0 -0.06902917622444163 -0.0023331483970283891 0 -0.068895650955370299 -0.0030916135828083749 0 -0.068421908366292583 -0.0022572200784234807 0 -0.068520004869053214 -0.0024665397225771065 0 -0.068421908366292583 -0.0022572200784234807 0 -0.068520004869053214 -0.0024665397225771065 0 -0.067988231850436939 -0.0020689183104296424 0 -0.069288125939614156 -0.0026530411202604514 0 -0.06902917622444163 -0.0023331483970283891 0 -0.069256570479927365 -0.0023811815217618629 0 -0.068616993675404317 -0.0026346364714541757 0 -0.068732921134419075 -0.0022203881360842201 0 -0.068453465413101947 -0.0025156053310278785 0 -0.068895650955370299 -0.0030916135828083749 0 -0.068520004869053214 -0.0024665397225771065 0 -0.066904973168047902 -0.0026717615163735515 0 -0.068520004869053214 -0.0024665397225771065 0 -0.067988231850436939 -0.0020689183104296424 0 -0.067401065947997801 -0.0025257631235720631 0 -0.067964903443099342 -0.0024699255053501267 0 -0.066904973168047902 -0.0026717615163735515 0 -0.067546530665423252 -0.0016046696169088525 0 -0.067988231850436939 -0.0020689183104296424 0 -0.067546530665423252 -0.0016046696169088525 0 -0.067988231850436939 -0.0020689183104296424 0 -0.068138619700676278 -0.0015295462868121141 0 -0.068732921134419075 -0.0022203881360842201 0 -0.06900016163682797 -0.0014460129895587765 0 -0.068421908366292583 -0.0022572200784234807 0 -0.068138619700676278 -0.0015295462868121141 0 -0.068640861002887396 -0.0012440038321688287 0 -0.068421908366292583 -0.0022572200784234807 0 -0.067988231850436939 -0.0020689183104296424 0 -0.068138619700676278 -0.0015295462868121141 0 -0.06902917622444163 -0.0023331483970283891 0 -0.069269625379741753 -0.0020893999200739966 0 -0.069256570479927365 -0.0023811815217618629 0 -0.068138619700676278 -0.0015295462868121141 0 -0.067720089326137406 -0.0010057582446860842 0 -0.068640861002887396 -0.0012440038321688287 0 -0.067546530665423252 -0.0016046696169088525 0 -0.068138619700676278 -0.0015295462868121141 0 -0.067720089326137406 -0.0010057582446860842 0 -0.067134043901622309 -0.0010545231674493603 0 -0.067546530665423252 -0.0016046696169088525 0 -0.067720089326137406 -0.0010057582446860842 0 -0.06952807604377928 -0.0014122425546885102 0 -0.069411552331020698 -0.0018077019259758662 0 -0.06972166527008955 -0.0017756303659691147 0 -0.06952807604377928 -0.0014122425546885102 0 -0.06972166527008955 -0.0017756303659691147 0 -0.069833181321457216 -0.0015097999488988948 0 -0.06972166527008955 -0.0017756303659691147 0 -0.069833181321457216 -0.0015097999488988948 0 -0.069869485037223539 -0.0016866250524054634 0 -0.06952807604377928 -0.0014122425546885102 0 -0.069833181321457216 -0.0015097999488988948 0 -0.069895463285975526 -0.001197051268513147 0 -0.06952807604377928 -0.0014122425546885102 0 -0.069089054475439698 -0.0015168754309903816 0 -0.069411552331020698 -0.0018077019259758662 0 -0.069411552331020698 -0.0018077019259758662 0 -0.069446271177761282 -0.0021044926771368318 0 -0.069568387655899608 -0.0020149415344867679 0 -0.06902917622444163 -0.0023331483970283891 0 -0.069089054475439698 -0.0015168754309903816 0 -0.069269625379741753 -0.0020893999200739966 0 -0.069411552331020698 -0.0018077019259758662 0 -0.069269625379741753 -0.0020893999200739966 0 -0.069446271177761282 -0.0021044926771368318 0 -0.069089054475439698 -0.0015168754309903816 0 -0.069411552331020698 -0.0018077019259758662 0 -0.069269625379741753 -0.0020893999200739966 0 -0.069269625379741753 -0.0020893999200739966 0 -0.069256570479927365 -0.0023811815217618629 0 -0.069418794952989429 -0.0023394001187606408 0 -0.069269625379741753 -0.0020893999200739966 0 -0.069446271177761282 -0.0021044926771368318 0 -0.069418794952989429 -0.0023394001187606408 0 -0.069446271177761282 -0.0021044926771368318 0 -0.069568541314711296 -0.0022605124140418716 0 -0.069418794952989429 -0.0023394001187606408 0 -0.069568541314711296 -0.0022605124140418716 0 -0.069680314712007127 -0.0021531576903388778 0 -0.06969007330117373 -0.0023100182368003103 0 -0.069680314712007127 -0.0021531576903388778 0 -0.069804584817527299 -0.0020831708644585348 0 -0.06969007330117373 -0.0023100182368003103 0 -0.069680314712007127 -0.0021531576903388778 0 -0.069568387655899608 -0.0020149415344867679 0 -0.069748322453040135 -0.0020154086630552017 0 -0.069568541314711296 -0.0022605124140418716 0 -0.069680314712007127 -0.0021531576903388778 0 -0.069568387655899608 -0.0020149415344867679 0 -0.069446271177761282 -0.0021044926771368318 0 -0.069568541314711296 -0.0022605124140418716 0 -0.069568387655899608 -0.0020149415344867679 0 -0.069411552331020698 -0.0018077019259758662 0 -0.069568387655899608 -0.0020149415344867679 0 -0.06972166527008955 -0.0017756303659691147 0 -0.06972166527008955 -0.0017756303659691147 0 -0.069703209723798121 -0.0019473006335484514 0 -0.069896688706166651 -0.0018406660460509382 0 -0.06972166527008955 -0.0017756303659691147 0 -0.069748322453040135 -0.0020154086630552017 0 -0.069809347090190557 -0.0020785263449405603 0 -0.068865730962604205 -0.0031276777888713074 0 -0.06884303720825348 -0.0032520806269449882 0 -0.069568387655899608 -0.0020149415344867679 0 -0.06972166527008955 -0.0017756303659691147 0 -0.069748322453040135 -0.0020154086630552017 0 -0.06884303720825348 -0.0032520806269449882 0 -0.068601241300086616 -0.0036590307485339425 0 -0.069680314712007127 -0.0021531576903388778 0 -0.069748322453040135 -0.0020154086630552017 0 -0.069804584817527299 -0.0020831708644585348 0 -0.068843288422488227 -0.0032481518619526762 0 -0.06884303720825348 -0.0032520806269449882 0 -0.06884303720825348 -0.0032520806269449882 0 -0.069146316664264337 -0.0033761609666327977 0 -0.068953521104016632 -0.0033411532616963494 0 -0.068950311542328724 -0.0038856035211989187 0 -0.069224058858731174 -0.0036960686062382721 0 -0.069594616766757864 -0.0025145316632848988 0 -0.069822715493392959 -0.0025207927884546852 0 -0.069469250770200774 -0.0029384754733207566 0 -0.069804584817527299 -0.0020831708644585348 0 -0.06969007330117373 -0.0023100182368003103 0 -0.069822715493392959 -0.0025207927884546852 0 -0.069146316664264337 -0.0033761609666327977 0 -0.068601241300086616 -0.0036590307485339425 0 -0.06969007330117373 -0.0023100182368003103 0 -0.069594616766757864 -0.0025145316632848988 0 -0.069822715493392959 -0.0025207927884546852 0 -0.069568541314711296 -0.0022605124140418716 0 -0.06969007330117373 -0.0023100182368003103 0 -0.069594616766757864 -0.0025145316632848988 0 -0.069256570479927365 -0.0023811815217618629 0 -0.069418794952989429 -0.0023394001187606408 0 -0.069406591427734435 -0.002572332416750707 0 -0.069568541314711296 -0.0022605124140418716 0 -0.069594616766757864 -0.0025145316632848988 0 -0.069418794952989429 -0.0023394001187606408 0 -0.069594616766757864 -0.0025145316632848988 0 -0.069418794952989429 -0.0023394001187606408 0 -0.069406591427734435 -0.002572332416750707 0 -0.069594616766757864 -0.0025145316632848988 0 -0.069406591427734435 -0.002572332416750707 0 -0.069469250770200774 -0.0029384754733207566 0 -0.069288125939614156 -0.0026530411202604514 0 -0.069406591427734435 -0.002572332416750707 0 -0.069469250770200774 -0.0029384754733207566 0 -0.069288125939614156 -0.0026530411202604514 0 -0.069256570479927365 -0.0023811815217618629 0 -0.069406591427734435 -0.002572332416750707 0 -0.070050988729444638 -0.0040486434485539321 0 -0.070044043679279092 -0.0037822277063469822 0 -0.070148334692355888 -0.0039341704522802877 0 -0.069580459038778866 -0.003826502728960784 0 -0.069146316664264337 -0.0033761609666327977 0 -0.069146316664264337 -0.0033761609666327977 0 -0.069400451285038661 -0.0033145837664514594 0 -0.070161621615639644 -0.0037856224139731658 0 -0.070170220560737337 -0.0032986439258990996 0 -0.069808651851137174 -0.0035423132423299899 0 -0.067402748947659546 -0.0042105373669548514 0 -0.068277651932023023 -0.0037311468594723859 0 -0.070148334692355888 -0.0039341704522802877 0 -0.070277789891966674 -0.0039311701896381432 0 -0.070219826026708662 -0.0040582911651808858 0 -0.070148334692355888 -0.0039341704522802877 0 -0.070277789891966674 -0.0039311701896381432 0 -0.070131485475925209 -0.0038148438933364262 0 -0.06521077649588515 -0.0026908414349350119 0 -0.064219135165141994 -0.0029465850214185981 0 -0.06433108205295221 -0.0015468080889571854 0 -0.06521077649588515 -0.0026908414349350119 0 -0.064793378389038411 -0.0037504404025200484 0 -0.064219135165141994 -0.0029465850214185981 0 -0.06521077649588515 -0.0026908414349350119 0 -0.064793378389038411 -0.0037504404025200484 0 -0.065406336911134372 -0.003930630417351943 0 -0.064793378389038411 -0.0037504404025200484 0 -0.064040744031795951 -0.0044119698892256826 0 -0.064219135165141994 -0.0029465850214185981 0 -0.065406336911134372 -0.003930630417351943 0 -0.064968459322361533 -0.0044554762329257515 0 -0.065676032114347763 -0.0046172325061259508 0 -0.064793378389038411 -0.0037504404025200484 0 -0.065406336911134372 -0.003930630417351943 0 -0.064968459322361533 -0.0044554762329257515 0 -0.064793378389038411 -0.0037504404025200484 0 -0.064968459322361533 -0.0044554762329257515 0 -0.064040744031795951 -0.0044119698892256826 0 -0.06521077649588515 -0.0026908414349350119 0 -0.065406336911134372 -0.003930630417351943 0 -0.066104903062173828 -0.0038683192497824732 0 -0.070277789891966674 -0.0039311701896381432 0 -0.070154351758933545 -0.0037711614397749477 0 -0.070131485475925209 -0.0038148438933364262 0 -0.070154484035456183 -0.003770556906348387 0 -0.070131485475925209 -0.0038148438933364262 0 -0.070121442807923887 -0.0037274537131381613 0 -0.070044043679279092 -0.0037822277063469822 0 -0.070148334692355888 -0.0039341704522802877 0 -0.070131485475925209 -0.0038148438933364262 0 -0.070044043679279092 -0.0037822277063469822 0 -0.070131485475925209 -0.0038148438933364262 0 -0.070121442807923887 -0.0037274537131381613 0 -0.068277651932023023 -0.0037311468594723859 0 -0.068307095111214952 -0.0037110679215904443 0 -0.065406336911134372 -0.003930630417351943 0 -0.066104903062173828 -0.0038683192497824732 0 -0.065676032114347763 -0.0046172325061259508 0 -0.068277651932023023 -0.0037311468594723859 0 -0.06782025436764455 -0.0039030435119619907 0 -0.068601241300086616 -0.0036590307485339425 0 -0.06782025436764455 -0.0039030435119619907 0 -0.06792868996844724 -0.0037900605635074265 0 -0.067794095601299467 -0.0036135431668532598 0 -0.068162723195362637 -0.0033582638168727207 0 -0.068277651932023023 -0.0037311468594723859 0 -0.068601241300086616 -0.0036590307485339425 0 -0.069703209723798121 -0.0019473006335484514 0 -0.069887904662521427 -0.0022210324259630109 0 -0.06991412056501263 -0.0019997453341275475 0 -0.069887904662521427 -0.0022210324259630109 0 -0.06991412056501263 -0.0019997453341275475 0 -0.070138474658636749 -0.0020673551157074262 0 -0.069703209723798121 -0.0019473006335484514 0 -0.06991412056501263 -0.0019997453341275475 0 -0.069896688706166651 -0.0018406660460509382 0 -0.070079200275975112 -0.0017875840763420764 0 -0.070138474658636749 -0.0020673551157074262 0 -0.070417941939137668 -0.0013938421398450136 0 -0.06972166527008955 -0.0017756303659691147 0 -0.069896688706166651 -0.0018406660460509382 0 -0.069869485037223539 -0.0016866250524054634 0 -0.06991412056501263 -0.0019997453341275475 0 -0.069896688706166651 -0.0018406660460509382 0 -0.070079200275975112 -0.0017875840763420764 0 -0.069896688706166651 -0.0018406660460509382 0 -0.069869485037223539 -0.0016866250524054634 0 -0.070042104697416854 -0.001611470623942274 0 -0.069896688706166651 -0.0018406660460509382 0 -0.070079200275975112 -0.0017875840763420764 0 -0.070042104697416854 -0.001611470623942274 0 -0.06991412056501263 -0.0019997453341275475 0 -0.070079200275975112 -0.0017875840763420764 0 -0.070138474658636749 -0.0020673551157074262 0 -0.06782025436764455 -0.0039030435119619907 0 -0.066759624445031543 -0.0042651213190813171 0 -0.06782025436764455 -0.0039030435119619907 0 -0.066817572834942177 -0.0045037277382327543 0 -0.064968459322361533 -0.0044554762329257515 0 -0.065676032114347763 -0.0046172325061259508 0 -0.064710216792018868 -0.005361673173586776 0 -0.066714615090831278 -0.0039728749625136161 0 -0.064710216792018868 -0.005361673173586776 0 -0.065434413354553911 -0.006484523724810236 0 -0.064968459322361533 -0.0044554762329257515 0 -0.064710216792018868 -0.005361673173586776 0 -0.064040744031795951 -0.0044119698892256826 0 -0.065434413354553911 -0.006484523724810236 0 -0.063607092746204741 -0.0071980485892021847 0 -0.064171014866735404 -0.0094856354484501495 0 -0.065434413354553911 -0.006484523724810236 0 -0.063607092746204741 -0.0071980485892021847 0 -0.064128188533804004 -0.005910084271071963 0 -0.064710216792018868 -0.005361673173586776 0 -0.065434413354553911 -0.006484523724810236 0 -0.064128188533804004 -0.005910084271071963 0 -0.070417941939137668 -0.0013938421398450136 0 -0.07016197354350126 -0.0013450967680066546 0 -0.07039795304213578 -0.0013066866967330196 0 -0.07016197354350126 -0.0013450967680066546 0 -0.069833181321457216 -0.0015097999488988948 0 -0.069895463285975526 -0.001197051268513147 0 -0.07016197354350126 -0.0013450967680066546 0 -0.069833181321457216 -0.0015097999488988948 0 -0.070042104697416854 -0.001611470623942274 0 -0.069833181321457216 -0.0015097999488988948 0 -0.069869485037223539 -0.0016866250524054634 0 -0.070042104697416854 -0.001611470623942274 0 -0.070079200275975112 -0.0017875840763420764 0 -0.070417941939137668 -0.0013938421398450136 0 -0.070042104697416854 -0.001611470623942274 0 -0.070417941939137668 -0.0013938421398450136 0 -0.07016197354350126 -0.0013450967680066546 0 -0.070042104697416854 -0.001611470623942274 0 -0.060215237006057694 -0.0055421217752088482 0 -0.06181265467769987 -0.0070116870131897973 0 -0.062768664764534923 -0.0052393133901273876 0 -0.060215237006057694 -0.0055421217752088482 0 -0.059763076841262523 -0.0075559101553550013 0 -0.06181265467769987 -0.0070116870131897973 0 -0.059763076841262523 -0.0075559101553550013 0 -0.06181265467769987 -0.0070116870131897973 0 -0.061731310303641852 -0.0089133356651730986 0 -0.06181265467769987 -0.0070116870131897973 0 -0.063607092746204741 -0.0071980485892021847 0 -0.061731310303641852 -0.0089133356651730986 0 -0.063607092746204741 -0.0071980485892021847 0 -0.064128188533804004 -0.005910084271071963 0 -0.062768664764534923 -0.0052393133901273876 0 -0.06181265467769987 -0.0070116870131897973 0 -0.063607092746204741 -0.0071980485892021847 0 -0.062768664764534923 -0.0052393133901273876 0 -0.062768664764534923 -0.0052393133901273876 0 -0.063674978490601775 -0.0046771548433938385 0 -0.064323909878067076 -0.0043861977301758873 0 -0.064128188533804004 -0.005910084271071963 0 -0.062768664764534923 -0.0052393133901273876 0 -0.063674978490601775 -0.0046771548433938385 0 -0.064710216792018868 -0.005361673173586776 0 -0.064128188533804004 -0.005910084271071963 0 -0.063674978490601775 -0.0046771548433938385 0 -0.064710216792018868 -0.005361673173586776 0 -0.063674978490601775 -0.0046771548433938385 0 -0.064040744031795951 -0.0044119698892256826 0 -0.062833312311922143 -0.0043575376757103443 0 -0.062589286637722924 -0.0036131454331049576 0 -0.062768664764534923 -0.0052393133901273876 0 -0.060953434936302377 -0.001551733002515923 0 -0.059496208613200971 -0.0033733761775445363 0 -0.060215237006057694 -0.0055421217752088482 0 -0.062768664764534923 -0.0052393133901273876 0 -0.059496208613200971 -0.0033733761775445363 0 -0.060953434936302377 -0.001551733002515923 0 -0.059467979993629003 -0.0018227123076618248 0 -0.059496208613200971 -0.0033733761775445363 0 -0.064323909878067076 -0.0043861977301758873 0 -0.064046151548475511 -0.004516908003108994 0 -0.0645392924903294 -0.00504909387264029 0 -0.060953434936302377 -0.001551733002515923 0 -0.059515885192491326 -0.00013042838998054675 0 -0.059467979993629003 -0.0018227123076618248 0 -0.065678402552740878 -0.0045847086367946264 0 -0.065943862538248701 -0.0046825476883901327 0 -0.064040744031795951 -0.0044119698892256826 0 -0.064046151548475511 -0.004516908003108994 0 -0.063737472164586348 -0.0049464739077602271 0 -0.063674978490601775 -0.0046771548433938385 0 -0.064040744031795951 -0.0044119698892256826 0 -0.064046151548475511 -0.004516908003108994 0 -0.063674978490601775 -0.0046771548433938385 0 -0.064323909878067076 -0.0043861977301758873 0 -0.064046151548475511 -0.004516908003108994 0 -0.063737472164586348 -0.0049464739077602271 0 -0.064291491772875436 -0.0056152101431803051 0 -0.0645392924903294 -0.00504909387264029 0 -0.064046151548475511 -0.004516908003108994 0 -0.063737472164586348 -0.0049464739077602271 0 -0.0645392924903294 -0.00504909387264029 0 -0.065943862538248701 -0.0046825476883901327 0 -0.066808424063658486 -0.0055163773681859048 0 -0.063737472164586348 -0.0049464739077602271 0 -0.064291491772875436 -0.0056152101431803051 0 -0.063531042431939397 -0.0063152004229114185 0 -0.064291491772875436 -0.0056152101431803051 0 -0.0645392924903294 -0.00504909387264029 0 -0.065027350658419983 -0.0057394784444550527 0 -0.064323909878067076 -0.0043861977301758873 0 -0.0645392924903294 -0.00504909387264029 0 -0.065793711380443945 -0.0054386770746143323 0 -0.062589286637722924 -0.0036131454331049576 0 -0.062164310414038491 -0.002670397665508546 0 -0.060953434936302377 -0.001551733002515923 0 -0.059571937277264848 0.0013236085675334087 0 -0.059515885192491326 -0.00013042838998054675 0 -0.0645392924903294 -0.00504909387264029 0 -0.065793711380443945 -0.0054386770746143323 0 -0.065027350658419983 -0.0057394784444550527 0 -0.065793711380443945 -0.0054386770746143323 0 -0.065027350658419983 -0.0057394784444550527 0 -0.065670877200069644 -0.0063935286095602121 0 -0.065027350658419983 -0.0057394784444550527 0 -0.064858930501626444 -0.0064275140990741764 0 -0.065670877200069644 -0.0063935286095602121 0 -0.064858930501626444 -0.0064275140990741764 0 -0.065670877200069644 -0.0063935286095602121 0 -0.065771308857207791 -0.0071710073228038185 0 -0.065670877200069644 -0.0063935286095602121 0 -0.065771308857207791 -0.0071710073228038185 0 -0.066963803910791014 -0.0072228924126870918 0 -0.064858930501626444 -0.0064275140990741764 0 -0.065771308857207791 -0.0071710073228038185 0 -0.064854175719526633 -0.0078993836444884429 0 -0.065771308857207791 -0.0071710073228038185 0 -0.066362030812295372 -0.0081314290811032534 0 -0.066963803910791014 -0.0072228924126870918 0 -0.065771308857207791 -0.0071710073228038185 0 -0.066362030812295372 -0.0081314290811032534 0 -0.064854175719526633 -0.0078993836444884429 0 -0.066882083241823445 -0.007226671367271612 0 -0.066808424063658486 -0.0055163773681859048 0 -0.066998765879590153 -0.0092735538692485398 0 -0.067060677870273616 -0.0093397762322742859 0 -0.067063455618155313 -0.0091919718581214577 0 -0.064858930501626444 -0.0064275140990741764 0 -0.064854175719526633 -0.0078993836444884429 0 -0.063531042431939397 -0.0063152004229114185 0 -0.064291491772875436 -0.0056152101431803051 0 -0.064858930501626444 -0.0064275140990741764 0 -0.063531042431939397 -0.0063152004229114185 0 -0.064291491772875436 -0.0056152101431803051 0 -0.065027350658419983 -0.0057394784444550527 0 -0.064858930501626444 -0.0064275140990741764 0 -0.067402748947659546 -0.0042105373669548514 0 -0.066808424063658486 -0.0055163773681859048 0 -0.070277789891966674 -0.0039311701896381432 0 -0.07040351500385239 -0.0040925517855002575 0 -0.070219826026708662 -0.0040582911651808858 0 -0.07040351500385239 -0.0040925517855002575 0 -0.070219826026708662 -0.0040582911651808858 0 -0.070192938597977803 -0.0042181071740204044 0 -0.070050988729444638 -0.0040486434485539321 0 -0.070148334692355888 -0.0039341704522802877 0 -0.070219826026708662 -0.0040582911651808858 0 -0.070050988729444638 -0.0040486434485539321 0 -0.070219826026708662 -0.0040582911651808858 0 -0.070192938597977803 -0.0042181071740204044 0 -0.07040351500385239 -0.0040925517855002575 0 -0.070297227423913061 -0.0043197065316279313 0 -0.070361471920921806 -0.0044202211085481646 0 -0.07040351500385239 -0.0040925517855002575 0 -0.070192938597977803 -0.0042181071740204044 0 -0.070297227423913061 -0.0043197065316279313 0 -0.066808424063658486 -0.0055163773681859048 0 -0.06825062294068085 -0.006509698032399606 0 -0.070361471920921806 -0.0044202211085481646 0 -0.070385779795963666 -0.0044064981909493353 0 -0.070475274676067914 -0.0042662897877651998 0 -0.070297227423913061 -0.0043197065316279313 0 -0.070361471920921806 -0.0044202211085481646 0 -0.070385779795963666 -0.0044064981909493353 0 -0.070192938597977803 -0.0042181071740204044 0 -0.070297227423913061 -0.0043197065316279313 0 -0.070131883319148519 -0.0043820475366207973 0 -0.070060076598950402 -0.0042826529773601907 0 -0.070192938597977803 -0.0042181071740204044 0 -0.070131883319148519 -0.0043820475366207973 0 -0.070385779795963666 -0.0044064981909493353 0 -0.070131883319148519 -0.0043820475366207973 0 -0.070064545861202879 -0.0044623630939685218 0 -0.070297227423913061 -0.0043197065316279313 0 -0.070385779795963666 -0.0044064981909493353 0 -0.070131883319148519 -0.0043820475366207973 0 -0.070385779795963666 -0.0044064981909493353 0 -0.070064545861202879 -0.0044623630939685218 0 -0.070002975420170449 -0.0045766354598819467 0 -0.070547150153321275 -0.004222409292186138 0 -0.070659440332366569 -0.0040958268223410558 0 -0.070385779795963666 -0.0044064981909493353 0 -0.070811066647113591 -0.0041849841502757832 0 -0.071046094915215047 -0.0042291503365967402 0 -0.070572424530604361 -0.0041122765019874011 0 -0.070811066647113591 -0.0041849841502757832 0 -0.070475274676067914 -0.0042662897877651998 0 -0.070401729413399672 -0.0041245854672519499 0 -0.070361471920921806 -0.0044202211085481646 0 -0.070475274676067914 -0.0042662897877651998 0 -0.070385779795963666 -0.0044064981909493353 0 -0.070811066647113591 -0.0041849841502757832 0 -0.070475274676067914 -0.0042662897877651998 0 -0.069415901787520634 -0.0063593149861259305 0 -0.06825062294068085 -0.006509698032399606 0 -0.070401729413399672 -0.0041245854672519499 0 -0.070572424530604361 -0.0041122765019874011 0 -0.070475274676067914 -0.0042662897877651998 0 -0.066993341158673267 -0.009258093371633391 0 -0.067063455618155313 -0.0091919718581214577 0 -0.067076155655286296 -0.0091730793748095417 0 -0.067121395687148172 -0.0092526463954898767 0 -0.066993341158673267 -0.009258093371633391 0 -0.067076155655286296 -0.0091730793748095417 0 -0.067121395687148172 -0.0092526463954898767 0 -0.067076155655286296 -0.0091730793748095417 0 -0.067153302147368713 -0.0091965137519848823 0 -0.067076155655286296 -0.0091730793748095417 0 -0.067153302147368713 -0.0091965137519848823 0 -0.066782174321679058 -0.0091458739462064297 0 -0.067577976491176028 -0.0092848072295764611 0 -0.067153302147368713 -0.0091965137519848823 0 -0.067073296489560633 -0.0093108765222338439 0 -0.067153302147368713 -0.0091965137519848823 0 -0.066782174321679058 -0.0091458739462064297 0 -0.067073296489560633 -0.0093108765222338439 0 -0.067076155655286296 -0.0091730793748095417 0 -0.066782174321679058 -0.0091458739462064297 0 -0.067009961216470376 -0.0091999826366210916 0 -0.066362030812295372 -0.0081314290811032534 0 -0.064854175719526633 -0.0078993836444884429 0 -0.066782174321679058 -0.0091458739462064297 0 -0.066998765879590153 -0.0092735538692485398 0 -0.066782174321679058 -0.0091458739462064297 0 -0.067009961216470376 -0.0091999826366210916 0 -0.066882083241823445 -0.007226671367271612 0 -0.066981170372524809 -0.0077821183919083697 0 -0.066998765879590153 -0.0092735538692485398 0 -0.067063455618155313 -0.0091919718581214577 0 -0.067009961216470376 -0.0091999826366210916 0 -0.067063455618155313 -0.0091919718581214577 0 -0.067076155655286296 -0.0091730793748095417 0 -0.067009961216470376 -0.0091999826366210916 0 -0.05643951925870809 0.0038102978814875438 0 -0.055000715001402287 0.00438916360529726 0 -0.055111284348805287 0.0030286256995919608 0 -0.066362030812295372 -0.0081314290811032534 0 -0.066782174321679058 -0.0091458739462064297 0 -0.067551598450284911 -0.0088475260115414272 0 -0.062448152265734184 -0.0039475102215224839 0 -0.060190308677459128 -0.0011164629539569949 0 -0.067062222900416996 -0.0094475025358526209 0 -0.067551598450284911 -0.0088475260115414272 0 -0.067073296489560633 -0.0093108765222338439 0 -0.066782174321679058 -0.0091458739462064297 0 -0.067551598450284911 -0.0088475260115414272 0 -0.067073296489560633 -0.0093108765222338439 0 -0.067062222900416996 -0.0094475025358526209 0 -0.067577976491176028 -0.0092848072295764611 0 -0.067073296489560633 -0.0093108765222338439 0 -0.058441461441070604 0.0012107629064969402 0 -0.060190308677459128 -0.0011164629539569949 0 -0.060365344124530033 -0.0021157120570739563 0 -0.061306424778984285 -0.0021642926843470412 0 -0.060878615628876684 -0.0034535364497777763 0 -0.055702193842878889 0.0057144095295161151 0 -0.05643951925870809 0.0038102978814875438 0 -0.055000715001402287 0.00438916360529726 0 -0.053683998135310142 0.0058071032157180477 0 -0.055702193842878889 0.0057144095295161151 0 -0.055000715001402287 0.00438916360529726 0 -0.053683998135310142 0.0058071032157180477 0 -0.055000715001402287 0.00438916360529726 0 -0.053717673004100623 0.0044140314932822064 0 -0.053683998135310142 0.0058071032157180477 0 -0.053717673004100623 0.0044140314932822064 0 -0.052302712704130769 0.0040101808716595444 0 -0.056202727522217777 0.0023468245579590956 0 -0.054656495052572383 0.002059872257783387 0 -0.054017062570718338 0.0033619031468041351 0 -0.052805215714371544 0.0022024343743300779 0 -0.052302712704130769 0.0040101808716595444 0 -0.053717673004100623 0.0044140314932822064 0 -0.054017062570718338 0.0033619031468041351 0 -0.052302712704130769 0.0040101808716595444 0 -0.055000715001402287 0.00438916360529726 0 -0.054017062570718338 0.0033619031468041351 0 -0.055111284348805287 0.0030286256995919608 0 -0.055000715001402287 0.00438916360529726 0 -0.053717673004100623 0.0044140314932822064 0 -0.054017062570718338 0.0033619031468041351 0 -0.055111284348805287 0.0030286256995919608 0 -0.054332112723470785 0.0019159084909686828 0 -0.055757764932009256 0.0016551807352888893 0 -0.054017062570718338 0.0033619031468041351 0 -0.055111284348805287 0.0030286256995919608 0 -0.054332112723470785 0.0019159084909686828 0 -0.054017062570718338 0.0033619031468041351 0 -0.054332112723470785 0.0019159084909686828 0 -0.052805215714371544 0.0022024343743300779 0 -0.054332112723470785 0.0019159084909686828 0 -0.052805215714371544 0.0022024343743300779 0 -0.053165732304692466 0.00056150846549719619 0 -0.054332112723470785 0.0019159084909686828 0 -0.054649554503517474 0.00081764450135177733 0 -0.055757764932009256 0.0016551807352888893 0 -0.054332112723470785 0.0019159084909686828 0 -0.054649554503517474 0.00081764450135177733 0 -0.053165732304692466 0.00056150846549719619 0 -0.056349547250939269 0.0031840757837133344 0 -0.057331721200130817 0.0015281180382232533 0 -0.056622712967405731 0.00071607480291679146 0 -0.056349547250939269 0.0031840757837133344 0 -0.05817046482223804 0.0022663721286203548 0 -0.057331721200130817 0.0015281180382232533 0 -0.057514086804600052 0.0065612266906387119 0 -0.056349547250939269 0.0031840757837133344 0 -0.05850358584053407 0.0039429463841085194 0 -0.05643951925870809 0.0038102978814875438 0 -0.055111284348805287 0.0030286256995919608 0 -0.055757764932009256 0.0016551807352888893 0 -0.060190308677459128 -0.0011164629539569949 0 -0.058221786095615416 0.0011177884477651528 0 -0.060190308677459128 -0.0011164629539569949 0 -0.061506196681274924 -0.0019748218026955388 0 -0.066362030812295372 -0.0081314290811032534 0 -0.067551598450284911 -0.0088475260115414272 0 -0.066963803910791014 -0.0072228924126870918 0 -0.065793711380443945 -0.0054386770746143323 0 -0.065670877200069644 -0.0063935286095602121 0 -0.066963803910791014 -0.0072228924126870918 0 -0.062164310414038491 -0.002670397665508546 0 -0.061506196681274924 -0.0019748218026955388 0 -0.056349547250939269 0.0031840757837133344 0 -0.05850358584053407 0.0039429463841085194 0 -0.05817046482223804 0.0022663721286203548 0 -0.059571937277264848 0.0013236085675334087 0 -0.05850358584053407 0.0039429463841085194 0 -0.05817046482223804 0.0022663721286203548 0 -0.059571937277264848 0.0013236085675334087 0 -0.05817046482223804 0.0022663721286203548 0 -0.058018631701064909 0.0007329553069810392 0 -0.059571937277264848 0.0013236085675334087 0 -0.058018631701064909 0.0007329553069810392 0 -0.059515885192491326 -0.00013042838998054675 0 -0.058018631701064909 0.0007329553069810392 0 -0.059515885192491326 -0.00013042838998054675 0 -0.055808126105010458 -0.0011642608959567917 0 -0.05817046482223804 0.0022663721286203548 0 -0.058018631701064909 0.0007329553069810392 0 -0.057331721200130817 0.0015281180382232533 0 -0.056349547250939269 0.0031840757837133344 0 -0.056622712967405731 0.00071607480291679146 0 -0.055167926715564093 -0.00053644038763701039 0 -0.058221786095615416 0.0011177884477651528 0 -0.057243796733237512 0.00029705127046065767 0 -0.058018631701064909 0.0007329553069810392 0 -0.056622712967405731 0.00071607480291679146 0 -0.055808126105010458 -0.0011642608959567917 0 -0.058018631701064909 0.0007329553069810392 0 -0.057331721200130817 0.0015281180382232533 0 -0.056622712967405731 0.00071607480291679146 0 -0.056622712967405731 0.00071607480291679146 0 -0.055808126105010458 -0.0011642608959567917 0 -0.055167926715564093 -0.00053644038763701039 0 -0.054938696884499795 -0.0010703372086062867 0 -0.057038512417994396 -0.0016512135724697302 0 -0.055743864958726214 -0.0031604618540826291 0 -0.057919308584882916 -0.0023256215225494169 0 -0.057038512417994396 -0.0016512135724697302 0 -0.055743864958726214 -0.0031604618540826291 0 -0.054938696884499795 -0.0010703372086062867 0 -0.055743864958726214 -0.0031604618540826291 0 -0.053372574942169286 -0.0030528750983032896 0 -0.05703361971121497 -0.00022931844374911894 0 -0.054893358130100406 -0.00060321493442117133 0 -0.059515885192491326 -0.00013042838998054675 0 -0.054938696884499795 -0.0010703372086062867 0 -0.057038512417994396 -0.0016512135724697302 0 -0.059515885192491326 -0.00013042838998054675 0 -0.057919308584882916 -0.0023256215225494169 0 -0.059467979993629003 -0.0018227123076618248 0 -0.059515885192491326 -0.00013042838998054675 0 -0.057919308584882916 -0.0023256215225494169 0 -0.057038512417994396 -0.0016512135724697302 0 -0.057919308584882916 -0.0023256215225494169 0 -0.059467979993629003 -0.0018227123076618248 0 -0.059496208613200971 -0.0033733761775445363 0 -0.057919308584882916 -0.0023256215225494169 0 -0.059496208613200971 -0.0033733761775445363 0 -0.057937030523586404 -0.0049859864121340495 0 -0.057919308584882916 -0.0023256215225494169 0 -0.057937030523586404 -0.0049859864121340495 0 -0.055743864958726214 -0.0031604618540826291 0 -0.060215237006057694 -0.0055421217752088482 0 -0.059496208613200971 -0.0033733761775445363 0 -0.057937030523586404 -0.0049859864121340495 0 -0.055743864958726214 -0.0031604618540826291 0 -0.055792184055842013 -0.0057476621206459348 0 -0.053879484243605641 -0.004957844073138467 0 -0.057937030523586404 -0.0049859864121340495 0 -0.055743864958726214 -0.0031604618540826291 0 -0.055792184055842013 -0.0057476621206459348 0 -0.055792184055842013 -0.0057476621206459348 0 -0.057164912209172268 -0.0076231357344190287 0 -0.054249453795391173 -0.0079882481780405024 0 -0.055792184055842013 -0.0057476621206459348 0 -0.053879484243605641 -0.004957844073138467 0 -0.054249453795391173 -0.0079882481780405024 0 -0.059763076841262523 -0.0075559101553550013 0 -0.057937030523586404 -0.0049859864121340495 0 -0.057164912209172268 -0.0076231357344190287 0 -0.057937030523586404 -0.0049859864121340495 0 -0.055792184055842013 -0.0057476621206459348 0 -0.057164912209172268 -0.0076231357344190287 0 -0.060215237006057694 -0.0055421217752088482 0 -0.059763076841262523 -0.0075559101553550013 0 -0.057937030523586404 -0.0049859864121340495 0 -0.05180175722595487 -0.0066457201152632867 0 -0.04883858012120669 -0.0056539373585470761 0 -0.049934598824758016 -0.0092499106201894242 0 -0.05180175722595487 -0.0066457201152632867 0 -0.051732469889930813 -0.0043155823004207448 0 -0.04883858012120669 -0.0056539373585470761 0 -0.05180175722595487 -0.0066457201152632867 0 -0.053879484243605641 -0.004957844073138467 0 -0.054249453795391173 -0.0079882481780405024 0 -0.05180175722595487 -0.0066457201152632867 0 -0.053879484243605641 -0.004957844073138467 0 -0.051732469889930813 -0.0043155823004207448 0 -0.053372574942169286 -0.0030528750983032896 0 -0.051732469889930813 -0.0043155823004207448 0 -0.050346142059358875 -0.0022642145820480912 0 -0.053879484243605641 -0.004957844073138467 0 -0.053372574942169286 -0.0030528750983032896 0 -0.051732469889930813 -0.0043155823004207448 0 -0.055743864958726214 -0.0031604618540826291 0 -0.053879484243605641 -0.004957844073138467 0 -0.053372574942169286 -0.0030528750983032896 0 -0.051732469889930813 -0.0043155823004207448 0 -0.050346142059358875 -0.0022642145820480912 0 -0.04883858012120669 -0.0056539373585470761 0 -0.053199059283315052 -0.0018173705407208828 0 -0.053655843918260351 -0.00043427379738367102 0 -0.052011430115352211 -0.0013168224311050486 0 -0.054893358130100406 -0.00060321493442117133 0 -0.050890889628345475 -0.00098962433249568261 0 -0.054938696884499795 -0.0010703372086062867 0 -0.053372574942169286 -0.0030528750983032896 0 -0.050346142059358875 -0.0022642145820480912 0 -0.053199059283315052 -0.0018173705407208828 0 -0.055167926715564093 -0.00053644038763701039 0 -0.053655843918260351 -0.00043427379738367102 0 -0.055808126105010458 -0.0011642608959567917 0 -0.053199059283315052 -0.0018173705407208828 0 -0.055167926715564093 -0.00053644038763701039 0 -0.054649554503517474 0.00081764450135177733 0 -0.055757764932009256 0.0016551807352888893 0 -0.055167926715564093 -0.00053644038763701039 0 -0.054649554503517474 0.00081764450135177733 0 -0.055167926715564093 -0.00053644038763701039 0 -0.053655843918260351 -0.00043427379738367102 0 -0.054649554503517474 0.00081764450135177733 0 -0.053655843918260351 -0.00043427379738367102 0 -0.053165732304692466 0.00056150846549719619 0 -0.053655843918260351 -0.00043427379738367102 0 -0.053165732304692466 0.00056150846549719619 0 -0.052011430115352211 -0.0013168224311050486 0 -0.053165732304692466 0.00056150846549719619 0 -0.051472171779276772 -0.00044838256467130439 0 -0.051633821718586735 0.00094832741120181435 0 -0.051224282340610598 0.00077939214707192089 0 -0.050178971208754919 0.00052899874929713761 0 -0.053165732304692466 0.00056150846549719619 0 -0.051220095457928057 -0.000276987399576366 0 -0.052011430115352211 -0.0013168224311050486 0 -0.051472171779276772 -0.00044838256467130439 0 -0.049524747291644293 -0.0014727254128369708 0 -0.049314484417570401 3.9626733262630617e-05 0 -0.051472171779276772 -0.00044838256467130439 0 -0.049314484417570401 3.9626733262630617e-05 0 -0.051633821718586735 0.00094832741120181435 0 -0.050745169792726696 -0.0017455339617311327 0 -0.049927817250719382 -0.0020826793664773368 0 -0.049224985452410476 -0.001203961055956575 0 -0.050178971208754919 0.00052899874929713761 0 -0.0476652864764096 0.00021533186936053891 0 -0.051220095457928057 -0.000276987399576366 0 -0.050745169792726696 -0.0017455339617311327 0 -0.049224985452410476 -0.001203961055956575 0 -0.050745169792726696 -0.0017455339617311327 0 -0.049927817250719382 -0.0020826793664773368 0 -0.0506651941000398 -0.0025670587568272312 0 -0.053199059283315052 -0.0018173705407208828 0 -0.052011430115352211 -0.0013168224311050486 0 -0.050673830203281839 -0.0025140125891613095 0 -0.051220095457928057 -0.000276987399576366 0 -0.050745169792726696 -0.0017455339617311327 0 -0.052011430115352211 -0.0013168224311050486 0 -0.050745169792726696 -0.0017455339617311327 0 -0.052011430115352211 -0.0013168224311050486 0 -0.050673830203281839 -0.0025140125891613095 0 -0.050890889628345475 -0.00098962433249568261 0 -0.043980041493817332 -0.0011980994071929861 0 -0.050346142059358875 -0.0022642145820480912 0 -0.045871657533646262 -0.0034509552857458279 0 -0.04883858012120669 -0.0056539373585470761 0 -0.04416696582944292 -0.0012331262419859113 0 -0.043980041493817332 -0.0011980994071929861 0 -0.049927817250719382 -0.0020826793664773368 0 -0.0506651941000398 -0.0025670587568272312 0 -0.049143799033876313 -0.0024276820760143931 0 -0.043980041493817332 -0.0011980994071929861 0 -0.04099069501991473 -0.0034433324637474392 0 -0.03454240535608407 -0.001365053514893119 0 -0.034652614588041274 -6.8793464872455109e-05 0 -0.035236822418073785 -0.00074685079313159878 0 -0.034652614588041274 -6.8793464872455109e-05 0 -0.035476948378137793 3.7814281284478753e-06 0 -0.035236822418073785 -0.00074685079313159878 0 -0.045513184598642113 -0.0072290016646021724 0 -0.04883858012120669 -0.0056539373585470761 0 -0.047264856157064758 -0.0091774085150420695 0 -0.045871657533646262 -0.0034509552857458279 0 -0.045513184598642113 -0.0072290016646021724 0 -0.04883858012120669 -0.0056539373585470761 0 -0.038065572118709652 -7.9397433119232291e-05 0 -0.038095996292411602 1.4640145926585856e-06 0 -0.039368714784465554 -0.00014378820094318654 0 -0.038065572118709652 -7.9397433119232291e-05 0 -0.036933999179540135 3.3738370510019442e-05 0 -0.037601715788533344 -0.00033244877860962664 0 -0.038065572118709652 -7.9397433119232291e-05 0 -0.038095996292411602 1.4640145926585856e-06 0 -0.036933999179540135 3.3738370510019442e-05 0 -0.041063751389252279 0.00046835273964405011 0 -0.042341441925341214 -0.00048343964106365269 0 -0.035476948378137793 3.7814281284478753e-06 0 -0.036028139933396319 -0.00080492328237959695 0 -0.035236822418073785 -0.00074685079313159878 0 -0.036933999179540135 3.3738370510019442e-05 0 -0.035476948378137793 3.7814281284478753e-06 0 -0.037601715788533344 -0.00033244877860962664 0 -0.03454240535608407 -0.001365053514893119 0 -0.035236822418073785 -0.00074685079313159878 0 -0.036126715696582289 -0.00095298549366995002 0 -0.043980041493817332 -0.0011980994071929861 0 -0.042870273481798366 -0.00088683919512579849 0 -0.0506651941000398 -0.0025670587568272312 0 -0.049143799033876313 -0.0024276820760143931 0 -0.047927084268897253 -0.0032996629404957278 0 -0.036028139933396319 -0.00080492328237959695 0 -0.035236822418073785 -0.00074685079313159878 0 -0.036126715696582289 -0.00095298549366995002 0 -0.049927817250719382 -0.0020826793664773368 0 -0.049143799033876313 -0.0024276820760143931 0 -0.049078448603332089 -0.0019764031161490898 0 -0.049143799033876313 -0.0024276820760143931 0 -0.048241788716102033 -0.0022777307443249939 0 -0.049078448603332089 -0.0019764031161490898 0 -0.049143799033876313 -0.0024276820760143931 0 -0.048241788716102033 -0.0022777307443249939 0 -0.047927084268897253 -0.0032996629404957278 0 -0.042870273481798366 -0.00088683919512579849 0 -0.04309997891620608 -7.4709428992914128e-05 0 -0.03808332246420499 -0.00033341128691551433 0 -0.039368714784465554 -0.00014378820094318654 0 -0.039934577346417768 -0.0011280735764120906 0 -0.048241788716102033 -0.0022777307443249939 0 -0.047927084268897253 -0.0032996629404957278 0 -0.047183194453145776 -0.0022005158950300706 0 -0.038095996292411602 1.4640145926585856e-06 0 -0.039368714784465554 -0.00014378820094318654 0 -0.041608950495791219 -3.81159246024024e-06 0 -0.037601715788533344 -0.00033244877860962664 0 -0.03808332246420499 -0.00033341128691551433 0 -0.039368714784465554 -0.00014378820094318654 0 -0.038065572118709652 -7.9397433119232291e-05 0 -0.037601715788533344 -0.00033244877860962664 0 -0.039368714784465554 -0.00014378820094318654 0 -0.042341441925341214 -0.00048343964106365269 0 -0.042870273481798366 -0.00088683919512579849 0 -0.039368714784465554 -0.00014378820094318654 0 -0.039934577346417768 -0.0011280735764120906 0 -0.041608950495791219 -3.81159246024024e-06 0 -0.04309997891620608 -7.4709428992914128e-05 0 -0.041619744010103356 -2.5817242210163205e-06 0 -0.042097535812347639 5.7285105995504953e-07 0 -0.041616555863077595 3.2803551946904593e-09 0 -0.043525143432447747 -9.5570217345750853e-10 0 -0.044963876182644788 -0.0024720867763203865 0 -0.043541661249850816 -6.6324956216937502e-06 0 -0.049524747291644293 -0.0014727254128369708 0 -0.04309997891620608 -7.4709428992914128e-05 0 -0.04352633747014812 -5.986553312166014e-07 0 -0.043541661249850816 -6.6324956216937502e-06 0 -0.049524747291644293 -0.0014727254128369708 0 -0.049314484417570401 3.9626733262630617e-05 0 -0.04309997891620608 -7.4709428992914128e-05 0 -0.0476652864764096 0.00021533186936053891 0 -0.048241788716102033 -0.0022777307443249939 0 -0.047183194453145776 -0.0022005158950300706 0 -0.049224985452410476 -0.001203961055956575 0 -0.049927817250719382 -0.0020826793664773368 0 -0.049078448603332089 -0.0019764031161490898 0 -0.049224985452410476 -0.001203961055956575 0 -0.048241788716102033 -0.0022777307443249939 0 -0.049078448603332089 -0.0019764031161490898 0 -0.049224985452410476 -0.001203961055956575 0 -0.043541661249850816 -6.6324956216937502e-06 0 -0.049314484417570401 3.9626733262630617e-05 0 -0.054604645171566241 3.3598810742107867e-06 0 -0.049314484417570401 3.9626733262630617e-05 0 -0.053824345845001585 -4.9124894376156169e-05 0 -0.054604645171566241 3.3598810742107867e-06 0 -0.052013985725464638 0.00067533340600997767 0 -0.053041224096108772 0.0013120350116067859 0 -0.049314484417570401 3.9626733262630617e-05 0 -0.051633821718586735 0.00094832741120181435 0 -0.050838350829488836 0.0021284422366164854 0 -0.052805215714371544 0.0022024343743300779 0 -0.053165732304692466 0.00056150846549719619 0 -0.051633821718586735 0.00094832741120181435 0 -0.052805215714371544 0.0022024343743300779 0 -0.051633821718586735 0.00094832741120181435 0 -0.050838350829488836 0.0021284422366164854 0 -0.053041224096108772 0.0013120350116067859 0 -0.054656495052572383 0.002059872257783387 0 -0.052805215714371544 0.0022024343743300779 0 -0.050838350829488836 0.0021284422366164854 0 -0.052302712704130769 0.0040101808716595444 0 -0.053824345845001585 -4.9124894376156169e-05 0 -0.055632520717847307 0.00013273225406174835 0 -0.056727750409507206 0.00014707225971599715 0 -0.05714893231209002 0.00032999616010502932 0 -0.056727750409507206 0.00014707225971599715 0 -0.057198895200222477 0.00027050996228920572 0 -0.05714893231209002 0.00032999616010502932 0 -0.057399672353459774 0.00027730765498440788 0 -0.056727750409507206 0.00014707225971599715 0 -0.055632520717847307 0.00013273225406174835 0 -0.056727750409507206 0.00014707225971599715 0 -0.057198895200222477 0.00027050996228920572 0 -0.055632520717847307 0.00013273225406174835 0 -0.057198895200222477 0.00027050996228920572 0 -0.056816465819346684 0.00021562639194868218 0 -0.053824345845001585 -4.9124894376156169e-05 0 -0.055632520717847307 0.00013273225406174835 0 -0.054604645171566241 3.3598810742107867e-06 0 -0.059246963947016985 0.00019125516773492641 0 -0.056816465819346684 0.00021562639194868218 0 -0.054604645171566241 3.3598810742107867e-06 0 -0.055632520717847307 0.00013273225406174835 0 -0.056816465819346684 0.00021562639194868218 0 -0.054604645171566241 3.3598810742107867e-06 0 -0.017142348167213741 -0.0008516023541882946 0 -0.017635559811670889 -0.0015198091928348651 0 -0.01694865370139861 -0.0023352262306996388 0 -0.024921005716053421 -0.0035600616978385324 0 -0.025770790772762144 -0.0045251989976294385 0 -0.017815466432320039 -0.0010293635186919875 0 -0.018791684928059514 -0.001093032037721152 0 -0.017730009241708693 -0.00088291875998829734 0 -0.018791684928059514 -0.001093032037721152 0 -0.019960487923901815 -0.00050912827447899625 0 -0.017730009241708693 -0.00088291875998829734 0 -0.017815466432320039 -0.0010293635186919875 0 -0.017142348167213741 -0.0008516023541882946 0 -0.017635559811670889 -0.0015198091928348651 0 -0.017815466432320039 -0.0010293635186919875 0 -0.017142348167213741 -0.0008516023541882946 0 -0.017730009241708693 -0.00088291875998829734 0 -0.017635559811670889 -0.0015198091928348651 0 -0.018263028933197565 -0.0021640045076259514 0 -0.01694865370139861 -0.0023352262306996388 0 -0.017635559811670889 -0.0015198091928348651 0 -0.018791684928059514 -0.001093032037721152 0 -0.018263028933197565 -0.0021640045076259514 0 -0.017815466432320039 -0.0010293635186919875 0 -0.017635559811670889 -0.0015198091928348651 0 -0.018791684928059514 -0.001093032037721152 0 -0.018791684928059514 -0.001093032037721152 0 -0.019520520641602642 -0.0016757076172960312 0 -0.018263028933197565 -0.0021640045076259514 0 -0.018791684928059514 -0.001093032037721152 0 -0.019520520641602642 -0.0016757076172960312 0 -0.02029603067840767 -0.00087151026337530207 0 -0.019520520641602642 -0.0016757076172960312 0 -0.02029603067840767 -0.00087151026337530207 0 -0.022558353249490556 -0.00066731512690199057 0 -0.018791684928059514 -0.001093032037721152 0 -0.02029603067840767 -0.00087151026337530207 0 -0.019960487923901815 -0.00050912827447899625 0 -0.02029603067840767 -0.00087151026337530207 0 -0.022558353249490556 -0.00066731512690199057 0 -0.019960487923901815 -0.00050912827447899625 0 -0.023180196652962014 -2.0018976315106934e-06 0 -0.019960487923901815 -0.00050912827447899625 0 -0.018812716695877238 -2.1079882331283475e-06 0 -0.023180196652962014 -2.0018976315106934e-06 0 -0.022558353249490556 -0.00066731512690199057 0 -0.019960487923901815 -0.00050912827447899625 0 -0.019960487923901815 -0.00050912827447899625 0 -0.018812716695877238 -2.1079882331283475e-06 0 -0.017670931106174539 -0.00082794914793552681 0 -0.019960487923901815 -0.00050912827447899625 0 -0.017670931106174539 -0.00082794914793552681 0 -0.017730009241708693 -0.00088291875998829734 0 -0.017670931106174539 -0.00082794914793552681 0 -0.01621246084261703 -0.0016228268708351706 0 -0.01548612757600532 -0.0013917889494295202 0 -0.01621246084261703 -0.0016228268708351706 0 -0.01736758281494185 -0.00087848237518338662 0 -0.014085918069846739 -0.0034469450790256561 0 -0.017670931106174539 -0.00082794914793552681 0 -0.017730009241708693 -0.00088291875998829734 0 -0.01621246084261703 -0.0016228268708351706 0 -0.017142348167213741 -0.0008516023541882946 0 -0.017730009241708693 -0.00088291875998829734 0 -0.01621246084261703 -0.0016228268708351706 0 -0.017142348167213741 -0.0008516023541882946 0 -0.01621246084261703 -0.0016228268708351706 0 -0.01736758281494185 -0.00087848237518338662 0 -0.010787970552426824 -0.006682386984260158 0 -0.013429475952256392 -0.012645854330800366 0 -0.014085918069846739 -0.0034469450790256561 0 -0.020420779359336786 -0.0076184172639608113 0 -0.019672817062341814 -0.0061922168610586519 0 -0.010787970552426824 -0.006682386984260158 0 -0.010693846393218487 -0.010818917859031088 0 -0.0088256082915770129 -0.010434038968035887 0 -0.010693846393218487 -0.010818917859031088 0 -0.0088256082915770129 -0.010434038968035887 0 -0.009877212292376215 -0.013334829375799724 0 -0.010693846393218487 -0.010818917859031088 0 -0.013429475952256392 -0.012645854330800366 0 -0.009877212292376215 -0.013334829375799724 0 -0.010787970552426824 -0.006682386984260158 0 -0.010693846393218487 -0.010818917859031088 0 -0.013429475952256392 -0.012645854330800366 0 -0.010787970552426824 -0.006682386984260158 0 -0.0088256082915770129 -0.010434038968035887 0 -0.0059860682699044579 -0.0077492100477473307 0 -0.0088256082915770129 -0.010434038968035887 0 -0.0055992476959351098 -0.012566657268507269 0 -0.0079126434592823661 -0.012905110217519375 0 -0.0088256082915770129 -0.010434038968035887 0 -0.0079126434592823661 -0.012905110217519375 0 -0.009877212292376215 -0.013334829375799724 0 -0.0055992476959351098 -0.012566657268507269 0 -0.0027091927242342997 -0.011548678626899749 0 -0.0059860682699044579 -0.0077492100477473307 0 -0.0088256082915770129 -0.010434038968035887 0 -0.0055992476959351098 -0.012566657268507269 0 -0.0059860682699044579 -0.0077492100477473307 0 -0.0055992476959351098 -0.012566657268507269 0 -0.0074596092709215593 -0.01521846280260091 0 -0.0049553860609539892 -0.015690866498322478 0 -0.0074596092709215593 -0.01521846280260091 0 -0.009877212292376215 -0.013334829375799724 0 -0.0098894256047852135 -0.016375581957891846 0 -0.0055992476959351098 -0.012566657268507269 0 -0.0079126434592823661 -0.012905110217519375 0 -0.0074596092709215593 -0.01521846280260091 0 -0.0079126434592823661 -0.012905110217519375 0 -0.0074596092709215593 -0.01521846280260091 0 -0.009877212292376215 -0.013334829375799724 0 -0.0074596092709215593 -0.01521846280260091 0 -0.0098894256047852135 -0.016375581957891846 0 -0.0071795446121154559 -0.018085228411149151 0 -0.0049553860609539892 -0.015690866498322478 0 -0.0071795446121154559 -0.018085228411149151 0 -0.0036431767256513881 -0.018591267011104386 0 -0.0074596092709215593 -0.01521846280260091 0 -0.0049553860609539892 -0.015690866498322478 0 -0.0071795446121154559 -0.018085228411149151 0 -0.01736758281494185 -0.00087848237518338662 0 -0.017359838811991102 -0.00070062802915690282 0 -0.017316680953513984 -0.00070459734592856645 0 -0.017142348167213741 -0.0008516023541882946 0 -0.01736758281494185 -0.00087848237518338662 0 -0.017316680953513984 -0.00070459734592856645 0 -0.020420779359336786 -0.0076184172639608113 0 -0.022972234494825116 -0.010101797271100889 0 -0.013429475952256392 -0.012645854330800366 0 -0.0098894256047852135 -0.016375581957891846 0 -0.0120222176500299 -0.019137448744775885 0 -0.013429475952256392 -0.012645854330800366 0 -0.009877212292376215 -0.013334829375799724 0 -0.0098894256047852135 -0.016375581957891846 0 -0.0120222176500299 -0.019137448744775885 0 -0.0076929973884695239 -0.021565312078737662 0 -0.010972181465486437 -0.025157634946091741 0 -0.022972234494825116 -0.010101797271100889 0 -0.02867148058429898 -0.011365199526322268 0 -0.017359838811991102 -0.00070062802915690282 0 -0.017383523420923707 -0.00073591758041768678 0 -0.017316680953513984 -0.00070459734592856645 0 -0.0098894256047852135 -0.016375581957891846 0 -0.0120222176500299 -0.019137448744775885 0 -0.0091903832201332449 -0.018807151869792059 0 -0.0120222176500299 -0.019137448744775885 0 -0.0091903832201332449 -0.018807151869792059 0 -0.0076929973884695239 -0.021565312078737662 0 -0.0071795446121154559 -0.018085228411149151 0 -0.0076929973884695239 -0.021565312078737662 0 -0.0036431767256513881 -0.018591267011104386 0 -0.0098894256047852135 -0.016375581957891846 0 -0.0091903832201332449 -0.018807151869792059 0 -0.0071795446121154559 -0.018085228411149151 0 -0.0091903832201332449 -0.018807151869792059 0 -0.0071795446121154559 -0.018085228411149151 0 -0.0076929973884695239 -0.021565312078737662 0 -0.029423235101303062 -0.011660747077531355 0 -0.02685816395846265 -0.016328893731506665 0 -0.045463710849759323 -0.018642172347320903 0 -0.048388985950619391 -0.016446191248526313 0 -0.049906422267040881 -0.018676917787074684 0 -0.0076929973884695239 -0.021565312078737662 0 -0.010374932806729626 -0.025605657833855287 0 -0.0027510501696610136 -0.025296541465253411 0 -0.017359838811991102 -0.00070062802915690282 0 -0.017383523420923707 -0.00073591758041768678 0 -0.017370915996688954 -0.00076682780891268866 0 -0.028504508633539712 -0.0077384128489505167 0 -0.02867148058429898 -0.011365199526322268 0 -0.028504508633539712 -0.0077384128489505167 0 -0.030528315268082137 -0.0085400363792178195 0 -0.0076929973884695239 -0.021565312078737662 0 -0.010972181465486437 -0.025157634946091741 0 -0.010374932806729626 -0.025605657833855287 0 -0.02867148058429898 -0.011365199526322268 0 -0.029423235101303062 -0.011660747077531355 0 -0.029632247462429082 -0.009902819677899518 0 -0.029399663683246806 -0.011428157552805233 0 -0.027681172487477465 -0.011400806745769895 0 -0.02867148058429898 -0.011365199526322268 0 -0.029314428293930331 -0.011301953344706839 0 -0.029314428293930331 -0.011301953344706839 0 -0.029423235101303062 -0.011660747077531355 0 -0.029070434273221046 -0.010210975703107701 0 -0.030244619829300837 -0.0093106641825989288 0 -0.029178025944514352 -0.0090901238818632667 0 -0.029314428293930331 -0.011301953344706839 0 -0.030528315268082137 -0.0085400363792178195 0 -0.030244619829300837 -0.0093106641825989288 0 -0.03027532686326985 -0.0091089508631881123 0 -0.029178025944514352 -0.0090901238818632667 0 -0.033446692944218329 -0.0014712177905979171 0 -0.031565303942509858 -0.0014562631927143527 0 -0.032677764879042837 -0.00037503360974385316 0 -0.030528315268082137 -0.0085400363792178195 0 -0.028819391895425591 -0.0039221154236798198 0 -0.024520320051735267 -0.00040334490220746963 0 -0.024917379917466679 -0.00043743625457124839 0 -0.024747618094486581 -0.00020246196419495115 0 -0.024557874703605952 -0.00020922893559526125 0 -0.024520320051735267 -0.00040334490220746963 0 -0.024747618094486581 -0.00020246196419495115 0 -0.028504508633539712 -0.0077384128489505167 0 -0.025770790772762144 -0.0045251989976294385 0 -0.028504508633539712 -0.0077384128489505167 0 -0.026640194525427714 -0.0066357227293700333 0 -0.016569034642355401 -0.0056611233882256466 0 -0.018831835158447302 -0.0039569392442183179 0 -0.01694865370139861 -0.0023352262306996388 0 -0.024557874703605952 -0.00020922893559526125 0 -0.024747618094486581 -0.00020246196419495115 0 -0.024765250442553722 -8.5325822407050786e-05 0 -0.024747618094486581 -0.00020246196419495115 0 -0.024765250442553722 -8.5325822407050786e-05 0 -0.024882967751530271 7.0804412456883624e-05 0 -0.019520520641602642 -0.0016757076172960312 0 -0.018831835158447302 -0.0039569392442183179 0 -0.018263028933197565 -0.0021640045076259514 0 -0.018831835158447302 -0.0039569392442183179 0 -0.018263028933197565 -0.0021640045076259514 0 -0.01694865370139861 -0.0023352262306996388 0 -0.023180196652962014 -2.0018976315106934e-06 0 -0.024882967751530271 7.0804412456883624e-05 0 -0.027540635436774093 -7.3281503266337683e-07 0 -0.023180196652962014 -2.0018976315106934e-06 0 -0.022558353249490556 -0.00066731512690199057 0 -0.024882967751530271 7.0804412456883624e-05 0 -0.022558353249490556 -0.00066731512690199057 0 -0.024765250442553722 -8.5325822407050786e-05 0 -0.024882967751530271 7.0804412456883624e-05 0 -0.026280414637613943 -0.0060967516820865158 0 -0.026640194525427714 -0.0066357227293700333 0 -0.019520520641602642 -0.0016757076172960312 0 -0.022558353249490556 -0.00066731512690199057 0 -0.018831835158447302 -0.0039569392442183179 0 -0.028819391895425591 -0.0039221154236798198 0 -0.027547827045229241 -1.1540620116329808e-05 0 -0.024917379917466679 -0.00043743625457124839 0 -0.024882967751530271 7.0804412456883624e-05 0 -0.027540635436774093 -7.3281503266337683e-07 0 -0.024917379917466679 -0.00043743625457124839 0 -0.024747618094486581 -0.00020246196419495115 0 -0.024882967751530271 7.0804412456883624e-05 0 -0.031565303942509858 -0.0014562631927143527 0 -0.02755176912586059 -4.5968483564875287e-06 0 -0.031486569704992591 8.6965405504747746e-05 0 -0.02755176912586059 -4.5968483564875287e-06 0 -0.031486569704992591 8.6965405504747746e-05 0 -0.031062793244478863 2.0644416403970246e-06 0 -0.033446692944218329 -0.0014712177905979171 0 -0.032677764879042837 -0.00037503360974385316 0 -0.033708515253461371 0.00040856642707431132 0 -0.031565303942509858 -0.0014562631927143527 0 -0.031486569704992591 8.6965405504747746e-05 0 -0.032677764879042837 -0.00037503360974385316 0 -0.031486569704992591 8.6965405504747746e-05 0 -0.032677764879042837 -0.00037503360974385316 0 -0.032972312358414559 0.00035441157914135337 0 -0.032677764879042837 -0.00037503360974385316 0 -0.032972312358414559 0.00035441157914135337 0 -0.033708515253461371 0.00040856642707431132 0 -0.031486569704992591 8.6965405504747746e-05 0 -0.032972312358414559 0.00035441157914135337 0 -0.033068681731163313 0.00043885533478982508 0 -0.032972312358414559 0.00035441157914135337 0 -0.033754678700171153 0.00062582256538296121 0 -0.033708515253461371 0.00040856642707431132 0 -0.032972312358414559 0.00035441157914135337 0 -0.033754678700171153 0.00062582256538296121 0 -0.033068681731163313 0.00043885533478982508 0 -0.031062793244478863 2.0644416403970246e-06 0 -0.033068681731163313 0.00043885533478982508 0 -0.034580002834193317 6.3616472572527904e-07 0 -0.031486569704992591 8.6965405504747746e-05 0 -0.031062793244478863 2.0644416403970246e-06 0 -0.033068681731163313 0.00043885533478982508 0 -0.033068681731163313 0.00043885533478982508 0 -0.034580002834193317 6.3616472572527904e-07 0 -0.035056903588041859 0.00048689281775989013 0 -0.033754678700171153 0.00062582256538296121 0 -0.035056903588041859 0.00048689281775989013 0 -0.034218899517613033 0.00070186579862747901 0 -0.033754678700171153 0.00062582256538296121 0 -0.033068681731163313 0.00043885533478982508 0 -0.035056903588041859 0.00048689281775989013 0 -0.036933999179540135 3.3738370510019442e-05 0 -0.035476948378137793 3.7814281284478753e-06 0 -0.035056903588041859 0.00048689281775989013 0 -0.035476948378137793 3.7814281284478753e-06 0 -0.035056903588041859 0.00048689281775989013 0 -0.034218899517613033 0.00070186579862747901 0 -0.038095996292411602 1.4640145926585856e-06 0 -0.034580002834193317 6.3616472572527904e-07 0 -0.035056903588041859 0.00048689281775989013 0 -0.038095996292411602 1.4640145926585856e-06 0 -0.036933999179540135 3.3738370510019442e-05 0 -0.035056903588041859 0.00048689281775989013 0 -0.04883858012120669 -0.0056539373585470761 0 -0.047264856157064758 -0.0091774085150420695 0 -0.049934598824758016 -0.0092499106201894242 0 -0.047264856157064758 -0.0091774085150420695 0 -0.04837954361182388 -0.011886818042762013 0 -0.049934598824758016 -0.0092499106201894242 0 -0.04099069501991473 -0.0034433324637474392 0 -0.038507469161432696 -0.0050606743307027961 0 -0.045513184598642113 -0.0072290016646021724 0 -0.047264856157064758 -0.0091774085150420695 0 -0.04514937976510508 -0.010967011199275492 0 -0.034652614588041274 -6.8793464872455109e-05 0 -0.035476948378137793 3.7814281284478753e-06 0 -0.034218899517613033 0.00070186579862747901 0 -0.047264856157064758 -0.0091774085150420695 0 -0.04514937976510508 -0.010967011199275492 0 -0.04837954361182388 -0.011886818042762013 0 -0.04514937976510508 -0.010967011199275492 0 -0.04837954361182388 -0.011886818042762013 0 -0.046531142489000067 -0.013413968836074137 0 -0.04837954361182388 -0.011886818042762013 0 -0.048186182948319958 -0.01431327631049515 0 -0.046531142489000067 -0.013413968836074137 0 -0.048186182948319958 -0.01431327631049515 0 -0.046531142489000067 -0.013413968836074137 0 -0.046226995534143896 -0.015024593228992368 0 -0.04514937976510508 -0.010967011199275492 0 -0.046531142489000067 -0.013413968836074137 0 -0.044787826028033162 -0.014649231750526797 0 -0.033754678700171153 0.00062582256538296121 0 -0.034218899517613033 0.00070186579862747901 0 -0.033708515253461371 0.00040856642707431132 0 -0.038507469161432696 -0.0050606743307027961 0 -0.035440443492285534 -0.0068402162359320765 0 -0.046531142489000067 -0.013413968836074137 0 -0.046226995534143896 -0.015024593228992368 0 -0.044787826028033162 -0.014649231750526797 0 -0.045660753840370563 -0.018410334928421784 0 -0.045942062947824505 -0.018415507995698119 0 -0.046226995534143896 -0.015024593228992368 0 -0.029314428293930331 -0.011301953344706839 0 -0.03193850285727514 -0.012814014620758504 0 -0.044412666179097934 -0.018164746568867744 0 -0.046226995534143896 -0.015024593228992368 0 -0.044787826028033162 -0.014649231750526797 0 -0.045676793868466618 -0.018184059981518921 0 -0.044412666179097934 -0.018164746568867744 0 -0.046226995534143896 -0.015024593228992368 0 -0.030528315268082137 -0.0085400363792178195 0 -0.035440443492285534 -0.0068402162359320765 0 -0.029423235101303062 -0.011660747077531355 0 -0.03959228503330197 -0.010491781278077501 0 -0.045942062947824505 -0.018415507995698119 0 -0.046226995534143896 -0.015024593228992368 0 -0.048618975149431649 -0.016408447919627436 0 -0.048186182948319958 -0.01431327631049515 0 -0.046226995534143896 -0.015024593228992368 0 -0.048618975149431649 -0.016408447919627436 0 -0.03959228503330197 -0.010491781278077501 0 -0.042676784614606299 -0.010104224325278492 0 -0.048388985950619391 -0.016446191248526313 0 -0.051620322354296172 -0.016711451285631094 0 -0.049906422267040881 -0.018676917787074684 0 -0.048388985950619391 -0.016446191248526313 0 -0.051620322354296172 -0.016711451285631094 0 -0.051267213362717119 -0.014425116411447645 0 -0.051620322354296172 -0.016711451285631094 0 -0.051267213362717119 -0.014425116411447645 0 -0.054254925768906843 -0.015403326667615036 0 -0.051620322354296172 -0.016711451285631094 0 -0.054254925768906843 -0.015403326667615036 0 -0.05411547855187876 -0.018599748977272804 0 -0.051267213362717119 -0.014425116411447645 0 -0.05419352974585661 -0.0119680070972898 0 -0.054254925768906843 -0.015403326667615036 0 -0.048186182948319958 -0.01431327631049515 0 -0.048618975149431649 -0.016408447919627436 0 -0.051267213362717119 -0.014425116411447645 0 -0.04837954361182388 -0.011886818042762013 0 -0.048186182948319958 -0.01431327631049515 0 -0.051267213362717119 -0.014425116411447645 0 -0.04837954361182388 -0.011886818042762013 0 -0.051267213362717119 -0.014425116411447645 0 -0.051147744838186564 -0.011625957076791827 0 -0.04837954361182388 -0.011886818042762013 0 -0.051147744838186564 -0.011625957076791827 0 -0.049934598824758016 -0.0092499106201894242 0 -0.051267213362717119 -0.014425116411447645 0 -0.051147744838186564 -0.011625957076791827 0 -0.05419352974585661 -0.0119680070972898 0 -0.051147744838186564 -0.011625957076791827 0 -0.05419352974585661 -0.0119680070972898 0 -0.052378895424738919 -0.0096862171996096817 0 -0.05180175722595487 -0.0066457201152632867 0 -0.052378895424738919 -0.0096862171996096817 0 -0.054249453795391173 -0.0079882481780405024 0 -0.05419352974585661 -0.0119680070972898 0 -0.052378895424738919 -0.0096862171996096817 0 -0.054249453795391173 -0.0079882481780405024 0 -0.05180175722595487 -0.0066457201152632867 0 -0.052378895424738919 -0.0096862171996096817 0 -0.049934598824758016 -0.0092499106201894242 0 -0.051147744838186564 -0.011625957076791827 0 -0.052378895424738919 -0.0096862171996096817 0 -0.049934598824758016 -0.0092499106201894242 0 -0.058879048728512282 -0.0094947801128847601 0 -0.056268172429584019 -0.0097804094262664461 0 -0.057522252118777942 -0.011763301394255877 0 -0.057164912209172268 -0.0076231357344190287 0 -0.058879048728512282 -0.0094947801128847601 0 -0.056268172429584019 -0.0097804094262664461 0 -0.059763076841262523 -0.0075559101553550013 0 -0.057164912209172268 -0.0076231357344190287 0 -0.058879048728512282 -0.0094947801128847601 0 -0.057164912209172268 -0.0076231357344190287 0 -0.054249453795391173 -0.0079882481780405024 0 -0.056268172429584019 -0.0097804094262664461 0 -0.05419352974585661 -0.0119680070972898 0 -0.054249453795391173 -0.0079882481780405024 0 -0.056268172429584019 -0.0097804094262664461 0 -0.05419352974585661 -0.0119680070972898 0 -0.057522252118777942 -0.011763301394255877 0 -0.057020933968665956 -0.014201303326557989 0 -0.05419352974585661 -0.0119680070972898 0 -0.056268172429584019 -0.0097804094262664461 0 -0.057522252118777942 -0.011763301394255877 0 -0.057522252118777942 -0.011763301394255877 0 -0.05895641521919634 -0.013060951465079674 0 -0.06040339914025443 -0.01103342007558328 0 -0.058879048728512282 -0.0094947801128847601 0 -0.057522252118777942 -0.011763301394255877 0 -0.06040339914025443 -0.01103342007558328 0 -0.057522252118777942 -0.011763301394255877 0 -0.05895641521919634 -0.013060951465079674 0 -0.057020933968665956 -0.014201303326557989 0 -0.05895641521919634 -0.013060951465079674 0 -0.057020933968665956 -0.014201303326557989 0 -0.059798774672271453 -0.014478607114999773 0 -0.057020933968665956 -0.014201303326557989 0 -0.059265485698853516 -0.016346191642271631 0 -0.059798774672271453 -0.014478607114999773 0 -0.05419352974585661 -0.0119680070972898 0 -0.057020933968665956 -0.014201303326557989 0 -0.054254925768906843 -0.015403326667615036 0 -0.054254925768906843 -0.015403326667615036 0 -0.056577438443197105 -0.016594946880558115 0 -0.05411547855187876 -0.018599748977272804 0 -0.057020933968665956 -0.014201303326557989 0 -0.054254925768906843 -0.015403326667615036 0 -0.056577438443197105 -0.016594946880558115 0 -0.057020933968665956 -0.014201303326557989 0 -0.056577438443197105 -0.016594946880558115 0 -0.059265485698853516 -0.016346191642271631 0 -0.056577438443197105 -0.016594946880558115 0 -0.058086729539252674 -0.018442681735798713 0 -0.059265485698853516 -0.016346191642271631 0 0.0099688299773879243 -0.023594585444648226 0 0.0079906656603643197 -0.020354331272441083 0 0.012028482062648432 -0.020426531875009233 0 0.0079906656603643197 -0.020354331272441083 0 0.01116632788583357 -0.017661083024844027 0 0.0084065856336508569 -0.017269625565057865 0 0.0079906656603643197 -0.020354331272441083 0 0.01116632788583357 -0.017661083024844027 0 0.012028482062648432 -0.020426531875009233 0 0.0079906656603643197 -0.020354331272441083 0 0.0036346288163050487 -0.020683335207451577 0 0.0053908723326863677 -0.018088301260749205 0 0.0079906656603643197 -0.020354331272441083 0 0.0043180035939607399 -0.024531851289352171 0 0.0036346288163050487 -0.020683335207451577 0 0.0079906656603643197 -0.020354331272441083 0 0.0084065856336508569 -0.017269625565057865 0 0.0053908723326863677 -0.018088301260749205 0 0.0099688299773879243 -0.023594585444648226 0 0.0079906656603643197 -0.020354331272441083 0 0.0043180035939607399 -0.024531851289352171 0 -0.024455606370677924 -0.017388177342403853 0 -0.025370395142490978 -0.017878617210913945 0 -0.056577438443197105 -0.016594946880558115 0 -0.058086729539252674 -0.018442681735798713 0 -0.05411547855187876 -0.018599748977272804 0 -0.025370395142490978 -0.017878617210913945 0 -0.02685816395846265 -0.016328893731506665 0 0.0043180035939607399 -0.024531851289352171 0 -0.00074185498429570475 -0.021567977092452735 0 0.0036346288163050487 -0.020683335207451577 0 -0.051620322354296172 -0.016711451285631094 0 -0.05411547855187876 -0.018599748977272804 0 -0.049906422267040881 -0.018676917787074684 0 0.0043180035939607399 -0.024531851289352171 0 -0.0027510501696610136 -0.025296541465253411 0 -0.00074185498429570475 -0.021567977092452735 0 -0.0076929973884695239 -0.021565312078737662 0 -0.0027510501696610136 -0.025296541465253411 0 -0.00074185498429570475 -0.021567977092452735 0 -0.0076929973884695239 -0.021565312078737662 0 -0.00074185498429570475 -0.021567977092452735 0 -0.0036431767256513881 -0.018591267011104386 0 -0.00074185498429570475 -0.021567977092452735 0 -0.0036431767256513881 -0.018591267011104386 0 0.0011703936261965797 -0.017986837478754868 0 -0.00074185498429570475 -0.021567977092452735 0 0.0036346288163050487 -0.020683335207451577 0 0.0011703936261965797 -0.017986837478754868 0 0.0036346288163050487 -0.020683335207451577 0 0.0011703936261965797 -0.017986837478754868 0 0.0053908723326863677 -0.018088301260749205 0 0.0011703936261965797 -0.017986837478754868 0 0.0036410171223721713 -0.016077432651845872 0 0.0053908723326863677 -0.018088301260749205 0 0.0011703936261965797 -0.017986837478754868 0 0.0012939935642132013 -0.015247878502030087 0 -0.0019417214714355991 -0.01487215633035914 0 0.0011703936261965797 -0.017986837478754868 0 0.0012939935642132013 -0.015247878502030087 0 0.0036410171223721713 -0.016077432651845872 0 0.0012939935642132013 -0.015247878502030087 0 0.0036410171223721713 -0.016077432651845872 0 0.003320085200498498 -0.013702276799465072 0 -0.0036431767256513881 -0.018591267011104386 0 0.0011703936261965797 -0.017986837478754868 0 -0.0019417214714355991 -0.01487215633035914 0 -0.0049553860609539892 -0.015690866498322478 0 -0.0036431767256513881 -0.018591267011104386 0 -0.0019417214714355991 -0.01487215633035914 0 0.0012939935642132013 -0.015247878502030087 0 -0.0019417214714355991 -0.01487215633035914 0 0.00023283519121431337 -0.012329985063753011 0 -0.0055992476959351098 -0.012566657268507269 0 -0.0049553860609539892 -0.015690866498322478 0 -0.0019417214714355991 -0.01487215633035914 0 -0.0027091927242342997 -0.011548678626899749 0 -0.0014218168223868971 -0.0086616786300898335 0 -0.0059860682699044579 -0.0077492100477473307 0 -0.0055992476959351098 -0.012566657268507269 0 -0.0019417214714355991 -0.01487215633035914 0 -0.0027091927242342997 -0.011548678626899749 0 -0.0019417214714355991 -0.01487215633035914 0 -0.0027091927242342997 -0.011548678626899749 0 0.00023283519121431337 -0.012329985063753011 0 -0.0027091927242342997 -0.011548678626899749 0 0.00023283519121431337 -0.012329985063753011 0 -0.0014218168223868971 -0.0086616786300898335 0 0.003320085200498498 -0.013702276799465072 0 0.00023283519121431337 -0.012329985063753011 0 0.0028713445436435053 -0.010198349846582156 0 0.0012939935642132013 -0.015247878502030087 0 0.003320085200498498 -0.013702276799465072 0 0.00023283519121431337 -0.012329985063753011 0 0.00023283519121431337 -0.012329985063753011 0 0.0028713445436435053 -0.010198349846582156 0 -0.0014218168223868971 -0.0086616786300898335 0 0.003320085200498498 -0.013702276799465072 0 0.0028713445436435053 -0.010198349846582156 0 0.0055674865489308894 -0.013157359531231559 0 0.0088049318527405971 -0.013157540175727286 0 0.010132285122049877 -0.015126721001687339 0 0.0069510339824993776 -0.015332655902026399 0 0.0028713445436435053 -0.010198349846582156 0 0.0055674865489308894 -0.013157359531231559 0 0.0088049318527405971 -0.013157540175727286 0 0.0055674865489308894 -0.013157359531231559 0 0.0088049318527405971 -0.013157540175727286 0 0.0069510339824993776 -0.015332655902026399 0 0.003320085200498498 -0.013702276799465072 0 0.0055674865489308894 -0.013157359531231559 0 0.0069510339824993776 -0.015332655902026399 0 0.0088049318527405971 -0.013157540175727286 0 0.010132285122049877 -0.015126721001687339 0 0.011703535175388698 -0.012897411768305465 0 0.0088049318527405971 -0.013157540175727286 0 0.011703535175388698 -0.012897411768305465 0 0.0093100285254805373 -0.013374770403288289 0 0.010132285122049877 -0.015126721001687339 0 0.0084065856336508569 -0.017269625565057865 0 0.0069510339824993776 -0.015332655902026399 0 0.010132285122049877 -0.015126721001687339 0 0.01116632788583357 -0.017661083024844027 0 0.0084065856336508569 -0.017269625565057865 0 0.0084065856336508569 -0.017269625565057865 0 0.0053908723326863677 -0.018088301260749205 0 0.0069510339824993776 -0.015332655902026399 0 0.0036410171223721713 -0.016077432651845872 0 0.0053908723326863677 -0.018088301260749205 0 0.0069510339824993776 -0.015332655902026399 0 0.0036410171223721713 -0.016077432651845872 0 0.003320085200498498 -0.013702276799465072 0 0.0069510339824993776 -0.015332655902026399 0 0.016683721279970282 -0.016142929690071167 0 0.014829511674329181 -0.018142747617361853 0 0.013326779306634152 -0.015565399012142708 0 0.016683721279970282 -0.016142929690071167 0 0.014829511674329181 -0.018142747617361853 0 0.017322941012569981 -0.018137485278325278 0 0.010132285122049877 -0.015126721001687339 0 0.01116632788583357 -0.017661083024844027 0 0.013326779306634152 -0.015565399012142708 0 0.01116632788583357 -0.017661083024844027 0 0.014829511674329181 -0.018142747617361853 0 0.013326779306634152 -0.015565399012142708 0 0.013326779306634152 -0.015565399012142708 0 0.011703535175388698 -0.012897411768305465 0 0.015881278513087321 -0.013483017587256068 0 0.014107997495670425 -0.014502458035647156 0 0.015922432033877595 -0.014813752965698259 0 0.010132285122049877 -0.015126721001687339 0 0.013326779306634152 -0.015565399012142708 0 0.011703535175388698 -0.012897411768305465 0 0.016683721279970282 -0.016142929690071167 0 0.013326779306634152 -0.015565399012142708 0 0.015881278513087321 -0.013483017587256068 0 0.015922432033877595 -0.014813752965698259 0 0.013147620482136951 -0.014271668098015104 0 0.016683721279970282 -0.016142929690071167 0 0.015881278513087321 -0.013483017587256068 0 0.019975168852020359 -0.014249594707061731 0 0.020460528315119481 -0.016960309568859761 0 0.023668280671265148 -0.01703160624029372 0 0.021871491895798977 -0.01456825979080968 0 0.023834668986289276 -0.015225575432929407 0 0.023753535001200365 -0.015284389245895352 0 0.023812191783844701 -0.015333782911126777 0 0.023834668986289276 -0.015225575432929407 0 0.023812191783844701 -0.015333782911126777 0 0.024193333664783982 -0.014945273573424653 0 0.023834668986289276 -0.015225575432929407 0 0.023753535001200365 -0.015284389245895352 0 0.023718279094833757 -0.01526269848481266 0 0.013147620482136951 -0.014271668098015104 0 0.013755468710643275 -0.014387159574178328 0 0.023497488210901883 -0.015618763042552298 0 0.023812191783844701 -0.015333782911126777 0 0.023413821373107359 -0.015394778256735768 0 0.013147620482136951 -0.014271668098015104 0 0.015605123222876964 -0.014674576096816234 0 0.023413821373107359 -0.015394778256735768 0 0.023216947434358006 -0.015166244719811456 0 0.024388625406167444 -0.015748239487947433 0 0.023497488210901883 -0.015618763042552298 0 0.023413821373107359 -0.015394778256735768 0 0.023811987011422977 -0.014730437839137902 0 0.013147620482136951 -0.014271668098015104 0 -0.00065075322730146564 -0.013123484484097747 0 0.023413821373107359 -0.015394778256735768 0 0.023216947434358006 -0.015166244719811456 0 0.023811987011422977 -0.014730437839137902 0 0.023216947434358006 -0.015166244719811456 0 0.021027268476174012 -0.013710783155291374 0 0.019118807094397176 -0.014861995727095942 0 0.016683721279970282 -0.016142929690071167 0 0.019975168852020359 -0.014249594707061731 0 0.018378822782216264 -0.016776157152287967 0 0.019975168852020359 -0.014249594707061731 0 0.018378822782216264 -0.016776157152287967 0 0.019531992085997232 -0.018570187065054675 0 0.018378822782216264 -0.016776157152287967 0 0.017322941012569981 -0.018137485278325278 0 0.019531992085997232 -0.018570187065054675 0 0.016683721279970282 -0.016142929690071167 0 0.018378822782216264 -0.016776157152287967 0 0.017322941012569981 -0.018137485278325278 0 -0.00065075322730146564 -0.013123484484097747 0 -0.025259919520912399 -0.009109077458974742 0 0.017322941012569981 -0.018137485278325278 0 0.019531992085997232 -0.018570187065054675 0 0.016999706188335996 -0.020497121239175211 0 0.019531992085997232 -0.018570187065054675 0 0.016999706188335996 -0.020497121239175211 0 0.019040116662877752 -0.022837845066066922 0 0.023811987011422977 -0.014730437839137902 0 0.022476432415449787 -0.011013000068136226 0 0.024777796036733534 -0.0080486701223656549 0 0.021027268476174012 -0.013710783155291374 0 0.021122116795179786 -0.012337784957559215 0 0.019219413565186264 -0.012532936766511387 0 0.023216947434358006 -0.015166244719811456 0 0.021027268476174012 -0.013710783155291374 0 0.022378159233432261 -0.013644781363053167 0 0.021027268476174012 -0.013710783155291374 0 0.022378159233432261 -0.013644781363053167 0 0.021122116795179786 -0.012337784957559215 0 0.023811987011422977 -0.014730437839137902 0 0.022378159233432261 -0.013644781363053167 0 0.022476432415449787 -0.011013000068136226 0 0.023216947434358006 -0.015166244719811456 0 0.023811987011422977 -0.014730437839137902 0 0.022378159233432261 -0.013644781363053167 0 0.021122116795179786 -0.012337784957559215 0 0.01940744370465796 -0.010164855196218556 0 0.019219413565186264 -0.012532936766511387 0 0.022476432415449787 -0.011013000068136226 0 0.021122116795179786 -0.012337784957559215 0 0.01940744370465796 -0.010164855196218556 0 0.022378159233432261 -0.013644781363053167 0 0.022476432415449787 -0.011013000068136226 0 0.021122116795179786 -0.012337784957559215 0 -0.026820839153779384 -0.0063477798877164815 0 -0.021794967942907303 -0.0037099947902182471 0 0.022476432415449787 -0.011013000068136226 0 0.021466105290741694 -0.0081060674966184666 0 0.01940744370465796 -0.010164855196218556 0 0.022476432415449787 -0.011013000068136226 0 0.021466105290741694 -0.0081060674966184666 0 0.024777796036733534 -0.0080486701223656549 0 -0.026820839153779384 -0.0063477798877164815 0 -0.044819097370177939 -0.0086337731217437982 0 -0.026820839153779384 -0.0063477798877164815 0 -0.025259919520912399 -0.009109077458974742 0 -0.034173240081781089 -0.0021820462580356349 0 -0.037318663482917687 -0.0022372212524179851 0 -0.03761478734742791 -0.0056382042694408047 0 -0.025259919520912399 -0.009109077458974742 0 -0.024120355214259256 -0.014862394339598217 0 -0.064968280420251184 -0.01816311990649223 0 -0.061706043302984959 -0.01824166351266019 0 -0.064280639267157755 -0.016657088690987618 0 0.016999706188335996 -0.020497121239175211 0 0.019040116662877752 -0.022837845066066922 0 0.014595453433004541 -0.023034295344728742 0 -0.025259919520912399 -0.009109077458974742 0 -0.044819097370177939 -0.0086337731217437982 0 0.014829511674329181 -0.018142747617361853 0 0.016999706188335996 -0.020497121239175211 0 0.014595453433004541 -0.023034295344728742 0 0.014829511674329181 -0.018142747617361853 0 0.017322941012569981 -0.018137485278325278 0 0.016999706188335996 -0.020497121239175211 0 0.01116632788583357 -0.017661083024844027 0 0.014829511674329181 -0.018142747617361853 0 0.012028482062648432 -0.020426531875009233 0 0.014829511674329181 -0.018142747617361853 0 0.014595453433004541 -0.023034295344728742 0 0.012028482062648432 -0.020426531875009233 0 -0.024455606370677924 -0.017388177342403853 0 -0.024120355214259256 -0.014862394339598217 0 -0.058086729539252674 -0.018442681735798713 0 -0.061706043302984959 -0.01824166351266019 0 -0.059265485698853516 -0.016346191642271631 0 0.0099688299773879243 -0.023594585444648226 0 0.014595453433004541 -0.023034295344728742 0 0.012028482062648432 -0.020426531875009233 0 -0.061706043302984959 -0.01824166351266019 0 -0.059265485698853516 -0.016346191642271631 0 -0.061410109120746049 -0.015658713130799532 0 -0.059265485698853516 -0.016346191642271631 0 -0.061410109120746049 -0.015658713130799532 0 -0.059798774672271453 -0.014478607114999773 0 -0.061706043302984959 -0.01824166351266019 0 -0.062670339603197164 -0.016324329593615808 0 -0.064280639267157755 -0.016657088690987618 0 -0.061706043302984959 -0.01824166351266019 0 -0.062670339603197164 -0.016324329593615808 0 -0.061410109120746049 -0.015658713130799532 0 -0.062670339603197164 -0.016324329593615808 0 -0.061410109120746049 -0.015658713130799532 0 -0.063274501137478706 -0.01474919796564896 0 -0.063274501137478706 -0.01474919796564896 0 -0.061189031961171043 -0.013951390363182674 0 -0.061693309110962026 -0.013020047388162816 0 -0.061410109120746049 -0.015658713130799532 0 -0.063274501137478706 -0.01474919796564896 0 -0.061189031961171043 -0.013951390363182674 0 -0.06010882726066373 -0.00989435336079399 0 -0.060178931061568484 -0.0096009182941473731 0 -0.070184207253010597 -0.0017512608008216901 0 -0.070052665212470819 -0.0015903223608191811 0 -0.070218648060234701 -0.0015512218533048352 0 -0.05599084810813984 -0.010770764628061331 0 -0.060178931061568484 -0.0096009182941473731 0 -0.061410109120746049 -0.015658713130799532 0 -0.059798774672271453 -0.014478607114999773 0 -0.061189031961171043 -0.013951390363182674 0 -0.061189031961171043 -0.013951390363182674 0 -0.060419732844261886 -0.012694199582481419 0 -0.061860288274143589 -0.012835334033879398 0 -0.059798774672271453 -0.014478607114999773 0 -0.061189031961171043 -0.013951390363182674 0 -0.060419732844261886 -0.012694199582481419 0 -0.05895641521919634 -0.013060951465079674 0 -0.059798774672271453 -0.014478607114999773 0 -0.060419732844261886 -0.012694199582481419 0 -0.05895641521919634 -0.013060951465079674 0 -0.06040339914025443 -0.01103342007558328 0 -0.060419732844261886 -0.012694199582481419 0 -0.06040339914025443 -0.01103342007558328 0 -0.062395784316981756 -0.012958724105285634 0 -0.06218534732994372 -0.01057920556888726 0 -0.06040339914025443 -0.01103342007558328 0 -0.060419732844261886 -0.012694199582481419 0 -0.061860288274143589 -0.012835334033879398 0 -0.060549565782368107 -0.010093351159289393 0 -0.060178931061568484 -0.0096009182941473731 0 -0.070052665212470819 -0.0015903223608191811 0 -0.070218648060234701 -0.0015512218533048352 0 -0.070305343255181285 -0.0013301693044356939 0 -0.060178931061568484 -0.0096009182941473731 0 -0.06463206074288376 -0.005768521736470628 0 -0.062395784316981756 -0.012958724105285634 0 -0.06218534732994372 -0.01057920556888726 0 -0.064171014866735404 -0.0094856354484501495 0 -0.06218534732994372 -0.01057920556888726 0 -0.064171014866735404 -0.0094856354484501495 0 -0.061731310303641852 -0.0089133356651730986 0 -0.063607092746204741 -0.0071980485892021847 0 -0.064171014866735404 -0.0094856354484501495 0 -0.061731310303641852 -0.0089133356651730986 0 -0.059763076841262523 -0.0075559101553550013 0 -0.058879048728512282 -0.0094947801128847601 0 -0.061731310303641852 -0.0089133356651730986 0 -0.058879048728512282 -0.0094947801128847601 0 -0.06040339914025443 -0.01103342007558328 0 -0.061731310303641852 -0.0089133356651730986 0 -0.06040339914025443 -0.01103342007558328 0 -0.06218534732994372 -0.01057920556888726 0 -0.061731310303641852 -0.0089133356651730986 0 -0.070161166752540957 -0.00073947021672631343 0 -0.069895463285975526 -0.001197051268513147 0 -0.069202690642706385 -0.00049555625967356756 0 -0.070161166752540957 -0.00073947021672631343 0 -0.069895463285975526 -0.001197051268513147 0 -0.070177521937309278 -0.0011410880915902156 0 -0.07016197354350126 -0.0013450967680066546 0 -0.069895463285975526 -0.001197051268513147 0 -0.070177521937309278 -0.0011410880915902156 0 -0.060241719183706348 -0.0023592474452560699 0 -0.056924665333134013 -0.0031796536701179322 0 -0.07016197354350126 -0.0013450967680066546 0 -0.070177521937309278 -0.0011410880915902156 0 -0.07039795304213578 -0.0013066866967330196 0 -0.066759624445031543 -0.0042651213190813171 0 -0.06463206074288376 -0.005768521736470628 0 -0.070161166752540957 -0.00073947021672631343 0 -0.070177521937309278 -0.0011410880915902156 0 -0.07039795304213578 -0.0013066866967330196 0 -0.070417941939137668 -0.0013938421398450136 0 -0.070305343255181285 -0.0013301693044356939 0 -0.07039795304213578 -0.0013066866967330196 0 -0.070161166752540957 -0.00073947021672631343 0 -0.07039795304213578 -0.0013066866967330196 0 -0.070502373046827035 -0.00012033998947548985 0 -0.070305343255181285 -0.0013301693044356939 0 -0.07039795304213578 -0.0013066866967330196 0 -0.070335203530626306 -0.0015453138130263892 0 -0.070218648060234701 -0.0015512218533048352 0 -0.070305343255181285 -0.0013301693044356939 0 -0.070335203530626306 -0.0015453138130263892 0 -0.070161166752540957 -0.00073947021672631343 0 -0.069833574155120509 -2.3221438278495449e-05 0 -0.069202690642706385 -0.00049555625967356756 0 -0.070161166752540957 -0.00073947021672631343 0 -0.070502373046827035 -0.00012033998947548985 0 -0.069833574155120509 -2.3221438278495449e-05 0 -0.069833574155120509 -2.3221438278495449e-05 0 -0.069997976505604478 0.00058407948650418984 0 -0.069398238109807192 0.00079420056061296534 0 -0.070502373046827035 -0.00012033998947548985 0 -0.069833574155120509 -2.3221438278495449e-05 0 -0.069997976505604478 0.00058407948650418984 0 -0.070502373046827035 -0.00012033998947548985 0 -0.069997976505604478 0.00058407948650418984 0 -0.070335307626412172 0.0010268228326679363 0 -0.056924665333134013 -0.0031796536701179322 0 -0.044819097370177939 -0.0086337731217437982 0 -0.070184207253010597 -0.0017512608008216901 0 -0.070335203530626306 -0.0015453138130263892 0 -0.070280779329661924 -0.0019316831538225439 0 -0.070184207253010597 -0.0017512608008216901 0 -0.070218648060234701 -0.0015512218533048352 0 -0.070335203530626306 -0.0015453138130263892 0 -0.063274501137478706 -0.01474919796564896 0 -0.064874078607354613 -0.016486335080621237 0 -0.064280639267157755 -0.016657088690987618 0 -0.05599084810813984 -0.010770764628061331 0 -0.044819097370177939 -0.0086337731217437982 0 -0.062670339603197164 -0.016324329593615808 0 -0.063274501137478706 -0.01474919796564896 0 -0.064280639267157755 -0.016657088690987618 0 -0.064968280420251184 -0.01816311990649223 0 -0.064852759935176335 -0.016492627375037112 0 -0.064280639267157755 -0.016657088690987618 0 -0.044819097370177939 -0.0086337731217437982 0 -0.045420673746285271 -0.0085865227775044333 0 -0.058836704107490055 -0.0033252556152060697 0 -0.056940536640571478 -0.0014733761785777021 0 -0.060494458445584598 -0.00051342551561753876 0 -0.069997976505604478 0.00058407948650418984 0 -0.070335307626412172 0.0010268228326679363 0 -0.069398238109807192 0.00079420056061296534 0 -0.044819097370177939 -0.0086337731217437982 0 -0.061142434506650252 -0.0025439464544550249 0 -0.069398238109807192 0.00079420056061296534 0 -0.06840210916453196 0.00063545983153395118 0 -0.069202690642706385 -0.00049555625967356756 0 -0.069833574155120509 -2.3221438278495449e-05 0 -0.069398238109807192 0.00079420056061296534 0 -0.069202690642706385 -0.00049555625967356756 0 -0.060494458445584598 -0.00051342551561753876 0 -0.063897910942448899 0.00026661976142586502 0 -0.062712400092774692 -0.0032315681287331511 0 -0.063897910942448899 0.00026661976142586502 0 -0.065170188509158081 -0.0014196672084891739 0 -0.062712400092774692 -0.0032315681287331511 0 -0.061142434506650252 -0.0025439464544550249 0 -0.065126018626159216 -0.00078762050454304205 0 -0.06840210916453196 0.00063545983153395118 0 -0.069202690642706385 -0.00049555625967356756 0 -0.068005802726365874 -8.8779275220765542e-05 0 -0.069202690642706385 -0.00049555625967356756 0 -0.068472228884326566 -0.00061431577692975831 0 -0.068005802726365874 -8.8779275220765542e-05 0 -0.068640861002887396 -0.0012440038321688287 0 -0.069202690642706385 -0.00049555625967356756 0 -0.068472228884326566 -0.00061431577692975831 0 -0.06900016163682797 -0.0014460129895587765 0 -0.069196182449239585 -0.00097097885835282561 0 -0.06952807604377928 -0.0014122425546885102 0 -0.069089054475439698 -0.0015168754309903816 0 -0.069202690642706385 -0.00049555625967356756 0 -0.06952807604377928 -0.0014122425546885102 0 -0.069895463285975526 -0.001197051268513147 0 -0.069202690642706385 -0.00049555625967356756 0 -0.067720089326137406 -0.0010057582446860842 0 -0.067856391199672073 -0.00057427350323452527 0 -0.067122385523338587 -0.0004297293015778746 0 -0.067856391199672073 -0.00057427350323452527 0 -0.06732353437222105 -0.00012966390660275638 0 -0.067122385523338587 -0.0004297293015778746 0 -0.067134043901622309 -0.0010545231674493603 0 -0.067720089326137406 -0.0010057582446860842 0 -0.067122385523338587 -0.0004297293015778746 0 -0.068640861002887396 -0.0012440038321688287 0 -0.068472228884326566 -0.00061431577692975831 0 -0.067856391199672073 -0.00057427350323452527 0 -0.067720089326137406 -0.0010057582446860842 0 -0.068640861002887396 -0.0012440038321688287 0 -0.067856391199672073 -0.00057427350323452527 0 -0.067856391199672073 -0.00057427350323452527 0 -0.068005802726365874 -8.8779275220765542e-05 0 -0.06732353437222105 -0.00012966390660275638 0 -0.068472228884326566 -0.00061431577692975831 0 -0.067856391199672073 -0.00057427350323452527 0 -0.068005802726365874 -8.8779275220765542e-05 0 -0.06732353437222105 -0.00012966390660275638 0 -0.067101388283543242 4.4561584188492769e-05 0 -0.067122385523338587 -0.0004297293015778746 0 -0.068005802726365874 -8.8779275220765542e-05 0 -0.06732353437222105 -0.00012966390660275638 0 -0.067006255592085145 0.0003256133320067843 0 -0.06732353437222105 -0.00012966390660275638 0 -0.067006255592085145 0.0003256133320067843 0 -0.067101388283543242 4.4561584188492769e-05 0 -0.067006255592085145 0.0003256133320067843 0 -0.066685480012430326 -0.00078467232659459581 0 -0.06737667826052178 5.7963445423158041e-05 0 -0.067006255592085145 0.0003256133320067843 0 -0.066033624460930807 -0.00062103251551906611 0 -0.066685480012430326 -0.00078467232659459581 0 -0.065126018626159216 -0.00078762050454304205 0 -0.066032428825831185 -0.00038184638501894628 0 -0.06840210916453196 0.00063545983153395118 0 -0.068005802726365874 -8.8779275220765542e-05 0 -0.067006255592085145 0.0003256133320067843 0 -0.063897910942448899 0.00026661976142586502 0 -0.067006255592085145 0.0003256133320067843 0 -0.066033624460930807 -0.00062103251551906611 0 -0.063897910942448899 0.00026661976142586502 0 -0.066033624460930807 -0.00062103251551906611 0 -0.065170188509158081 -0.0014196672084891739 0 -0.066033624460930807 -0.00062103251551906611 0 -0.065170188509158081 -0.0014196672084891739 0 -0.066145401016395447 -0.0015782843713686727 0 -0.065170188509158081 -0.0014196672084891739 0 -0.066145401016395447 -0.0015782843713686727 0 -0.066107157988083698 -0.0028935430666405942 0 -0.066685480012430326 -0.00078467232659459581 0 -0.06660139674614976 -0.002469597915943872 0 -0.06737667826052178 5.7963445423158041e-05 0 -0.048829955345475608 -0.00061806799345557922 0 -0.058321539321448984 0.0021694175175719734 0 -0.066685480012430326 -0.00078467232659459581 0 -0.066145401016395447 -0.0015782843713686727 0 -0.06660139674614976 -0.002469597915943872 0 -0.048829955345475608 -0.00061806799345557922 0 -0.060988507437299652 0.0026571377804029176 0 -0.066033624460930807 -0.00062103251551906611 0 -0.066685480012430326 -0.00078467232659459581 0 -0.066145401016395447 -0.0015782843713686727 0 -0.039987046755353021 -0.0037234851954900789 0 -0.032505170586983358 -0.0037255184679686783 0 0.0071268788269249397 -0.0085081107545769454 0 0.0062421070084719603 -0.01081921263042856 0 0.00112137589958963 -0.0088039147103673061 0 -0.060450465185954504 0.00063195132936623758 0 -0.060290768169370082 0.00051257852295119859 0 -0.06122881045652228 0.00061606459669627674 0 -0.066145401016395447 -0.0015782843713686727 0 -0.06660139674614976 -0.002469597915943872 0 -0.066107157988083698 -0.0028935430666405942 0 -0.048829955345475608 -0.00061806799345557922 0 -0.039987046755353021 -0.0037234851954900789 0 0.0071268788269249397 -0.0085081107545769454 0 0.0062421070084719603 -0.01081921263042856 0 0.0081689029987627483 -0.0090941397852092511 0 0.0062421070084719603 -0.01081921263042856 0 0.0083979351204065324 -0.012697169148058992 0 0.0046529641594400878 -0.014909037122122807 0 0.0062421070084719603 -0.01081921263042856 0 0.0046529641594400878 -0.014909037122122807 0 0.00112137589958963 -0.0088039147103673061 0 0.0083979351204065324 -0.012697169148058992 0 0.011740717110702679 -0.012911570193416773 0 0.0096185313816425835 -0.015201248225779266 0 0.0062421070084719603 -0.01081921263042856 0 0.0083979351204065324 -0.012697169148058992 0 0.0081638679041146807 -0.010902687049001266 0 0.0083979351204065324 -0.012697169148058992 0 0.0081638679041146807 -0.010902687049001266 0 0.009835434599747464 -0.011234757861469508 0 0.0083979351204065324 -0.012697169148058992 0 0.009835434599747464 -0.011234757861469508 0 0.011740717110702679 -0.012911570193416773 0 0.009835434599747464 -0.011234757861469508 0 0.012167016926956126 -0.010645827415285643 0 0.011740717110702679 -0.012911570193416773 0 -0.039987046755353021 -0.0037234851954900789 0 -0.027337993063388313 -0.0051278486845589789 0 0.0070091160734453151 -0.0083844235815049781 0 0.0081689029987627483 -0.0090941397852092511 0 0.014177598492051142 -0.0080980797926616162 0 0.009835434599747464 -0.011234757861469508 0 0.0081689029987627483 -0.0090941397852092511 0 0.012167016926956126 -0.010645827415285643 0 -0.065170188509158081 -0.0014196672084891739 0 -0.066107157988083698 -0.0028935430666405942 0 -0.062712400092774692 -0.0032315681287331511 0 0.0062421070084719603 -0.01081921263042856 0 0.0081638679041146807 -0.010902687049001266 0 0.0081689029987627483 -0.0090941397852092511 0 0.0081638679041146807 -0.010902687049001266 0 0.009835434599747464 -0.011234757861469508 0 0.0081689029987627483 -0.0090941397852092511 0 -0.039987046755353021 -0.0037234851954900789 0 -0.038389913785572452 -0.0044810325433416029 0 0.0081689029987627483 -0.0090941397852092511 0 0.014177598492051142 -0.0080980797926616162 0 0.012167016926956126 -0.010645827415285643 0 0.014177598492051142 -0.0080980797926616162 0 0.01586081013975418 -0.012158387438538573 0 0.012167016926956126 -0.010645827415285643 0 -0.026820839153779384 -0.0063477798877164815 0 -0.027337993063388313 -0.0051278486845589789 0 0.02148622569891304 -0.0080308770197913323 0 0.014177598492051142 -0.0080980797926616162 0 0.01940744370465796 -0.010164855196218556 0 0.014177598492051142 -0.0080980797926616162 0 0.01940744370465796 -0.010164855196218556 0 0.01586081013975418 -0.012158387438538573 0 -0.058836704107490055 -0.0033252556152060697 0 -0.060494458445584598 -0.00051342551561753876 0 -0.062712400092774692 -0.0032315681287331511 0 0.01586081013975418 -0.012158387438538573 0 0.013541320749756261 -0.015227723980551009 0 0.019118807094397176 -0.014861995727095942 0 0.01940744370465796 -0.010164855196218556 0 0.01586081013975418 -0.012158387438538573 0 0.019219413565186264 -0.012532936766511387 0 0.01586081013975418 -0.012158387438538573 0 0.019219413565186264 -0.012532936766511387 0 0.019118807094397176 -0.014861995727095942 0 0.021027268476174012 -0.013710783155291374 0 0.019219413565186264 -0.012532936766511387 0 0.019118807094397176 -0.014861995727095942 0 0.01586081013975418 -0.012158387438538573 0 0.012167016926956126 -0.010645827415285643 0 0.011740717110702679 -0.012911570193416773 0 0.01586081013975418 -0.012158387438538573 0 0.011740717110702679 -0.012911570193416773 0 0.013541320749756261 -0.015227723980551009 0 0.01987153029907468 -0.015436392552311103 0 0.017366921680671537 -0.015404109963626582 0 0.011740717110702679 -0.012911570193416773 0 0.013541320749756261 -0.015227723980551009 0 0.0096185313816425835 -0.015201248225779266 0 0.013541320749756261 -0.015227723980551009 0 0.015965922374311693 -0.017185460995142444 0 0.0094826582902349903 -0.018409255306550697 0 0.013541320749756261 -0.015227723980551009 0 0.015965922374311693 -0.017185460995142444 0 0.019118807094397176 -0.014861995727095942 0 0.021334882539443756 -0.01520438596442272 0 0.01987153029907468 -0.015436392552311103 0 0.023812191783844701 -0.015333782911126777 0 0.023413821373107359 -0.015394778256735768 0 0.024388625406167444 -0.015748239487947433 0 0.023216947434358006 -0.015166244719811456 0 0.015965922374311693 -0.017185460995142444 0 0.019118807094397176 -0.014861995727095942 0 0.023812191783844701 -0.015333782911126777 0 0.024697277764667552 -0.015008054185445905 0 0.024193333664783982 -0.014945273573424653 0 0.023812191783844701 -0.015333782911126777 0 0.024388625406167444 -0.015748239487947433 0 0.024697277764667552 -0.015008054185445905 0 0.024388625406167444 -0.015748239487947433 0 0.024697277764667552 -0.015008054185445905 0 0.025541302954300377 -0.015478650240496859 0 0.024697277764667552 -0.015008054185445905 0 0.025541302954300377 -0.015478650240496859 0 0.025431144170091007 -0.014687089103390762 0 0.017366921680671537 -0.015404109963626582 0 0.015007738313499237 -0.01444729663028574 0 0.025541302954300377 -0.015478650240496859 0 0.026164591439602525 -0.01460052213148259 0 0.026406149330579297 -0.015166037914219003 0 0.0094826582902349903 -0.018409255306550697 0 0.0046529641594400878 -0.014909037122122807 0 0.0036290879365908986 -0.019609316445095223 0 0.0083979351204065324 -0.012697169148058992 0 0.0046529641594400878 -0.014909037122122807 0 0.0096185313816425835 -0.015201248225779266 0 0.0094826582902349903 -0.018409255306550697 0 0.0046529641594400878 -0.014909037122122807 0 0.0096185313816425835 -0.015201248225779266 0 0.013541320749756261 -0.015227723980551009 0 0.0094826582902349903 -0.018409255306550697 0 0.0096185313816425835 -0.015201248225779266 0 0.025838160761752535 -0.014238987357880529 0 0.025489858822251452 -0.014043638716344073 0 0.025431144170091007 -0.014687089103390762 0 0.025838160761752535 -0.014238987357880529 0 0.025489858822251452 -0.014043638716344073 0 0.025861738955072835 -0.013794236966836763 0 0.025838160761752535 -0.014238987357880529 0 0.026207611565771581 -0.014030138683387866 0 0.026164591439602525 -0.01460052213148259 0 0.025838160761752535 -0.014238987357880529 0 0.026207611565771581 -0.014030138683387866 0 0.025861738955072835 -0.013794236966836763 0 0.026207611565771581 -0.014030138683387866 0 0.026164591439602525 -0.01460052213148259 0 0.026591969119223995 -0.014172909745303665 0 0.025541302954300377 -0.015478650240496859 0 0.026164591439602525 -0.01460052213148259 0 0.025431144170091007 -0.014687089103390762 0 0.025838160761752535 -0.014238987357880529 0 0.026164591439602525 -0.01460052213148259 0 0.025431144170091007 -0.014687089103390762 0 0.024697277764667552 -0.015008054185445905 0 0.024604968080911928 -0.014555962486042705 0 0.025029926653602746 -0.014382742711375266 0 0.024697277764667552 -0.015008054185445905 0 0.025431144170091007 -0.014687089103390762 0 0.025029926653602746 -0.014382742711375266 0 0.024697277764667552 -0.015008054185445905 0 0.024193333664783982 -0.014945273573424653 0 0.024604968080911928 -0.014555962486042705 0 0.024193333664783982 -0.014945273573424653 0 0.024604968080911928 -0.014555962486042705 0 0.024278461488824336 -0.014325416526619204 0 0.024604968080911928 -0.014555962486042705 0 0.024278461488824336 -0.014325416526619204 0 0.024769205925963923 -0.014101504423097027 0 0.024604968080911928 -0.014555962486042705 0 0.024769205925963923 -0.014101504423097027 0 0.025029926653602746 -0.014382742711375266 0 0.024769205925963923 -0.014101504423097027 0 0.025180871699904392 -0.013864379652152358 0 0.024946175822183853 -0.013701255933632377 0 0.024278461488824336 -0.014325416526619204 0 0.024769205925963923 -0.014101504423097027 0 0.024480914917547912 -0.013758596166183341 0 0.025489858822251452 -0.014043638716344073 0 0.025431144170091007 -0.014687089103390762 0 0.025029926653602746 -0.014382742711375266 0 0.024769205925963923 -0.014101504423097027 0 0.025029926653602746 -0.014382742711375266 0 0.025180871699904392 -0.013864379652152358 0 0.025489858822251452 -0.014043638716344073 0 0.025029926653602746 -0.014382742711375266 0 0.025180871699904392 -0.013864379652152358 0 0.025489858822251452 -0.014043638716344073 0 0.025180871699904392 -0.013864379652152358 0 0.025527956919986328 -0.013596805799171174 0 0.025180871699904392 -0.013864379652152358 0 0.025527956919986328 -0.013596805799171174 0 0.025280309815688573 -0.013459241400842861 0 0.025180871699904392 -0.013864379652152358 0 0.025280309815688573 -0.013459241400842861 0 0.024946175822183853 -0.013701255933632377 0 0.025527956919986328 -0.013596805799171174 0 0.025280309815688573 -0.013459241400842861 0 0.025434407849769608 -0.013251682742958969 0 0.024480914917547912 -0.013758596166183341 0 0.024998773460500889 -0.013463375675705864 0 0.024313686367743215 -0.013315197620615688 0 0.024480914917547912 -0.013758596166183341 0 0.024946175822183853 -0.013701255933632377 0 0.024998773460500889 -0.013463375675705864 0 0.024769205925963923 -0.014101504423097027 0 0.024480914917547912 -0.013758596166183341 0 0.024946175822183853 -0.013701255933632377 0 0.025280309815688573 -0.013459241400842861 0 0.024946175822183853 -0.013701255933632377 0 0.024998773460500889 -0.013463375675705864 0 0.02624999315989586 -0.0094527327308477262 0 0.025186857817451218 -0.010778622234016669 0 0.024998773460500889 -0.013463375675705864 0 0.025765152097254346 -0.013109510958546688 0 0.024313686367743215 -0.013315197620615688 0 0.025765152097254346 -0.013109510958546688 0 0.025614542712127601 -0.011356950415670848 0 0.024313686367743215 -0.013315197620615688 0 0.025280309815688573 -0.013459241400842861 0 0.024998773460500889 -0.013463375675705864 0 0.025765152097254346 -0.013109510958546688 0 0.027693637284108934 -0.013854686134012169 0 0.031522759412419825 -0.013371571510781218 0 0.029199297866173157 -0.010945839066021762 0 0.025280309815688573 -0.013459241400842861 0 0.025765152097254346 -0.013109510958546688 0 0.025434407849769608 -0.013251682742958969 0 0.028441454468247605 -0.0088328866315611747 0 0.028637628316911766 -0.0087214022436456051 0 0.025765152097254346 -0.013109510958546688 0 0.027693637284108934 -0.013854686134012169 0 0.027401076433744908 -0.011988519238750604 0 0.025527956919986328 -0.013596805799171174 0 0.025434407849769608 -0.013251682742958969 0 0.02588466545221621 -0.013368141137709967 0 0.028637628316911766 -0.0087214022436456051 0 0.030727674008891381 -0.0082180274195485705 0 0.028637628316911766 -0.0087214022436456051 0 0.02876288278540012 -0.0084523463549092421 0 0.029031027970595837 -0.006455067224043873 0 0.030264824320162247 -0.0062496680964834054 0 0.030466358750279591 -0.0068019050173873342 0 0.025527956919986328 -0.013596805799171174 0 0.02588466545221621 -0.013368141137709967 0 0.025861738955072835 -0.013794236966836763 0 0.025489858822251452 -0.014043638716344073 0 0.025527956919986328 -0.013596805799171174 0 0.025861738955072835 -0.013794236966836763 0 0.02588466545221621 -0.013368141137709967 0 0.026261674857188964 -0.01359637374103048 0 0.02666388485561897 -0.013487852448776053 0 0.02876288278540012 -0.0084523463549092421 0 0.029593386706821486 -0.0072980716842437213 0 0.026207611565771581 -0.014030138683387866 0 0.026261674857188964 -0.01359637374103048 0 0.026537146161499006 -0.013849104971832279 0 0.026207611565771581 -0.014030138683387866 0 0.025861738955072835 -0.013794236966836763 0 0.026261674857188964 -0.01359637374103048 0 0.02588466545221621 -0.013368141137709967 0 0.025861738955072835 -0.013794236966836763 0 0.026261674857188964 -0.01359637374103048 0 0.030466358750279591 -0.0068019050173873342 0 0.031497969163838721 -0.0060471665323345476 0 0.031898591365186212 -0.0071484345654727541 0 0.030264824320162247 -0.0062496680964834054 0 0.030466358750279591 -0.0068019050173873342 0 0.031497969163838721 -0.0060471665323345476 0 0.030727674008891381 -0.0082180274195485705 0 0.032943445623152406 -0.007029311755325081 0 0.031522759412419825 -0.013371571510781218 0 0.032166032932498131 -0.010233041746979935 0 0.034719567723151656 -0.012898995623463201 0 0.032166032932498131 -0.010233041746979935 0 0.034719567723151656 -0.012898995623463201 0 0.035383533972458518 -0.010527832700199595 0 0.031522759412419825 -0.013371571510781218 0 0.032166032932498131 -0.010233041746979935 0 0.029199297866173157 -0.010945839066021762 0 0.032166032932498131 -0.010233041746979935 0 0.02846403094609383 -0.0079333464556581596 0 0.029199297866173157 -0.010945839066021762 0 0.032166032932498131 -0.010233041746979935 0 0.03154033986775457 -0.0071340538693887923 0 0.02846403094609383 -0.0079333464556581596 0 0.032166032932498131 -0.010233041746979935 0 0.034064490449126197 -0.0083891999227453766 0 0.03154033986775457 -0.0071340538693887923 0 0.032166032932498131 -0.010233041746979935 0 0.034064490449126197 -0.0083891999227453766 0 0.035383533972458518 -0.010527832700199595 0 0.034064490449126197 -0.0083891999227453766 0 0.03154033986775457 -0.0071340538693887923 0 0.033824381425656531 -0.0058900864310732284 0 0.03154033986775457 -0.0071340538693887923 0 0.029115381247181649 -0.0062988734723769457 0 0.031871099382702335 -0.0048834971570901201 0 0.03154033986775457 -0.0071340538693887923 0 0.033824381425656531 -0.0058900864310732284 0 0.031871099382702335 -0.0048834971570901201 0 0.033824381425656531 -0.0058900864310732284 0 0.033870635741751504 -0.0041381412638717523 0 0.031871099382702335 -0.0048834971570901201 0 0.027514916052243547 -0.0057278909189166574 0 0.029115381247181649 -0.0062988734723769457 0 0.029576367042034202 -0.004174646703622077 0 0.029115381247181649 -0.0062988734723769457 0 0.029576367042034202 -0.004174646703622077 0 0.031871099382702335 -0.0048834971570901201 0 0.03154033986775457 -0.0071340538693887923 0 0.029115381247181649 -0.0062988734723769457 0 0.02846403094609383 -0.0079333464556581596 0 0.027514916052243547 -0.0057278909189166574 0 0.029115381247181649 -0.0062988734723769457 0 0.026904912001942685 -0.0074509986712104487 0 0.029115381247181649 -0.0062988734723769457 0 0.02846403094609383 -0.0079333464556581596 0 0.026904912001942685 -0.0074509986712104487 0 0.026896173794780244 -0.0086656366659535883 0 0.02624999315989586 -0.0094527327308477262 0 0.02846403094609383 -0.0079333464556581596 0 0.026872868489602637 -0.0077773708682971603 0 0.026904912001942685 -0.0074509986712104487 0 0.02846403094609383 -0.0079333464556581596 0 0.029199297866173157 -0.010945839066021762 0 0.025614542712127601 -0.011356950415670848 0 0.029199297866173157 -0.010945839066021762 0 0.027401076433744908 -0.011988519238750604 0 0.025614542712127601 -0.011356950415670848 0 0.027693637284108934 -0.013854686134012169 0 0.029199297866173157 -0.010945839066021762 0 0.027401076433744908 -0.011988519238750604 0 0.025765152097254346 -0.013109510958546688 0 0.027401076433744908 -0.011988519238750604 0 0.025614542712127601 -0.011356950415670848 0 0.025960492840225249 -0.0075070568411603417 0 0.026023993928018862 -0.0075004806608571081 0 0.024452589474899551 -0.0073193455054286535 0 0.026872868489602637 -0.0077773708682971603 0 0.025960492840225249 -0.0075070568411603417 0 0.026904912001942685 -0.0074509986712104487 0 0.024088607689420092 -0.001735366490678334 0 0.021024216799029188 -0.0057462063061819776 0 0.024452589474899551 -0.0073193455054286535 0 0.025264502505917323 -0.0049532221785648376 0 0.025098534928002108 -0.0062386505542937239 0 0.025264502505917323 -0.0049532221785648376 0 0.025668546599774623 -0.0033061283103011348 0 0.026023993928018862 -0.0075004806608571081 0 0.026904912001942685 -0.0074509986712104487 0 0.025984117470381242 -0.0064672324732647085 0 0.025960492840225249 -0.0075070568411603417 0 0.026023993928018862 -0.0075004806608571081 0 0.026904912001942685 -0.0074509986712104487 0 0.027514916052243547 -0.0057278909189166574 0 0.026904912001942685 -0.0074509986712104487 0 0.025984117470381242 -0.0064672324732647085 0 0.023657060701625217 0.00091774124335610113 0 0.023542243775664082 0.00079598471492167396 0 0.021661548970985375 0.00063986727418538481 0 0.024088607689420092 -0.001735366490678334 0 0.023657060701625217 0.00091774124335610113 0 0.021661548970985375 0.00063986727418538481 0 0.023657060701625217 0.00091774124335610113 0 0.023542243775664082 0.00079598471492167396 0 0.024121741751176061 -0.00017059594567424689 0 0.025668546599774623 -0.0033061283103011348 0 0.026583575832102333 -0.0029007958594919597 0 0.023657060701625217 0.00091774124335610113 0 0.024121741751176061 -0.00017059594567424689 0 0.023947098792218267 -0.00027102431843365772 0 0.025984117470381242 -0.0064672324732647085 0 0.026676442903314848 -0.0052149593829989623 0 0.025859040670537826 -0.0041585126294742076 0 0.027514916052243547 -0.0057278909189166574 0 0.025984117470381242 -0.0064672324732647085 0 0.026676442903314848 -0.0052149593829989623 0 0.027514916052243547 -0.0057278909189166574 0 0.026676442903314848 -0.0052149593829989623 0 0.027380534440560718 -0.0044094679997811409 0 0.020432831656639835 0.0014437425556461405 0 0.017640340861127091 0.0014698611930010735 0 0.022675530222580495 0.0015257475522496894 0 0.018816978835097385 0.0016465707207516944 0 0.018921320711877961 0.002549818839259753 0 0.022675530222580495 0.0015257475522496894 0 0.02633021151503568 0.00082221778354485365 0 0.0251421777188186 -0.00045963167458980302 0 0.022675530222580495 0.0015257475522496894 0 0.023542243775664082 0.00079598471492167396 0 0.024020562774669962 -3.2253811207532514e-05 0 0.022675530222580495 0.0015257475522496894 0 0.023542243775664082 0.00079598471492167396 0 0.021661548970985375 0.00063986727418538481 0 0.021661548970985375 0.00063986727418538481 0 0.018816978835097385 0.0016465707207516944 0 0.017602432351940235 -0.0010468703236083442 0 0.022675530222580495 0.0015257475522496894 0 0.021661548970985375 0.00063986727418538481 0 0.018816978835097385 0.0016465707207516944 0 0.021661548970985375 0.00063986727418538481 0 0.017602432351940235 -0.0010468703236083442 0 0.019783686229136465 -0.0028102840796383052 0 0.024088607689420092 -0.001735366490678334 0 0.021661548970985375 0.00063986727418538481 0 0.019783686229136465 -0.0028102840796383052 0 0.024088607689420092 -0.001735366490678334 0 0.019783686229136465 -0.0028102840796383052 0 0.021024216799029188 -0.0057462063061819776 0 0.017602432351940235 -0.0010468703236083442 0 0.019783686229136465 -0.0028102840796383052 0 0.015545365943702941 -0.0036404340702426855 0 0.019783686229136465 -0.0028102840796383052 0 0.017533860779582636 -0.0059573623848545327 0 0.015545365943702941 -0.0036404340702426855 0 0.017533860779582636 -0.0059573623848545327 0 0.015582342786954166 -0.0086189768267517924 0 0.013972039276074402 -0.0062352980475015203 0 0.017533860779582636 -0.0059573623848545327 0 0.013972039276074402 -0.0062352980475015203 0 0.015545365943702941 -0.0036404340702426855 0 0.017533860779582636 -0.0059573623848545327 0 0.015582342786954166 -0.0086189768267517924 0 0.019222078539507817 -0.0086116626030891975 0 0.015582342786954166 -0.0086189768267517924 0 0.019222078539507817 -0.0086116626030891975 0 0.017852811378717935 -0.011490272581560884 0 0.019222078539507817 -0.0086116626030891975 0 0.021024216799029188 -0.0057462063061819776 0 0.022259310192221167 -0.0091001698296093968 0 0.019222078539507817 -0.0086116626030891975 0 0.022259310192221167 -0.0091001698296093968 0 0.020800748419358635 -0.011455526802419019 0 0.017533860779582636 -0.0059573623848545327 0 0.019222078539507817 -0.0086116626030891975 0 0.021024216799029188 -0.0057462063061819776 0 0.019783686229136465 -0.0028102840796383052 0 0.017533860779582636 -0.0059573623848545327 0 0.021024216799029188 -0.0057462063061819776 0 0.021024216799029188 -0.0057462063061819776 0 0.024452589474899551 -0.0073193455054286535 0 0.022259310192221167 -0.0091001698296093968 0 0.025960492840225249 -0.0075070568411603417 0 0.024452589474899551 -0.0073193455054286535 0 0.026044996272459254 -0.0078297685025448156 0 0.026872868489602637 -0.0077773708682971603 0 0.025960492840225249 -0.0075070568411603417 0 0.026044996272459254 -0.0078297685025448156 0 0.024452589474899551 -0.0073193455054286535 0 0.026044996272459254 -0.0078297685025448156 0 0.024458553732199087 -0.010592494538737717 0 0.024480914917547912 -0.013758596166183341 0 0.024313686367743215 -0.013315197620615688 0 0.023534366860846027 -0.013710080809666575 0 0.025186857817451218 -0.010778622234016669 0 0.02404255895826081 -0.01231485360083558 0 0.024452589474899551 -0.0073193455054286535 0 0.022259310192221167 -0.0091001698296093968 0 0.024458553732199087 -0.010592494538737717 0 0.022259310192221167 -0.0091001698296093968 0 0.024458553732199087 -0.010592494538737717 0 0.020800748419358635 -0.011455526802419019 0 0.02404255895826081 -0.01231485360083558 0 0.023319543610874589 -0.013325415204647102 0 0.023534366860846027 -0.013710080809666575 0 0.023588527568216024 -0.014427302756695373 0 0.021871491895798977 -0.01456825979080968 0 0.024458553732199087 -0.010592494538737717 0 0.021871491895798977 -0.01456825979080968 0 0.020800748419358635 -0.011455526802419019 0 0.024278461488824336 -0.014325416526619204 0 0.024480914917547912 -0.013758596166183341 0 0.023534366860846027 -0.013710080809666575 0 0.024278461488824336 -0.014325416526619204 0 0.023534366860846027 -0.013710080809666575 0 0.023588527568216024 -0.014427302756695373 0 0.024278461488824336 -0.014325416526619204 0 0.023986974490232762 -0.014788686017780956 0 0.023588527568216024 -0.014427302756695373 0 0.024193333664783982 -0.014945273573424653 0 0.024278461488824336 -0.014325416526619204 0 0.023986974490232762 -0.014788686017780956 0 0.023986974490232762 -0.014788686017780956 0 0.023588527568216024 -0.014427302756695373 0 0.023718279094833757 -0.01526269848481266 0 0.023834668986289276 -0.015225575432929407 0 0.023986974490232762 -0.014788686017780956 0 0.023718279094833757 -0.01526269848481266 0 0.023834668986289276 -0.015225575432929407 0 0.024193333664783982 -0.014945273573424653 0 0.023986974490232762 -0.014788686017780956 0 0.023588527568216024 -0.014427302756695373 0 0.023718279094833757 -0.01526269848481266 0 0.021871491895798977 -0.01456825979080968 0 0.023668280671265148 -0.01703160624029372 0 0.023718279094833757 -0.01526269848481266 0 0.021871491895798977 -0.01456825979080968 0 0.015306578325381627 -0.016309118380957711 0 0.020460528315119481 -0.016960309568859761 0 0.018923369730194841 -0.01432436794676427 0 0.021871491895798977 -0.01456825979080968 0 0.018923369730194841 -0.01432436794676427 0 0.020800748419358635 -0.011455526802419019 0 0.020460528315119481 -0.016960309568859761 0 0.021871491895798977 -0.01456825979080968 0 0.018923369730194841 -0.01432436794676427 0 0.015306578325381627 -0.016309118380957711 0 0.018923369730194841 -0.01432436794676427 0 0.015863186815924246 -0.013225920183563529 0 0.015306578325381627 -0.016309118380957711 0 0.015863186815924246 -0.013225920183563529 0 0.012684156366832127 -0.012986317350959294 0 0.015863186815924246 -0.013225920183563529 0 0.017852811378717935 -0.011490272581560884 0 0.013877094741030462 -0.0110956645287059 0 0.018923369730194841 -0.01432436794676427 0 0.015863186815924246 -0.013225920183563529 0 0.017852811378717935 -0.011490272581560884 0 0.015582342786954166 -0.0086189768267517924 0 0.017852811378717935 -0.011490272581560884 0 0.013877094741030462 -0.0110956645287059 0 0.019222078539507817 -0.0086116626030891975 0 0.017852811378717935 -0.011490272581560884 0 0.020800748419358635 -0.011455526802419019 0 0.018923369730194841 -0.01432436794676427 0 0.017852811378717935 -0.011490272581560884 0 0.020800748419358635 -0.011455526802419019 0 0.0099186110706350975 -0.011785764435704576 0 0.0068941748920964708 -0.013201762072201339 0 0.0073018649616557237 -0.0099536735318786918 0 0.0099186110706350975 -0.011785764435704576 0 0.013877094741030462 -0.0110956645287059 0 0.012684156366832127 -0.012986317350959294 0 0.0099186110706350975 -0.011785764435704576 0 0.013877094741030462 -0.0110956645287059 0 0.011126501946024062 -0.008410314821727629 0 0.015863186815924246 -0.013225920183563529 0 0.013877094741030462 -0.0110956645287059 0 0.012684156366832127 -0.012986317350959294 0 0.015306578325381627 -0.016309118380957711 0 0.012684156366832127 -0.012986317350959294 0 0.0093100285254805373 -0.013374770403288289 0 0.0099186110706350975 -0.011785764435704576 0 0.012684156366832127 -0.012986317350959294 0 0.0093100285254805373 -0.013374770403288289 0 0.014107997495670425 -0.014502458035647156 0 0.012670595683132954 -0.014218253510730847 0 0.0099186110706350975 -0.011785764435704576 0 0.0093100285254805373 -0.013374770403288289 0 0.0068941748920964708 -0.013201762072201339 0 0.0054487915062563699 -0.010734261665672576 0 0.0032060945383411464 -0.0087713087880016485 0 0.0088049318527405971 -0.013157540175727286 0 0.0093100285254805373 -0.013374770403288289 0 0.0068941748920964708 -0.013201762072201339 0 0.0028713445436435053 -0.010198349846582156 0 0.001634975745725903 -0.0043895280391397454 0 -0.0014218168223868971 -0.0086616786300898335 0 0.0028713445436435053 -0.010198349846582156 0 0.0088049318527405971 -0.013157540175727286 0 0.001634975745725903 -0.0043895280391397454 0 0.001634975745725903 -0.0043895280391397454 0 -0.0040532666696320146 -0.0044735265914129223 0 -0.0014218168223868971 -0.0086616786300898335 0 -0.0040532666696320146 -0.0044735265914129223 0 -0.0014218168223868971 -0.0086616786300898335 0 -0.0059860682699044579 -0.0077492100477473307 0 0.0032060945383411464 -0.0087713087880016485 0 -0.00065711846027716842 -0.0055931693485312588 0 0.001634975745725903 -0.0043895280391397454 0 -0.0040532666696320146 -0.0044735265914129223 0 -0.0050789519034987506 -0.00095054989872242739 0 0.0068941748920964708 -0.013201762072201339 0 0.0073018649616557237 -0.0099536735318786918 0 0.0011949871607623006 -0.0096573809275069498 0 0.0073018649616557237 -0.0099536735318786918 0 0.0011949871607623006 -0.0096573809275069498 0 0.0063035175924065706 -0.0059729435593845965 0 0.0011949871607623006 -0.0096573809275069498 0 0.0016560057215526977 -0.0032973364070607992 0 0.0063035175924065706 -0.0059729435593845965 0 0.0016560057215526977 -0.0032973364070607992 0 0.0063035175924065706 -0.0059729435593845965 0 0.0061943772697748093 -0.001314566516186427 0 0.0063035175924065706 -0.0059729435593845965 0 0.010699138806979331 -0.0044432778206494779 0 0.011126501946024062 -0.008410314821727629 0 0.0073018649616557237 -0.0099536735318786918 0 0.0063035175924065706 -0.0059729435593845965 0 0.011126501946024062 -0.008410314821727629 0 0.0099186110706350975 -0.011785764435704576 0 0.0073018649616557237 -0.0099536735318786918 0 0.011126501946024062 -0.008410314821727629 0 0.015582342786954166 -0.0086189768267517924 0 0.013877094741030462 -0.0110956645287059 0 0.011126501946024062 -0.008410314821727629 0 0.015582342786954166 -0.0086189768267517924 0 0.011126501946024062 -0.008410314821727629 0 0.013972039276074402 -0.0062352980475015203 0 0.010699138806979331 -0.0044432778206494779 0 0.011126501946024062 -0.008410314821727629 0 0.013972039276074402 -0.0062352980475015203 0 0.010699138806979331 -0.0044432778206494779 0 0.013972039276074402 -0.0062352980475015203 0 0.015545365943702941 -0.0036404340702426855 0 0.017602432351940235 -0.0010468703236083442 0 0.015545365943702941 -0.0036404340702426855 0 0.012943016352598296 -0.0011246766947674454 0 0.010699138806979331 -0.0044432778206494779 0 0.015545365943702941 -0.0036404340702426855 0 0.012943016352598296 -0.0011246766947674454 0 0.010699138806979331 -0.0044432778206494779 0 0.012943016352598296 -0.0011246766947674454 0 0.0061943772697748093 -0.001314566516186427 0 0.012943016352598296 -0.0011246766947674454 0 0.0095796085162374051 0.0029036776707129816 0 0.0061943772697748093 -0.001314566516186427 0 0.018816978835097385 0.0016465707207516944 0 0.017602432351940235 -0.0010468703236083442 0 0.012943016352598296 -0.0011246766947674454 0 0.018816978835097385 0.0016465707207516944 0 0.012943016352598296 -0.0011246766947674454 0 0.0095796085162374051 0.0029036776707129816 0 0.018816978835097385 0.0016465707207516944 0 0.0095796085162374051 0.0029036776707129816 0 0.013687694650481683 0.0085402860324511297 0 0.0095796085162374051 0.0029036776707129816 0 0.013687694650481683 0.0085402860324511297 0 0.0060873667904176249 0.0079541554207220727 0 0.017640340861127091 0.0014698611930010735 0 0.010921019493764977 0.0021495955486684976 0 0.017565335932414092 0.0019676696625519187 0 0.017640340861127091 0.0014698611930010735 0 0.00016633392490505159 0.0062947428845952468 0 0.0060873667904176249 0.0079541554207220727 0 0.0019246201506381876 0.0027927545082669998 0 0.005979385534340206 0.0020778983708216237 0 0.010921019493764977 0.0021495955486684976 0 0.0095796085162374051 0.0029036776707129816 0 0.0060873667904176249 0.0079541554207220727 0 0.0019246201506381876 0.0027927545082669998 0 0.0019246201506381876 0.0027927545082669998 0 0.0061943772697748093 -0.001314566516186427 0 0.00023624185827601798 -0.00039309567534922326 0 0.0095796085162374051 0.0029036776707129816 0 0.0019246201506381876 0.0027927545082669998 0 0.0061943772697748093 -0.001314566516186427 0 0.0063035175924065706 -0.0059729435593845965 0 0.010699138806979331 -0.0044432778206494779 0 0.0061943772697748093 -0.001314566516186427 0 0.0016560057215526977 -0.0032973364070607992 0 0.0061943772697748093 -0.001314566516186427 0 0.00023624185827601798 -0.00039309567534922326 0 0.0016560057215526977 -0.0032973364070607992 0 0.00023624185827601798 -0.00039309567534922326 0 -0.0056637610558338105 -0.0018887271515964997 0 -0.0029135892413557495 0.0010469413141388055 0 -0.0066861294578621291 0.00023809769164144691 0 -0.0056637610558338105 -0.0018887271515964997 0 0.00023624185827601798 -0.00039309567534922326 0 -0.0029135892413557495 0.0010469413141388055 0 -0.0056637610558338105 -0.0018887271515964997 0 -0.0029135892413557495 0.0010469413141388055 0 -0.0042690377856357108 0.0014751795337917524 0 -0.0066861294578621291 0.00023809769164144691 0 0.0019246201506381876 0.0027927545082669998 0 0.00023624185827601798 -0.00039309567534922326 0 -0.0029135892413557495 0.0010469413141388055 0 0.00016633392490505159 0.0062947428845952468 0 0.0019246201506381876 0.0027927545082669998 0 -0.0026605366711597001 0.0028740269933120771 0 0.0019246201506381876 0.0027927545082669998 0 -0.0029135892413557495 0.0010469413141388055 0 -0.0026605366711597001 0.0028740269933120771 0 -0.0029135892413557495 0.0010469413141388055 0 -0.0026605366711597001 0.0028740269933120771 0 -0.0042690377856357108 0.0014751795337917524 0 -0.0026605366711597001 0.0028740269933120771 0 -0.0032424156588219482 0.0021599043491136363 0 -0.0042690377856357108 0.0014751795337917524 0 -0.0026605366711597001 0.0028740269933120771 0 -0.0033814698682530981 0.0031406285419068236 0 -0.0032424156588219482 0.0021599043491136363 0 0.00016633392490505159 0.0062947428845952468 0 -0.0026605366711597001 0.0028740269933120771 0 -0.0033814698682530981 0.0031406285419068236 0 0.005979385534340206 0.0020778983708216237 0 0.0026168838693260777 0.0016740349776940987 0 -0.0013551730938852545 1.0692516212472261e-06 0 -0.00062727570355701771 0.00014481145988941513 0 -0.0029126799636141482 0.00095068512953144486 0 -0.00062727570355701771 0.00014481145988941513 0 -0.0032424156588219482 0.0021599043491136363 0 -0.0029126799636141482 0.00095068512953144486 0 -0.0033814698682530981 0.0031406285419068236 0 -0.00062727570355701771 0.00014481145988941513 0 -0.0032424156588219482 0.0021599043491136363 0 0.0026168838693260777 0.0016740349776940987 0 0.0014584545131545246 0.001438632035267051 0 0.0044296731196337268 -0.00071212927762786139 0 -0.00062727570355701771 0.00014481145988941513 0 0.0019524138230238642 0.00058494548213603446 0 -0.0032424156588219482 0.0021599043491136363 0 -0.0042690377856357108 0.0014751795337917524 0 -0.0029126799636141482 0.00095068512953144486 0 -0.0042690377856357108 0.0014751795337917524 0 -0.0029126799636141482 0.00095068512953144486 0 -0.0057208659528962718 2.0122282357326153e-06 0 -0.0013551730938852545 1.0692516212472261e-06 0 -0.0029126799636141482 0.00095068512953144486 0 -0.0057208659528962718 2.0122282357326153e-06 0 -0.0042690377856357108 0.0014751795337917524 0 -0.0057208659528962718 2.0122282357326153e-06 0 -0.0066861294578621291 0.00023809769164144691 0 -0.0057208659528962718 2.0122282357326153e-06 0 -0.0066861294578621291 0.00023809769164144691 0 -0.010084187339404613 -5.0321543166108325e-07 0 -0.0066861294578621291 0.00023809769164144691 0 -0.010084187339404613 -5.0321543166108325e-07 0 -0.0092865010398285614 -0.00054001480640589595 0 -0.010084187339404613 -5.0321543166108325e-07 0 -0.0092865010398285614 -0.00054001480640589595 0 -0.014449591953722906 -1.2472814497550139e-06 0 -0.0092865010398285614 -0.00054001480640589595 0 -0.014449591953722906 -1.2472814497550139e-06 0 -0.010842203586031784 -0.0011198375502260989 0 -0.0066861294578621291 0.00023809769164144691 0 -0.0092865010398285614 -0.00054001480640589595 0 -0.0056637610558338105 -0.0018887271515964997 0 -0.0056637610558338105 -0.0018887271515964997 0 -0.0087185347948610971 -0.0021399773158079002 0 -0.010842203586031784 -0.0011198375502260989 0 -0.0050789519034987506 -0.00095054989872242739 0 -0.0056637610558338105 -0.0018887271515964997 0 -0.0087185347948610971 -0.0021399773158079002 0 0.0011949871607623006 -0.0096573809275069498 0 0.0016560057215526977 -0.0032973364070607992 0 -0.0056637610558338105 -0.0018887271515964997 0 -0.00065711846027716842 -0.0055931693485312588 0 -0.0027603869703916001 -0.0037822703261558479 0 -0.0092865010398285614 -0.00054001480640589595 0 -0.0056637610558338105 -0.0018887271515964997 0 -0.010842203586031784 -0.0011198375502260989 0 -0.0087185347948610971 -0.0021399773158079002 0 -0.014085918069846739 -0.0034469450790256561 0 -0.010842203586031784 -0.0011198375502260989 0 -0.0040532666696320146 -0.0044735265914129223 0 -0.0050789519034987506 -0.00095054989872242739 0 -0.0087185347948610971 -0.0021399773158079002 0 -0.010787970552426824 -0.006682386984260158 0 -0.0087185347948610971 -0.0021399773158079002 0 -0.0059860682699044579 -0.0077492100477473307 0 -0.0040532666696320146 -0.0044735265914129223 0 -0.0087185347948610971 -0.0021399773158079002 0 -0.0059860682699044579 -0.0077492100477473307 0 -0.010787970552426824 -0.006682386984260158 0 -0.0087185347948610971 -0.0021399773158079002 0 -0.014085918069846739 -0.0034469450790256561 0 -0.01621246084261703 -0.0016228268708351706 0 -0.014085918069846739 -0.0034469450790256561 0 -0.01548612757600532 -0.0013917889494295202 0 -0.014085918069846739 -0.0034469450790256561 0 -0.01548612757600532 -0.0013917889494295202 0 -0.010842203586031784 -0.0011198375502260989 0 -0.018812716695877238 -2.1079882331283475e-06 0 -0.01548612757600532 -0.0013917889494295202 0 -0.014449591953722906 -1.2472814497550139e-06 0 -0.018812716695877238 -2.1079882331283475e-06 0 -0.017670931106174539 -0.00082794914793552681 0 -0.01548612757600532 -0.0013917889494295202 0 -0.01548612757600532 -0.0013917889494295202 0 -0.014449591953722906 -1.2472814497550139e-06 0 -0.010842203586031784 -0.0011198375502260989 0 0.030983757170366593 0.011546620303135365 0 0.030885807370851472 0.011572365018796216 0 0.031000321725933318 0.011602069515061169 0 0.030885807370851472 0.011572365018796216 0 0.031000321725933318 0.011602069515061169 0 0.030847997345017628 0.011635077106056615 0 0.031000321725933318 0.011602069515061169 0 0.030847997345017628 0.011635077106056615 0 0.030969868166117527 0.011698672217290403 0 0.031000321725933318 0.011602069515061169 0 0.031083198774730481 0.011554237782517887 0 0.031161117448868562 0.011646312442004855 0 0.031083198774730481 0.011554237782517887 0 0.031161117448868562 0.011646312442004855 0 0.031195294025082535 0.011558631946324074 0 0.031083198774730481 0.011554237782517887 0 0.03112686131758604 0.011490593095289639 0 0.031195294025082535 0.011558631946324074 0 0.031034274917876862 0.011518146737514837 0 0.031083198774730481 0.011554237782517887 0 0.03112686131758604 0.011490593095289639 0 0.030983757170366593 0.011546620303135365 0 0.031034274917876862 0.011518146737514837 0 0.031083198774730481 0.011554237782517887 0 0.030983757170366593 0.011546620303135365 0 0.031000321725933318 0.011602069515061169 0 0.031083198774730481 0.011554237782517887 0 0.03112686131758604 0.011490593095289639 0 0.030940032172934267 0.011483247310428241 0 0.031219837132255644 0.011455944068295783 0 -0.016306970515383153 0.0099348990087870636 0 -0.015984625086901252 0.0098238330550123373 0 -0.016615734373877766 0.0098263729674114807 0 0.0038032479019184206 0.0077695696243106904 0 0.0057162392486580747 0.010804688504867812 0 0.031034274917876862 0.011518146737514837 0 0.03112686131758604 0.011490593095289639 0 0.030940032172934267 0.011483247310428241 0 -0.016306970515383153 0.0099348990087870636 0 -0.016504690926017935 0.010028942733038606 0 -0.016381068351515708 0.010114555051137951 0 -0.016306970515383153 0.0099348990087870636 0 -0.016188644531427206 0.010144856350747557 0 -0.016381068351515708 0.010114555051137951 0 -0.016306970515383153 0.0099348990087870636 0 -0.016130591757026899 0.0099147542310945528 0 -0.015984625086901252 0.0098238330550123373 0 -0.016306970515383153 0.0099348990087870636 0 -0.016130591757026899 0.0099147542310945528 0 -0.016188644531427206 0.010144856350747557 0 -0.016130591757026899 0.0099147542310945528 0 -0.016070349319736384 0.010032891803226167 0 -0.016188644531427206 0.010144856350747557 0 -0.016130591757026899 0.0099147542310945528 0 -0.016070349319736384 0.010032891803226167 0 -0.0160415740078814 0.0099083065034953205 0 -0.015987300709588443 0.0098914083221951811 0 -0.015984625086901252 0.0098238330550123373 0 -0.015739699501031688 0.009785383677565998 0 -0.016070349319736384 0.010032891803226167 0 -0.015987300709588443 0.0098914083221951811 0 -0.0160415740078814 0.0099083065034953205 0 -0.016130591757026899 0.0099147542310945528 0 -0.0160415740078814 0.0099083065034953205 0 -0.015984625086901252 0.0098238330550123373 0 -0.015987300709588443 0.0098914083221951811 0 -0.0160415740078814 0.0099083065034953205 0 -0.015984625086901252 0.0098238330550123373 0 0.030983757170366593 0.011546620303135365 0 0.030885807370851472 0.011572365018796216 0 0.030940032172934267 0.011483247310428241 0 0.030983757170366593 0.011546620303135365 0 0.031034274917876862 0.011518146737514837 0 0.030940032172934267 0.011483247310428241 0 0.0038032479019184206 0.0077695696243106904 0 -0.016883496341773052 0.002241374296926342 0 0.030885807370851472 0.011572365018796216 0 0.030940032172934267 0.011483247310428241 0 0.030696801909272629 0.011632940607356283 0 -0.016883496341773052 0.002241374296926342 0 -0.031489271031453756 0.0068600563783983394 0 -0.015987300709588443 0.0098914083221951811 0 -0.015739699501031688 0.009785383677565998 0 -0.015914810021841162 0.0099938960132965049 0 -0.059738752305829701 0.0020279301728308788 0 -0.060273075657897739 0.001509222877190298 0 -0.060692900746469526 0.0018537910893393155 0 -0.016883496341773052 0.002241374296926342 0 -0.035541664100235494 -0.001057523563492877 0 -0.016883496341773052 0.002241374296926342 0 -0.0022873267888101332 -0.0021337183148784668 0 0.030696801909272629 0.011632940607356283 0 0.030740402777001029 0.011711662386359354 0 0.030817733713710216 0.011808062780548129 0 0.030696801909272629 0.011632940607356283 0 0.030847997345017628 0.011635077106056615 0 0.030740402777001029 0.011711662386359354 0 0.030885807370851472 0.011572365018796216 0 0.030696801909272629 0.011632940607356283 0 0.030847997345017628 0.011635077106056615 0 0.030847997345017628 0.011635077106056615 0 0.030740402777001029 0.011711662386359354 0 0.030969868166117527 0.011698672217290403 0 0.030740402777001029 0.011711662386359354 0 0.030838962991925845 0.011756112166762117 0 0.030969868166117527 0.011698672217290403 0 0.030740402777001029 0.011711662386359354 0 0.030604359945751326 0.011633437000809059 0 0.030883661800106769 0.011694693077675599 0 0.030740402777001029 0.011711662386359354 0 0.030817733713710216 0.011808062780548129 0 0.030883661800106769 0.011694693077675599 0 0.030604359945751326 0.011633437000809059 0 0.030883661800106769 0.011694693077675599 0 0.031137185230350119 0.011265430963162699 0 0.030604359945751326 0.011633437000809059 0 0.030838962991925845 0.011756112166762117 0 0.030902671540296269 0.012006695478480029 0 0.030740402777001029 0.011711662386359354 0 0.030604359945751326 0.011633437000809059 0 0.030838962991925845 0.011756112166762117 0 0.030838962991925845 0.011756112166762117 0 0.031159052526924452 0.011955511566213156 0 0.030902671540296269 0.012006695478480029 0 0.030838962991925845 0.011756112166762117 0 0.031159052526924452 0.011955511566213156 0 0.030969868166117527 0.011698672217290403 0 0.031000321725933318 0.011602069515061169 0 0.030969868166117527 0.011698672217290403 0 0.031161117448868562 0.011646312442004855 0 0.030969868166117527 0.011698672217290403 0 0.031161117448868562 0.011646312442004855 0 0.031301438114627239 0.011804308199601564 0 0.031159052526924452 0.011955511566213156 0 0.030969868166117527 0.011698672217290403 0 0.031301438114627239 0.011804308199601564 0 0.031159052526924452 0.011955511566213156 0 0.031301438114627239 0.011804308199601564 0 0.031460224721498231 0.011997576517101262 0 0.031301438114627239 0.011804308199601564 0 0.031578411532608285 0.01185525886724037 0 0.031460224721498231 0.011997576517101262 0 0.031947726929222924 0.013610735248978765 0 0.031525353718568211 0.013553786239252545 0 0.031800099990720344 0.013320169514199443 0 0.031947726929222924 0.013610735248978765 0 0.031525353718568211 0.013553786239252545 0 0.031789806103531097 0.014092470542817866 0 0.031578411532608285 0.01185525886724037 0 0.031353744542927955 0.011668780880967197 0 0.031514441476781341 0.011603264060592649 0 0.023603941872191989 0.011951071545589959 0 0.015571829057034747 0.013576574230762939 0 0.031301438114627239 0.011804308199601564 0 0.031578411532608285 0.01185525886724037 0 0.031353744542927955 0.011668780880967197 0 0.031161117448868562 0.011646312442004855 0 0.031301438114627239 0.011804308199601564 0 0.031353744542927955 0.011668780880967197 0 0.0056075218983682529 0.010344158965763486 0 0.0050452258107064277 0.011499220076515902 0 0.031406774640099201 0.013524690498099155 0 0.031525353718568211 0.013553786239252545 0 0.031482441144191319 0.013416297127140453 0 0.031406774640099201 0.013524690498099155 0 0.031525353718568211 0.013553786239252545 0 0.03156691721883545 0.013381601749356134 0 0.031525353718568211 0.013553786239252545 0 0.031482441144191319 0.013416297127140453 0 0.031121528479114577 0.013289001076320315 0 0.022011351940808686 0.016670082959545619 0 0.015571829057034747 0.013576574230762939 0 -0.017419300509720008 0.00601954894475822 0 -0.016424049832916867 0.0078044733295581734 0 -0.017482579410435743 0.0075338618672618051 0 -0.016424049832916867 0.0078044733295581734 0 -0.017482579410435743 0.0075338618672618051 0 -0.0172057250490181 0.0085779753519451135 0 -0.018012545263543789 0.0082564524058415592 0 -0.017482579410435743 0.0075338618672618051 0 -0.0172057250490181 0.0085779753519451135 0 -0.016424049832916867 0.0078044733295581734 0 -0.0172057250490181 0.0085779753519451135 0 -0.016457450471117168 0.0090313277349457818 0 -0.017992803320217157 0.0089637978834139504 0 -0.0172057250490181 0.0085779753519451135 0 -0.017158342048130083 0.009675115350404084 0 -0.0172057250490181 0.0085779753519451135 0 -0.016457450471117168 0.0090313277349457818 0 -0.017158342048130083 0.009675115350404084 0 0.0050452258107064277 0.011499220076515902 0 0.0023187523284924809 0.012269832114724207 0 0.031482441144191319 0.013416297127140453 0 0.031217999968158227 0.012987091525511725 0 0.031121528479114577 0.013289001076320315 0 -0.016424049832916867 0.0078044733295581734 0 -0.016457450471117168 0.0090313277349457818 0 -0.015361454121415817 0.0097091530793216897 0 -0.016096810791259599 0.0094968958394080656 0 -0.017042116975997692 0.010092270528846176 0 -0.017590913401785997 0.0094938326547397995 0 0.0023187523284924809 0.012269832114724207 0 -0.012052067547883844 0.011161350803420081 0 -0.016457450471117168 0.0090313277349457818 0 -0.015361454121415817 0.0097091530793216897 0 -0.017158342048130083 0.009675115350404084 0 -0.016096810791259599 0.0094968958394080656 0 -0.015435393980716914 0.010777657450389099 0 -0.016451686867193289 0.010422629227451347 0 -0.016096810791259599 0.0094968958394080656 0 -0.017042116975997692 0.010092270528846176 0 -0.016451686867193289 0.010422629227451347 0 -0.017042116975997692 0.010092270528846176 0 -0.017645929548105069 0.010217806876673619 0 -0.017590913401785997 0.0094938326547397995 0 -0.018267720569325716 0.0098683115763417723 0 -0.017645929548105069 0.010217806876673619 0 -0.017590913401785997 0.0094938326547397995 0 0.031353744542927955 0.011668780880967197 0 0.031350045053164813 0.011532221380140855 0 0.031514441476781341 0.011603264060592649 0 0.031350045053164813 0.011532221380140855 0 0.031195294025082535 0.011558631946324074 0 0.031291695961125757 0.011394705730177085 0 0.03112686131758604 0.011490593095289639 0 0.031195294025082535 0.011558631946324074 0 0.031219837132255644 0.011455944068295783 0 0.0094051242368452647 0.0085716381855487633 0 0.0057162392486580747 0.010804688504867812 0 0.031353744542927955 0.011668780880967197 0 0.031350045053164813 0.011532221380140855 0 0.031195294025082535 0.011558631946324074 0 0.031161117448868562 0.011646312442004855 0 0.031353744542927955 0.011668780880967197 0 0.031195294025082535 0.011558631946324074 0 0.015571829057034747 0.013576574230762939 0 0.00765078385087387 0.011813126614184277 0 0.031350045053164813 0.011532221380140855 0 0.031514441476781341 0.011603264060592649 0 0.031358385776509783 0.011398325579709422 0 0.031217999968158227 0.012987091525511725 0 0.031121528479114577 0.013289001076320315 0 0.031134351598928772 0.012985226157459289 0 0.015571829057034747 0.013576574230762939 0 0.0067160186306449883 0.011662985611785836 0 0.01166130435838655 0.011705892918634697 0 0.011634114544958879 0.011786769856603273 0 0.011701002745798912 0.011786044031807117 0 0.0023187523284924809 0.012269832114724207 0 -0.0037781987952391943 0.011040841050739403 0 0.0013043082194029241 0.012133175572017938 0 0.00092094964914494766 0.012163293377968542 0 0.0010238713677719234 0.012333693525785382 0 0.0018016049576261126 0.012355555238991036 0 0.0016032715008349216 0.012350826556584357 0 0.0013614358784661549 0.011515220065927541 0 0.0016032715008349216 0.012350826556584357 0 0.0013043082194029241 0.012133175572017938 0 0.0013614358784661549 0.011515220065927541 0 0.0016032715008349216 0.012350826556584357 0 0.0013043082194029241 0.012133175572017938 0 0.0010238713677719234 0.012333693525785382 0 0.00765078385087387 0.011813126614184277 0 0.0067160186306449883 0.011662985611785836 0 0.0023187523284924809 0.012269832114724207 0 0.00765078385087387 0.011813126614184277 0 0.0013043082194029241 0.012133175572017938 0 0.00092094964914494766 0.012163293377968542 0 0.0013614358784661549 0.011515220065927541 0 -0.016680431292419872 0.0099107656475140322 0 -0.016615734373877766 0.0098263729674114807 0 -0.016504690926017935 0.010028942733038606 0 0.0034828445402386625 0.010699784783030974 0 0.0067160186306449883 0.011662985611785836 0 0.0067160186306449883 0.011662985611785836 0 0.0057162392486580747 0.010804688504867812 0 0.031350045053164813 0.011532221380140855 0 0.031358385776509783 0.011398325579709422 0 0.031291695961125757 0.011394705730177085 0 0.0019697715258868227 0.01272726601085036 0 8.1917160061889438e-05 0.0095405847054743226 0 0.0041558337307781249 0.0096032335845764177 0 0.0034828445402386625 0.010699784783030974 0 0.0057162392486580747 0.010804688504867812 0 -0.016306970515383153 0.0099348990087870636 0 -0.016615734373877766 0.0098263729674114807 0 -0.016504690926017935 0.010028942733038606 0 -0.016504690926017935 0.010028942733038606 0 -0.016523996819536389 0.010362135875131713 0 -0.016381068351515708 0.010114555051137951 0 -0.016912772998921036 0.0099009851703553541 0 -0.016608234917644724 0.010473385882097603 0 -0.016944686345388517 0.010467432845778292 0 -0.016680431292419872 0.0099107656475140322 0 -0.016504690926017935 0.010028942733038606 0 -0.016523996819536389 0.010362135875131713 0 0.0034828445402386625 0.010699784783030974 0 -0.0050273596067257446 0.0075388553974395341 0 -0.016608234917644724 0.010473385882097603 0 -0.016944686345388517 0.010467432845778292 0 -0.016802505418908754 0.010761089933897827 0 -0.016912772998921036 0.0099009851703553541 0 -0.016944686345388517 0.010467432845778292 0 -0.017291817027714668 0.010400903603573514 0 0.0034828445402386625 0.010699784783030974 0 -0.0037781987952391943 0.011040841050739403 0 -0.0037781987952391943 0.011040841050739403 0 -0.01098678516115653 0.01251605974907685 0 -0.016944686345388517 0.010467432845778292 0 -0.017291817027714668 0.010400903603573514 0 -0.017136583345827013 0.010796314993107251 0 -0.0037781987952391943 0.011040841050739403 0 -0.0051439848224228866 0.010064700565818841 0 -0.017136583345827013 0.010796314993107251 0 -0.017392699155334781 0.011151664610771002 0 -0.017707203410212154 0.01089978349329454 0 -0.01733305513533984 0.010387385198340848 0 -0.017136583345827013 0.010796314993107251 0 -0.017707203410212154 0.01089978349329454 0 -0.017392699155334781 0.011151664610771002 0 -0.017707203410212154 0.01089978349329454 0 -0.01752348391302477 0.01154267215550793 0 -0.017136583345827013 0.010796314993107251 0 -0.017392699155334781 0.011151664610771002 0 -0.017194799080029865 0.011346194578150424 0 -0.017136583345827013 0.010796314993107251 0 -0.016791652760179205 0.011148893824252546 0 -0.017194799080029865 0.011346194578150424 0 -0.016791652760179205 0.011148893824252546 0 -0.016612608791972766 0.010850542056604056 0 -0.016802505418908754 0.010761089933897827 0 -0.016791652760179205 0.011148893824252546 0 -0.016612608791972766 0.010850542056604056 0 -0.016253474698254708 0.011033775451754197 0 -0.016608234917644724 0.010473385882097603 0 -0.016612608791972766 0.010850542056604056 0 -0.016802505418908754 0.010761089933897827 0 -0.016944686345388517 0.010467432845778292 0 -0.017136583345827013 0.010796314993107251 0 -0.016802505418908754 0.010761089933897827 0 -0.017136583345827013 0.010796314993107251 0 -0.016791652760179205 0.011148893824252546 0 -0.016802505418908754 0.010761089933897827 0 -0.018624162690382456 0.010954246460455909 0 -0.017411395311311337 0.010820775258263422 0 -0.018078202802788986 0.011503654973649033 0 -0.018339079927726171 0.010442368678408694 0 -0.017645929548105069 0.010217806876673619 0 -0.017411395311311337 0.010820775258263422 0 -0.017042116975997692 0.010092270528846176 0 -0.017645929548105069 0.010217806876673619 0 -0.017411395311311337 0.010820775258263422 0 -0.017411395311311337 0.010820775258263422 0 -0.016576418626295383 0.011130564955689322 0 -0.017308949836151066 0.01176069214723708 0 -0.015435393980716914 0.010777657450389099 0 -0.016576418626295383 0.011130564955689322 0 -0.016099462607843947 0.011704195021014836 0 -0.015435393980716914 0.010777657450389099 0 -0.016576418626295383 0.011130564955689322 0 -0.016451686867193289 0.010422629227451347 0 -0.017411395311311337 0.010820775258263422 0 -0.016576418626295383 0.011130564955689322 0 -0.016451686867193289 0.010422629227451347 0 -0.017042116975997692 0.010092270528846176 0 -0.017411395311311337 0.010820775258263422 0 -0.016451686867193289 0.010422629227451347 0 -0.016099462607843947 0.011704195021014836 0 -0.017308949836151066 0.01176069214723708 0 -0.016758846264684109 0.012645028083993391 0 -0.016576418626295383 0.011130564955689322 0 -0.016099462607843947 0.011704195021014836 0 -0.017308949836151066 0.01176069214723708 0 -0.01098678516115653 0.01251605974907685 0 -0.015534449279262039 0.012569704550911186 0 -0.018383185808630728 0.012174565346437419 0 -0.017308949836151066 0.01176069214723708 0 -0.018078202802788986 0.011503654973649033 0 -0.018383185808630728 0.012174565346437419 0 -0.017308949836151066 0.01176069214723708 0 -0.016758846264684109 0.012645028083993391 0 -0.017411395311311337 0.010820775258263422 0 -0.017308949836151066 0.01176069214723708 0 -0.018078202802788986 0.011503654973649033 0 -0.019501439451497706 0.011796407393388464 0 -0.018974736660873053 0.011624433443136616 0 -0.019178085253228651 0.011969104571486089 0 -0.018299400049451894 0.011894162311195292 0 -0.015534449279262039 0.012569704550911186 0 -0.019795558925674115 0.011529773455808572 0 -0.019501439451497706 0.011796407393388464 0 -0.018974736660873053 0.011624433443136616 0 -0.018794521033582357 0.01137500185727904 0 -0.018495334863018967 0.012220414082144507 0 -0.019178085253228651 0.011969104571486089 0 -0.017707203410212154 0.01089978349329454 0 -0.018044022898140465 0.011388125328040299 0 -0.01752348391302477 0.01154267215550793 0 -0.018794521033582357 0.01137500185727904 0 -0.018495334863018967 0.012220414082144507 0 -0.017973925037120243 0.011563020831911606 0 -0.015534449279262039 0.012569704550911186 0 -0.015890453415958638 0.012709207807091975 0 -0.015534449279262039 0.012569704550911186 0 -0.016735304487346829 0.012134565082913386 0 -0.017903984946980766 0.012821572540196547 0 -0.019119041292654959 0.012758269815338296 0 -0.018495334863018967 0.012220414082144507 0 -0.019119041292654959 0.012758269815338296 0 -0.018495334863018967 0.012220414082144507 0 -0.019178085253228651 0.011969104571486089 0 -0.019825682668675799 0.012809667127482346 0 -0.019119041292654959 0.012758269815338296 0 -0.019622433796921798 0.012230312241847506 0 -0.019119041292654959 0.012758269815338296 0 -0.019178085253228651 0.011969104571486089 0 -0.019622433796921798 0.012230312241847506 0 -0.019501439451497706 0.011796407393388464 0 -0.019178085253228651 0.011969104571486089 0 -0.019622433796921798 0.012230312241847506 0 -0.016791652760179205 0.011148893824252546 0 -0.016761228273215696 0.011737883175559665 0 -0.016253474698254708 0.011033775451754197 0 -0.017080576315163517 0.011760380843177962 0 -0.016961066240042278 0.011490652902679321 0 -0.017194799080029865 0.011346194578150424 0 -0.017080576315163517 0.011760380843177962 0 -0.016761228273215696 0.011737883175559665 0 -0.016961066240042278 0.011490652902679321 0 -0.016791652760179205 0.011148893824252546 0 -0.016761228273215696 0.011737883175559665 0 -0.016961066240042278 0.011490652902679321 0 -0.016791652760179205 0.011148893824252546 0 -0.016961066240042278 0.011490652902679321 0 -0.017194799080029865 0.011346194578150424 0 -0.017392699155334781 0.011151664610771002 0 -0.017194799080029865 0.011346194578150424 0 -0.01752348391302477 0.01154267215550793 0 -0.017080576315163517 0.011760380843177962 0 -0.017194799080029865 0.011346194578150424 0 -0.01752348391302477 0.01154267215550793 0 -0.016921554758564505 0.012053429358607178 0 -0.016735304487346829 0.012134565082913386 0 -0.017903984946980766 0.012821572540196547 0 -0.018495334863018967 0.012220414082144507 0 -0.017973925037120243 0.011563020831911606 0 -0.017903984946980766 0.012821572540196547 0 -0.017080576315163517 0.011760380843177962 0 -0.017973925037120243 0.011563020831911606 0 -0.017903984946980766 0.012821572540196547 0 -0.017080576315163517 0.011760380843177962 0 -0.016761228273215696 0.011737883175559665 0 -0.03682698587522882 0.0063373036284148799 0 -0.036907346308703855 0.0063103989931644908 0 -0.05573340373976652 -2.0772150478007649e-05 0 -0.056787463652991359 0.0010256050433167894 0 -0.056908986918499792 0.00015206351099249124 0 -0.056787463652991359 0.0010256050433167894 0 -0.056908986918499792 0.00015206351099249124 0 -0.057502799387066074 0.00076541479702368334 0 -0.057361505049590346 -0.00059458590285607724 0 -0.056908986918499792 0.00015206351099249124 0 -0.057502799387066074 0.00076541479702368334 0 -0.058403050545851765 -0.00063275217514697146 0 -0.05805289418468626 -1.894926751455004e-05 0 -0.058685549257348937 0.00021161523605347425 0 -0.058403050545851765 -0.00063275217514697146 0 -0.058685549257348937 0.00021161523605347425 0 -0.059145648834275318 -0.00026546293401819411 0 -0.058685549257348937 0.00021161523605347425 0 -0.058352923238370963 0.00092439500129345563 0 -0.059231376091009216 0.00059169322830958761 0 -0.058685549257348937 0.00021161523605347425 0 -0.059231376091009216 0.00059169322830958761 0 -0.059145648834275318 -0.00026546293401819411 0 -0.036907346308703855 0.0063103989931644908 0 -0.037087374513723577 0.0062479812989913435 0 -0.05805289418468626 -1.894926751455004e-05 0 -0.058685549257348937 0.00021161523605347425 0 -0.058352923238370963 0.00092439500129345563 0 -0.056787463652991359 0.0010256050433167894 0 -0.057502799387066074 0.00076541479702368334 0 -0.057675422801991789 0.0019895880017059284 0 -0.016761228273215696 0.011737883175559665 0 -0.016047514149568589 0.010916154929977637 0 -0.016253474698254708 0.011033775451754197 0 -0.047310508222567438 0.0026005412006487017 0 -0.037087374513723577 0.0062479812989913435 0 -0.016608234917644724 0.010473385882097603 0 -0.016612608791972766 0.010850542056604056 0 -0.016253474698254708 0.011033775451754197 0 -0.016523996819536389 0.010362135875131713 0 -0.016229973662672578 0.010564695224261945 0 -0.016253474698254708 0.011033775451754197 0 -0.0050273596067257446 0.0075388553974395341 0 -0.0071780692316168867 0.0072580914102589799 0 -0.037087374513723577 0.0062479812989913435 0 -0.032331454820397246 0.0069844109421560189 0 -0.016229973662672578 0.010564695224261945 0 -0.016047514149568589 0.010916154929977637 0 -0.015969050114611891 0.010364593944463639 0 -0.016229973662672578 0.010564695224261945 0 -0.016047514149568589 0.010916154929977637 0 -0.016253474698254708 0.011033775451754197 0 -0.058352923238370963 0.00092439500129345563 0 -0.059083222789866809 0.00150600021772325 0 -0.059231376091009216 0.00059169322830958761 0 -0.037087374513723577 0.0062479812989913435 0 -0.031489271031453756 0.0068600563783983394 0 -0.016178604224960386 0.010213227041975052 0 -0.016095862785001542 0.010027340118927405 0 -0.015914810021841162 0.0099938960132965049 0 -0.015987300709588443 0.0098914083221951811 0 -0.016095862785001542 0.010027340118927405 0 -0.015914810021841162 0.0099938960132965049 0 -0.016070349319736384 0.010032891803226167 0 -0.015987300709588443 0.0098914083221951811 0 -0.015969050114611891 0.010364593944463639 0 -0.030839196627541698 0.0071857926703464779 0 -0.032331454820397246 0.0069844109421560189 0 -0.016070349319736384 0.010032891803226167 0 -0.015969050114611891 0.010364593944463639 0 -0.016188644531427206 0.010144856350747557 0 -0.016523996819536389 0.010362135875131713 0 -0.016188644531427206 0.010144856350747557 0 -0.016381068351515708 0.010114555051137951 0 -0.016523996819536389 0.010362135875131713 0 -0.016229973662672578 0.010564695224261945 0 -0.016188644531427206 0.010144856350747557 0 -0.016229973662672578 0.010564695224261945 0 -0.015969050114611891 0.010364593944463639 0 -0.016188644531427206 0.010144856350747557 0 -0.059738752305829701 0.0020279301728308788 0 -0.060273075657897739 0.001509222877190298 0 -0.059083222789866809 0.00150600021772325 0 -0.060273075657897739 0.001509222877190298 0 -0.059083222789866809 0.00150600021772325 0 -0.060073269924037054 0.00096607296949376728 0 -0.059083222789866809 0.00150600021772325 0 -0.060073269924037054 0.00096607296949376728 0 -0.059231376091009216 0.00059169322830958761 0 -0.060073269924037054 0.00096607296949376728 0 -0.060027939151439023 0.00011044109292548536 0 -0.060560614107190061 0.00052220486158065964 0 -0.060073269924037054 0.00096607296949376728 0 -0.059231376091009216 0.00059169322830958761 0 -0.060027939151439023 0.00011044109292548536 0 -0.059231376091009216 0.00059169322830958761 0 -0.059145648834275318 -0.00026546293401819411 0 -0.060027939151439023 0.00011044109292548536 0 -0.059768255277741246 -0.00058071767360503353 0 -0.059145648834275318 -0.00026546293401819411 0 -0.060027939151439023 0.00011044109292548536 0 -0.060504628997325234 -0.00089119377770109491 0 -0.059768255277741246 -0.00058071767360503353 0 -0.060027939151439023 0.00011044109292548536 0 -0.060504628997325234 -0.00089119377770109491 0 -0.060027939151439023 0.00011044109292548536 0 -0.061061071275528733 0.00011704862255663463 0 -0.061061071275528733 0.00011704862255663463 0 -0.060560614107190061 0.00052220486158065964 0 -0.061039924019120971 0.00086288984081455626 0 -0.060027939151439023 0.00011044109292548536 0 -0.061061071275528733 0.00011704862255663463 0 -0.060560614107190061 0.00052220486158065964 0 -0.061061071275528733 0.00011704862255663463 0 -0.061657253684327 0.00050018873956493549 0 -0.061039924019120971 0.00086288984081455626 0 -0.061061071275528733 0.00011704862255663463 0 -0.062001595118288899 -0.00013599559865738265 0 -0.061657253684327 0.00050018873956493549 0 -0.061483670369768866 -0.00080622074334132205 0 -0.061061071275528733 0.00011704862255663463 0 -0.062001595118288899 -0.00013599559865738265 0 -0.062055583889165308 0.0005837527639374504 0 -0.062345946828051155 0.00093512153888214726 0 -0.062001595118288899 -0.00013599559865738265 0 -0.061917347109282067 0.0005048388213533591 0 -0.061657253684327 0.00050018873956493549 0 -0.063759958270894798 -0.0011825092200102786 0 -0.062001595118288899 -0.00013599559865738265 0 -0.063616615399718329 0.00063919970088646694 0 -0.061917347109282067 0.0005048388213533591 0 -0.061741071672404009 0.00097029210545247042 0 -0.061922856705949575 0.00088214720678604489 0 -0.061917347109282067 0.0005048388213533591 0 -0.061657253684327 0.00050018873956493549 0 -0.061741071672404009 0.00097029210545247042 0 -0.061657253684327 0.00050018873956493549 0 -0.061741071672404009 0.00097029210545247042 0 -0.061039924019120971 0.00086288984081455626 0 -0.061741071672404009 0.00097029210545247042 0 -0.06109098530506283 0.00133775725406241 0 -0.061423622403051353 0.0015233533578204821 0 -0.060273075657897739 0.001509222877190298 0 -0.06109098530506283 0.00133775725406241 0 -0.061039924019120971 0.00086288984081455626 0 -0.060073269924037054 0.00096607296949376728 0 -0.060560614107190061 0.00052220486158065964 0 -0.061039924019120971 0.00086288984081455626 0 -0.060273075657897739 0.001509222877190298 0 -0.060073269924037054 0.00096607296949376728 0 -0.061039924019120971 0.00086288984081455626 0 -0.061741071672404009 0.00097029210545247042 0 -0.06109098530506283 0.00133775725406241 0 -0.061039924019120971 0.00086288984081455626 0 -0.067101388283543242 4.4561584188492769e-05 0 -0.066353769973854365 1.0598775280290081e-05 0 -0.06737667826052178 5.7963445423158041e-05 0 -0.067101388283543242 4.4561584188492769e-05 0 -0.067122385523338587 -0.0004297293015778746 0 -0.066353769973854365 1.0598775280290081e-05 0 -0.066451553546109224 -0.00081354077526262175 0 -0.067134043901622309 -0.0010545231674493603 0 -0.067122385523338587 -0.0004297293015778746 0 -0.065159610926635261 -0.0006535744850938392 0 -0.066451553546109224 -0.00081354077526262175 0 -0.066353769973854365 1.0598775280290081e-05 0 -0.066451553546109224 -0.00081354077526262175 0 -0.067122385523338587 -0.0004297293015778746 0 -0.066353769973854365 1.0598775280290081e-05 0 -0.065159610926635261 -0.0006535744850938392 0 -0.063616615399718329 0.00063919970088646694 0 -0.064895698373488922 0.0012804407947489885 0 -0.065159610926635261 -0.0006535744850938392 0 -0.065951815481735898 0.00076289814337231589 0 -0.064895698373488922 0.0012804407947489885 0 -0.065951815481735898 0.00076289814337231589 0 -0.064895698373488922 0.0012804407947489885 0 -0.065834719438135403 0.0016793918403593293 0 -0.064091211545056148 0.00079198807679735752 0 -0.063789299481816192 0.001581337802629478 0 -0.062345946828051155 0.00093512153888214726 0 -0.062563407701530613 0.0015928346461741066 0 -0.061741071672404009 0.00097029210545247042 0 -0.061922856705949575 0.00088214720678604489 0 -0.061836779109837127 0.0010113310475189433 0 -0.061741071672404009 0.00097029210545247042 0 -0.061836779109837127 0.0010113310475189433 0 -0.061781451665598119 0.0011929896133349037 0 -0.061836779109837127 0.0010113310475189433 0 -0.061672018618140034 0.0010980835578682775 0 -0.061553242647234968 0.00093247861671821712 0 -0.061836779109837127 0.0010113310475189433 0 -0.061553242647234968 0.00093247861671821712 0 -0.06172442153035488 0.00086748978738159031 0 -0.061922856705949575 0.00088214720678604489 0 -0.061836779109837127 0.0010113310475189433 0 -0.061672018618140034 0.0010980835578682775 0 -0.062563407701530613 0.0015928346461741066 0 -0.061877853400598426 0.0022434841777746422 0 -0.063789299481816192 0.001581337802629478 0 -0.060988507437299652 0.0026571377804029176 0 -0.065951815481735898 0.00076289814337231589 0 -0.065834719438135403 0.0016793918403593293 0 -0.066360849181196668 0.0016618473684332593 0 -0.061877853400598426 0.0022434841777746422 0 -0.058321539321448984 0.0021694175175719734 0 -0.061672018618140034 0.0010980835578682775 0 -0.061553242647234968 0.00093247861671821712 0 -0.061106889751625655 0.0010086505952789195 0 -0.061553242647234968 0.00093247861671821712 0 -0.061106889751625655 0.0010086505952789195 0 -0.06122881045652228 0.00061606459669627674 0 -0.065834719438135403 0.0016793918403593293 0 -0.066349551223306449 0.0019145831273851104 0 -0.066360849181196668 0.0016618473684332593 0 -0.066535156254119723 0.0021049449801359894 0 -0.066349551223306449 0.0019145831273851104 0 -0.066360849181196668 0.0016618473684332593 0 -0.067006255592085145 0.0003256133320067843 0 -0.067101388283543242 4.4561584188492769e-05 0 -0.06737667826052178 5.7963445423158041e-05 0 0.0046529641594400878 -0.014909037122122807 0 0.00112137589958963 -0.0088039147103673061 0 -0.0011470085961300799 -0.015296549345252033 0 -0.060450465185954504 0.00063195132936623758 0 -0.061106889751625655 0.0010086505952789195 0 -0.06122881045652228 0.00061606459669627674 0 0.00112137589958963 -0.0088039147103673061 0 -0.0039601369418912702 -0.012837192420869227 0 -0.0045498698381207089 -0.0090486845633180775 0 -0.061553242647234968 0.00093247861671821712 0 -0.06122881045652228 0.00061606459669627674 0 -0.06172442153035488 0.00086748978738159031 0 -0.032505170586983358 -0.0037255184679686783 0 -0.033408451802721194 -0.0036351782936468284 0 0.00112137589958963 -0.0088039147103673061 0 -0.0039601369418912702 -0.012837192420869227 0 -0.0011470085961300799 -0.015296549345252033 0 -0.0039601369418912702 -0.012837192420869227 0 -0.0045498698381207089 -0.0090486845633180775 0 -0.010084098608075747 -0.0092014375572180857 0 -0.061836779109837127 0.0010113310475189433 0 -0.06172442153035488 0.00086748978738159031 0 -0.061781451665598119 0.0011929896133349037 0 -0.033408451802721194 -0.0036351782936468284 0 -0.035639587423758154 -0.0033092417109583522 0 -0.0039601369418912702 -0.012837192420869227 0 -0.010084098608075747 -0.0092014375572180857 0 -0.010202753225949483 -0.013736369657623657 0 -0.0061769328136076678 -0.015892517233157388 0 -0.010202753225949483 -0.013736369657623657 0 -0.011235757459076052 -0.017829261489351277 0 -0.0039601369418912702 -0.012837192420869227 0 -0.0061769328136076678 -0.015892517233157388 0 -0.010202753225949483 -0.013736369657623657 0 -0.011235757459076052 -0.017829261489351277 0 -0.011755247190221692 -0.020875061955033268 0 -0.0072368346533515353 -0.02213935508832077 0 -0.0061769328136076678 -0.015892517233157388 0 -0.011235757459076052 -0.017829261489351277 0 -0.0072368346533515353 -0.02213935508832077 0 -0.0061769328136076678 -0.015892517233157388 0 -0.0032947934013632589 -0.018848717618613561 0 -0.0072368346533515353 -0.02213935508832077 0 -0.0032947934013632589 -0.018848717618613561 0 -0.001879231040742158 -0.020806563717619249 0 -0.0072368346533515353 -0.02213935508832077 0 -0.0039601369418912702 -0.012837192420869227 0 -0.0061769328136076678 -0.015892517233157388 0 -0.0011470085961300799 -0.015296549345252033 0 -0.0061769328136076678 -0.015892517233157388 0 -0.0011470085961300799 -0.015296549345252033 0 -0.0032947934013632589 -0.018848717618613561 0 -0.0011470085961300799 -0.015296549345252033 0 -0.0032947934013632589 -0.018848717618613561 0 -0.0013639432272024388 -0.018236006282387428 0 -0.0011470085961300799 -0.015296549345252033 0 -0.0013639432272024388 -0.018236006282387428 0 0.00055399732191013947 -0.018220899742268652 0 -0.0032947934013632589 -0.018848717618613561 0 -0.001879231040742158 -0.020806563717619249 0 -0.0013639432272024388 -0.018236006282387428 0 -0.001879231040742158 -0.020806563717619249 0 -0.0013639432272024388 -0.018236006282387428 0 0.00055399732191013947 -0.018220899742268652 0 -0.001879231040742158 -0.020806563717619249 0 0.00055399732191013947 -0.018220899742268652 0 0.0036290879365908986 -0.019609316445095223 0 0.014253561135532441 -0.01139148279336333 0 0.015007738313499237 -0.01444729663028574 0 0.0046529641594400878 -0.014909037122122807 0 -0.0011470085961300799 -0.015296549345252033 0 0.00055399732191013947 -0.018220899742268652 0 0.0046529641594400878 -0.014909037122122807 0 0.00055399732191013947 -0.018220899742268652 0 0.0036290879365908986 -0.019609316445095223 0 -0.018366678534152373 -0.012516205606497873 0 -0.022908843608697146 -0.012906790525333084 0 -0.019486733295175373 -0.016447235776373817 0 -0.018366678534152373 -0.012516205606497873 0 -0.022908843608697146 -0.012906790525333084 0 -0.020940460186313275 -0.0093675433942176246 0 -0.026295084655825633 -0.0094020710370288068 0 -0.022908843608697146 -0.012906790525333084 0 -0.020940460186313275 -0.0093675433942176246 0 -0.060273075657897739 0.001509222877190298 0 -0.06109098530506283 0.00133775725406241 0 -0.060692900746469526 0.0018537910893393155 0 -0.018366678534152373 -0.012516205606497873 0 -0.020940460186313275 -0.0093675433942176246 0 -0.015540503775742093 -0.0092990335891914352 0 -0.035541664100235494 -0.001057523563492877 0 -0.037315338231657183 -0.0025804019425622444 0 -0.06109098530506283 0.00133775725406241 0 -0.060692900746469526 0.0018537910893393155 0 -0.061423622403051353 0.0015233533578204821 0 -0.061741071672404009 0.00097029210545247042 0 -0.061781451665598119 0.0011929896133349037 0 -0.061423622403051353 0.0015233533578204821 0 -0.035639587423758154 -0.0033092417109583522 0 -0.037315338231657183 -0.0025804019425622444 0 -0.010084098608075747 -0.0092014375572180857 0 -0.015540503775742093 -0.0092990335891914352 0 -0.010202753225949483 -0.013736369657623657 0 -0.015540503775742093 -0.0092990335891914352 0 -0.010202753225949483 -0.013736369657623657 0 -0.014968649803614164 -0.014842864665746813 0 -0.018366678534152373 -0.012516205606497873 0 -0.015540503775742093 -0.0092990335891914352 0 -0.014968649803614164 -0.014842864665746813 0 -0.010202753225949483 -0.013736369657623657 0 -0.014968649803614164 -0.014842864665746813 0 -0.011235757459076052 -0.017829261489351277 0 -0.011235757459076052 -0.017829261489351277 0 -0.016015200553326558 -0.020004603716983111 0 -0.011755247190221692 -0.020875061955033268 0 -0.014968649803614164 -0.014842864665746813 0 -0.011235757459076052 -0.017829261489351277 0 -0.016015200553326558 -0.020004603716983111 0 0.010445571239594853 -0.0020648804836115539 0 0.0048543405316725328 -0.0025783644593978649 0 0.032232298469545159 0.011152441572146945 0 0.031427504003880939 0.011766831138625667 0 0.031813983287070795 0.010898278390453549 0 -0.018366678534152373 -0.012516205606497873 0 -0.014968649803614164 -0.014842864665746813 0 -0.019486733295175373 -0.016447235776373817 0 -0.014968649803614164 -0.014842864665746813 0 -0.016015200553326558 -0.020004603716983111 0 -0.019486733295175373 -0.016447235776373817 0 0.030817733713710216 0.011808062780548129 0 0.031427504003880939 0.011766831138625667 0 0.030883661800106769 0.011694693077675599 0 -0.0022873267888101332 -0.0021337183148784668 0 0.0048543405316725328 -0.0025783644593978649 0 0.031427504003880939 0.011766831138625667 0 0.031137185230350119 0.011265430963162699 0 0.031813983287070795 0.010898278390453549 0 0.031427504003880939 0.011766831138625667 0 0.030883661800106769 0.011694693077675599 0 0.031137185230350119 0.011265430963162699 0 0.031137185230350119 0.011265430963162699 0 0.031429499432287296 0.010613892982337021 0 0.030653596162785811 0.010275408379886801 0 0.031137185230350119 0.011265430963162699 0 0.031429499432287296 0.010613892982337021 0 0.031813983287070795 0.010898278390453549 0 0.030264794017990437 0.012320802710657197 0 0.030286402862537944 0.012543382202125294 0 0.030316254610004211 0.012453468409496325 0 0.030653596162785811 0.010275408379886801 0 0.031574345645263145 0.0096394963906624113 0 0.031405006909660506 0.0075175830167301273 0 0.031516069322285178 0.011228631942381863 0 0.032802416389550969 0.010451410965322662 0 0.031429499432287296 0.010613892982337021 0 0.030653596162785811 0.010275408379886801 0 0.031574345645263145 0.0096394963906624113 0 0.031429499432287296 0.010613892982337021 0 0.031574345645263145 0.0096394963906624113 0 0.032072112476468878 0.010398813411457158 0 0.033567646874285234 0.0088884808328067461 0 0.032230402388626678 0.0089427292810189494 0 0.032072112476468878 0.010398813411457158 0 0.031574345645263145 0.0096394963906624113 0 0.032230402388626678 0.0089427292810189494 0 0.032072112476468878 0.010398813411457158 0 0.032232298469545159 0.011152441572146945 0 0.031813983287070795 0.010898278390453549 0 0.032221272644406253 0.010372354583025292 0 0.032072112476468878 0.010398813411457158 0 0.031813983287070795 0.010898278390453549 0 0.032221272644406253 0.010372354583025292 0 0.031429499432287296 0.010613892982337021 0 0.032072112476468878 0.010398813411457158 0 0.031813983287070795 0.010898278390453549 0 -0.016015200553326558 -0.020004603716983111 0 -0.011755247190221692 -0.020875061955033268 0 -0.012520193920442501 -0.023533571323003998 0 0.017055096889015672 -0.00042175876874185728 0 0.023195423404105683 0.0020507148387078934 0 0.010445571239594853 -0.0020648804836115539 0 0.017055096889015672 -0.00042175876874185728 0 0.032232298469545159 0.011152441572146945 0 0.032780921946990352 0.010528201230357184 0 0.032221272644406253 0.010372354583025292 0 -0.011755247190221692 -0.020875061955033268 0 -0.012520193920442501 -0.023533571323003998 0 -0.0072368346533515353 -0.02213935508832077 0 0.032305450445128774 0.010299143536503382 0 0.032300926731455896 0.010287948439034023 0 0.032306113325477268 0.010218202395759029 0 0.03149648947749184 0.0034302096661076665 0 0.029088256930940432 -0.0012171358347508735 0 0.017055096889015672 -0.00042175876874185728 0 0.029088256930940432 -0.0012171358347508735 0 0.035324021533403457 0.009894914750178516 0 0.036767907041700555 0.0087448194976566824 0 0.038389475999415959 0.0089632606846134343 0 0.035324021533403457 0.009894914750178516 0 0.03527868498908425 0.0083242163394843388 0 0.036767907041700555 0.0087448194976566824 0 0.033567646874285234 0.0088884808328067461 0 0.032072112476468878 0.010398813411457158 0 0.035324021533403457 0.009894914750178516 0 0.032072112476468878 0.010398813411457158 0 0.032221272644406253 0.010372354583025292 0 0.032300926731455896 0.010287948439034023 0 0.032305450445128774 0.010299143536503382 0 0.032221272644406253 0.010372354583025292 0 0.032300926731455896 0.010287948439034023 0 0.031571792951997468 0.0047972849199686973 0 0.03149648947749184 0.0034302096661076665 0 0.033567646874285234 0.0088884808328067461 0 0.035324021533403457 0.009894914750178516 0 0.03527868498908425 0.0083242163394843388 0 0.033567646874285234 0.0088884808328067461 0 0.03527868498908425 0.0083242163394843388 0 0.034139052100818253 0.0076969768792707061 0 0.03527868498908425 0.0083242163394843388 0 0.035056249565310484 0.0070719548667477726 0 0.034139052100818253 0.0076969768792707061 0 0.03527868498908425 0.0083242163394843388 0 0.035056249565310484 0.0070719548667477726 0 0.03653627938569242 0.0072337470386497462 0 0.035056249565310484 0.0070719548667477726 0 0.034139052100818253 0.0076969768792707061 0 0.034236119580824585 0.0064224596124243102 0 0.037311276193073013 0.0073917893952995034 0 0.03919677551605999 0.0091025860588865269 0 0.038980450609095205 0.0063413194679404726 0 0.034372083804074888 0.0041345906605116016 0 0.029088256930940432 -0.0012171358347508735 0 0.036767907041700555 0.0087448194976566824 0 0.03653627938569242 0.0072337470386497462 0 0.038389475999415959 0.0089632606846134343 0 0.03527868498908425 0.0083242163394843388 0 0.036767907041700555 0.0087448194976566824 0 0.03653627938569242 0.0072337470386497462 0 0.038257673428788712 0.0049438294086656719 0 0.036317836010790687 0.0057189062442226284 0 0.039655058425927432 0.0058545962444760602 0 0.037311276193073013 0.0073917893952995034 0 0.036317836010790687 0.0057189062442226284 0 0.038980450609095205 0.0063413194679404726 0 0.037659491407844366 0.0014898374099227571 0 0.037540871147089386 0.00072827584133620623 0 0.038257673428788712 0.0049438294086656719 0 0.036317836010790687 0.0057189062442226284 0 0.036534733844733068 0.0044946406512482821 0 0.034139052100818253 0.0076969768792707061 0 0.034236119580824585 0.0064224596124243102 0 0.033069669445881876 0.0064004066050040408 0 0.035056249565310484 0.0070719548667477726 0 0.034236119580824585 0.0064224596124243102 0 0.034960174599821432 0.0054128174044662117 0 0.037311276193073013 0.0073917893952995034 0 0.036317836010790687 0.0057189062442226284 0 0.034960174599821432 0.0054128174044662117 0 0.035056249565310484 0.0070719548667477726 0 0.03653627938569242 0.0072337470386497462 0 0.034960174599821432 0.0054128174044662117 0 0.034372083804074888 0.0041345906605116016 0 0.03500830303777424 0.0048433199539114034 0 0.036317836010790687 0.0057189062442226284 0 0.035179244813559614 0.0045073425488966279 0 0.036534733844733068 0.0044946406512482821 0 0.036317836010790687 0.0057189062442226284 0 0.034960174599821432 0.0054128174044662117 0 0.035179244813559614 0.0045073425488966279 0 0.034960174599821432 0.0054128174044662117 0 0.034075545165453178 0.0053459184604705444 0 0.035179244813559614 0.0045073425488966279 0 0.034236119580824585 0.0064224596124243102 0 0.034960174599821432 0.0054128174044662117 0 0.034075545165453178 0.0053459184604705444 0 0.032802416389550969 0.010451410965322662 0 0.035764776819653413 0.0092459824995484944 0 0.034075545165453178 0.0053459184604705444 0 0.033069669445881876 0.0064004066050040408 0 0.033001798993239101 0.0038283346472264054 0 0.033069669445881876 0.0064004066050040408 0 0.031405006909660506 0.0075175830167301273 0 0.033001798993239101 0.0038283346472264054 0 0.030286402862537944 0.012543382202125294 0 0.030314516656320491 0.012532789711845356 0 0.030339373184527698 0.012521737419846796 0 0.034236119580824585 0.0064224596124243102 0 0.034075545165453178 0.0053459184604705444 0 0.033069669445881876 0.0064004066050040408 0 0.030313639038414195 0.012538412008374007 0 0.030286402862537944 0.012543382202125294 0 0.03032994400078888 0.012527501434477542 0 0.030313639038414195 0.012538412008374007 0 0.030286402862537944 0.012543382202125294 0 0.030314516656320491 0.012532789711845356 0 0.030313639038414195 0.012538412008374007 0 0.030314516656320491 0.012532789711845356 0 0.030327062447487969 0.012542563185525669 0 0.030286402862537944 0.012543382202125294 0 0.03032994400078888 0.012527501434477542 0 0.030316254610004211 0.012453468409496325 0 0.031574345645263145 0.0096394963906624113 0 0.032230402388626678 0.0089427292810189494 0 0.031405006909660506 0.0075175830167301273 0 0.032230402388626678 0.0089427292810189494 0 0.031405006909660506 0.0075175830167301273 0 0.032760321983367868 0.0078453551143448062 0 0.033567646874285234 0.0088884808328067461 0 0.034139052100818253 0.0076969768792707061 0 0.032760321983367868 0.0078453551143448062 0 0.033567646874285234 0.0088884808328067461 0 0.032230402388626678 0.0089427292810189494 0 0.032760321983367868 0.0078453551143448062 0 0.034139052100818253 0.0076969768792707061 0 0.033069669445881876 0.0064004066050040408 0 0.032760321983367868 0.0078453551143448062 0 0.033069669445881876 0.0064004066050040408 0 0.031405006909660506 0.0075175830167301273 0 0.032760321983367868 0.0078453551143448062 0 0.026591969119223995 -0.014172909745303665 0 0.026853844073294563 -0.014505342386576777 0 0.026940318325253447 -0.013964791521700534 0 0.026207611565771581 -0.014030138683387866 0 0.026537146161499006 -0.013849104971832279 0 0.026591969119223995 -0.014172909745303665 0 0.026537146161499006 -0.013849104971832279 0 0.026591969119223995 -0.014172909745303665 0 0.026940318325253447 -0.013964791521700534 0 0.026164591439602525 -0.01460052213148259 0 0.026591969119223995 -0.014172909745303665 0 0.026853844073294563 -0.014505342386576777 0 0.026164591439602525 -0.01460052213148259 0 0.026406149330579297 -0.015166037914219003 0 0.026853844073294563 -0.014505342386576777 0 0.027210764445585744 -0.014899761751342302 0 0.026406149330579297 -0.015166037914219003 0 0.026853844073294563 -0.014505342386576777 0 0.026853844073294563 -0.014505342386576777 0 0.027295926794166682 -0.01448123012514249 0 0.027334176292982737 -0.014181551444949295 0 0.027210764445585744 -0.014899761751342302 0 0.027295926794166682 -0.01448123012514249 0 0.027834590393764968 -0.014341970709853713 0 0.027210764445585744 -0.014899761751342302 0 0.026853844073294563 -0.014505342386576777 0 0.027295926794166682 -0.01448123012514249 0 0.026853844073294563 -0.014505342386576777 0 0.027334176292982737 -0.014181551444949295 0 0.026940318325253447 -0.013964791521700534 0 0.027334176292982737 -0.014181551444949295 0 0.026940318325253447 -0.013964791521700534 0 0.027505557418027318 -0.013661157396357322 0 0.02982988294557154 -0.0091155485172943612 0 0.030863989177164548 -0.0062574209000191014 0 0.027760693881028295 -0.013896669545508838 0 0.028584133051727287 -0.013630604095996177 0 0.027538578164448681 -0.013422946845391796 0 0.027334176292982737 -0.014181551444949295 0 0.027760693881028295 -0.013896669545508838 0 0.027538578164448681 -0.013422946845391796 0 0.027760693881028295 -0.013896669545508838 0 0.027834590393764968 -0.014341970709853713 0 0.028584133051727287 -0.013630604095996177 0 0.027334176292982737 -0.014181551444949295 0 0.027760693881028295 -0.013896669545508838 0 0.027834590393764968 -0.014341970709853713 0 0.014253561135532441 -0.01139148279336333 0 0.0090218538623330295 -0.0091243633601116817 0 0.014638053885688763 -0.0085215306701012447 0 0.01751456779444012 -0.0057791651782737978 0 0.019077882251827848 -0.0072338711218550272 0 0.014253561135532441 -0.01139148279336333 0 0.021266920908026583 -0.0074811180019894504 0 0.027295926794166682 -0.01448123012514249 0 0.027334176292982737 -0.014181551444949295 0 0.027834590393764968 -0.014341970709853713 0 0.017055096889015672 -0.00042175876874185728 0 0.0090218538623330295 -0.0091243633601116817 0 0.01751456779444012 -0.0057791651782737978 0 0.019077882251827848 -0.0072338711218550272 0 0.02023890325952234 -0.0050406343308504629 0 0.023488784520571938 -0.0059621040835630586 0 0.019077882251827848 -0.0072338711218550272 0 0.02023890325952234 -0.0050406343308504629 0 0.021266920908026583 -0.0074811180019894504 0 0.029088256930940432 -0.0012171358347508735 0 0.01751456779444012 -0.0057791651782737978 0 0.02023890325952234 -0.0050406343308504629 0 0.020516096306483517 -0.0029518790514727771 0 0.023488784520571938 -0.0059621040835630586 0 0.02023890325952234 -0.0050406343308504629 0 0.020516096306483517 -0.0029518790514727771 0 0.029088256930940432 -0.0012171358347508735 0 0.034101432072706217 -0.0023667816869697334 0 0.03919677551605999 0.0091025860588865269 0 0.038980450609095205 0.0063413194679404726 0 0.041420635266995146 0.0068211696307624824 0 0.03040224417316233 -0.0021710511376147584 0 0.033227959373825951 -0.0050244273800720126 0 0.032400804241033171 -0.0034435081575528519 0 0.037540871147089386 0.00072827584133620623 0 0.034101432072706217 -0.0023667816869697334 0 0.039655058425927432 0.0058545962444760602 0 0.039947911803618681 0.0052331848501390478 0 0.039890006373577522 0.0052710372831164922 0 0.038257673428788712 0.0049438294086656719 0 0.039655058425927432 0.0058545962444760602 0 0.040183630982617242 0.0049965422477327029 0 0.039655058425927432 0.0058545962444760602 0 0.040183630982617242 0.0049965422477327029 0 0.039890006373577522 0.0052710372831164922 0 0.040183630982617242 0.0049965422477327029 0 0.039890006373577522 0.0052710372831164922 0 0.039410372115717622 0.0055376411632076326 0 0.039890006373577522 0.0052710372831164922 0 0.039931429240089626 0.0052050260277371752 0 0.039410372115717622 0.0055376411632076326 0 0.035137550071158104 -0.0035246724070208835 0 0.035615847483039129 -0.0040103115094071128 0 0.034952234091070532 -0.0041091124012001042 0 0.034168229338131503 -0.002571029419666665 0 0.038378549902765471 -0.0013961474590694065 0 0.039947911803618681 0.0052331848501390478 0 0.039890006373577522 0.0052710372831164922 0 0.039931429240089626 0.0052050260277371752 0 0.03356184847393754 -0.0066834421337462228 0 0.033521507072761116 -0.0068074386165975177 0 0.03272769887230155 -0.0058471520004169881 0 0.034168229338131503 -0.002571029419666665 0 0.033601708088788311 -0.0029673038215438418 0 0.033141550091242061 -0.00074751459496950933 0 0.035686489051997436 -0.0033201267266594935 0 0.036757178725081052 -1.9511237882142753e-05 0 0.034101432072706217 -0.0023667816869697334 0 0.033601708088788311 -0.0029673038215438418 0 0.034101432072706217 -0.0023667816869697334 0 0.034168229338131503 -0.002571029419666665 0 0.033601708088788311 -0.0029673038215438418 0 0.030863989177164548 -0.0062574209000191014 0 0.033615427179493514 -0.0049468434415113711 0 0.032400804241033171 -0.0034435081575528519 0 0.034241381135039883 -0.0030120951072110111 0 0.03040224417316233 -0.0021710511376147584 0 0.032400804241033171 -0.0034435081575528519 0 0.034241381135039883 -0.0030120951072110111 0 0.029088256930940432 -0.0012171358347508735 0 0.030863989177164548 -0.0062574209000191014 0 0.033227959373825951 -0.0050244273800720126 0 0.033615427179493514 -0.0049468434415113711 0 0.032400804241033171 -0.0034435081575528519 0 0.033601708088788311 -0.0029673038215438418 0 0.029593386706821486 -0.0072980716842437213 0 0.030863989177164548 -0.0062574209000191014 0 0.029593386706821486 -0.0072980716842437213 0 0.030431030324477228 -0.00622686251731945 0 0.03050761863266464 -0.0059873966531700934 0 0.031001607166358931 -0.0061209895554946376 0 0.026940318325253447 -0.013964791521700534 0 0.027505557418027318 -0.013661157396357322 0 0.026696529449946237 -0.013481461147666353 0 0.033521507072761116 -0.0068074386165975177 0 0.031898591365186212 -0.0071484345654727541 0 0.03272769887230155 -0.0058471520004169881 0 0.034168229338131503 -0.002571029419666665 0 0.035467179297547266 -0.0047729646322356321 0 0.031497969163838721 -0.0060471665323345476 0 0.031898591365186212 -0.0071484345654727541 0 0.03272769887230155 -0.0058471520004169881 0 0.028642282251340676 -0.0078718325314658319 0 0.029593386706821486 -0.0072980716842437213 0 0.026537146161499006 -0.013849104971832279 0 0.026940318325253447 -0.013964791521700534 0 0.026696529449946237 -0.013481461147666353 0 0.026261674857188964 -0.01359637374103048 0 0.026537146161499006 -0.013849104971832279 0 0.026696529449946237 -0.013481461147666353 0 0.034064490449126197 -0.0083891999227453766 0 0.036565198159575651 -0.0090938683895479492 0 0.035383533972458518 -0.010527832700199595 0 0.036565198159575651 -0.0090938683895479492 0 0.035383533972458518 -0.010527832700199595 0 0.037376369805808739 -0.010497092583917979 0 0.034719567723151656 -0.012898995623463201 0 0.035383533972458518 -0.010527832700199595 0 0.037026492501609706 -0.011781779784757881 0 0.034719567723151656 -0.012898995623463201 0 0.037026492501609706 -0.011781779784757881 0 0.037684432178912368 -0.012442674870973624 0 0.032943445623152406 -0.007029311755325081 0 0.035467179297547266 -0.0047729646322356321 0 0.035383533972458518 -0.010527832700199595 0 0.037026492501609706 -0.011781779784757881 0 0.037376369805808739 -0.010497092583917979 0 0.037026492501609706 -0.011781779784757881 0 0.038227102973821966 -0.011449150518277988 0 0.037376369805808739 -0.010497092583917979 0 0.037026492501609706 -0.011781779784757881 0 0.037660203277709796 -0.012363830025197415 0 0.038227102973821966 -0.011449150518277988 0 0.035738914631539886 -0.0051493361217616884 0 0.035467179297547266 -0.0047729646322356321 0 0.038227102973821966 -0.011449150518277988 0 0.037376369805808739 -0.010497092583917979 0 0.038816420630418867 -0.010658085540868549 0 0.037376369805808739 -0.010497092583917979 0 0.03833339944960365 -0.0094482562695482504 0 0.038816420630418867 -0.010658085540868549 0 0.036565198159575651 -0.0090938683895479492 0 0.037376369805808739 -0.010497092583917979 0 0.03833339944960365 -0.0094482562695482504 0 0.036565198159575651 -0.0090938683895479492 0 0.03833339944960365 -0.0094482562695482504 0 0.038626557616625715 -0.0081586852374045463 0 0.03833339944960365 -0.0094482562695482504 0 0.038816420630418867 -0.010658085540868549 0 0.04106396434203527 -0.0089865032535413683 0 0.038816420630418867 -0.010658085540868549 0 0.040143301907120371 -0.01189306018200915 0 0.04106396434203527 -0.0089865032535413683 0 0.037660203277709796 -0.012363830025197415 0 0.038227102973821966 -0.011449150518277988 0 0.040143301907120371 -0.01189306018200915 0 0.035467179297547266 -0.0047729646322356321 0 0.038378549902765471 -0.0013961474590694065 0 0.038227102973821966 -0.011449150518277988 0 0.038816420630418867 -0.010658085540868549 0 0.040143301907120371 -0.01189306018200915 0 0.040183630982617242 0.0049965422477327029 0 0.039410372115717622 0.0055376411632076326 0 0.041338543051341881 0.0066589844201125781 0 0.047910013663905425 0.0075117951798023249 0 0.047039972456305805 0.0073915021684451956 0 0.047506276310924821 0.0061132970847186463 0 0.038378549902765471 -0.0013961474590694065 0 0.042359660241446682 0.0010519950750330414 0 0.047039972456305805 0.0073915021684451956 0 0.047506276310924821 0.0061132970847186463 0 0.046734107287882125 0.0065500983436798344 0 0.038378549902765471 -0.0013961474590694065 0 0.041915196487512671 -0.00093070239394822771 0 0.041915196487512671 -0.00093070239394822771 0 0.043694468085778801 -0.00068410965322742595 0 0.047506276310924821 0.0061132970847186463 0 0.047300157766697805 0.0047251018356189401 0 0.04647557608403137 0.0058166599444606365 0 0.04106396434203527 -0.0089865032535413683 0 0.042034651609566737 -0.0068364645811531052 0 0.040086643667869945 -0.007111031112344437 0 0.042034651609566737 -0.0068364645811531052 0 0.040086643667869945 -0.007111031112344437 0 0.040124696449609705 -0.0055632833792307254 0 0.040086643667869945 -0.007111031112344437 0 0.037786529936899474 -0.0063852507498529344 0 0.040124696449609705 -0.0055632833792307254 0 0.03833339944960365 -0.0094482562695482504 0 0.04106396434203527 -0.0089865032535413683 0 0.038626557616625715 -0.0081586852374045463 0 0.04106396434203527 -0.0089865032535413683 0 0.040086643667869945 -0.007111031112344437 0 0.038626557616625715 -0.0081586852374045463 0 0.036565198159575651 -0.0090938683895479492 0 0.038626557616625715 -0.0081586852374045463 0 0.035816891503765477 -0.0072386729358069881 0 0.037676336375642418 -0.0068755404014396075 0 0.036919281370629747 -0.0055641717119543042 0 0.038626557616625715 -0.0081586852374045463 0 0.035816891503765477 -0.0072386729358069881 0 0.036306570993935007 -0.0047243924728723246 0 0.040086643667869945 -0.007111031112344437 0 0.038626557616625715 -0.0081586852374045463 0 0.037786529936899474 -0.0063852507498529344 0 0.033824381425656531 -0.0058900864310732284 0 0.036306570993935007 -0.0047243924728723246 0 0.033870635741751504 -0.0041381412638717523 0 0.033824381425656531 -0.0058900864310732284 0 0.035816891503765477 -0.0072386729358069881 0 0.036306570993935007 -0.0047243924728723246 0 0.034064490449126197 -0.0083891999227453766 0 0.036565198159575651 -0.0090938683895479492 0 0.035816891503765477 -0.0072386729358069881 0 0.034064490449126197 -0.0083891999227453766 0 0.033824381425656531 -0.0058900864310732284 0 0.035816891503765477 -0.0072386729358069881 0 0.045090618403122229 0.006922319593142167 0 0.045555161443125471 0.0066648599721622287 0 0.044957187500239131 0.0062525608939420201 0 0.045090618403122229 0.006922319593142167 0 0.044221031311863508 0.0066257155541512656 0 0.044957187500239131 0.0062525608939420201 0 0.040785231366566525 0.0081383937562221533 0 0.04254189440656464 0.007299744280573805 0 0.040774136188638066 0.0082359079677973429 0 0.040785231366566525 0.0081383937562221533 0 0.038113921431433599 0.0090265354802938919 0 0.03805206833530992 0.009009636570679963 0 0.038075627953959426 0.0090428814459483052 0 0.03805206833530992 0.009009636570679963 0 0.038075627953959426 0.0090428814459483052 0 0.038045869029819483 0.0090495776148447355 0 0.038075627953959426 0.0090428814459483052 0 0.038068907870342901 0.0090774974019075493 0 0.038105278438042678 0.0090475846829106282 0 0.038045869029819483 0.0090495776148447355 0 0.038068907870342901 0.0090774974019075493 0 0.038019154469613757 0.0090903764601790553 0 0.034982935431395017 0.010320539257763977 0 0.035076883138477427 0.011137907816174989 0 0.038075627953959426 0.0090428814459483052 0 0.038045869029819483 0.0090495776148447355 0 0.038068907870342901 0.0090774974019075493 0 0.038068907870342901 0.0090774974019075493 0 0.038105278438042678 0.0090475846829106282 0 0.038120442962665937 0.0090622848319209075 0 0.034982935431395017 0.010320539257763977 0 0.035764776819653413 0.0092459824995484944 0 0.038113921431433599 0.0090265354802938919 0 0.038075627953959426 0.0090428814459483052 0 0.038105278438042678 0.0090475846829106282 0 0.038113921431433599 0.0090265354802938919 0 0.038105278438042678 0.0090475846829106282 0 0.038127678831352131 0.0090478439937395315 0 0.038105278438042678 0.0090475846829106282 0 0.038127678831352131 0.0090478439937395315 0 0.038120442962665937 0.0090622848319209075 0 0.035794150109691621 0.0092207162272980002 0 0.035764776819653413 0.0092459824995484944 0 0.033001798993239101 0.0038283346472264054 0 0.035179244813559614 0.0045073425488966279 0 0.03602121594039253 0.0030305371153455073 0 0.038127678831352131 0.0090478439937395315 0 0.038120703315626607 0.0090597568764452102 0 0.038181087552467699 0.0090393085895056798 0 0.038113921431433599 0.0090265354802938919 0 0.038127678831352131 0.0090478439937395315 0 0.038181087552467699 0.0090393085895056798 0 0.040774136188638066 0.0082359079677973429 0 0.039298257260895739 0.0080374627567930991 0 0.035764776819653413 0.0092459824995484944 0 0.039298257260895739 0.0080374627567930991 0 0.034075545165453178 0.0053459184604705444 0 0.033001798993239101 0.0038283346472264054 0 0.035179244813559614 0.0045073425488966279 0 0.035179244813559614 0.0045073425488966279 0 0.03602121594039253 0.0030305371153455073 0 0.036534733844733068 0.0044946406512482821 0 0.046060764085650435 0.0071074161014781758 0 0.046037848204874492 0.0069600112564350202 0 0.045555161443125471 0.0066648599721622287 0 0.04625231195330242 0.0070394504144719837 0 0.046060764085650435 0.0071074161014781758 0 0.046037848204874492 0.0069600112564350202 0 0.039350298893234763 0.0080274550004144837 0 0.039298257260895739 0.0080374627567930991 0 0.047039972456305805 0.0073915021684451956 0 0.045771695708440613 0.0071639316731680839 0 0.04627975069983687 0.0068902083748379368 0 0.040183630982617242 0.0049965422477327029 0 0.041338543051341881 0.0066589844201125781 0 0.045771695708440613 0.0071639316731680839 0 0.040183630982617242 0.0049965422477327029 0 0.04625231195330242 0.0070394504144719837 0 0.045771695708440613 0.0071639316731680839 0 0.038257673428788712 0.0049438294086656719 0 0.040183630982617242 0.0049965422477327029 0 0.03602121594039253 0.0030305371153455073 0 0.040183630982617242 0.0049965422477327029 0 0.04625231195330242 0.0070394504144719837 0 0.046810735646058789 0.0068915647841577311 0 0.042359660241446682 0.0010519950750330414 0 0.043512097618571256 0.0017994598433031955 0 0.03969464653843293 0.0073214571414224544 0 0.039298257260895739 0.0080374627567930991 0 0.038257673428788712 0.0049438294086656719 0 0.03602121594039253 0.0030305371153455073 0 0.036534733844733068 0.0044946406512482821 0 0.04625231195330242 0.0070394504144719837 0 0.046037848204874492 0.0069600112564350202 0 0.045771695708440613 0.0071639316731680839 0 0.046037848204874492 0.0069600112564350202 0 0.045771695708440613 0.0071639316731680839 0 0.04627975069983687 0.0068902083748379368 0 0.047039972456305805 0.0073915021684451956 0 0.04627975069983687 0.0068902083748379368 0 0.046734107287882125 0.0065500983436798344 0 0.047506276310924821 0.0061132970847186463 0 0.046734107287882125 0.0065500983436798344 0 0.04647557608403137 0.0058166599444606365 0 0.04627975069983687 0.0068902083748379368 0 0.046734107287882125 0.0065500983436798344 0 0.046194078921475437 0.0065772237399994325 0 0.046037848204874492 0.0069600112564350202 0 0.04627975069983687 0.0068902083748379368 0 0.046194078921475437 0.0065772237399994325 0 0.046194078921475437 0.0065772237399994325 0 0.045976689282483718 0.0062465364068976697 0 0.04647557608403137 0.0058166599444606365 0 0.046734107287882125 0.0065500983436798344 0 0.046194078921475437 0.0065772237399994325 0 0.04647557608403137 0.0058166599444606365 0 0.045090618403122229 0.006922319593142167 0 0.046060764085650435 0.0071074161014781758 0 0.045555161443125471 0.0066648599721622287 0 0.045555161443125471 0.0066648599721622287 0 0.045976689282483718 0.0062465364068976697 0 0.045640872940175735 0.0058523001847072889 0 0.046037848204874492 0.0069600112564350202 0 0.046194078921475437 0.0065772237399994325 0 0.045555161443125471 0.0066648599721622287 0 0.046194078921475437 0.0065772237399994325 0 0.045555161443125471 0.0066648599721622287 0 0.045976689282483718 0.0062465364068976697 0 0.045976689282483718 0.0062465364068976697 0 0.045640872940175735 0.0058523001847072889 0 0.04647557608403137 0.0058166599444606365 0 0.045640872940175735 0.0058523001847072889 0 0.04647557608403137 0.0058166599444606365 0 0.045908599176553808 0.0046889701638452028 0 0.047300157766697805 0.0047251018356189401 0 0.04647557608403137 0.0058166599444606365 0 0.045908599176553808 0.0046889701638452028 0 0.045908599176553808 0.0046889701638452028 0 0.044755320087321374 0.0050807574494190462 0 0.044287722424681562 0.0035734032911406959 0 0.045640872940175735 0.0058523001847072889 0 0.045908599176553808 0.0046889701638452028 0 0.044755320087321374 0.0050807574494190462 0 0.045555161443125471 0.0066648599721622287 0 0.045640872940175735 0.0058523001847072889 0 0.044957187500239131 0.0062525608939420201 0 0.045640872940175735 0.0058523001847072889 0 0.044755320087321374 0.0050807574494190462 0 0.044957187500239131 0.0062525608939420201 0 0.043362990406222601 0.0074667780306522198 0 0.043723191786199059 0.0057446433161541634 0 0.042684370281343947 0.006416948506865471 0 0.044755320087321374 0.0050807574494190462 0 0.044957187500239131 0.0062525608939420201 0 0.043723191786199059 0.0057446433161541634 0 0.043362990406222601 0.0074667780306522198 0 0.044957187500239131 0.0062525608939420201 0 0.043723191786199059 0.0057446433161541634 0 0.043822532418737271 0.0047417844285728783 0 0.042430529461320275 0.0046519648225973684 0 0.044287722424681562 0.0035734032911406959 0 0.044755320087321374 0.0050807574494190462 0 0.043822532418737271 0.0047417844285728783 0 0.044287722424681562 0.0035734032911406959 0 0.043723191786199059 0.0057446433161541634 0 0.043822532418737271 0.0047417844285728783 0 0.042430529461320275 0.0046519648225973684 0 0.044755320087321374 0.0050807574494190462 0 0.043723191786199059 0.0057446433161541634 0 0.043822532418737271 0.0047417844285728783 0 0.044544079072653758 0.0045133448771321263 0 0.043542109092012657 0.0043649920396119733 0 0.043378255117456355 0.0049023752827366844 0 0.044544079072653758 0.0045133448771321263 0 0.043542109092012657 0.0043649920396119733 0 0.044056518058086469 0.0040018264092810795 0 0.044544079072653758 0.0045133448771321263 0 0.043378255117456355 0.0049023752827366844 0 0.043497847899019691 0.0055671985022956189 0 0.040125418445171819 0.0076314663738447077 0 0.041686455473584731 0.0062616726682490067 0 0.040212550679178637 0.0091028951948040077 0 0.043003881910962334 0.0049279892292039889 0 0.040672699050268248 0.0068798251467445462 0 0.042430529461320275 0.0046519648225973684 0 0.039562754971972418 0.006770648806443515 0 0.040377881726761052 0.0066487685632619226 0 0.039242811493873306 0.0069182770418396086 0 0.040125418445171819 0.0076314663738447077 0 0.039088141918770337 0.0086774521568917205 0 0.039242811493873306 0.0069182770418396086 0 0.040125418445171819 0.0076314663738447077 0 0.040377881726761052 0.0066487685632619226 0 0.040672699050268248 0.0068798251467445462 0 0.040646002308826264 0.0068815852956334829 0 0.040125418445171819 0.0076314663738447077 0 0.040377881726761052 0.0066487685632619226 0 0.041686455473584731 0.0062616726682490067 0 0.042684370281343947 0.006416948506865471 0 0.041686455473584731 0.0062616726682490067 0 0.04205277865089338 0.0071550181780954195 0 0.042430529461320275 0.0046519648225973684 0 0.040377881726761052 0.0066487685632619226 0 0.041686455473584731 0.0062616726682490067 0 0.043723191786199059 0.0057446433161541634 0 0.042430529461320275 0.0046519648225973684 0 0.042684370281343947 0.006416948506865471 0 0.042430529461320275 0.0046519648225973684 0 0.042684370281343947 0.006416948506865471 0 0.041686455473584731 0.0062616726682490067 0 0.040811801854606665 0.0079026459672109795 0 0.038292742398857028 0.0090710409296052268 0 0.03902764503293478 0.0077070558886999062 0 0.03974271773333584 0.0070278612368563417 0 0.040811801854606665 0.0079026459672109795 0 0.040432859250965639 0.0059789422233339964 0 0.03974271773333584 0.0070278612368563417 0 0.03902764503293478 0.0077070558886999062 0 0.03864086946729272 0.0065136583515209151 0 0.03974271773333584 0.0070278612368563417 0 0.040811801854606665 0.0079026459672109795 0 0.03902764503293478 0.0077070558886999062 0 0.043542109092012657 0.0043649920396119733 0 0.042342824903811499 0.0047568218365785864 0 0.04334163668517825 0.0035154757015741387 0 0.043542109092012657 0.0043649920396119733 0 0.043378255117456355 0.0049023752827366844 0 0.042342824903811499 0.0047568218365785864 0 0.043378255117456355 0.0049023752827366844 0 0.042342824903811499 0.0047568218365785864 0 0.042913165993188486 0.0052975171683593419 0 0.043497847899019691 0.0055671985022956189 0 0.042913165993188486 0.0052975171683593419 0 0.042428834586680952 0.0058294411915503063 0 0.038577937803701036 0.0079204325055617988 0 0.036462473254955705 0.0084445837136381055 0 0.037269203277472546 0.0091573576673652617 0 0.042342824903811499 0.0047568218365785864 0 0.042913165993188486 0.0052975171683593419 0 0.042428834586680952 0.0058294411915503063 0 0.040672699050268248 0.0068798251467445462 0 0.039356881168641646 0.0075796996172462728 0 0.043378255117456355 0.0049023752827366844 0 0.043497847899019691 0.0055671985022956189 0 0.042913165993188486 0.0052975171683593419 0 0.040672699050268248 0.0068798251467445462 0 0.039868195303803977 0.0075427321427576789 0 0.040794780041952278 0.0062157604117985057 0 0.037741302066380183 0.0084696731694917787 0 0.042342824903811499 0.0047568218365785864 0 0.042428834586680952 0.0058294411915503063 0 0.041327870988067998 0.0060810842990100672 0 0.040811801854606665 0.0079026459672109795 0 0.038425302012397473 0.011004852636838128 0 0.038292742398857028 0.0090710409296052268 0 0.039356881168641646 0.0075796996172462728 0 0.037741302066380183 0.0084696731694917787 0 0.036462473254955705 0.0084445837136381055 0 0.035152706910306079 0.00953013959537829 0 0.03423132400244934 0.0093178390324462242 0 0.034772904840764909 0.0103106453074726 0 0.035152706910306079 0.00953013959537829 0 0.035842677364938999 0.0096004267576104991 0 0.034772904840764909 0.0103106453074726 0 0.035842677364938999 0.0096004267576104991 0 0.035521591859921681 0.010554435001972161 0 0.034772904840764909 0.0103106453074726 0 0.035152706910306079 0.00953013959537829 0 0.034464455110916364 0.0099346964054541128 0 0.036462473254955705 0.0084445837136381055 0 0.035152706910306079 0.00953013959537829 0 0.035842677364938999 0.0096004267576104991 0 0.035842677364938999 0.0096004267576104991 0 0.035521591859921681 0.010554435001972161 0 0.036395751985298389 0.01018142426213604 0 0.035842677364938999 0.0096004267576104991 0 0.036395751985298389 0.01018142426213604 0 0.037269203277472546 0.0091573576673652617 0 0.036395751985298389 0.01018142426213604 0 0.037269203277472546 0.0091573576673652617 0 0.037253962756732067 0.010586486201764988 0 0.036462473254955705 0.0084445837136381055 0 0.035842677364938999 0.0096004267576104991 0 0.037269203277472546 0.0091573576673652617 0 0.039242811493873306 0.0069182770418396086 0 0.037269203277472546 0.0091573576673652617 0 0.039088141918770337 0.0086774521568917205 0 0.037269203277472546 0.0091573576673652617 0 0.038739534573802602 0.010117735432442251 0 0.039088141918770337 0.0086774521568917205 0 0.037269203277472546 0.0091573576673652617 0 0.038739534573802602 0.010117735432442251 0 0.037253962756732067 0.010586486201764988 0 0.038739534573802602 0.010117735432442251 0 0.037745630229638748 0.012029428612303272 0 0.037253962756732067 0.010586486201764988 0 0.037745630229638748 0.012029428612303272 0 0.037253962756732067 0.010586486201764988 0 0.036302512983121635 0.01139784764412822 0 0.036395751985298389 0.01018142426213604 0 0.037253962756732067 0.010586486201764988 0 0.036302512983121635 0.01139784764412822 0 0.036302512983121635 0.01139784764412822 0 0.034412437506102692 0.012807439740554091 0 0.034511334788560444 0.011879442569143042 0 0.037745630229638748 0.012029428612303272 0 0.036302512983121635 0.01139784764412822 0 0.034412437506102692 0.012807439740554091 0 0.035521591859921681 0.010554435001972161 0 0.036395751985298389 0.01018142426213604 0 0.036302512983121635 0.01139784764412822 0 0.035521591859921681 0.010554435001972161 0 0.036302512983121635 0.01139784764412822 0 0.03535376711317853 0.011251986908813523 0 0.036302512983121635 0.01139784764412822 0 0.03535376711317853 0.011251986908813523 0 0.034511334788560444 0.011879442569143042 0 0.03535376711317853 0.011251986908813523 0 0.034606955014049784 0.011220835795611374 0 0.034511334788560444 0.011879442569143042 0 0.035521591859921681 0.010554435001972161 0 0.03535376711317853 0.011251986908813523 0 0.034606955014049784 0.011220835795611374 0 0.034772904840764909 0.0103106453074726 0 0.035521591859921681 0.010554435001972161 0 0.034606955014049784 0.011220835795611374 0 0.038862415214889923 0.008507868751146716 0 0.038335026538668 0.0095465561672363614 0 0.041686455473584731 0.0062616726682490067 0 0.042178187096688372 0.008078080787483637 0 0.04205277865089338 0.0071550181780954195 0 0.03805206833530992 0.009009636570679963 0 0.038045869029819483 0.0090495776148447355 0 0.03801391639269143 0.0090294721526173825 0 0.040785231366566525 0.0081383937562221533 0 0.038335026538668 0.0095465561672363614 0 0.040785231366566525 0.0081383937562221533 0 0.041118447297033789 0.0081495307988659563 0 0.043161994942656802 0.0075619053971621181 0 0.042178187096688372 0.008078080787483637 0 0.04205277865089338 0.0071550181780954195 0 0.043362990406222601 0.0074667780306522198 0 0.042684370281343947 0.006416948506865471 0 0.04205277865089338 0.0071550181780954195 0 0.041686455473584731 0.0062616726682490067 0 0.042274411046806515 0.010135859291979498 0 0.040212550679178637 0.0091028951948040077 0 0.038739534573802602 0.010117735432442251 0 0.042274411046806515 0.010135859291979498 0 0.040212550679178637 0.0091028951948040077 0 0.038739534573802602 0.010117735432442251 0 0.040212550679178637 0.0091028951948040077 0 0.039088141918770337 0.0086774521568917205 0 0.040125418445171819 0.0076314663738447077 0 0.040212550679178637 0.0091028951948040077 0 0.039088141918770337 0.0086774521568917205 0 0.038739534573802602 0.010117735432442251 0 0.037745630229638748 0.012029428612303272 0 0.042274411046806515 0.010135859291979498 0 0.036901892884866706 0.011113674849130189 0 0.038335026538668 0.0095465561672363614 0 0.036157024626941536 0.011958990969477232 0 0.037787586396990903 0.011141246621317664 0 0.037148898635318263 0.01190184866373247 0 0.037148898635318263 0.01190184866373247 0 0.03692396580612655 0.012251297537415017 0 0.038009028057387137 0.012389190756618108 0 0.036157024626941536 0.011958990969477232 0 0.037148898635318263 0.01190184866373247 0 0.03692396580612655 0.012251297537415017 0 0.038335026538668 0.0095465561672363614 0 0.035076883138477427 0.011137907816174989 0 0.038045869029819483 0.0090495776148447355 0 0.03801391639269143 0.0090294721526173825 0 0.038019154469613757 0.0090903764601790553 0 0.037787586396990903 0.011141246621317664 0 0.037148898635318263 0.01190184866373247 0 0.038009028057387137 0.012389190756618108 0 0.030313639038414195 0.012538412008374007 0 0.030327062447487969 0.012542563185525669 0 0.03032994400078888 0.012527501434477542 0 0.030427973618486221 0.013233365404329372 0 0.030357320048987103 0.012876972527741674 0 0.030683817517494157 0.013000806899010287 0 0.035076883138477427 0.011137907816174989 0 0.033948292784052238 0.011727321067851458 0 0.033948292784052238 0.011727321067851458 0 0.03358829821891253 0.01185026941908059 0 0.030357320048987103 0.012876972527741674 0 0.030553273347045745 0.012586928943529696 0 0.030316254610004211 0.012453468409496325 0 0.030357320048987103 0.012876972527741674 0 0.030595244206678123 0.012797482915334219 0 0.030553273347045745 0.012586928943529696 0 0.030357320048987103 0.012876972527741674 0 0.030595244206678123 0.012797482915334219 0 0.030683817517494157 0.013000806899010287 0 0.03077848023156942 0.01272528469672359 0 0.030928392995818722 0.012866967653117036 0 0.030979493724378634 0.01263250854907782 0 0.030595244206678123 0.012797482915334219 0 0.030553273347045745 0.012586928943529696 0 0.03077848023156942 0.01272528469672359 0 0.030595244206678123 0.012797482915334219 0 0.03077848023156942 0.01272528469672359 0 0.030683817517494157 0.013000806899010287 0 0.03077848023156942 0.01272528469672359 0 0.030928392995818722 0.012866967653117036 0 0.030683817517494157 0.013000806899010287 0 0.035076883138477427 0.011137907816174989 0 0.033765022749330777 0.012210668955029411 0 0.030928392995818722 0.012866967653117036 0 0.030683817517494157 0.013000806899010287 0 0.03098337030888253 0.013148421070766138 0 0.030427973618486221 0.013233365404329372 0 0.030683817517494157 0.013000806899010287 0 0.03098337030888253 0.013148421070766138 0 0.03692396580612655 0.012251297537415017 0 0.038009028057387137 0.012389190756618108 0 0.036377312202291984 0.01274960961951367 0 0.036157024626941536 0.011958990969477232 0 0.03692396580612655 0.012251297537415017 0 0.036377312202291984 0.01274960961951367 0 0.033765022749330777 0.012210668955029411 0 0.033198834120160052 0.012655937918654126 0 0.036157024626941536 0.011958990969477232 0 0.036377312202291984 0.01274960961951367 0 0.035407595264702982 0.012669608884359177 0 0.036377312202291984 0.01274960961951367 0 0.035407595264702982 0.012669608884359177 0 0.034667682070450664 0.013159464471938184 0 0.036157024626941536 0.011958990969477232 0 0.035407595264702982 0.012669608884359177 0 0.034412437506102692 0.012807439740554091 0 0.03098337030888253 0.013148421070766138 0 0.031627045016005363 0.013140570583196979 0 0.031408281183077674 0.012963226356065245 0 0.036901892884866706 0.011113674849130189 0 0.035716481515516221 0.011878577535760378 0 0.035407595264702982 0.012669608884359177 0 0.034667682070450664 0.013159464471938184 0 0.034412437506102692 0.012807439740554091 0 0.031521714691130569 0.012744551100111232 0 0.031196621686380214 0.012812401631380125 0 0.031122705147892074 0.012373842804167751 0 0.031408281183077674 0.012963226356065245 0 0.031521714691130569 0.012744551100111232 0 0.031792434851644201 0.012941625537352744 0 0.031627045016005363 0.013140570583196979 0 0.031408281183077674 0.012963226356065245 0 0.031792434851644201 0.012941625537352744 0 0.031408281183077674 0.012963226356065245 0 0.031521714691130569 0.012744551100111232 0 0.031196621686380214 0.012812401631380125 0 0.03098337030888253 0.013148421070766138 0 0.031408281183077674 0.012963226356065245 0 0.031196621686380214 0.012812401631380125 0 0.030928392995818722 0.012866967653117036 0 0.03098337030888253 0.013148421070766138 0 0.031196621686380214 0.012812401631380125 0 0.030928392995818722 0.012866967653117036 0 0.031196621686380214 0.012812401631380125 0 0.030979493724378634 0.01263250854907782 0 0.030979493724378634 0.01263250854907782 0 0.031122705147892074 0.012373842804167751 0 0.030781966740399711 0.012352320334102183 0 0.031196621686380214 0.012812401631380125 0 0.030979493724378634 0.01263250854907782 0 0.031122705147892074 0.012373842804167751 0 0.031122705147892074 0.012373842804167751 0 0.030902671540296269 0.012006695478480029 0 0.030781966740399711 0.012352320334102183 0 0.031521714691130569 0.012744551100111232 0 0.031122705147892074 0.012373842804167751 0 0.031480435069534067 0.01229846688817195 0 0.031159052526924452 0.011955511566213156 0 0.031122705147892074 0.012373842804167751 0 0.031480435069534067 0.01229846688817195 0 0.031159052526924452 0.011955511566213156 0 0.031480435069534067 0.01229846688817195 0 0.031460224721498231 0.011997576517101262 0 0.031159052526924452 0.011955511566213156 0 0.031122705147892074 0.012373842804167751 0 0.030902671540296269 0.012006695478480029 0 0.030604359945751326 0.011633437000809059 0 0.030902671540296269 0.012006695478480029 0 0.030781966740399711 0.012352320334102183 0 0.030604359945751326 0.011633437000809059 0 0.031137185230350119 0.011265430963162699 0 0.030653596162785811 0.010275408379886801 0 0.030604359945751326 0.011633437000809059 0 0.030264794017990437 0.012320802710657197 0 0.030493721318207608 0.012301640158224087 0 0.030604359945751326 0.011633437000809059 0 0.030493721318207608 0.012301640158224087 0 0.030781966740399711 0.012352320334102183 0 0.031180551440261935 0.01148517645707111 0 0.031516069322285178 0.011228631942381863 0 0.030264794017990437 0.012320802710657197 0 0.030493721318207608 0.012301640158224087 0 0.030316254610004211 0.012453468409496325 0 0.030553273347045745 0.012586928943529696 0 0.030493721318207608 0.012301640158224087 0 0.030316254610004211 0.012453468409496325 0 0.030553273347045745 0.012586928943529696 0 0.030493721318207608 0.012301640158224087 0 0.030781966740399711 0.012352320334102183 0 0.030553273347045745 0.012586928943529696 0 0.03077848023156942 0.01272528469672359 0 0.030781966740399711 0.012352320334102183 0 0.03077848023156942 0.01272528469672359 0 0.030979493724378634 0.01263250854907782 0 0.030781966740399711 0.012352320334102183 0 0.031711608558603624 0.01315237562723775 0 0.032048670520163962 0.013009528995235361 0 0.031920716303816966 0.012885978369841638 0 0.031711608558603624 0.01315237562723775 0 0.031920716303816966 0.012885978369841638 0 0.031412673716460046 0.012961663724364159 0 0.031711608558603624 0.01315237562723775 0 0.031800099990720344 0.013320169514199443 0 0.032048670520163962 0.013009528995235361 0 0.031711608558603624 0.01315237562723775 0 0.03142226889853944 0.013265369149055869 0 0.031412673716460046 0.012961663724364159 0 0.031024431386874541 0.013205567164514872 0 0.03142226889853944 0.013265369149055869 0 0.031412673716460046 0.012961663724364159 0 0.031711608558603624 0.01315237562723775 0 0.03142226889853944 0.013265369149055869 0 0.03156691721883545 0.013381601749356134 0 0.031024431386874541 0.013205567164514872 0 0.031406774640099201 0.013524690498099155 0 0.03142226889853944 0.013265369149055869 0 0.031406774640099201 0.013524690498099155 0 0.03142226889853944 0.013265369149055869 0 0.03156691721883545 0.013381601749356134 0 0.031525353718568211 0.013553786239252545 0 0.03156691721883545 0.013381601749356134 0 0.031800099990720344 0.013320169514199443 0 0.031711608558603624 0.01315237562723775 0 0.03156691721883545 0.013381601749356134 0 0.031800099990720344 0.013320169514199443 0 0.031800099990720344 0.013320169514199443 0 0.032104093717663366 0.013186151826031844 0 0.032048670520163962 0.013009528995235361 0 0.023603941872191989 0.011951071545589959 0 0.027095191888174726 0.011984474199306167 0 0.031947726929222924 0.013610735248978765 0 0.031800099990720344 0.013320169514199443 0 0.032104093717663366 0.013186151826031844 0 0.031578411532608285 0.01185525886724037 0 0.031759115141555626 0.012195983848095523 0 0.031460224721498231 0.011997576517101262 0 0.031480435069534067 0.01229846688817195 0 0.031759115141555626 0.012195983848095523 0 0.031460224721498231 0.011997576517101262 0 0.027095191888174726 0.011984474199306167 0 0.028075912883207703 0.012115211170095534 0 0.031521714691130569 0.012744551100111232 0 0.031480435069534067 0.01229846688817195 0 0.031993892179548102 0.012818074897534585 0 0.031480435069534067 0.01229846688817195 0 0.031759115141555626 0.012195983848095523 0 0.031993892179548102 0.012818074897534585 0 0.032104093717663366 0.013186151826031844 0 0.032048670520163962 0.013009528995235361 0 0.031993892179548102 0.012818074897534585 0 0.032048670520163962 0.013009528995235361 0 0.032403652846291507 0.012961234608320795 0 0.031920716303816966 0.012885978369841638 0 0.032048670520163962 0.013009528995235361 0 0.032403652846291507 0.012961234608320795 0 0.031993892179548102 0.012818074897534585 0 0.032403652846291507 0.012961234608320795 0 0.031993892179548102 0.012818074897534585 0 0.031792434851644201 0.012941625537352744 0 0.031627045016005363 0.013140570583196979 0 0.032403652846291507 0.012961234608320795 0 0.031792434851644201 0.012941625537352744 0 0.031521714691130569 0.012744551100111232 0 0.031993892179548102 0.012818074897534585 0 0.031792434851644201 0.012941625537352744 0 0.034667682070450664 0.013159464471938184 0 0.032403652846291507 0.012961234608320795 0 0.033680620314074677 0.012672439980073901 0 0.033198834120160052 0.012655937918654126 0 0.032914443257207902 0.012777281959458466 0 0.034667682070450664 0.013159464471938184 0 0.034412437506102692 0.012807439740554091 0 0.033680620314074677 0.012672439980073901 0 0.033680620314074677 0.012672439980073901 0 0.033861696132639715 0.012247710508479242 0 0.033106117435470941 0.012196441762586639 0 0.034412437506102692 0.012807439740554091 0 0.033680620314074677 0.012672439980073901 0 0.033861696132639715 0.012247710508479242 0 0.034412437506102692 0.012807439740554091 0 0.033861696132639715 0.012247710508479242 0 0.034511334788560444 0.011879442569143042 0 0.032403652846291507 0.012961234608320795 0 0.033106117435470941 0.012196441762586639 0 0.032394491096932772 0.012037561802146907 0 0.032403652846291507 0.012961234608320795 0 0.032394491096932772 0.012037561802146907 0 0.032048513426699787 0.012504768590812567 0 0.032403652846291507 0.012961234608320795 0 0.033680620314074677 0.012672439980073901 0 0.033106117435470941 0.012196441762586639 0 0.032394491096932772 0.012037561802146907 0 0.032048513426699787 0.012504768590812567 0 0.031941931211191807 0.012027595803346728 0 0.032048513426699787 0.012504768590812567 0 0.031595624097876231 0.01258711497195469 0 0.031941931211191807 0.012027595803346728 0 0.032403652846291507 0.012961234608320795 0 0.032048513426699787 0.012504768590812567 0 0.031920716303816966 0.012885978369841638 0 0.032048513426699787 0.012504768590812567 0 0.031920716303816966 0.012885978369841638 0 0.031595624097876231 0.01258711497195469 0 0.031920716303816966 0.012885978369841638 0 0.031412673716460046 0.012961663724364159 0 0.031595624097876231 0.01258711497195469 0 0.031412673716460046 0.012961663724364159 0 0.031224401767491583 0.012627824119236217 0 0.031595624097876231 0.01258711497195469 0 0.031020698508685704 0.012810049354161177 0 0.031412673716460046 0.012961663724364159 0 0.031224401767491583 0.012627824119236217 0 0.031224401767491583 0.012627824119236217 0 0.031595624097876231 0.01258711497195469 0 0.031286233159711428 0.01230015687198821 0 0.031286233159711428 0.01230015687198821 0 0.031458044262957154 0.011898761965993198 0 0.031941931211191807 0.012027595803346728 0 0.031595624097876231 0.01258711497195469 0 0.031286233159711428 0.01230015687198821 0 0.031941931211191807 0.012027595803346728 0 0.031458044262957154 0.011898761965993198 0 0.031941931211191807 0.012027595803346728 0 0.032360662774948937 0.011290321091260236 0 0.031458044262957154 0.011898761965993198 0 0.032360662774948937 0.011290321091260236 0 0.031386249834598638 0.011260263264899963 0 0.032394491096932772 0.012037561802146907 0 0.032360662774948937 0.011290321091260236 0 0.032852985419704335 0.01137435676688155 0 0.032394491096932772 0.012037561802146907 0 0.031941931211191807 0.012027595803346728 0 0.032360662774948937 0.011290321091260236 0 0.034341208768414747 0.0099522174727471966 0 0.035276549305434453 0.0095797260198335083 0 0.032360662774948937 0.011290321091260236 0 0.03546188057632995 0.011448295347916188 0 0.034155397154569007 0.0099523769730129573 0 0.032360662774948937 0.011290321091260236 0 0.032628357992430503 0.0099600027050303717 0 0.034155397154569007 0.0099523769730129573 0 0.032360662774948937 0.011290321091260236 0 0.031698252069581247 0.010391300810610187 0 0.032628357992430503 0.0099600027050303717 0 0.031698252069581247 0.010391300810610187 0 0.031143015186152832 0.010659061595682001 0 0.031386249834598638 0.011260263264899963 0 0.030960194087726007 0.010065139456147093 0 0.031698252069581247 0.010391300810610187 0 0.031143015186152832 0.010659061595682001 0 0.032360662774948937 0.011290321091260236 0 0.031698252069581247 0.010391300810610187 0 0.031386249834598638 0.011260263264899963 0 0.034772904840764909 0.0103106453074726 0 0.034059638151693945 0.010889060382828017 0 0.034606955014049784 0.011220835795611374 0 0.034059638151693945 0.010889060382828017 0 0.034606955014049784 0.011220835795611374 0 0.033641166528454655 0.01155100450522778 0 0.033861696132639715 0.012247710508479242 0 0.034511334788560444 0.011879442569143042 0 0.033641166528454655 0.01155100450522778 0 0.034606955014049784 0.011220835795611374 0 0.034511334788560444 0.011879442569143042 0 0.033641166528454655 0.01155100450522778 0 0.033861696132639715 0.012247710508479242 0 0.033106117435470941 0.012196441762586639 0 0.033641166528454655 0.01155100450522778 0 0.034059638151693945 0.010889060382828017 0 0.033641166528454655 0.01155100450522778 0 0.033546333608339557 0.010847524948137658 0 0.033641166528454655 0.01155100450522778 0 0.032852985419704335 0.01137435676688155 0 0.033546333608339557 0.010847524948137658 0 0.033106117435470941 0.012196441762586639 0 0.033641166528454655 0.01155100450522778 0 0.032852985419704335 0.01137435676688155 0 0.033106117435470941 0.012196441762586639 0 0.032394491096932772 0.012037561802146907 0 0.032852985419704335 0.01137435676688155 0 0.032360662774948937 0.011290321091260236 0 0.032852985419704335 0.01137435676688155 0 0.032882259583074558 0.010603802305447033 0 0.032852985419704335 0.01137435676688155 0 0.032882259583074558 0.010603802305447033 0 0.033546333608339557 0.010847524948137658 0 0.035276549305434453 0.0095797260198335083 0 0.037741302066380183 0.0084696731694917787 0 0.032882259583074558 0.010603802305447033 0 0.033910063220122771 0.010096548699088031 0 0.034133779793954287 0.0096922250086139694 0 0.032882259583074558 0.010603802305447033 0 0.033546333608339557 0.010847524948137658 0 0.033910063220122771 0.010096548699088031 0 0.03546188057632995 0.011448295347916188 0 0.038425302012397473 0.011004852636838128 0 0.037143404069864022 0.010267168351194789 0 0.033546333608339557 0.010847524948137658 0 0.033910063220122771 0.010096548699088031 0 0.034159697862629367 0.010415711686519676 0 0.035152706910306079 0.00953013959537829 0 0.03423132400244934 0.0093178390324462242 0 0.034464455110916364 0.0099346964054541128 0 0.037616116211467307 0.0085886326816905136 0 0.037741302066380183 0.0084696731694917787 0 0.033910063220122771 0.010096548699088031 0 0.03423132400244934 0.0093178390324462242 0 0.034464455110916364 0.0099346964054541128 0 0.034772904840764909 0.0103106453074726 0 0.034464455110916364 0.0099346964054541128 0 0.034159697862629367 0.010415711686519676 0 0.033910063220122771 0.010096548699088031 0 0.034464455110916364 0.0099346964054541128 0 0.034159697862629367 0.010415711686519676 0 0.034059638151693945 0.010889060382828017 0 0.033546333608339557 0.010847524948137658 0 0.034159697862629367 0.010415711686519676 0 0.034772904840764909 0.0103106453074726 0 0.034059638151693945 0.010889060382828017 0 0.034159697862629367 0.010415711686519676 0 0.038425302012397473 0.011004852636838128 0 0.038292742398857028 0.0090710409296052268 0 0.037143404069864022 0.010267168351194789 0 0.038292742398857028 0.0090710409296052268 0 0.037143404069864022 0.010267168351194789 0 0.036395458073514984 0.0095342923035440681 0 0.038292742398857028 0.0090710409296052268 0 0.036395458073514984 0.0095342923035440681 0 0.037316181387919492 0.0081028513720562394 0 0.036395458073514984 0.0095342923035440681 0 0.035178839640141492 0.0084090573992240993 0 0.037316181387919492 0.0081028513720562394 0 0.03546188057632995 0.011448295347916188 0 0.037143404069864022 0.010267168351194789 0 0.036395458073514984 0.0095342923035440681 0 0.03546188057632995 0.011448295347916188 0 0.036395458073514984 0.0095342923035440681 0 0.034155397154569007 0.0099523769730129573 0 0.036395458073514984 0.0095342923035440681 0 0.035178839640141492 0.0084090573992240993 0 0.034155397154569007 0.0099523769730129573 0 0.035178839640141492 0.0084090573992240993 0 0.036676570424585733 0.006834652641631969 0 0.0342659075655267 0.0063290360570379183 0 0.035178839640141492 0.0084090573992240993 0 0.036676570424585733 0.006834652641631969 0 0.037316181387919492 0.0081028513720562394 0 0.036676570424585733 0.006834652641631969 0 0.037316181387919492 0.0081028513720562394 0 0.03864086946729272 0.0065136583515209151 0 0.037316181387919492 0.0081028513720562394 0 0.03902764503293478 0.0077070558886999062 0 0.03864086946729272 0.0065136583515209151 0 0.038292742398857028 0.0090710409296052268 0 0.037316181387919492 0.0081028513720562394 0 0.03902764503293478 0.0077070558886999062 0 0.03199180851608683 0.0093146415932670885 0 0.031270721808848823 0.0092428887435858486 0 0.03214563153734968 0.0079456937114883181 0 0.03199180851608683 0.0093146415932670885 0 0.033039017568471329 0.0086989365953024176 0 0.03214563153734968 0.0079456937114883181 0 0.03199180851608683 0.0093146415932670885 0 0.031270721808848823 0.0092428887435858486 0 0.031457818321489445 0.0097530765771947272 0 0.030960194087726007 0.010065139456147093 0 0.031270721808848823 0.0092428887435858486 0 0.031457818321489445 0.0097530765771947272 0 0.030960194087726007 0.010065139456147093 0 0.031698252069581247 0.010391300810610187 0 0.031457818321489445 0.0097530765771947272 0 0.031698252069581247 0.010391300810610187 0 0.03199180851608683 0.0093146415932670885 0 0.031457818321489445 0.0097530765771947272 0 0.031698252069581247 0.010391300810610187 0 0.03199180851608683 0.0093146415932670885 0 0.032628357992430503 0.0099600027050303717 0 0.032628357992430503 0.0099600027050303717 0 0.034155397154569007 0.0099523769730129573 0 0.033039017568471329 0.0086989365953024176 0 0.035178839640141492 0.0084090573992240993 0 0.034155397154569007 0.0099523769730129573 0 0.033039017568471329 0.0086989365953024176 0 0.03199180851608683 0.0093146415932670885 0 0.032628357992430503 0.0099600027050303717 0 0.033039017568471329 0.0086989365953024176 0 0.03320641368653942 0.010382096885764556 0 0.0326920041108286 0.011838169217244478 0 0.024091789467796658 0.028617270042368876 0 0.024345427479803568 0.025236684798011135 0 0.028227280009828836 0.026487183713714373 0 0.035178839640141492 0.0084090573992240993 0 0.033039017568471329 0.0086989365953024176 0 0.0342659075655267 0.0063290360570379183 0 0.027296807484735876 0.015204122545283524 0 0.0326920041108286 0.011838169217244478 0 0.033039017568471329 0.0086989365953024176 0 0.03214563153734968 0.0079456937114883181 0 0.033742881859907037 0.0071019226078590245 0 0.0203102650659539 0.028290202826684964 0 0.024091789467796658 0.028617270042368876 0 0.021023732910672086 0.026395306966923118 0 0.0203102650659539 0.028290202826684964 0 0.020729780719862305 0.029717930508162477 0 0.024091789467796658 0.028617270042368876 0 0.022297288510717751 0.01728874558309515 0 0.027296807484735876 0.015204122545283524 0 0.020037720406882949 0.030559812817704039 0 0.020729780719862305 0.029717930508162477 0 0.024091789467796658 0.028617270042368876 0 0.024091789467796658 0.028617270042368876 0 0.024345427479803568 0.025236684798011135 0 0.021023732910672086 0.026395306966923118 0 0.030571287158939479 0.0088805117906901477 0 0.031270721808848823 0.0092428887435858486 0 0.03214563153734968 0.0079456937114883181 0 0.024345427479803568 0.025236684798011135 0 0.021023732910672086 0.026395306966923118 0 0.018723918676989644 0.023855309707414629 0 0.024345427479803568 0.025236684798011135 0 0.024796053776765817 0.02180773195547266 0 0.018723918676989644 0.023855309707414629 0 0.028227280009828836 0.026487183713714373 0 0.027120812681144253 0.022881967577065312 0 0.030619916379510559 0.021209908047044111 0 0.024345427479803568 0.025236684798011135 0 0.028227280009828836 0.026487183713714373 0 0.027120812681144253 0.022881967577065312 0 0.024345427479803568 0.025236684798011135 0 0.027120812681144253 0.022881967577065312 0 0.024796053776765817 0.02180773195547266 0 0.027120812681144253 0.022881967577065312 0 0.027581390096393203 0.019710776185196011 0 0.024796053776765817 0.02180773195547266 0 0.027120812681144253 0.022881967577065312 0 0.027581390096393203 0.019710776185196011 0 0.030619916379510559 0.021209908047044111 0 0.024796053776765817 0.02180773195547266 0 0.022916062193621356 0.018214523454995846 0 0.018723918676989644 0.023855309707414629 0 0.027581390096393203 0.019710776185196011 0 0.024796053776765817 0.02180773195547266 0 0.022916062193621356 0.018214523454995846 0 0.03864086946729272 0.0065136583515209151 0 0.037914815967017436 0.00485209693440883 0 0.040432859250965639 0.0059789422233339964 0 0.036676570424585733 0.006834652641631969 0 0.03864086946729272 0.0065136583515209151 0 0.037914815967017436 0.00485209693440883 0 0.04027436874018514 0.0053445839039317888 0 0.04109005640877645 0.0049170771930942122 0 0.040671295778320987 0.0045381890578892531 0 0.0326920041108286 0.011838169217244478 0 0.034338136456841105 0.011867751012980548 0 0.036676570424585733 0.006834652641631969 0 0.0342659075655267 0.0063290360570379183 0 0.037914815967017436 0.00485209693440883 0 0.0326920041108286 0.011838169217244478 0 0.038699924914946372 0.0071118785068666202 0 0.027581390096393203 0.019710776185196011 0 0.030619916379510559 0.021209908047044111 0 0.029487530286774932 0.017715497895997641 0 0.04109005640877645 0.0049170771930942122 0 0.040671295778320987 0.0045381890578892531 0 0.041054835973741606 0.0046424084219037461 0 0.040671295778320987 0.0045381890578892531 0 0.041054835973741606 0.0046424084219037461 0 0.040688406524995252 0.0044430882669654337 0 0.041054835973741606 0.0046424084219037461 0 0.041418785353397373 0.0043253236401577105 0 0.04149443421102296 0.0046169619907186618 0 0.04109005640877645 0.0049170771930942122 0 0.041054835973741606 0.0046424084219037461 0 0.04149443421102296 0.0046169619907186618 0 0.040688406524995252 0.0044430882669654337 0 0.040655700856846826 0.0049418006393671405 0 0.038909857658515609 0.0061437078994916374 0 0.040688406524995252 0.0044430882669654337 0 0.042061817989597662 0.0022411703021324586 0 0.041859318545561811 0.0035553571034716396 0 0.041418785353397373 0.0043253236401577105 0 0.040688406524995252 0.0044430882669654337 0 0.041859318545561811 0.0035553571034716396 0 0.041054835973741606 0.0046424084219037461 0 0.041418785353397373 0.0043253236401577105 0 0.040688406524995252 0.0044430882669654337 0 0.034338136456841105 0.011867751012980548 0 0.035828179189793141 0.010280500674512435 0 0.040671295778320987 0.0045381890578892531 0 0.040688406524995252 0.0044430882669654337 0 0.040655700856846826 0.0049418006393671405 0 0.030619916379510559 0.021209908047044111 0 0.032875294562896597 0.016152656259951333 0 0.029487530286774932 0.017715497895997641 0 0.032875294562896597 0.016152656259951333 0 0.029487530286774932 0.017715497895997641 0 0.029646195129265682 0.015263658079275585 0 0.029646195129265682 0.015263658079275585 0 0.030602333247307476 0.012591093087574643 0 0.031628627099882546 0.014553831879244245 0 0.029646195129265682 0.015263658079275585 0 0.030602333247307476 0.012591093087574643 0 0.027159458295462093 0.013113772009148138 0 0.030602333247307476 0.012591093087574643 0 0.031628627099882546 0.014553831879244245 0 0.032757824633900617 0.012902473484747235 0 0.032875294562896597 0.016152656259951333 0 0.031628627099882546 0.014553831879244245 0 0.032757824633900617 0.012902473484747235 0 0.032875294562896597 0.016152656259951333 0 0.029646195129265682 0.015263658079275585 0 0.031628627099882546 0.014553831879244245 0 0.040655700856846826 0.0049418006393671405 0 0.03909762688897267 0.006523948949541049 0 0.038909857658515609 0.0061437078994916374 0 0.04074235308705091 0.0045642529931686588 0 0.040931668401019583 0.0043182108810182248 0 0.035828179189793141 0.010280500674512435 0 0.036826045925899956 0.008692247873023938 0 0.032875294562896597 0.016152656259951333 0 0.032757824633900617 0.012902473484747235 0 0.035174292753333419 0.011494693806238078 0 0.022916062193621356 0.018214523454995846 0 0.023685900069803454 0.013965377988501934 0 0.018375196653838657 0.016084609280398812 0 0.022916062193621356 0.018214523454995846 0 0.026643310854900657 0.01627449070662066 0 0.023685900069803454 0.013965377988501934 0 0.027581390096393203 0.019710776185196011 0 0.022916062193621356 0.018214523454995846 0 0.026643310854900657 0.01627449070662066 0 0.027581390096393203 0.019710776185196011 0 0.029487530286774932 0.017715497895997641 0 0.026643310854900657 0.01627449070662066 0 0.029487530286774932 0.017715497895997641 0 0.029646195129265682 0.015263658079275585 0 0.026643310854900657 0.01627449070662066 0 0.027159458295462093 0.013113772009148138 0 0.023685900069803454 0.013965377988501934 0 0.025620012214253765 0.0099501175934637691 0 0.026643310854900657 0.01627449070662066 0 0.027159458295462093 0.013113772009148138 0 0.023685900069803454 0.013965377988501934 0 0.029646195129265682 0.015263658079275585 0 0.026643310854900657 0.01627449070662066 0 0.027159458295462093 0.013113772009148138 0 0.023685900069803454 0.013965377988501934 0 0.025620012214253765 0.0099501175934637691 0 0.021113936912816246 0.010495201069060539 0 0.023155240635358385 0.0072805721081127331 0 0.025620012214253765 0.0099501175934637691 0 0.021113936912816246 0.010495201069060539 0 0.023155240635358385 0.0072805721081127331 0 0.02259882319607413 0.0043099944885667627 0 0.026929759832601857 0.0051948905845190128 0 0.023155240635358385 0.0072805721081127331 0 0.025620012214253765 0.0099501175934637691 0 0.026929759832601857 0.0051948905845190128 0 0.025620012214253765 0.0099501175934637691 0 0.029367543295048017 0.0095547090903883736 0 0.026929759832601857 0.0051948905845190128 0 0.029367543295048017 0.0095547090903883736 0 0.030706458565583711 0.0069391921199984143 0 0.026929759832601857 0.0051948905845190128 0 0.027159458295462093 0.013113772009148138 0 0.025620012214253765 0.0099501175934637691 0 0.029367543295048017 0.0095547090903883736 0 0.030602333247307476 0.012591093087574643 0 0.027159458295462093 0.013113772009148138 0 0.029367543295048017 0.0095547090903883736 0 0.030602333247307476 0.012591093087574643 0 0.032243876279293537 0.010818822742131003 0 0.029367543295048017 0.0095547090903883736 0 0.030602333247307476 0.012591093087574643 0 0.032757824633900617 0.012902473484747235 0 0.032243876279293537 0.010818822742131003 0 0.032243876279293537 0.010818822742131003 0 0.029367543295048017 0.0095547090903883736 0 0.032301751177640226 0.0085714696533810038 0 0.032757824633900617 0.012902473484747235 0 0.032243876279293537 0.010818822742131003 0 0.033510150969963313 0.011251900077935082 0 0.032757824633900617 0.012902473484747235 0 0.035174292753333419 0.011494693806238078 0 0.033510150969963313 0.011251900077935082 0 0.035174292753333419 0.011494693806238078 0 0.033510150969963313 0.011251900077935082 0 0.033852513210748031 0.0097873910103051919 0 0.032243876279293537 0.010818822742131003 0 0.033510150969963313 0.011251900077935082 0 0.033852513210748031 0.0097873910103051919 0 0.032243876279293537 0.010818822742131003 0 0.033852513210748031 0.0097873910103051919 0 0.032301751177640226 0.0085714696533810038 0 0.035174292753333419 0.011494693806238078 0 0.033852513210748031 0.0097873910103051919 0 0.035464517923795881 0.0084757320035186434 0 0.035174292753333419 0.011494693806238078 0 0.035464517923795881 0.0084757320035186434 0 0.037909686073125524 0.0067393991978668549 0 0.035464517923795881 0.0084757320035186434 0 0.034356917613676208 0.0078483405205758191 0 0.035564559139292351 0.0063823283836624469 0 0.033852513210748031 0.0097873910103051919 0 0.034356917613676208 0.0078483405205758191 0 0.032301751177640226 0.0085714696533810038 0 0.034356917613676208 0.0078483405205758191 0 0.033314770269289543 0.0064865236930531861 0 0.032301751177640226 0.0085714696533810038 0 0.033852513210748031 0.0097873910103051919 0 0.035464517923795881 0.0084757320035186434 0 0.034356917613676208 0.0078483405205758191 0 0.034356917613676208 0.0078483405205758191 0 0.033314770269289543 0.0064865236930531861 0 0.035564559139292351 0.0063823283836624469 0 0.033314770269289543 0.0064865236930531861 0 0.035564559139292351 0.0063823283836624469 0 0.035001662824444994 0.0045927536147877691 0 0.035464517923795881 0.0084757320035186434 0 0.035564559139292351 0.0063823283836624469 0 0.037909686073125524 0.0067393991978668549 0 0.030706458565583711 0.0069391921199984143 0 0.031811071070188414 0.0045592711008840062 0 0.026929759832601857 0.0051948905845190128 0 0.029367543295048017 0.0095547090903883736 0 0.032301751177640226 0.0085714696533810038 0 0.030706458565583711 0.0069391921199984143 0 0.033314770269289543 0.0064865236930531861 0 0.032301751177640226 0.0085714696533810038 0 0.030706458565583711 0.0069391921199984143 0 0.033314770269289543 0.0064865236930531861 0 0.030706458565583711 0.0069391921199984143 0 0.031811071070188414 0.0045592711008840062 0 0.029786901813643331 0.0024211299434046454 0 0.031811071070188414 0.0045592711008840062 0 0.034770497082720918 0.0013452634640527814 0 0.029786901813643331 0.0024211299434046454 0 0.031811071070188414 0.0045592711008840062 0 0.026929759832601857 0.0051948905845190128 0 0.031811071070188414 0.0045592711008840062 0 0.035001662824444994 0.0045927536147877691 0 0.034770497082720918 0.0013452634640527814 0 0.035001662824444994 0.0045927536147877691 0 0.034770497082720918 0.0013452634640527814 0 0.038265875730369249 0.003608814690182067 0 0.035564559139292351 0.0063823283836624469 0 0.035001662824444994 0.0045927536147877691 0 0.037231547252624675 0.0054294192360577502 0 0.033314770269289543 0.0064865236930531861 0 0.031811071070188414 0.0045592711008840062 0 0.035001662824444994 0.0045927536147877691 0 0.029786901813643331 0.0024211299434046454 0 0.027392656616287769 0.00011639959902768394 0 0.031185453854741207 -0.0018971630771654924 0 0.029786901813643331 0.0024211299434046454 0 0.034770497082720918 0.0013452634640527814 0 0.031185453854741207 -0.0018971630771654924 0 0.027392656616287769 0.00011639959902768394 0 0.023545405995263329 0.00081256254517528953 0 0.026929759832601857 0.0051948905845190128 0 0.027392656616287769 0.00011639959902768394 0 0.023545405995263329 0.00081256254517528953 0 0.027140436656106545 -0.0040016014184103979 0 0.023545405995263329 0.00081256254517528953 0 0.02259882319607413 0.0043099944885667627 0 0.026929759832601857 0.0051948905845190128 0 0.029786901813643331 0.0024211299434046454 0 0.027392656616287769 0.00011639959902768394 0 0.026929759832601857 0.0051948905845190128 0 0.045790414198636969 0.00014490933749182892 0 0.046293453054972442 -0.00045906558687414589 0 0.045165627192548741 -0.00053600784311349072 0 0.046615867870128766 3.5019579281499699e-05 0 0.047002722251567694 -0.00052062260497969589 0 0.046293453054972442 -0.00045906558687414589 0 0.045790414198636969 0.00014490933749182892 0 0.046615867870128766 3.5019579281499699e-05 0 0.046293453054972442 -0.00045906558687414589 0 0.045790414198636969 0.00014490933749182892 0 0.046615867870128766 3.5019579281499699e-05 0 0.046293002336992982 0.0008491799760351566 0 0.046615867870128766 3.5019579281499699e-05 0 0.047235734241339811 0.00015237706666100818 0 0.046293002336992982 0.0008491799760351566 0 0.046615867870128766 3.5019579281499699e-05 0 0.047235734241339811 0.00015237706666100818 0 0.047474503168037953 -0.00035291777359585741 0 0.047235734241339811 0.00015237706666100818 0 0.047474503168037953 -0.00035291777359585741 0 0.04801627636083057 -0.00036823582818690725 0 0.046615867870128766 3.5019579281499699e-05 0 0.047474503168037953 -0.00035291777359585741 0 0.047002722251567694 -0.00052062260497969589 0 0.047474503168037953 -0.00035291777359585741 0 0.047002722251567694 -0.00052062260497969589 0 0.047655466368492348 -0.00084533894818029042 0 0.047002722251567694 -0.00052062260497969589 0 0.047655466368492348 -0.00084533894818029042 0 0.047060008390953895 -0.00089582025363807633 0 0.047474503168037953 -0.00035291777359585741 0 0.047655466368492348 -0.00084533894818029042 0 0.048010691800033846 -0.00071464316821301692 0 0.047655466368492348 -0.00084533894818029042 0 0.048114783842923427 -0.0011949305787950903 0 0.047636282437237325 -0.0011766958989159713 0 0.047655466368492348 -0.00084533894818029042 0 0.048135210008747056 -0.00096496920335598449 0 0.048114783842923427 -0.0011949305787950903 0 0.047655466368492348 -0.00084533894818029042 0 0.048135210008747056 -0.00096496920335598449 0 0.048010691800033846 -0.00071464316821301692 0 0.047655466368492348 -0.00084533894818029042 0 0.047060008390953895 -0.00089582025363807633 0 0.047636282437237325 -0.0011766958989159713 0 0.0465073766952072 -0.0010171595137765429 0 0.046293453054972442 -0.00045906558687414589 0 0.045165627192548741 -0.00053600784311349072 0 0.047060008390953895 -0.00089582025363807633 0 0.0465073766952072 -0.0010171595137765429 0 0.047207884057148507 -0.0014510371747968203 0 0.0465073766952072 -0.0010171595137765429 0 0.045165627192548741 -0.00053600784311349072 0 0.04620213637794568 -0.002035462989185857 0 0.047060008390953895 -0.00089582025363807633 0 0.0465073766952072 -0.0010171595137765429 0 0.046293453054972442 -0.00045906558687414589 0 0.047002722251567694 -0.00052062260497969589 0 0.047060008390953895 -0.00089582025363807633 0 0.046293453054972442 -0.00045906558687414589 0 0.041893436557373528 0.0027367482057574473 0 0.039428473730040978 0.00064236317248310317 0 0.042049931789120185 -0.0010822444492972522 0 0.043343329757399462 0.00089147390587506446 0 0.04440840203017591 -0.00079839106459371088 0 0.041893436557373528 0.0027367482057574473 0 0.039428473730040978 0.00064236317248310317 0 0.038265875730369249 0.003608814690182067 0 0.034770497082720918 0.0013452634640527814 0 0.039428473730040978 0.00064236317248310317 0 0.038221744954166234 -0.0020135855670425371 0 0.034770497082720918 0.0013452634640527814 0 0.039428473730040978 0.00064236317248310317 0 0.038265875730369249 0.003608814690182067 0 0.041893436557373528 0.0027367482057574473 0 0.038265875730369249 0.003608814690182067 0 0.038530560541865128 0.00707746878006189 0 0.038265875730369249 0.003608814690182067 0 0.037231547252624675 0.0054294192360577502 0 0.038530560541865128 0.00707746878006189 0 0.035001662824444994 0.0045927536147877691 0 0.038265875730369249 0.003608814690182067 0 0.037231547252624675 0.0054294192360577502 0 0.043343329757399462 0.00089147390587506446 0 0.041751219521248426 0.0032652417043899126 0 0.045165627192548741 -0.00053600784311349072 0 0.044819186938480762 0.00045868982341635862 0 0.04375134763372019 0.00064500228903183979 0 0.045790414198636969 0.00014490933749182892 0 0.045165627192548741 -0.00053600784311349072 0 0.044819186938480762 0.00045868982341635862 0 0.045790414198636969 0.00014490933749182892 0 0.044819186938480762 0.00045868982341635862 0 0.045056925580913239 0.0010630791607211412 0 0.044819186938480762 0.00045868982341635862 0 0.044306782293728163 0.001114153323346267 0 0.04375134763372019 0.00064500228903183979 0 0.044819186938480762 0.00045868982341635862 0 0.044306782293728163 0.001114153323346267 0 0.045056925580913239 0.0010630791607211412 0 0.03909762688897267 0.006523948949541049 0 0.037909686073125524 0.0067393991978668549 0 0.038530560541865128 0.00707746878006189 0 0.037231547252624675 0.0054294192360577502 0 0.037909686073125524 0.0067393991978668549 0 0.038530560541865128 0.00707746878006189 0 0.035564559139292351 0.0063823283836624469 0 0.037231547252624675 0.0054294192360577502 0 0.037909686073125524 0.0067393991978668549 0 0.03909762688897267 0.006523948949541049 0 0.038530560541865128 0.00707746878006189 0 0.038909857658515609 0.0061437078994916374 0 0.036826045925899956 0.008692247873023938 0 0.037300643412679031 0.0077590520981420177 0 0.04375134763372019 0.00064500228903183979 0 0.043609400072847374 0.0017261080245215676 0 0.042061817989597662 0.0022411703021324586 0 0.041751219521248426 0.0032652417043899126 0 0.040931668401019583 0.0043182108810182248 0 0.044306782293728163 0.001114153323346267 0 0.04375134763372019 0.00064500228903183979 0 0.043609400072847374 0.0017261080245215676 0 0.045056925580913239 0.0010630791607211412 0 0.044436324699241067 0.0016869430983850174 0 0.04499170567269619 0.0017617657137199334 0 0.044306782293728163 0.001114153323346267 0 0.045056925580913239 0.0010630791607211412 0 0.044436324699241067 0.0016869430983850174 0 0.044306782293728163 0.001114153323346267 0 0.043609400072847374 0.0017261080245215676 0 0.044436324699241067 0.0016869430983850174 0 0.043609400072847374 0.0017261080245215676 0 0.044436324699241067 0.0016869430983850174 0 0.043947268325478642 0.002293695207434505 0 0.044436324699241067 0.0016869430983850174 0 0.044803018564245026 0.0022075885802586227 0 0.043947268325478642 0.002293695207434505 0 0.044436324699241067 0.0016869430983850174 0 0.04499170567269619 0.0017617657137199334 0 0.044803018564245026 0.0022075885802586227 0 0.04499170567269619 0.0017617657137199334 0 0.045520972543859013 0.0015977134089404453 0 0.045416675514449251 0.0021363198909134908 0 0.04499170567269619 0.0017617657137199334 0 0.045416675514449251 0.0021363198909134908 0 0.044803018564245026 0.0022075885802586227 0 0.045520972543859013 0.0015977134089404453 0 0.046125933186499275 0.001544838317617835 0 0.0459869326857082 0.0020518320274746796 0 0.045520972543859013 0.0015977134089404453 0 0.0459869326857082 0.0020518320274746796 0 0.045416675514449251 0.0021363198909134908 0 0.045520972543859013 0.0015977134089404453 0 0.046293002336992982 0.0008491799760351566 0 0.046125933186499275 0.001544838317617835 0 0.045056925580913239 0.0010630791607211412 0 0.04499170567269619 0.0017617657137199334 0 0.045520972543859013 0.0015977134089404453 0 0.045790414198636969 0.00014490933749182892 0 0.045056925580913239 0.0010630791607211412 0 0.046293002336992982 0.0008491799760351566 0 0.045056925580913239 0.0010630791607211412 0 0.045520972543859013 0.0015977134089404453 0 0.046293002336992982 0.0008491799760351566 0 0.046293002336992982 0.0008491799760351566 0 0.046679042507766756 0.0015009422593542697 0 0.047326996562170036 0.00069072883616581144 0 0.047235734241339811 0.00015237706666100818 0 0.046293002336992982 0.0008491799760351566 0 0.047326996562170036 0.00069072883616581144 0 0.046293002336992982 0.0008491799760351566 0 0.046679042507766756 0.0015009422593542697 0 0.046125933186499275 0.001544838317617835 0 0.046679042507766756 0.0015009422593542697 0 0.046125933186499275 0.001544838317617835 0 0.0459869326857082 0.0020518320274746796 0 0.046679042507766756 0.0015009422593542697 0 0.0459869326857082 0.0020518320274746796 0 0.046412167525858847 0.0022413493123622313 0 0.046679042507766756 0.0015009422593542697 0 0.046412167525858847 0.0022413493123622313 0 0.04665182605815376 0.0022369571379696851 0 0.046412167525858847 0.0022413493123622313 0 0.046621831316596467 0.0024595205068897808 0 0.046076679372709942 0.002539476673787048 0 0.046412167525858847 0.0022413493123622313 0 0.046621831316596467 0.0024595205068897808 0 0.04665182605815376 0.0022369571379696851 0 0.046621831316596467 0.0024595205068897808 0 0.046076679372709942 0.002539476673787048 0 0.045824450692699414 0.0031252475371208463 0 0.0459869326857082 0.0020518320274746796 0 0.046412167525858847 0.0022413493123622313 0 0.046076679372709942 0.002539476673787048 0 0.0459869326857082 0.0020518320274746796 0 0.045416675514449251 0.0021363198909134908 0 0.045439382215465472 0.0026838184778047278 0 0.0459869326857082 0.0020518320274746796 0 0.046076679372709942 0.002539476673787048 0 0.045439382215465472 0.0026838184778047278 0 0.044803018564245026 0.0022075885802586227 0 0.045439382215465472 0.0026838184778047278 0 0.044395490680725194 0.0028811401550227042 0 0.045416675514449251 0.0021363198909134908 0 0.044803018564245026 0.0022075885802586227 0 0.045439382215465472 0.0026838184778047278 0 0.045439382215465472 0.0026838184778047278 0 0.044918097361965524 0.0035104251078282907 0 0.044395490680725194 0.0028811401550227042 0 0.045439382215465472 0.0026838184778047278 0 0.045824450692699414 0.0031252475371208463 0 0.044918097361965524 0.0035104251078282907 0 0.046076679372709942 0.002539476673787048 0 0.045439382215465472 0.0026838184778047278 0 0.045824450692699414 0.0031252475371208463 0 0.045824450692699414 0.0031252475371208463 0 0.044918097361965524 0.0035104251078282907 0 0.045950555266843676 0.0041325268447165858 0 0.044918097361965524 0.0035104251078282907 0 0.045950555266843676 0.0041325268447165858 0 0.044123534606516981 0.0046552899913808697 0 0.044506368246115827 0.0032418610282380651 0 0.043357759655104897 0.0037464244478324911 0 0.046621831316596467 0.0024595205068897808 0 0.045824450692699414 0.0031252475371208463 0 0.045950555266843676 0.0041325268447165858 0 0.044270750478732038 0.0024035930823896848 0 0.044927267800638243 0.0028667429291666618 0 0.045116032329844714 0.0023149437222192266 0 0.046621831316596467 0.0024595205068897808 0 0.047012211495040319 0.0019202151353351952 0 0.04650891198135873 0.0020043417031028452 0 0.044506368246115827 0.0032418610282380651 0 0.045365299782829535 0.0028756238531255428 0 0.045202189401171475 0.0027070575970527212 0 0.044506368246115827 0.0032418610282380651 0 0.042061817989597662 0.0022411703021324586 0 0.042579283767494584 0.0029412318253299197 0 0.041859318545561811 0.0035553571034716396 0 0.042579283767494584 0.0029412318253299197 0 0.042540919705610976 0.0034322080001031059 0 0.041859318545561811 0.0035553571034716396 0 0.042061817989597662 0.0022411703021324586 0 0.043064755292518631 0.0024337914225978853 0 0.042579283767494584 0.0029412318253299197 0 0.043609400072847374 0.0017261080245215676 0 0.042061817989597662 0.0022411703021324586 0 0.043064755292518631 0.0024337914225978853 0 0.042579283767494584 0.0029412318253299197 0 0.043318372739276023 0.0030589064921555027 0 0.042540919705610976 0.0034322080001031059 0 0.043064755292518631 0.0024337914225978853 0 0.042579283767494584 0.0029412318253299197 0 0.043318372739276023 0.0030589064921555027 0 0.043318372739276023 0.0030589064921555027 0 0.044395490680725194 0.0028811401550227042 0 0.043823299712590927 0.0036353617316068052 0 0.043318372739276023 0.0030589064921555027 0 0.043947268325478642 0.002293695207434505 0 0.044395490680725194 0.0028811401550227042 0 0.043609400072847374 0.0017261080245215676 0 0.043064755292518631 0.0024337914225978853 0 0.043947268325478642 0.002293695207434505 0 0.043064755292518631 0.0024337914225978853 0 0.043318372739276023 0.0030589064921555027 0 0.043947268325478642 0.002293695207434505 0 0.044803018564245026 0.0022075885802586227 0 0.043947268325478642 0.002293695207434505 0 0.044395490680725194 0.0028811401550227042 0 0.044918097361965524 0.0035104251078282907 0 0.044395490680725194 0.0028811401550227042 0 0.043823299712590927 0.0036353617316068052 0 0.044918097361965524 0.0035104251078282907 0 0.043823299712590927 0.0036353617316068052 0 0.044123534606516981 0.0046552899913808697 0 0.043823299712590927 0.0036353617316068052 0 0.042610866080952901 0.0039663644811386411 0 0.044123534606516981 0.0046552899913808697 0 0.043318372739276023 0.0030589064921555027 0 0.043823299712590927 0.0036353617316068052 0 0.042610866080952901 0.0039663644811386411 0 0.042610866080952901 0.0039663644811386411 0 0.04149443421102296 0.0046169619907186618 0 0.044123534606516981 0.0046552899913808697 0 0.043318372739276023 0.0030589064921555027 0 0.042540919705610976 0.0034322080001031059 0 0.042610866080952901 0.0039663644811386411 0 0.042540919705610976 0.0034322080001031059 0 0.042610866080952901 0.0039663644811386411 0 0.041987147531511997 0.0040134088768417221 0 0.041418785353397373 0.0043253236401577105 0 0.041987147531511997 0.0040134088768417221 0 0.04149443421102296 0.0046169619907186618 0 0.042610866080952901 0.0039663644811386411 0 0.041987147531511997 0.0040134088768417221 0 0.04149443421102296 0.0046169619907186618 0 0.041418785353397373 0.0043253236401577105 0 0.041987147531511997 0.0040134088768417221 0 0.041859318545561811 0.0035553571034716396 0 0.042540919705610976 0.0034322080001031059 0 0.041987147531511997 0.0040134088768417221 0 0.041859318545561811 0.0035553571034716396 0 0.04278360090649768 0.0039371605725846024 0 0.043357759655104897 0.0037464244478324911 0 0.038699924914946372 0.0071118785068666202 0 0.040159307780144697 0.0059813628724436829 0 0.04109005640877645 0.0049170771930942122 0 0.04149443421102296 0.0046169619907186618 0 0.041549916235316134 0.0043932636639972067 0 0.04149443421102296 0.0046169619907186618 0 0.041549916235316134 0.0043932636639972067 0 0.041876924713598267 0.0040780687391136364 0 0.037914815967017436 0.00485209693440883 0 0.041549916235316134 0.0043932636639972067 0 0.040415837370683244 0.0050376832106508989 0 0.041549916235316134 0.0043932636639972067 0 0.040415837370683244 0.0050376832106508989 0 0.041441166898929876 0.0049290188878482882 0 0.041441166898929876 0.0049290188878482882 0 0.041876924713598267 0.0040780687391136364 0 0.042407174267921684 0.0054408518176195658 0 0.041549916235316134 0.0043932636639972067 0 0.041441166898929876 0.0049290188878482882 0 0.041876924713598267 0.0040780687391136364 0 0.041441166898929876 0.0049290188878482882 0 0.042407174267921684 0.0054408518176195658 0 0.040432859250965639 0.0059789422233339964 0 0.040811801854606665 0.0079026459672109795 0 0.042407174267921684 0.0054408518176195658 0 0.040432859250965639 0.0059789422233339964 0 0.040794780041952278 0.0062157604117985057 0 0.042737316738937561 0.0046289728522672128 0 0.037914815967017436 0.00485209693440883 0 0.040415837370683244 0.0050376832106508989 0 0.040432859250965639 0.0059789422233339964 0 0.040415837370683244 0.0050376832106508989 0 0.041441166898929876 0.0049290188878482882 0 0.040432859250965639 0.0059789422233339964 0 0.03974271773333584 0.0070278612368563417 0 0.03864086946729272 0.0065136583515209151 0 0.040432859250965639 0.0059789422233339964 0 0.044270750478732038 0.0024035930823896848 0 0.044927267800638243 0.0028667429291666618 0 0.044443733710961782 0.003423144879964677 0 0.044927267800638243 0.0028667429291666618 0 0.044443733710961782 0.003423144879964677 0 0.04549400977956912 0.0034788126191369691 0 0.044270750478732038 0.0024035930823896848 0 0.04334163668517825 0.0035154757015741387 0 0.044443733710961782 0.003423144879964677 0 0.044506368246115827 0.0032418610282380651 0 0.042737316738937561 0.0046289728522672128 0 0.043468774782041364 0.0038003948240930572 0 0.041876924713598267 0.0040780687391136364 0 0.042407174267921684 0.0054408518176195658 0 0.043542109092012657 0.0043649920396119733 0 0.04334163668517825 0.0035154757015741387 0 0.044056518058086469 0.0040018264092810795 0 0.04334163668517825 0.0035154757015741387 0 0.044056518058086469 0.0040018264092810795 0 0.044443733710961782 0.003423144879964677 0 0.044544079072653758 0.0045133448771321263 0 0.044056518058086469 0.0040018264092810795 0 0.044443733710961782 0.003423144879964677 0 0.044544079072653758 0.0045133448771321263 0 0.044443733710961782 0.003423144879964677 0 0.04549400977956912 0.0034788126191369691 0 0.043003881910962334 0.0049279892292039889 0 0.044423508942927299 0.0037701526469698268 0 0.044927267800638243 0.0028667429291666618 0 0.04549400977956912 0.0034788126191369691 0 0.045534386761808293 0.0027371185145381935 0 0.044927267800638243 0.0028667429291666618 0 0.045534386761808293 0.0027371185145381935 0 0.045116032329844714 0.0023149437222192266 0 0.044287722424681562 0.0035734032911406959 0 0.045971883623838992 0.0026776567670810806 0 0.046194359817345002 0.0035439182133938695 0 0.04549400977956912 0.0034788126191369691 0 0.045534386761808293 0.0027371185145381935 0 0.045971883623838992 0.0026776567670810806 0 0.044423508942927299 0.0037701526469698268 0 0.045040036423733429 0.0032604815255676324 0 0.045908599176553808 0.0046889701638452028 0 0.044287722424681562 0.0035734032911406959 0 0.046194359817345002 0.0035439182133938695 0 0.047300157766697805 0.0047251018356189401 0 0.045908599176553808 0.0046889701638452028 0 0.046194359817345002 0.0035439182133938695 0 0.047300157766697805 0.0047251018356189401 0 0.046194359817345002 0.0035439182133938695 0 0.046997061582879855 0.003222719787092228 0 0.043694468085778801 -0.00068410965322742595 0 0.04479288824195677 -0.00026880677561424461 0 0.045971883623838992 0.0026776567670810806 0 0.046194359817345002 0.0035439182133938695 0 0.046997061582879855 0.003222719787092228 0 0.045971883623838992 0.0026776567670810806 0 0.04667960010170491 0.0022267686232002961 0 0.046266070823985268 0.0022057434899556637 0 0.045971883623838992 0.0026776567670810806 0 0.046997061582879855 0.003222719787092228 0 0.04667960010170491 0.0022267686232002961 0 0.04479288824195677 -0.00026880677561424461 0 0.045602008593102289 0.00038900518626004032 0 0.043452392357147589 -0.0045907014793450567 0 0.045137261590312797 -0.0018994774734868256 0 0.042639634176440053 -0.002328202781767018 0 0.045137261590312797 -0.0018994774734868256 0 0.044770041653902345 -0.00030511466410740676 0 0.042639634176440053 -0.002328202781767018 0 0.045602008593102289 0.00038900518626004032 0 0.046136256729887401 0.00093626728379650112 0 0.045137261590312797 -0.0018994774734868256 0 0.044770041653902345 -0.00030511466410740676 0 0.046476912377888993 0.00086689496989528442 0 0.04667960010170491 0.0022267686232002961 0 0.046487644192277418 0.0020358001578855232 0 0.046266070823985268 0.0022057434899556637 0 0.04667960010170491 0.0022267686232002961 0 0.046487644192277418 0.0020358001578855232 0 0.046748232566168564 0.0018223273494308036 0 0.046487644192277418 0.0020358001578855232 0 0.046266070823985268 0.0022057434899556637 0 0.046309367031005091 0.0020700391989749148 0 0.046266070823985268 0.0022057434899556637 0 0.046204363395977895 0.0022003273634863679 0 0.046309367031005091 0.0020700391989749148 0 0.046204363395977895 0.0022003273634863679 0 0.046309367031005091 0.0020700391989749148 0 0.046306999716513052 0.0022367144248131368 0 0.046204363395977895 0.0022003273634863679 0 0.046306999716513052 0.0022367144248131368 0 0.045987812234964745 0.0022815437741117339 0 0.046309367031005091 0.0020700391989749148 0 0.046376113954705665 0.0021122325297429525 0 0.046306999716513052 0.0022367144248131368 0 0.046376113954705665 0.0021122325297429525 0 0.046492710988051966 0.0022875652490632926 0 0.046306999716513052 0.0022367144248131368 0 0.046621831316596467 0.0024595205068897808 0 0.046492710988051966 0.0022875652490632926 0 0.04665182605815376 0.0022369571379696851 0 0.046376113954705665 0.0021122325297429525 0 0.046492710988051966 0.0022875652490632926 0 0.04665182605815376 0.0022369571379696851 0 0.046621831316596467 0.0024595205068897808 0 0.046492710988051966 0.0022875652490632926 0 0.046398396781808238 0.0022480020549562065 0 0.046492710988051966 0.0022875652490632926 0 0.046306999716513052 0.0022367144248131368 0 0.046398396781808238 0.0022480020549562065 0 0.045365299782829535 0.0028756238531255428 0 0.045605115777144392 0.0027735592394260654 0 0.046398396781808238 0.0022480020549562065 0 0.04650891198135873 0.0020043417031028452 0 0.045987812234964745 0.0022815437741117339 0 0.045534386761808293 0.0027371185145381935 0 0.045116032329844714 0.0023149437222192266 0 0.045987812234964745 0.0022815437741117339 0 0.046306999716513052 0.0022367144248131368 0 0.046398396781808238 0.0022480020549562065 0 0.045987812234964745 0.0022815437741117339 0 0.046621831316596467 0.0024595205068897808 0 0.046398396781808238 0.0022480020549562065 0 0.04650891198135873 0.0020043417031028452 0 0.045534386761808293 0.0027371185145381935 0 0.045971883623838992 0.0026776567670810806 0 0.045987812234964745 0.0022815437741117339 0 0.045971883623838992 0.0026776567670810806 0 0.046266070823985268 0.0022057434899556637 0 0.045987812234964745 0.0022815437741117339 0 0.046266070823985268 0.0022057434899556637 0 0.046204363395977895 0.0022003273634863679 0 0.045987812234964745 0.0022815437741117339 0 0.036182692595990752 -0.0040918015458832899 0 0.037786529936899474 -0.0063852507498529344 0 0.038536213134410573 -0.004388289971923821 0 0.03573552874842454 -0.003553835860988069 0 0.036919281370629747 -0.0055641717119543042 0 0.03465448237267324 -0.0026472385928742559 0 0.036306570993935007 -0.0047243924728723246 0 0.033870635741751504 -0.0041381412638717523 0 0.037786529936899474 -0.0063852507498529344 0 0.038536213134410573 -0.004388289971923821 0 0.040124696449609705 -0.0055632833792307254 0 0.036182692595990752 -0.0040918015458832899 0 0.038536213134410573 -0.004388289971923821 0 0.038232884156609123 -0.0025401911482227525 0 0.038536213134410573 -0.004388289971923821 0 0.040124696449609705 -0.0055632833792307254 0 0.040391714067837904 -0.0031037764666969302 0 0.040124696449609705 -0.0055632833792307254 0 0.041572439357074518 -0.0044065330023595134 0 0.040391714067837904 -0.0031037764666969302 0 0.042034651609566737 -0.0068364645811531052 0 0.040124696449609705 -0.0055632833792307254 0 0.041572439357074518 -0.0044065330023595134 0 0.042034651609566737 -0.0068364645811531052 0 0.043452392357147589 -0.0045907014793450567 0 0.041572439357074518 -0.0044065330023595134 0 0.043452392357147589 -0.0045907014793450567 0 0.041572439357074518 -0.0044065330023595134 0 0.042639634176440053 -0.002328202781767018 0 0.041572439357074518 -0.0044065330023595134 0 0.042639634176440053 -0.002328202781767018 0 0.040391714067837904 -0.0031037764666969302 0 0.042639634176440053 -0.002328202781767018 0 0.042314836877679028 -0.00048825194599730126 0 0.040687000557074193 -0.0013508958935080687 0 0.044770041653902345 -0.00030511466410740676 0 0.042639634176440053 -0.002328202781767018 0 0.042314836877679028 -0.00048825194599730126 0 0.041996188689438836 -0.0013825859817561579 0 0.042476469117967146 -0.00095628265652166389 0 0.042314836877679028 -0.00048825194599730126 0 0.040687000557074193 -0.0013508958935080687 0 0.040797019760728304 0.00057152039499287657 0 0.040400829576154818 -0.0012846943002036717 0 0.037878036375153197 -6.6809345475313657e-05 0 0.040442484708800915 0.00058812925327412103 0 0.040400829576154818 -0.0012846943002036717 0 0.040391714067837904 -0.0031037764666969302 0 0.038232884156609123 -0.0025401911482227525 0 0.041996188689438836 -0.0013825859817561579 0 0.041836223067749478 -0.0017974062482431763 0 0.042639634176440053 -0.002328202781767018 0 0.040687000557074193 -0.0013508958935080687 0 0.040391714067837904 -0.0031037764666969302 0 0.038536213134410573 -0.004388289971923821 0 0.040391714067837904 -0.0031037764666969302 0 0.038232884156609123 -0.0025401911482227525 0 0.038232884156609123 -0.0025401911482227525 0 0.037878036375153197 -6.6809345475313657e-05 0 0.036238729026152529 -0.0020227829948484353 0 0.040400829576154818 -0.0012846943002036717 0 0.038232884156609123 -0.0025401911482227525 0 0.037878036375153197 -6.6809345475313657e-05 0 0.039491193644088679 -0.0014705980375556203 0 0.037487433032752149 -0.0018607441357553971 0 0.040237648199476027 -0.0025479136026358524 0 0.037890001628280122 -0.0029980579466979732 0 0.03790084581027741 -0.0018385964399450856 0 0.037878036375153197 -6.6809345475313657e-05 0 0.036238729026152529 -0.0020227829948484353 0 0.035028550799041297 -0.00094465244709308459 0 0.036182692595990752 -0.0040918015458832899 0 0.038232884156609123 -0.0025401911482227525 0 0.036238729026152529 -0.0020227829948484353 0 0.039626344279444024 -0.00038278751406683499 0 0.038878120462496835 -0.0011393893748121032 0 0.038207284676625285 -0.00011588740390790964 0 0.039626344279444024 -0.00038278751406683499 0 0.038878120462496835 -0.0011393893748121032 0 0.040713756069234067 -0.0010676866693319865 0 0.040237648199476027 -0.0025479136026358524 0 0.038878120462496835 -0.0011393893748121032 0 0.03790084581027741 -0.0018385964399450856 0 0.040237648199476027 -0.0025479136026358524 0 0.038878120462496835 -0.0011393893748121032 0 0.040713756069234067 -0.0010676866693319865 0 0.040237648199476027 -0.0025479136026358524 0 0.040713756069234067 -0.0010676866693319865 0 0.041802732782693232 -0.0020932186895120555 0 0.039491193644088679 -0.0014705980375556203 0 0.042476469117967146 -0.00095628265652166389 0 0.040713756069234067 -0.0010676866693319865 0 0.04179746151501873 -0.00057601587373274548 0 0.041802732782693232 -0.0020932186895120555 0 0.043788982060155537 -0.00024459556953076707 0 0.042476469117967146 -0.00095628265652166389 0 0.048065116316214428 0.00019034396303997078 0 0.048139957097772169 0.0013830077777658993 0 0.047368319089436617 0.0012090545069769146 0 0.044770041653902345 -0.00030511466410740676 0 0.042314836877679028 -0.00048825194599730126 0 0.043185448578810744 0.0010470688699963202 0 0.042476469117967146 -0.00095628265652166389 0 0.044332382700433028 -0.00012150629534663624 0 0.042314836877679028 -0.00048825194599730126 0 0.040797019760728304 0.00057152039499287657 0 0.043185448578810744 0.0010470688699963202 0 0.048065116316214428 0.00019034396303997078 0 0.047368319089436617 0.0012090545069769146 0 0.04719882142034236 0.00049546291460807624 0 0.048065116316214428 0.00019034396303997078 0 0.04719882142034236 0.00049546291460807624 0 0.04743115419847356 -0.00017611448052660711 0 0.048065116316214428 0.00019034396303997078 0 0.047736960884911812 -0.00073494870462742989 0 0.04743115419847356 -0.00017611448052660711 0 0.047736960884911812 -0.00073494870462742989 0 0.04743115419847356 -0.00017611448052660711 0 0.047678377740889982 -0.00089108360664403978 0 0.043788982060155537 -0.00024459556953076707 0 0.044445812460306579 0.00012201550103832846 0 0.04179746151501873 -0.00057601587373274548 0 0.0421106362685141 0.00020804353412912373 0 0.040875673671946153 0.00016485121941821026 0 0.039626344279444024 -0.00038278751406683499 0 0.040713756069234067 -0.0010676866693319865 0 0.040875673671946153 0.00016485121941821026 0 0.040713756069234067 -0.0010676866693319865 0 0.04179746151501873 -0.00057601587373274548 0 0.040875673671946153 0.00016485121941821026 0 0.0421106362685141 0.00020804353412912373 0 0.040875673671946153 0.00016485121941821026 0 0.041973029366499173 0.00050203474379175513 0 0.040875673671946153 0.00016485121941821026 0 0.040430104421857321 0.00064303167733075471 0 0.039157245391052357 0.00053871347093993876 0 0.039626344279444024 -0.00038278751406683499 0 0.040875673671946153 0.00016485121941821026 0 0.039157245391052357 0.00053871347093993876 0 0.046436605642107019 0.001377120263195842 0 0.045971529076540549 0.0013990440000243201 0 0.046609544870078345 0.00041489249727943983 0 0.046436605642107019 0.001377120263195842 0 0.045971529076540549 0.0013990440000243201 0 0.046422045545089337 0.0018006282657156353 0 0.046679042507766756 0.0015009422593542697 0 0.047326996562170036 0.00069072883616581144 0 0.048267330902458952 0.00087423529019166454 0 0.047326996562170036 0.00069072883616581144 0 0.048267330902458952 0.00087423529019166454 0 0.048114211694516226 4.8042747056596362e-06 0 0.046376113954705665 0.0021122325297429525 0 0.04665182605815376 0.0022369571379696851 0 0.045971529076540549 0.0013990440000243201 0 0.046679042507766756 0.0015009422593542697 0 0.04665182605815376 0.0022369571379696851 0 0.048267330902458952 0.00087423529019166454 0 0.047044470231122147 0.0012206154028470996 0 0.047256567726436001 0.00078196032815996562 0 0.046376113954705665 0.0021122325297429525 0 0.045971529076540549 0.0013990440000243201 0 0.046283558262689095 0.0018771563677871732 0 0.046309367031005091 0.0020700391989749148 0 0.046376113954705665 0.0021122325297429525 0 0.046283558262689095 0.0018771563677871732 0 0.046309367031005091 0.0020700391989749148 0 0.046283558262689095 0.0018771563677871732 0 0.046422045545089337 0.0018006282657156353 0 0.045971529076540549 0.0013990440000243201 0 0.046283558262689095 0.0018771563677871732 0 0.046422045545089337 0.0018006282657156353 0 0.046487644192277418 0.0020358001578855232 0 0.046309367031005091 0.0020700391989749148 0 0.046422045545089337 0.0018006282657156353 0 0.046487644192277418 0.0020358001578855232 0 0.046422045545089337 0.0018006282657156353 0 0.046748232566168564 0.0018223273494308036 0 0.046436605642107019 0.001377120263195842 0 0.046422045545089337 0.0018006282657156353 0 0.046748232566168564 0.0018223273494308036 0 0.047368319089436617 0.0012090545069769146 0 0.046187434481894218 0.0010029047238433566 0 0.04719882142034236 0.00049546291460807624 0 0.044770041653902345 -0.00030511466410740676 0 0.043185448578810744 0.0010470688699963202 0 0.046187434481894218 0.0010029047238433566 0 0.044332382700433028 -0.00012150629534663624 0 0.044889885844900709 0.00011473240275404944 0 0.044770041653902345 -0.00030511466410740676 0 0.046476912377888993 0.00086689496989528442 0 0.046187434481894218 0.0010029047238433566 0 0.04719882142034236 0.00049546291460807624 0 0.046730220477585106 0.00050225826452861202 0 0.04743115419847356 -0.00017611448052660711 0 0.046187434481894218 0.0010029047238433566 0 0.04719882142034236 0.00049546291460807624 0 0.046730220477585106 0.00050225826452861202 0 0.046436605642107019 0.001377120263195842 0 0.046748232566168564 0.0018223273494308036 0 0.046609544870078345 0.00041489249727943983 0 0.046476912377888993 0.00086689496989528442 0 0.046730220477585106 0.00050225826452861202 0 0.046609544870078345 0.00041489249727943983 0 0.046476912377888993 0.00086689496989528442 0 0.046187434481894218 0.0010029047238433566 0 0.046730220477585106 0.00050225826452861202 0 0.046136256729887401 0.00093626728379650112 0 0.046244532784811963 0.000857214077447139 0 0.046730220477585106 0.00050225826452861202 0 0.047178616205056909 -0.00019457694534418378 0 0.046609544870078345 0.00041489249727943983 0 0.047178616205056909 -0.00019457694534418378 0 0.046522867431486079 -0.00013399530756336839 0 0.046609544870078345 0.00041489249727943983 0 0.046730220477585106 0.00050225826452861202 0 0.047178616205056909 -0.00019457694534418378 0 0.04743115419847356 -0.00017611448052660711 0 0.047178616205056909 -0.00019457694534418378 0 0.048102610406303654 -0.00096523468307113116 0 0.047678377740889982 -0.00089108360664403978 0 0.047178616205056909 -0.00019457694534418378 0 0.04743115419847356 -0.00017611448052660711 0 0.047678377740889982 -0.00089108360664403978 0 0.047178616205056909 -0.00019457694534418378 0 0.046522867431486079 -0.00013399530756336839 0 0.048102610406303654 -0.00096523468307113116 0 0.048959607212017545 -0.00068392314551836062 0 0.048704501441609906 -0.00097150762454075053 0 0.048102610406303654 -0.00096523468307113116 0 0.047591574367765704 7.755468123866049e-05 0 0.047735016667434967 -0.00021256212961152276 0 0.048745181468852705 -0.00081819081809526113 0 0.048959607212017545 -0.00068392314551836062 0 0.048704501441609906 -0.00097150762454075053 0 0.048661889763928975 -0.00089120007106364345 0 0.048745181468852705 -0.00081819081809526113 0 0.048704501441609906 -0.00097150762454075053 0 0.048661889763928975 -0.00089120007106364345 0 0.048778065024248717 -0.001044146352687103 0 0.048704501441609906 -0.00097150762454075053 0 0.048745181468852705 -0.00081819081809526113 0 0.048959607212017545 -0.00068392314551836062 0 0.048530899633515659 -0.00057400236968399825 0 0.048661889763928975 -0.00089120007106364345 0 0.048745181468852705 -0.00081819081809526113 0 0.048530899633515659 -0.00057400236968399825 0 0.047256567726436001 0.00078196032815996562 0 0.047591574367765704 7.755468123866049e-05 0 0.048959607212017545 -0.00068392314551836062 0 0.048530899633515659 -0.00057400236968399825 0 0.048114211694516226 4.8042747056596362e-06 0 0.048267330902458952 0.00087423529019166454 0 0.048959607212017545 -0.00068392314551836062 0 0.048114211694516226 4.8042747056596362e-06 0 0.045971529076540549 0.0013990440000243201 0 0.046522867431486079 -0.00013399530756336839 0 0.046609544870078345 0.00041489249727943983 0 0.047235734241339811 0.00015237706666100818 0 0.048114211694516226 4.8042747056596362e-06 0 0.04801627636083057 -0.00036823582818690725 0 0.047235734241339811 0.00015237706666100818 0 0.047326996562170036 0.00069072883616581144 0 0.048114211694516226 4.8042747056596362e-06 0 0.048530899633515659 -0.00057400236968399825 0 0.048114211694516226 4.8042747056596362e-06 0 0.04801627636083057 -0.00036823582818690725 0 0.048530899633515659 -0.00057400236968399825 0 0.04801627636083057 -0.00036823582818690725 0 0.048363381282640755 -0.00069920434416779185 0 0.047474503168037953 -0.00035291777359585741 0 0.04801627636083057 -0.00036823582818690725 0 0.048010691800033846 -0.00071464316821301692 0 0.04801627636083057 -0.00036823582818690725 0 0.048010691800033846 -0.00071464316821301692 0 0.048363381282640755 -0.00069920434416779185 0 0.048010691800033846 -0.00071464316821301692 0 0.048363381282640755 -0.00069920434416779185 0 0.048438687922246579 -0.00090930545931994428 0 0.048661889763928975 -0.00089120007106364345 0 0.048530899633515659 -0.00057400236968399825 0 0.048363381282640755 -0.00069920434416779185 0 0.048661889763928975 -0.00089120007106364345 0 0.048438687922246579 -0.00090930545931994428 0 0.048778065024248717 -0.001044146352687103 0 0.048661889763928975 -0.00089120007106364345 0 0.048363381282640755 -0.00069920434416779185 0 0.048438687922246579 -0.00090930545931994428 0 0.048135210008747056 -0.00096496920335598449 0 0.048010691800033846 -0.00071464316821301692 0 0.048438687922246579 -0.00090930545931994428 0 0.048135210008747056 -0.00096496920335598449 0 0.048438687922246579 -0.00090930545931994428 0 0.048508976265202265 -0.0011123748344000178 0 0.048508976265202265 -0.0011123748344000178 0 0.048597101315715215 -0.0012871095732652398 0 0.048114783842923427 -0.0011949305787950903 0 0.048508976265202265 -0.0011123748344000178 0 0.048822236532075437 -0.0011904424739623888 0 0.048597101315715215 -0.0012871095732652398 0 0.048508976265202265 -0.0011123748344000178 0 0.048778065024248717 -0.001044146352687103 0 0.048822236532075437 -0.0011904424739623888 0 0.048438687922246579 -0.00090930545931994428 0 0.048508976265202265 -0.0011123748344000178 0 0.048778065024248717 -0.001044146352687103 0 0.048822236532075437 -0.0011904424739623888 0 0.049066242659803444 -0.0013407560801509395 0 0.049073708983141215 -0.0010709461176346578 0 0.048778065024248717 -0.001044146352687103 0 0.048822236532075437 -0.0011904424739623888 0 0.049073708983141215 -0.0010709461176346578 0 0.048822236532075437 -0.0011904424739623888 0 0.048597101315715215 -0.0012871095732652398 0 0.049066242659803444 -0.0013407560801509395 0 0.049066242659803444 -0.0013407560801509395 0 0.049809086974545107 -0.00084013156944434252 0 0.049494850602136466 -0.0013676113395747281 0 0.049066242659803444 -0.0013407560801509395 0 0.049073708983141215 -0.0010709461176346578 0 0.049809086974545107 -0.00084013156944434252 0 0.049073708983141215 -0.0010709461176346578 0 0.04892303770995992 -0.00077646201884720787 0 0.049809086974545107 -0.00084013156944434252 0 0.04892303770995992 -0.00077646201884720787 0 0.049291955457971305 -0.00024911074725990199 0 0.049809086974545107 -0.00084013156944434252 0 0.049073708983141215 -0.0010709461176346578 0 0.048704501441609906 -0.00097150762454075053 0 0.04892303770995992 -0.00077646201884720787 0 0.048778065024248717 -0.001044146352687103 0 0.049073708983141215 -0.0010709461176346578 0 0.048704501441609906 -0.00097150762454075053 0 0.048704501441609906 -0.00097150762454075053 0 0.048102610406303654 -0.00096523468307113116 0 0.04892303770995992 -0.00077646201884720787 0 0.048102610406303654 -0.00096523468307113116 0 0.047678377740889982 -0.00089108360664403978 0 0.048138330339615655 -0.00044869867029105728 0 0.048102610406303654 -0.00096523468307113116 0 0.048138330339615655 -0.00044869867029105728 0 0.04892303770995992 -0.00077646201884720787 0 0.048138330339615655 -0.00044869867029105728 0 0.04892303770995992 -0.00077646201884720787 0 0.049291955457971305 -0.00024911074725990199 0 0.049291955457971305 -0.00024911074725990199 0 0.04916461948824092 0.00061102479397245435 0 0.050277588222847697 0.00028901317292353776 0 0.048138330339615655 -0.00044869867029105728 0 0.049291955457971305 -0.00024911074725990199 0 0.04916461948824092 0.00061102479397245435 0 0.048138330339615655 -0.00044869867029105728 0 0.04916461948824092 0.00061102479397245435 0 0.048260142841146547 0.0016480414042276874 0 0.04916461948824092 0.00061102479397245435 0 0.048260142841146547 0.0016480414042276874 0 0.050315374207417496 0.0019573164934903898 0 0.04916461948824092 0.00061102479397245435 0 0.050277588222847697 0.00028901317292353776 0 0.050315374207417496 0.0019573164934903898 0 0.050277588222847697 0.00028901317292353776 0 0.051488035242396743 0.0017921181980369255 0 0.050315374207417496 0.0019573164934903898 0 0.050277588222847697 0.00028901317292353776 0 0.051543408924782354 0.00076151642534668859 0 0.051488035242396743 0.0017921181980369255 0 0.050277588222847697 0.00028901317292353776 0 0.051543408924782354 0.00076151642534668859 0 0.050432259492214686 -0.0011968116499840155 0 0.049809086974545107 -0.00084013156944434252 0 0.050432259492214686 -0.0011968116499840155 0 0.049494850602136466 -0.0013676113395747281 0 0.050277588222847697 0.00028901317292353776 0 0.049809086974545107 -0.00084013156944434252 0 0.050432259492214686 -0.0011968116499840155 0 0.049291955457971305 -0.00024911074725990199 0 0.050277588222847697 0.00028901317292353776 0 0.049809086974545107 -0.00084013156944434252 0 0.040922073565589252 0.00078505808999131826 0 0.041973029366499173 0.00050203474379175513 0 0.042668762102425525 0.00063469583287831678 0 0.040922073565589252 0.00078505808999131826 0 0.040430104421857321 0.00064303167733075471 0 0.041973029366499173 0.00050203474379175513 0 0.040875673671946153 0.00016485121941821026 0 0.040430104421857321 0.00064303167733075471 0 0.041973029366499173 0.00050203474379175513 0 0.041973029366499173 0.00050203474379175513 0 0.043227789881586057 0.00035720564949924554 0 0.042668762102425525 0.00063469583287831678 0 0.044816647534291015 0.00061744373265615619 0 0.044983573711252896 0.0010445567668552998 0 0.0421106362685141 0.00020804353412912373 0 0.041973029366499173 0.00050203474379175513 0 0.043227789881586057 0.00035720564949924554 0 0.044445812460306579 0.00012201550103832846 0 0.044816647534291015 0.00061744373265615619 0 0.047736960884911812 -0.00073494870462742989 0 0.047678377740889982 -0.00089108360664403978 0 0.046911992133678325 -0.00075753675018932251 0 0.048138330339615655 -0.00044869867029105728 0 0.046911992133678325 -0.00075753675018932251 0 0.045751400744463086 0.00068916916919194464 0 0.047678377740889982 -0.00089108360664403978 0 0.048138330339615655 -0.00044869867029105728 0 0.046911992133678325 -0.00075753675018932251 0 0.048138330339615655 -0.00044869867029105728 0 0.048260142841146547 0.0016480414042276874 0 0.045751400744463086 0.00068916916919194464 0 0.048260142841146547 0.0016480414042276874 0 0.045751400744463086 0.00068916916919194464 0 0.046439244331835917 0.0019731488138623652 0 0.045751400744463086 0.00068916916919194464 0 0.043350375977321283 0.0013943247254875062 0 0.046439244331835917 0.0019731488138623652 0 0.043227789881586057 0.00035720564949924554 0 0.045751400744463086 0.00068916916919194464 0 0.042668762102425525 0.00063469583287831678 0 0.045751400744463086 0.00068916916919194464 0 0.042668762102425525 0.00063469583287831678 0 0.043350375977321283 0.0013943247254875062 0 0.043350375977321283 0.0013943247254875062 0 0.044810608374172653 0.002406977619088699 0 0.046439244331835917 0.0019731488138623652 0 0.043350375977321283 0.0013943247254875062 0 0.042067421720593058 0.001765759693762128 0 0.043454716275746826 0.0024010560209508634 0 0.043350375977321283 0.0013943247254875062 0 0.042067421720593058 0.001765759693762128 0 0.041621457556256999 0.0010235682561410683 0 0.042668762102425525 0.00063469583287831678 0 0.043350375977321283 0.0013943247254875062 0 0.041621457556256999 0.0010235682561410683 0 0.040922073565589252 0.00078505808999131826 0 0.042668762102425525 0.00063469583287831678 0 0.041621457556256999 0.0010235682561410683 0 0.04245568955069904 0.0044430231945310544 0 0.042656431143256533 0.0032067594971328822 0 0.043633930490835617 0.0058583031232576971 0 0.047176491867303154 0.0030415162990789471 0 0.049021866434909661 0.0035638649452185882 0 0.04245568955069904 0.0044430231945310544 0 0.042656431143256533 0.0032067594971328822 0 0.041292294050167759 0.0030350803419948633 0 0.042067421720593058 0.001765759693762128 0 0.042656431143256533 0.0032067594971328822 0 0.041292294050167759 0.0030350803419948633 0 0.042067421720593058 0.001765759693762128 0 0.043454716275746826 0.0024010560209508634 0 0.042656431143256533 0.0032067594971328822 0 0.043350375977321283 0.0013943247254875062 0 0.043454716275746826 0.0024010560209508634 0 0.044810608374172653 0.002406977619088699 0 0.043454716275746826 0.0024010560209508634 0 0.042656431143256533 0.0032067594971328822 0 0.044994051096733101 0.0036916231737473501 0 0.043454716275746826 0.0024010560209508634 0 0.044810608374172653 0.002406977619088699 0 0.044994051096733101 0.0036916231737473501 0 0.042656431143256533 0.0032067594971328822 0 0.044994051096733101 0.0036916231737473501 0 0.044214540437586096 0.0059357150427914954 0 0.044810608374172653 0.002406977619088699 0 0.044994051096733101 0.0036916231737473501 0 0.047298947390580617 0.0034415062228280043 0 0.044994051096733101 0.0036916231737473501 0 0.047298947390580617 0.0034415062228280043 0 0.04783635934840344 0.0053312211708365122 0 0.044810608374172653 0.002406977619088699 0 0.047298947390580617 0.0034415062228280043 0 0.046439244331835917 0.0019731488138623652 0 0.048260142841146547 0.0016480414042276874 0 0.046439244331835917 0.0019731488138623652 0 0.04924895528509024 0.0030831652340860549 0 0.047298947390580617 0.0034415062228280043 0 0.046439244331835917 0.0019731488138623652 0 0.04924895528509024 0.0030831652340860549 0 0.047298947390580617 0.0034415062228280043 0 0.04924895528509024 0.0030831652340860549 0 0.050735512235941915 0.0046284658873523964 0 0.047298947390580617 0.0034415062228280043 0 0.04783635934840344 0.0053312211708365122 0 0.050735512235941915 0.0046284658873523964 0 0.05274426402978559 0.0070787002176563507 0 0.04783635934840344 0.0053312211708365122 0 0.050735512235941915 0.0046284658873523964 0 0.052397990316917553 0.0057809951104244271 0 0.052488601784212809 0.0052592898198072962 0 0.05274426402978559 0.0070787002176563507 0 0.04783635934840344 0.0053312211708365122 0 0.047198610804791971 0.0092415779623871985 0 0.044994051096733101 0.0036916231737473501 0 0.04783635934840344 0.0053312211708365122 0 0.044214540437586096 0.0059357150427914954 0 0.049021866434909661 0.0035638649452185882 0 0.052488601784212809 0.0052592898198072962 0 0.050497438722672067 0.0034887853249860822 0 0.051408206946833714 0.0060724761961649118 0 0.052364412157856512 0.0057963418101170828 0 0.049021866434909661 0.0035638649452185882 0 0.053622920845156664 0.0046488098316746704 0 0.049877204318532813 0.0015688497569270976 0 0.049871943413584689 0.0015915580274175121 0 0.049903331779805847 0.0016121491214883326 0 0.04783635934840344 0.0053312211708365122 0 0.044214540437586096 0.0059357150427914954 0 0.047198610804791971 0.0092415779623871985 0 0.049871943413584689 0.0015915580274175121 0 0.049842687373005137 0.0015741057943807109 0 0.049865366284142697 0.0016112708283501289 0 0.049877204318532813 0.0015688497569270976 0 0.049871943413584689 0.0015915580274175121 0 0.049842687373005137 0.0015741057943807109 0 0.049851404949501896 0.0015475756757545405 0 0.049877204318532813 0.0015688497569270976 0 0.049842687373005137 0.0015741057943807109 0 0.0470783127971603 0.0025953550435828623 0 0.049021866434909661 0.0035638649452185882 0 0.052238777586287442 0.0035001460020074502 0 0.053782604342904744 0.0044262297026504338 0 0.053120976049817331 0.0026615923838348822 0 0.051543408924782354 0.00076151642534668859 0 0.051488035242396743 0.0017921181980369255 0 0.053120976049817331 0.0026615923838348822 0 0.052238777586287442 0.0035001460020074502 0 0.051488035242396743 0.0017921181980369255 0 0.053120976049817331 0.0026615923838348822 0 0.052238777586287442 0.0035001460020074502 0 0.051488035242396743 0.0017921181980369255 0 0.050315374207417496 0.0019573164934903898 0 0.048260142841146547 0.0016480414042276874 0 0.04924895528509024 0.0030831652340860549 0 0.050315374207417496 0.0019573164934903898 0 0.04924895528509024 0.0030831652340860549 0 0.050315374207417496 0.0019573164934903898 0 0.051004118559062381 0.00355224608819281 0 0.04924895528509024 0.0030831652340860549 0 0.051004118559062381 0.00355224608819281 0 0.050735512235941915 0.0046284658873523964 0 0.052238777586287442 0.0035001460020074502 0 0.051004118559062381 0.00355224608819281 0 0.052450924988009719 0.0047308103795062817 0 0.052238777586287442 0.0035001460020074502 0 0.050315374207417496 0.0019573164934903898 0 0.051004118559062381 0.00355224608819281 0 0.051004118559062381 0.00355224608819281 0 0.052450924988009719 0.0047308103795062817 0 0.050735512235941915 0.0046284658873523964 0 0.052450924988009719 0.0047308103795062817 0 0.050735512235941915 0.0046284658873523964 0 0.052758950606702958 0.0057742571753043028 0 0.05274426402978559 0.0070787002176563507 0 0.050735512235941915 0.0046284658873523964 0 0.052758950606702958 0.0057742571753043028 0 0.05274426402978559 0.0070787002176563507 0 0.052758950606702958 0.0057742571753043028 0 0.053958011586445705 0.00624237692093727 0 0.052450924988009719 0.0047308103795062817 0 0.05390307364026161 0.0058070942341350634 0 0.053739532253646277 0.0051672293953167938 0 0.052758950606702958 0.0057742571753043028 0 0.05390307364026161 0.0058070942341350634 0 0.053958011586445705 0.00624237692093727 0 0.052450924988009719 0.0047308103795062817 0 0.052758950606702958 0.0057742571753043028 0 0.05390307364026161 0.0058070942341350634 0 0.05390307364026161 0.0058070942341350634 0 0.054390453476585603 0.005654353757572882 0 0.053739532253646277 0.0051672293953167938 0 0.054390453476585603 0.005654353757572882 0 0.053739532253646277 0.0051672293953167938 0 0.054528050105887474 0.0055485754849914871 0 0.052238777586287442 0.0035001460020074502 0 0.052450924988009719 0.0047308103795062817 0 0.053739532253646277 0.0051672293953167938 0 0.052238777586287442 0.0035001460020074502 0 0.053739532253646277 0.0051672293953167938 0 0.053782604342904744 0.0044262297026504338 0 0.05243781469625778 0.00035529906863934101 0 0.053735096741015308 0.0014008787248187781 0 0.053739532253646277 0.0051672293953167938 0 0.053782604342904744 0.0044262297026504338 0 0.054489127937532668 0.0055745991683743895 0 0.053739532253646277 0.0051672293953167938 0 0.054528050105887474 0.0055485754849914871 0 0.054489127937532668 0.0055745991683743895 0 0.051346095959230821 -0.0037179593527763783 0 0.051502605574416931 -0.003548608118585895 0 0.051240368288204122 -0.0033475546621776074 0 0.051502605574416931 -0.003548608118585895 0 0.051486182598180767 -0.0033437930922044002 0 0.051240368288204122 -0.0033475546621776074 0 0.051502605574416931 -0.003548608118585895 0 0.051730911929617845 -0.0033364291095910352 0 0.051486182598180767 -0.0033437930922044002 0 0.051502605574416931 -0.003548608118585895 0 0.051712163282051055 -0.00363850118265732 0 0.051730911929617845 -0.0033364291095910352 0 0.051712163282051055 -0.00363850118265732 0 0.05157373061549847 -0.0038311088007352613 0 0.051799504172775963 -0.0038344755185201669 0 0.051502605574416931 -0.003548608118585895 0 0.051712163282051055 -0.00363850118265732 0 0.05157373061549847 -0.0038311088007352613 0 0.051346095959230821 -0.0037179593527763783 0 0.051502605574416931 -0.003548608118585895 0 0.05157373061549847 -0.0038311088007352613 0 0.05157373061549847 -0.0038311088007352613 0 0.051604756448266099 -0.0041045624610769596 0 0.051481506332511105 -0.0040625064032183628 0 0.051346095959230821 -0.0037179593527763783 0 0.05157373061549847 -0.0038311088007352613 0 0.051481506332511105 -0.0040625064032183628 0 0.05243781469625778 0.00035529906863934101 0 0.051247595324607147 -0.0012833998633294051 0 0.051604756448266099 -0.0041045624610769596 0 0.051510705801871344 -0.004222955022621786 0 0.051549943298946632 -0.0044147561762687797 0 0.053245742963230223 -0.0044198724502472701 0 0.053742874448234217 -0.0041589688304124635 0 0.05157373061549847 -0.0038311088007352613 0 0.051604756448266099 -0.0041045624610769596 0 0.051799504172775963 -0.0038344755185201669 0 0.051604756448266099 -0.0041045624610769596 0 0.051508829718493236 -0.0040791243883087002 0 0.051585197717257822 -0.0041323267305079367 0 0.051247595324607147 -0.0012833998633294051 0 0.049784022908150122 -0.0045751263354938147 0 0.051604756448266099 -0.0041045624610769596 0 0.051481506332511105 -0.0040625064032183628 0 0.051585197717257822 -0.0041323267305079367 0 0.046669072815331676 -0.0083121710665646255 0 0.04464824839727604 -0.0094206774625341175 0 0.037622468226832975 -0.016305906322498561 0 0.043418881822334644 -0.016618507967848084 0 0.037761909946370881 -0.020735772549952111 0 0.051508829718493236 -0.0040791243883087002 0 0.051371286715437239 -0.0043247913388201895 0 0.051510705801871344 -0.004222955022621786 0 0.051604756448266099 -0.0041045624610769596 0 0.051508829718493236 -0.0040791243883087002 0 0.051510705801871344 -0.004222955022621786 0 0.051508829718493236 -0.0040791243883087002 0 0.051371286715437239 -0.0043247913388201895 0 0.051130656486908781 -0.0042896749765056058 0 0.051371286715437239 -0.0043247913388201895 0 0.051510705801871344 -0.004222955022621786 0 0.051549943298946632 -0.0044147561762687797 0 0.051371286715437239 -0.0043247913388201895 0 0.051549943298946632 -0.0044147561762687797 0 0.051300623052436614 -0.0045729021216131312 0 0.051371286715437239 -0.0043247913388201895 0 0.051130656486908781 -0.0042896749765056058 0 0.051300623052436614 -0.0045729021216131312 0 0.04464824839727604 -0.0094206774625341175 0 0.045609557525824435 -0.0084557288149722746 0 0.051040498999368591 -0.0041960416383811606 0 0.051147744159669939 -0.004571354341721544 0 0.050859498385458869 -0.0043291071370194535 0 0.053341448183899062 -0.0049673614449490464 0 0.047961811358171222 -0.0066081266203646821 0 0.051040498999368591 -0.0041960416383811606 0 0.051147744159669939 -0.004571354341721544 0 0.051300623052436614 -0.0045729021216131312 0 0.067096450237495858 -4.5445669788137242e-05 0 0.06727947810368605 -6.4272982352352523e-05 0 0.067280039057653132 -0.00019435114620021103 0 0.051147744159669939 -0.004571354341721544 0 0.051300623052436614 -0.0045729021216131312 0 0.051407406787863236 -0.0047779773619210063 0 0.067096450237495858 -4.5445669788137242e-05 0 0.066613891013844656 0.00035207210548655725 0 0.067095584637576394 0.00037762917571116002 0 0.053341448183899062 -0.0049673614449490464 0 0.05575830967739339 -0.002560780506507565 0 0.067096450237495858 -4.5445669788137242e-05 0 0.067265585747479748 0.00020007947148448189 0 0.06727947810368605 -6.4272982352352523e-05 0 0.067096450237495858 -4.5445669788137242e-05 0 0.067265585747479748 0.00020007947148448189 0 0.067095584637576394 0.00037762917571116002 0 0.051712163282051055 -0.00363850118265732 0 0.051799504172775963 -0.0038344755185201669 0 0.051953295364597966 -0.0035426873871454881 0 0.051549943298946632 -0.0044147561762687797 0 0.051300623052436614 -0.0045729021216131312 0 0.051407406787863236 -0.0047779773619210063 0 0.053742874448234217 -0.0041589688304124635 0 0.05575830967739339 -0.002560780506507565 0 0.05575830967739339 -0.002560780506507565 0 0.056213153953011671 0.00074646662332206496 0 0.056410728407584022 0.00061045911942828122 0 0.055736632541221715 -0.00082891078446027796 0 0.057916163433210779 -0.00074945430821448712 0 0.051712163282051055 -0.00363850118265732 0 0.051953295364597966 -0.0035426873871454881 0 0.051730911929617845 -0.0033364291095910352 0 0.05575830967739339 -0.002560780506507565 0 0.060797455046124077 0.0010810935447869172 0 0.067295380037113425 0.00043755544061643012 0 0.067095584637576394 0.00037762917571116002 0 0.067274617113065593 0.00064724393312633058 0 0.067265585747479748 0.00020007947148448189 0 0.067295380037113425 0.00043755544061643012 0 0.067437534929238069 0.00037955569467062415 0 0.067265585747479748 0.00020007947148448189 0 0.067295380037113425 0.00043755544061643012 0 0.067095584637576394 0.00037762917571116002 0 0.066613891013844656 0.00035207210548655725 0 0.067095584637576394 0.00037762917571116002 0 0.067009991074865827 0.00061664171253188974 0 0.067009991074865827 0.00061664171253188974 0 0.067161885114655401 0.00077675193275508899 0 0.066882405651328011 0.00093140447757268663 0 0.066613891013844656 0.00035207210548655725 0 0.067009991074865827 0.00061664171253188974 0 0.066882405651328011 0.00093140447757268663 0 0.067161885114655401 0.00077675193275508899 0 0.067395452690653349 0.00077952646084937136 0 0.067236469304214674 0.00095010010159313424 0 0.067095584637576394 0.00037762917571116002 0 0.067009991074865827 0.00061664171253188974 0 0.067274617113065593 0.00064724393312633058 0 0.067009991074865827 0.00061664171253188974 0 0.067161885114655401 0.00077675193275508899 0 0.067274617113065593 0.00064724393312633058 0 0.067295380037113425 0.00043755544061643012 0 0.067274617113065593 0.00064724393312633058 0 0.067402497970530828 0.00058851687315875513 0 0.067274617113065593 0.00064724393312633058 0 0.067404921814101793 0.00069979846666253594 0 0.067402497970530828 0.00058851687315875513 0 0.067274617113065593 0.00064724393312633058 0 0.067404921814101793 0.00069979846666253594 0 0.067395452690653349 0.00077952646084937136 0 0.067161885114655401 0.00077675193275508899 0 0.067274617113065593 0.00064724393312633058 0 0.067395452690653349 0.00077952646084937136 0 0.067551960211047216 0.00078173421742161941 0 0.067402497970530828 0.00058851687315875513 0 0.067437534929238069 0.00037955569467062415 0 0.067551960211047216 0.00078173421742161941 0 0.067516410772699431 0.00085418837897244151 0 0.067514112418257555 0.00096416208737366144 0 0.067551960211047216 0.00078173421742161941 0 0.067437534929238069 0.00037955569467062415 0 0.067600333949068864 0.00013189784521024084 0 0.057504024583425968 -0.0037940889253333956 0 0.056289497997227808 -0.0046432166872235406 0 0.067395452690653349 0.00077952646084937136 0 0.067551960211047216 0.00078173421742161941 0 0.067605426764904858 0.00087878715650337505 0 0.067404921814101793 0.00069979846666253594 0 0.067395452690653349 0.00077952646084937136 0 0.067551960211047216 0.00078173421742161941 0 0.067404921814101793 0.00069979846666253594 0 0.067551960211047216 0.00078173421742161941 0 0.067402497970530828 0.00058851687315875513 0 0.067295380037113425 0.00043755544061643012 0 0.067402497970530828 0.00058851687315875513 0 0.067437534929238069 0.00037955569467062415 0 0.067516410772699431 0.00085418837897244151 0 0.067415802873763087 0.00091079749591403691 0 0.067514112418257555 0.00096416208737366144 0 0.067551960211047216 0.00078173421742161941 0 0.067516410772699431 0.00085418837897244151 0 0.067572627736113 0.00083298517542361591 0 0.067516410772699431 0.00085418837897244151 0 0.067494410326350132 0.00082493228785660586 0 0.067572627736113 0.00083298517542361591 0 0.067415802873763087 0.00091079749591403691 0 0.067227135689205117 0.00098318290003479342 0 0.067362231510345913 0.00083229347613667469 0 0.067415802873763087 0.00091079749591403691 0 0.067362231510345913 0.00083229347613667469 0 0.067494410326350132 0.00082493228785660586 0 0.067516410772699431 0.00085418837897244151 0 0.067415802873763087 0.00091079749591403691 0 0.067494410326350132 0.00082493228785660586 0 0.067381383941727283 0.0010121120851471046 0 0.067227135689205117 0.00098318290003479342 0 0.067362926298493483 0.0011279366907447053 0 0.067415802873763087 0.00091079749591403691 0 0.067381383941727283 0.0010121120851471046 0 0.067227135689205117 0.00098318290003479342 0 0.067381383941727283 0.0010121120851471046 0 0.067514112418257555 0.00096416208737366144 0 0.067425361006747841 0.0010944653053193327 0 0.067415802873763087 0.00091079749591403691 0 0.067381383941727283 0.0010121120851471046 0 0.067514112418257555 0.00096416208737366144 0 0.056289497997227808 -0.0046432166872235406 0 0.052376904953984754 -0.007503876522710202 0 0.06727947810368605 -6.4272982352352523e-05 0 0.067600333949068864 0.00013189784521024084 0 0.067773161340092106 -0.00045237892195011898 0 0.0560227338199627 -0.0078558376384458735 0 0.052376904953984754 -0.007503876522710202 0 0.067265585747479748 0.00020007947148448189 0 0.06727947810368605 -6.4272982352352523e-05 0 0.067401848247566995 0.00015268559410523932 0 0.06727947810368605 -6.4272982352352523e-05 0 0.067401848247566995 0.00015268559410523932 0 0.067600333949068864 0.00013189784521024084 0 0.067265585747479748 0.00020007947148448189 0 0.067437534929238069 0.00037955569467062415 0 0.067401848247566995 0.00015268559410523932 0 0.067437534929238069 0.00037955569467062415 0 0.067401848247566995 0.00015268559410523932 0 0.067600333949068864 0.00013189784521024084 0 0.051549855489974955 -0.0077079765350335297 0 0.051922576178861056 -0.0077570940151457848 0 0.051955733275002074 -0.0071902226672215701 0 0.067227135689205117 0.00098318290003479342 0 0.067204029387253186 0.00074171133732538414 0 0.067027056745816854 0.00079641492714585364 0 0.051922576178861056 -0.0077570940151457848 0 0.051955733275002074 -0.0071902226672215701 0 0.052148808316684801 -0.0074932726177984708 0 0.056603440721036284 -0.0023760353107284025 0 0.058850071849302556 0.00033109459891281597 0 0.067227135689205117 0.00098318290003479342 0 0.067204029387253186 0.00074171133732538414 0 0.067362231510345913 0.00083229347613667469 0 0.056603440721036284 -0.0023760353107284025 0 0.049733113464010416 -0.0074502872805825588 0 0.051922576178861056 -0.0077570940151457848 0 0.05179355281016635 -0.0081199023453274941 0 0.052037572667561996 -0.0081271903866081303 0 0.051549855489974955 -0.0077079765350335297 0 0.051922576178861056 -0.0077570940151457848 0 0.05179355281016635 -0.0081199023453274941 0 0.05179355281016635 -0.0081199023453274941 0 0.051925800772632015 -0.0084038600596188229 0 0.052037572667561996 -0.0081271903866081303 0 0.05179355281016635 -0.0081199023453274941 0 0.051726143263738832 -0.0083212372576498134 0 0.051520386727305835 -0.0082260780560267626 0 0.05179355281016635 -0.0081199023453274941 0 0.051726143263738832 -0.0083212372576498134 0 0.051925800772632015 -0.0084038600596188229 0 0.051549855489974955 -0.0077079765350335297 0 0.051520386727305835 -0.0082260780560267626 0 0.051155334851729621 -0.0081990622761515045 0 0.051549855489974955 -0.0077079765350335297 0 0.05179355281016635 -0.0081199023453274941 0 0.051520386727305835 -0.0082260780560267626 0 0.051520386727305835 -0.0082260780560267626 0 0.051664670888137108 -0.0085337313914532649 0 0.051155334851729621 -0.0081990622761515045 0 0.025837175270779909 -0.015596053973527389 0 0.031470238982829038 -0.016828602682423133 0 0.02674656403883436 -0.01274048648086931 0 0.045185969936330665 -0.0087902104245177037 0 0.038126350507823023 -0.0076069180571970282 0 0.041604171097444673 -0.0088384974121584713 0 0.049733113464010416 -0.0074502872805825588 0 0.051726143263738832 -0.0083212372576498134 0 0.051520386727305835 -0.0082260780560267626 0 0.051664670888137108 -0.0085337313914532649 0 0.051664670888137108 -0.0085337313914532649 0 0.051925800772632015 -0.0084038600596188229 0 0.052175973106583985 -0.0087800100755986293 0 0.051726143263738832 -0.0083212372576498134 0 0.051664670888137108 -0.0085337313914532649 0 0.051925800772632015 -0.0084038600596188229 0 0.047961811358171222 -0.0066081266203646821 0 0.047759365576771025 -0.009135008196556443 0 0.034701886637963725 -0.019364144571851306 0 0.032090785324968112 -0.017031279860855911 0 0.03383054114533806 -0.016859460314235672 0 0.067280039057653132 -0.00019435114620021103 0 0.067300302857269068 -0.0002101539447567655 0 0.067276884446267241 -0.0002426366324353151 0 0.036409056543282935 -0.018089527313594245 0 0.034701886637963725 -0.019364144571851306 0 0.03383054114533806 -0.016859460314235672 0 0.06727947810368605 -6.4272982352352523e-05 0 0.067280039057653132 -0.00019435114620021103 0 0.067300302857269068 -0.0002101539447567655 0 0.04464824839727604 -0.0094206774625341175 0 0.047961811358171222 -0.0066081266203646821 0 0.067381383941727283 0.0010121120851471046 0 0.067425361006747841 0.0010944653053193327 0 0.067362926298493483 0.0011279366907447053 0 0.052376904953984754 -0.007503876522710202 0 0.049733113464010416 -0.0074502872805825588 0 0.067300302857269068 -0.0002101539447567655 0 0.067282143912094389 -0.00023757435556076732 0 0.067276884446267241 -0.0002426366324353151 0 0.031259257667796109 -0.019240580808211203 0 0.032052897538750541 -0.018261078517611627 0 0.031470238982829038 -0.016828602682423133 0 0.052376904953984754 -0.007503876522710202 0 0.048304852070205476 -0.0085577166731165555 0 0.050577078731943934 -0.0070124657573975091 0 0.049395576882264307 -0.0062036282340689544 0 0.049972354467009324 -0.0054945631428537202 0 0.049733113464010416 -0.0074502872805825588 0 0.048304852070205476 -0.0085577166731165555 0 0.048304852070205476 -0.0085577166731165555 0 0.047759365576771025 -0.009135008196556443 0 0.045185969936330665 -0.0087902104245177037 0 0.038400043810695332 -0.0086738944128777404 0 0.032084337747676633 -0.017037314827569899 0 0.0311758961434477 -0.016232549299779183 0 0.032617066007756081 -0.01638014129980481 0 0.0311758961434477 -0.016232549299779183 0 0.032113206876015696 -0.014687432202628104 0 0.032617066007756081 -0.01638014129980481 0 0.047759365576771025 -0.009135008196556443 0 0.047453232001447333 -0.0094321550583928854 0 0.025837175270779909 -0.015596053973527389 0 0.031259257667796109 -0.019240580808211203 0 0.031470238982829038 -0.016828602682423133 0 0.0311758961434477 -0.016232549299779183 0 0.032113206876015696 -0.014687432202628104 0 0.031227321985028453 -0.012999761223939029 0 0.046686426775919672 -0.010502514852650677 0 0.046759636251201511 -0.010411915536381785 0 0.046585653550845423 -0.010256710593252344 0 0.048304852070205476 -0.0085577166731165555 0 0.045185969936330665 -0.0087902104245177037 0 0.047759365576771025 -0.009135008196556443 0 0.045185969936330665 -0.0087902104245177037 0 0.04464824839727604 -0.0094206774625341175 0 0.037797316971226388 -0.010717276217377976 0 0.03383054114533806 -0.016859460314235672 0 0.032617066007756081 -0.01638014129980481 0 0.033339675283392753 -0.013429527137275275 0 0.036409056543282935 -0.018089527313594245 0 0.03383054114533806 -0.016859460314235672 0 0.033339675283392753 -0.013429527137275275 0 0.037622468226832975 -0.016305906322498561 0 0.037761909946370881 -0.020735772549952111 0 0.034014926726059658 -0.014867343751362772 0 0.032113206876015696 -0.014687432202628104 0 0.032617066007756081 -0.01638014129980481 0 0.033339675283392753 -0.013429527137275275 0 0.032090785324968112 -0.017031279860855911 0 0.03383054114533806 -0.016859460314235672 0 0.032617066007756081 -0.01638014129980481 0 0.036399963644408471 -0.012939865309035778 0 0.034014926726059658 -0.014867343751362772 0 0.034464412838964308 -0.010434979577465541 0 0.037622468226832975 -0.016305906322498561 0 0.036399963644408471 -0.012939865309035778 0 0.034014926726059658 -0.014867343751362772 0 0.031227321985028453 -0.012999761223939029 0 0.029340732690208711 -0.011887581465031332 0 0.030171579373023019 -0.0087207171121753274 0 0.032113206876015696 -0.014687432202628104 0 0.033339675283392753 -0.013429527137275275 0 0.031227321985028453 -0.012999761223939029 0 0.033339675283392753 -0.013429527137275275 0 0.031227321985028453 -0.012999761223939029 0 0.030171579373023019 -0.0087207171121753274 0 0.0311758961434477 -0.016232549299779183 0 0.031227321985028453 -0.012999761223939029 0 0.029340732690208711 -0.011887581465031332 0 0.037797316971226388 -0.010717276217377976 0 0.032407608700546361 -0.0076897307759513853 0 0.030500553708966465 -0.0091419784576193854 0 0.034464412838964308 -0.010434979577465541 0 0.032985022561534946 -0.00759667282455907 0 0.034014926726059658 -0.014867343751362772 0 0.030500553708966465 -0.0091419784576193854 0 0.034464412838964308 -0.010434979577465541 0 0.034464412838964308 -0.010434979577465541 0 0.03565258518205288 -0.0074485013708739493 0 0.032985022561534946 -0.00759667282455907 0 0.034464412838964308 -0.010434979577465541 0 0.03565258518205288 -0.0074485013708739493 0 0.038058972410271501 -0.0099440758211646173 0 0.036399963644408471 -0.012939865309035778 0 0.034464412838964308 -0.010434979577465541 0 0.038058972410271501 -0.0099440758211646173 0 0.02674656403883436 -0.01274048648086931 0 0.024167101531426823 -0.0095633569967203871 0 0.020637869751942286 -0.012012780661522485 0 0.041604171097444673 -0.0088384974121584713 0 0.037315561884699651 -0.0090319760133609744 0 0.025837175270779909 -0.015596053973527389 0 0.02674656403883436 -0.01274048648086931 0 0.020637869751942286 -0.012012780661522485 0 0.031214185089002484 -0.016685125171130716 0 0.029325853361991245 -0.012085167653982241 0 0.02674656403883436 -0.01274048648086931 0 0.029325853361991245 -0.012085167653982241 0 0.02674656403883436 -0.01274048648086931 0 0.026843391148478352 -0.010347742669121274 0 0.038400043810695332 -0.0086738944128777404 0 0.035994146352500582 -0.0075474287971092425 0 0.029340732690208711 -0.011887581465031332 0 0.030171579373023019 -0.0087207171121753274 0 0.027389253660488833 -0.0074755081883354259 0 0.029325853361991245 -0.012085167653982241 0 0.026843391148478352 -0.010347742669121274 0 0.027389253660488833 -0.0074755081883354259 0 0.026843391148478352 -0.010347742669121274 0 0.024167101531426823 -0.0095633569967203871 0 0.027389253660488833 -0.0074755081883354259 0 0.02674656403883436 -0.01274048648086931 0 0.026843391148478352 -0.010347742669121274 0 0.024167101531426823 -0.0095633569967203871 0 0.024167101531426823 -0.0095633569967203871 0 0.024676428524442604 -0.0059851041978936752 0 0.022076823384848468 -0.0072424866234264808 0 0.024167101531426823 -0.0095633569967203871 0 0.024676428524442604 -0.0059851041978936752 0 0.027389253660488833 -0.0074755081883354259 0 0.024676428524442604 -0.0059851041978936752 0 0.022398128881424294 -0.0030403238499040327 0 0.022076823384848468 -0.0072424866234264808 0 0.024676428524442604 -0.0059851041978936752 0 0.026837626877759136 -0.0039021598347359359 0 0.022398128881424294 -0.0030403238499040327 0 0.032407608700546361 -0.0076897307759513853 0 0.028392393358474769 -0.003774079409212813 0 0.024676428524442604 -0.0059851041978936752 0 0.027389253660488833 -0.0074755081883354259 0 0.026837626877759136 -0.0039021598347359359 0 0.030171579373023019 -0.0087207171121753274 0 0.027389253660488833 -0.0074755081883354259 0 0.026837626877759136 -0.0039021598347359359 0 0.027392656616287769 0.00011639959902768394 0 0.027140436656106545 -0.0040016014184103979 0 0.031185453854741207 -0.0018971630771654924 0 0.026421270113045785 -0.0014059296801112926 0 0.028392393358474769 -0.003774079409212813 0 0.023545405995263329 0.00081256254517528953 0 0.026837626877759136 -0.0039021598347359359 0 0.022398128881424294 -0.0030403238499040327 0 0.033364038506698432 -0.0046679766858849199 0 0.036644019274676871 -0.0045057038668834103 0 0.03565258518205288 -0.0074485013708739493 0 0.033364038506698432 -0.0046679766858849199 0 0.03565258518205288 -0.0074485013708739493 0 0.032985022561534946 -0.00759667282455907 0 0.030500553708966465 -0.0091419784576193854 0 0.027140436656106545 -0.0040016014184103979 0 0.031024936572035963 -0.0054390035594871575 0 0.030500553708966465 -0.0091419784576193854 0 0.032985022561534946 -0.00759667282455907 0 0.031024936572035963 -0.0054390035594871575 0 0.033364038506698432 -0.0046679766858849199 0 0.032985022561534946 -0.00759667282455907 0 0.031024936572035963 -0.0054390035594871575 0 0.033364038506698432 -0.0046679766858849199 0 0.031024936572035963 -0.0054390035594871575 0 0.031185453854741207 -0.0018971630771654924 0 0.027140436656106545 -0.0040016014184103979 0 0.031024936572035963 -0.0054390035594871575 0 0.031185453854741207 -0.0018971630771654924 0 0.034770497082720918 0.0013452634640527814 0 0.031185453854741207 -0.0018971630771654924 0 0.034827753744806351 -0.0023224487139092234 0 0.034770497082720918 0.0013452634640527814 0 0.034827753744806351 -0.0023224487139092234 0 0.038221744954166234 -0.0020135855670425371 0 0.033364038506698432 -0.0046679766858849199 0 0.031185453854741207 -0.0018971630771654924 0 0.034827753744806351 -0.0023224487139092234 0 0.033364038506698432 -0.0046679766858849199 0 0.036644019274676871 -0.0045057038668834103 0 0.034827753744806351 -0.0023224487139092234 0 0.036644019274676871 -0.0045057038668834103 0 0.034827753744806351 -0.0023224487139092234 0 0.038221744954166234 -0.0020135855670425371 0 0.039428473730040978 0.00064236317248310317 0 0.038221744954166234 -0.0020135855670425371 0 0.040450229949941234 -0.0025261400374430596 0 0.038221744954166234 -0.0020135855670425371 0 0.040450229949941234 -0.0025261400374430596 0 0.03935467208347232 -0.004362478166181483 0 0.036644019274676871 -0.0045057038668834103 0 0.038221744954166234 -0.0020135855670425371 0 0.03935467208347232 -0.004362478166181483 0 0.036644019274676871 -0.0045057038668834103 0 0.03935467208347232 -0.004362478166181483 0 0.038429363968324345 -0.0067421023566169094 0 0.03935467208347232 -0.004362478166181483 0 0.040288106642788549 -0.0059235419428490203 0 0.04197866087247739 -0.0047530559646717808 0 0.040450229949941234 -0.0025261400374430596 0 0.03935467208347232 -0.004362478166181483 0 0.04197866087247739 -0.0047530559646717808 0 0.03935467208347232 -0.004362478166181483 0 0.040288106642788549 -0.0059235419428490203 0 0.038429363968324345 -0.0067421023566169094 0 0.040288106642788549 -0.0059235419428490203 0 0.038429363968324345 -0.0067421023566169094 0 0.041262983521057381 -0.0076882058387378943 0 0.036644019274676871 -0.0045057038668834103 0 0.03565258518205288 -0.0074485013708739493 0 0.038429363968324345 -0.0067421023566169094 0 0.043394163498470154 -0.0059571253235472842 0 0.045450710346299945 -0.0052026946988387515 0 0.044524670949704852 -0.0078978252560028567 0 0.043394163498470154 -0.0059571253235472842 0 0.041262983521057381 -0.0076882058387378943 0 0.044524670949704852 -0.0078978252560028567 0 0.040288106642788549 -0.0059235419428490203 0 0.04197866087247739 -0.0047530559646717808 0 0.041262983521057381 -0.0076882058387378943 0 0.043394163498470154 -0.0059571253235472842 0 0.04197866087247739 -0.0047530559646717808 0 0.041262983521057381 -0.0076882058387378943 0 0.04197866087247739 -0.0047530559646717808 0 0.043909838507718908 -0.0042198880866065689 0 0.043325495259996225 -0.0029322324958550756 0 0.043394163498470154 -0.0059571253235472842 0 0.04197866087247739 -0.0047530559646717808 0 0.043909838507718908 -0.0042198880866065689 0 0.043909838507718908 -0.0042198880866065689 0 0.045173793021810238 -0.0033511126965681038 0 0.045450710346299945 -0.0052026946988387515 0 0.043394163498470154 -0.0059571253235472842 0 0.043909838507718908 -0.0042198880866065689 0 0.045450710346299945 -0.0052026946988387515 0 0.043909838507718908 -0.0042198880866065689 0 0.043325495259996225 -0.0029322324958550756 0 0.045173793021810238 -0.0033511126965681038 0 0.043325495259996225 -0.0029322324958550756 0 0.04620213637794568 -0.002035462989185857 0 0.045173793021810238 -0.0033511126965681038 0 0.043325495259996225 -0.0029322324958550756 0 0.042049931789120185 -0.0010822444492972522 0 0.04620213637794568 -0.002035462989185857 0 0.041893436557373528 0.0027367482057574473 0 0.042049931789120185 -0.0010822444492972522 0 0.04620213637794568 -0.002035462989185857 0 0.040450229949941234 -0.0025261400374430596 0 0.043325495259996225 -0.0029322324958550756 0 0.042049931789120185 -0.0010822444492972522 0 0.040450229949941234 -0.0025261400374430596 0 0.04197866087247739 -0.0047530559646717808 0 0.043325495259996225 -0.0029322324958550756 0 0.039428473730040978 0.00064236317248310317 0 0.040450229949941234 -0.0025261400374430596 0 0.042049931789120185 -0.0010822444492972522 0 0.0465073766952072 -0.0010171595137765429 0 0.047207884057148507 -0.0014510371747968203 0 0.04620213637794568 -0.002035462989185857 0 0.047207884057148507 -0.0014510371747968203 0 0.047205532746843151 -0.0020474817382098716 0 0.04620213637794568 -0.002035462989185857 0 0.047207884057148507 -0.0014510371747968203 0 0.047559218034706585 -0.0017843812042237259 0 0.047205532746843151 -0.0020474817382098716 0 0.047559218034706585 -0.0017843812042237259 0 0.047205532746843151 -0.0020474817382098716 0 0.047749957086464963 -0.002159392144370277 0 0.047205532746843151 -0.0020474817382098716 0 0.04620213637794568 -0.002035462989185857 0 0.046998569413967906 -0.0027398934363822873 0 0.04620213637794568 -0.002035462989185857 0 0.045173793021810238 -0.0033511126965681038 0 0.046998569413967906 -0.0027398934363822873 0 0.048114783842923427 -0.0011949305787950903 0 0.047802768028990646 -0.001471461140939684 0 0.048349260581606872 -0.0015006889900066192 0 0.048135210008747056 -0.00096496920335598449 0 0.048508976265202265 -0.0011123748344000178 0 0.048114783842923427 -0.0011949305787950903 0 0.047060008390953895 -0.00089582025363807633 0 0.047207884057148507 -0.0014510371747968203 0 0.047636282437237325 -0.0011766958989159713 0 0.048114783842923427 -0.0011949305787950903 0 0.047636282437237325 -0.0011766958989159713 0 0.047802768028990646 -0.001471461140939684 0 0.047207884057148507 -0.0014510371747968203 0 0.047636282437237325 -0.0011766958989159713 0 0.047802768028990646 -0.001471461140939684 0 0.048000451716091429 -0.0017534997193318779 0 0.048349260581606872 -0.0015006889900066192 0 0.048509269406372263 -0.0017111322765456271 0 0.047559218034706585 -0.0017843812042237259 0 0.047802768028990646 -0.001471461140939684 0 0.048000451716091429 -0.0017534997193318779 0 0.047207884057148507 -0.0014510371747968203 0 0.047559218034706585 -0.0017843812042237259 0 0.047802768028990646 -0.001471461140939684 0 0.047559218034706585 -0.0017843812042237259 0 0.048000451716091429 -0.0017534997193318779 0 0.047749957086464963 -0.002159392144370277 0 0.047802768028990646 -0.001471461140939684 0 0.048000451716091429 -0.0017534997193318779 0 0.048349260581606872 -0.0015006889900066192 0 0.048597101315715215 -0.0012871095732652398 0 0.049066242659803444 -0.0013407560801509395 0 0.048349260581606872 -0.0015006889900066192 0 0.048597101315715215 -0.0012871095732652398 0 0.048114783842923427 -0.0011949305787950903 0 0.048349260581606872 -0.0015006889900066192 0 0.048509269406372263 -0.0017111322765456271 0 0.049494850602136466 -0.0013676113395747281 0 0.048392363785719983 -0.0017134837153203039 0 0.049066242659803444 -0.0013407560801509395 0 0.048349260581606872 -0.0015006889900066192 0 0.048509269406372263 -0.0017111322765456271 0 0.049066242659803444 -0.0013407560801509395 0 0.048509269406372263 -0.0017111322765456271 0 0.049494850602136466 -0.0013676113395747281 0 0.048000451716091429 -0.0017534997193318779 0 0.048509269406372263 -0.0017111322765456271 0 0.047749957086464963 -0.002159392144370277 0 0.048509269406372263 -0.0017111322765456271 0 0.047749957086464963 -0.002159392144370277 0 0.048392363785719983 -0.0017134837153203039 0 0.048814012944303688 -0.0035215051226876563 0 0.049171777807912383 -0.0041373851909980164 0 0.046998569413967906 -0.0027398934363822873 0 0.047749957086464963 -0.002159392144370277 0 0.048392363785719983 -0.0017134837153203039 0 0.046998569413967906 -0.0027398934363822873 0 0.045450710346299945 -0.0052026946988387515 0 0.048147099845303867 -0.0080861133452055714 0 0.045173793021810238 -0.0033511126965681038 0 0.046998569413967906 -0.0027398934363822873 0 0.045450710346299945 -0.0052026946988387515 0 0.047205532746843151 -0.0020474817382098716 0 0.046998569413967906 -0.0027398934363822873 0 0.047749957086464963 -0.002159392144370277 0 0.045450710346299945 -0.0052026946988387515 0 0.048147099845303867 -0.0080861133452055714 0 0.044524670949704852 -0.0078978252560028567 0 0.049171777807912383 -0.0041373851909980164 0 0.049784022908150122 -0.0045751263354938147 0 0.048147099845303867 -0.0080861133452055714 0 0.045463935570741562 -0.011255423102342043 0 0.044524670949704852 -0.0078978252560028567 0 0.048147099845303867 -0.0080861133452055714 0 0.045463935570741562 -0.011255423102342043 0 0.049293891577835439 -0.012420030176015305 0 0.050432259492214686 -0.0011968116499840155 0 0.048392363785719983 -0.0017134837153203039 0 0.048978261922551634 -0.0027152056615906122 0 0.050432259492214686 -0.0011968116499840155 0 0.049494850602136466 -0.0013676113395747281 0 0.048392363785719983 -0.0017134837153203039 0 0.050488309551444455 -0.0037204453374464464 0 0.049784022908150122 -0.0045751263354938147 0 0.051543408924782354 0.00076151642534668859 0 0.050432259492214686 -0.0011968116499840155 0 0.053160543013184923 0.00019153410286651027 0 0.051543408924782354 0.00076151642534668859 0 0.053120976049817331 0.0026615923838348822 0 0.053160543013184923 0.00019153410286651027 0 0.043418881822334644 -0.016618507967848084 0 0.045463935570741562 -0.011255423102342043 0 0.049293891577835439 -0.012420030176015305 0 0.046669072815331676 -0.0083121710665646255 0 0.049784022908150122 -0.0045751263354938147 0 0.043418881822334644 -0.016618507967848084 0 0.039078566673933092 -0.013464162239042661 0 0.041989199707854717 -0.011068813965331327 0 0.043418881822334644 -0.016618507967848084 0 0.045463935570741562 -0.011255423102342043 0 0.041989199707854717 -0.011068813965331327 0 0.037622468226832975 -0.016305906322498561 0 0.043418881822334644 -0.016618507967848084 0 0.039078566673933092 -0.013464162239042661 0 0.037622468226832975 -0.016305906322498561 0 0.036399963644408471 -0.012939865309035778 0 0.039078566673933092 -0.013464162239042661 0 0.036399963644408471 -0.012939865309035778 0 0.039078566673933092 -0.013464162239042661 0 0.038058972410271501 -0.0099440758211646173 0 0.039078566673933092 -0.013464162239042661 0 0.038058972410271501 -0.0099440758211646173 0 0.041989199707854717 -0.011068813965331327 0 0.03565258518205288 -0.0074485013708739493 0 0.038429363968324345 -0.0067421023566169094 0 0.038058972410271501 -0.0099440758211646173 0 0.038429363968324345 -0.0067421023566169094 0 0.038058972410271501 -0.0099440758211646173 0 0.041262983521057381 -0.0076882058387378943 0 0.038058972410271501 -0.0099440758211646173 0 0.041262983521057381 -0.0076882058387378943 0 0.041989199707854717 -0.011068813965331327 0 0.041262983521057381 -0.0076882058387378943 0 0.044524670949704852 -0.0078978252560028567 0 0.041989199707854717 -0.011068813965331327 0 0.045463935570741562 -0.011255423102342043 0 0.044524670949704852 -0.0078978252560028567 0 0.041989199707854717 -0.011068813965331327 0 0.017586202758144615 0.00037784183176404177 0 0.018437083727581592 0.00076745174912717256 0 0.020411022188432111 0.0010990583821477377 0 0.017586202758144615 0.00037784183176404177 0 0.020411022188432111 0.0010990583821477377 0 0.019976797607903194 8.6706960909014447e-05 0 0.017586202758144615 0.00037784183176404177 0 0.016172532199871567 4.3998675545480691e-06 0 0.01175050624403288 -7.6307440044425387e-06 0 0.017586202758144615 0.00037784183176404177 0 0.016172532199871567 4.3998675545480691e-06 0 0.018437083727581592 0.00076745174912717256 0 0.016172532199871567 4.3998675545480691e-06 0 0.018418628611697029 0.00054704510492375633 0 0.018437083727581592 0.00076745174912717256 0 0.018418628611697029 0.00054704510492375633 0 0.018437083727581592 0.00076745174912717256 0 0.019982915635615186 0.001630888707057633 0 0.016172532199871567 4.3998675545480691e-06 0 0.018418628611697029 0.00054704510492375633 0 0.020607789332474924 4.7438436484260772e-07 0 0.018437083727581592 0.00076745174912717256 0 0.020411022188432111 0.0010990583821477377 0 0.019982915635615186 0.001630888707057633 0 0.020411022188432111 0.0010990583821477377 0 0.021594795953727351 0.0020494907771833595 0 0.019982915635615186 0.001630888707057633 0 0.020411022188432111 0.0010990583821477377 0 0.023005994293594897 0.0019354221167960819 0 0.022389214512650399 0.00031495270479487851 0 0.020411022188432111 0.0010990583821477377 0 0.023005994293594897 0.0019354221167960819 0 0.021594795953727351 0.0020494907771833595 0 0.023005994293594897 0.0019354221167960819 0 0.022389214512650399 0.00031495270479487851 0 0.025267515266204493 0.0021832728653087474 0 0.022389214512650399 0.00031495270479487851 0 0.019976797607903194 8.6706960909014447e-05 0 0.020841341586782299 -0.00096552113361136774 0 0.020411022188432111 0.0010990583821477377 0 0.022389214512650399 0.00031495270479487851 0 0.019976797607903194 8.6706960909014447e-05 0 0.020841341586782299 -0.00096552113361136774 0 0.019175326587832362 -0.0026278514563320829 0 0.018019174222502189 -0.00084692327457788156 0 0.019976797607903194 8.6706960909014447e-05 0 0.020841341586782299 -0.00096552113361136774 0 0.018019174222502189 -0.00084692327457788156 0 0.020841341586782299 -0.00096552113361136774 0 0.023014419319829556 -0.00095814099856263418 0 0.021539748102597976 -0.002350333877468214 0 0.022389214512650399 0.00031495270479487851 0 0.020841341586782299 -0.00096552113361136774 0 0.023014419319829556 -0.00095814099856263418 0 0.022389214512650399 0.00031495270479487851 0 0.023014419319829556 -0.00095814099856263418 0 0.024409154150525879 9.4373050272655897e-05 0 0.021539748102597976 -0.002350333877468214 0 0.022259721967416872 -0.0037169305012149986 0 0.023382777131048901 -0.0022773447372673424 0 0.023014419319829556 -0.00095814099856263418 0 0.021539748102597976 -0.002350333877468214 0 0.023382777131048901 -0.0022773447372673424 0 0.021539748102597976 -0.002350333877468214 0 0.019175326587832362 -0.0026278514563320829 0 0.020387978557188702 -0.0039413834220077939 0 0.020841341586782299 -0.00096552113361136774 0 0.021539748102597976 -0.002350333877468214 0 0.019175326587832362 -0.0026278514563320829 0 0.019175326587832362 -0.0026278514563320829 0 0.018019174222502189 -0.00084692327457788156 0 0.0167363153466158 -0.0041354637787900861 0 0.019175326587832362 -0.0026278514563320829 0 0.0167363153466158 -0.0041354637787900861 0 0.020387978557188702 -0.0039413834220077939 0 0.017586202758144615 0.00037784183176404177 0 0.019976797607903194 8.6706960909014447e-05 0 0.018019174222502189 -0.00084692327457788156 0 0.017586202758144615 0.00037784183176404177 0 0.018019174222502189 -0.00084692327457788156 0 0.01175050624403288 -7.6307440044425387e-06 0 0.011735195887547935 -3.2262148394772856e-06 0 0.0073743177661876325 1.1345536282258101e-06 0 0.0064758132239437823 -0.00053959006732775302 0 0.018019174222502189 -0.00084692327457788156 0 0.01175050624403288 -7.6307440044425387e-06 0 0.0167363153466158 -0.0041354637787900861 0 0.011739197469652032 -4.946125276570026e-07 0 0.01180390298250612 -0.00060039592476398846 0 0.0073743177661876325 1.1345536282258101e-06 0 0.0064758132239437823 -0.00053959006732775302 0 0.0046383101658179502 0.00040235536893259988 0 0.0167363153466158 -0.0041354637787900861 0 0.019497413845107298 -0.0056116333744733087 0 0.020387978557188702 -0.0039413834220077939 0 0.01180390298250612 -0.00060039592476398846 0 0.012328406915566711 -0.00088135230661804461 0 0.0064758132239437823 -0.00053959006732775302 0 0.0046383101658179502 0.00040235536893259988 0 0.0037854925073329345 0.000128559057410582 0 0.0046383101658179502 0.00040235536893259988 0 0.003578228091955675 0.00053040667063568856 0 0.0037854925073329345 0.000128559057410582 0 0.0073743177661876325 1.1345536282258101e-06 0 0.0046383101658179502 0.00040235536893259988 0 0.0030094106772724448 7.1119830620540545e-07 0 0.0046383101658179502 0.00040235536893259988 0 0.0030094106772724448 7.1119830620540545e-07 0 0.002822870270804047 0.00040331990499300525 0 0.0046383101658179502 0.00040235536893259988 0 0.003578228091955675 0.00053040667063568856 0 0.002822870270804047 0.00040331990499300525 0 0.003578228091955675 0.00053040667063568856 0 0.002822870270804047 0.00040331990499300525 0 0.003346069768048542 0.00034238364979212086 0 0.002822870270804047 0.00040331990499300525 0 0.00052858150433410223 0.00036898030251968946 0 0.003346069768048542 0.00034238364979212086 0 0.0055628958773218246 -0.00086739364285770473 0 0.007227722376239489 -0.00048392856374759077 0 0.0019524138230238642 0.00058494548213603446 0 0.00052858150433410223 0.00036898030251968946 0 0.0034703221034933177 0.0027595294431365523 0 -0.00062727570355701771 0.00014481145988941513 0 0.0019524138230238642 0.00058494548213603446 0 0.00052858150433410223 0.00036898030251968946 0 0.0030094106772724448 7.1119830620540545e-07 0 0.002822870270804047 0.00040331990499300525 0 0.00052858150433410223 0.00036898030251968946 0 -0.0013551730938852545 1.0692516212472261e-06 0 -0.00062727570355701771 0.00014481145988941513 0 0.0030094106772724448 7.1119830620540545e-07 0 -0.00062727570355701771 0.00014481145988941513 0 0.0030094106772724448 7.1119830620540545e-07 0 0.00052858150433410223 0.00036898030251968946 0 0.0091585400466416712 -0.00076947554779018055 0 0.0044296731196337268 -0.00071212927762786139 0 0.0063781137786095938 0.0017410276522712613 0 0.0091585400466416712 -0.00076947554779018055 0 0.0063781137786095938 0.0017410276522712613 0 0.0086997352092294273 0.0031178081863625184 0 0.0044296731196337268 -0.00071212927762786139 0 0.0063781137786095938 0.0017410276522712613 0 0.0034703221034933177 0.0027595294431365523 0 0.0044296731196337268 -0.00071212927762786139 0 0.0019524138230238642 0.00058494548213603446 0 0.0034703221034933177 0.0027595294431365523 0 0.0063781137786095938 0.0017410276522712613 0 0.0034703221034933177 0.0027595294431365523 0 0.0067282077085735869 0.005117150234517069 0 0.003578228091955675 0.00053040667063568856 0 0.003346069768048542 0.00034238364979212086 0 0.0034381808412527631 0.00050309633099467109 0 0.007227722376239489 -0.00048392856374759077 0 0.012297847197305933 0.00058405137443001253 0 0.0063781137786095938 0.0017410276522712613 0 0.0067282077085735869 0.005117150234517069 0 0.0086997352092294273 0.0031178081863625184 0 0.0068782736137072004 0.0049369536185156701 0 0.0086997352092294273 0.0031178081863625184 0 0.0092319176209841192 0.0067008451042184928 0 0.012297847197305933 0.00058405137443001253 0 0.01122423954895085 0.0015642809828937049 0 0.021612202526142588 -0.0074044318276422771 0 0.021689365700020613 -0.0052299350193226258 0 0.023256709368559846 -0.0061274186438011477 0 0.012297847197305933 0.00058405137443001253 0 0.015055452078865337 0.00048619817343599741 0 0.021689365700020613 -0.0052299350193226258 0 0.023253732236809748 -0.0045202532154461203 0 0.023256709368559846 -0.0061274186438011477 0 0.003578228091955675 0.00053040667063568856 0 0.0034381808412527631 0.00050309633099467109 0 0.0037854925073329345 0.000128559057410582 0 0.021612202526142588 -0.0074044318276422771 0 0.021689365700020613 -0.0052299350193226258 0 0.019497413845107298 -0.0056116333744733087 0 0.012297847197305933 0.00058405137443001253 0 0.012328406915566711 -0.00088135230661804461 0 0.021689365700020613 -0.0052299350193226258 0 0.019497413845107298 -0.0056116333744733087 0 0.020387978557188702 -0.0039413834220077939 0 0.021689365700020613 -0.0052299350193226258 0 0.022259721967416872 -0.0037169305012149986 0 0.023253732236809748 -0.0045202532154461203 0 0.021689365700020613 -0.0052299350193226258 0 0.020387978557188702 -0.0039413834220077939 0 0.022259721967416872 -0.0037169305012149986 0 0.021539748102597976 -0.002350333877468214 0 0.020387978557188702 -0.0039413834220077939 0 0.022259721967416872 -0.0037169305012149986 0 0.022259721967416872 -0.0037169305012149986 0 0.023447257068099869 -0.0033380886840837071 0 0.023382777131048901 -0.0022773447372673424 0 0.022259721967416872 -0.0037169305012149986 0 0.023447257068099869 -0.0033380886840837071 0 0.023253732236809748 -0.0045202532154461203 0 0.023447257068099869 -0.0033380886840837071 0 0.024390922650398709 -0.0035412670121272231 0 0.024741525459889314 -0.002372696375993306 0 0.024390922650398709 -0.0035412670121272231 0 0.025063790548823944 -0.0045936791190966976 0 0.023253732236809748 -0.0045202532154461203 0 0.017477731021148579 -0.00042914797710818641 0 0.01703404506090872 4.5905245602687949e-05 0 0.023447257068099869 -0.0033380886840837071 0 0.024390922650398709 -0.0035412670121272231 0 0.023253732236809748 -0.0045202532154461203 0 0.026310505392389168 -0.0022290599624356462 0 0.025839249907601999 -0.0025322574151364842 0 0.026127780382395806 -0.0020863465741999794 0 0.025839249907601999 -0.0025322574151364842 0 0.026108474292334507 -0.0020117639180148562 0 0.025813441546407238 -0.0016447210180041481 0 0.024390922650398709 -0.0035412670121272231 0 0.025839249907601999 -0.0025322574151364842 0 0.024741525459889314 -0.002372696375993306 0 0.01703404506090872 4.5905245602687949e-05 0 0.018174401605954349 0.00034049102589527584 0 0.024390922650398709 -0.0035412670121272231 0 0.024829143630819516 -0.0039694969816570702 0 0.025839249907601999 -0.0025322574151364842 0 0.025839249907601999 -0.0025322574151364842 0 0.026127780382395806 -0.0020863465741999794 0 0.026108474292334507 -0.0020117639180148562 0 0.026310505392389168 -0.0022290599624356462 0 0.026438357190864938 -0.0017382343027459695 0 0.026127780382395806 -0.0020863465741999794 0 0.011603734042986301 0.0084709897451223683 0 0.011379424280948994 0.0062882267522271218 0 0.013809824857569744 0.0053381244490213857 0 0.01703404506090872 4.5905245602687949e-05 0 0.018248324559868946 0.000578113935087529 0 0.025063790548823944 -0.0045936791190966976 0 0.023253732236809748 -0.0045202532154461203 0 0.023256709368559846 -0.0061274186438011477 0 0.01703404506090872 4.5905245602687949e-05 0 0.015055452078865337 0.00048619817343599741 0 0.011603734042986301 0.0084709897451223683 0 0.011379424280948994 0.0062882267522271218 0 0.0092319176209841192 0.0067008451042184928 0 0.011379424280948994 0.0062882267522271218 0 0.0092319176209841192 0.0067008451042184928 0 0.010879912818448396 0.0046420314526154525 0 0.0086997352092294273 0.0031178081863625184 0 0.010879912818448396 0.0046420314526154525 0 0.012110382882643864 0.0022801789351157343 0 0.0086997352092294273 0.0031178081863625184 0 0.0092319176209841192 0.0067008451042184928 0 0.010879912818448396 0.0046420314526154525 0 0.013809824857569744 0.0053381244490213857 0 0.012110382882643864 0.0022801789351157343 0 0.016026197709960773 0.0021807090222273826 0 0.010879912818448396 0.0046420314526154525 0 0.013809824857569744 0.0053381244490213857 0 0.012110382882643864 0.0022801789351157343 0 0.011379424280948994 0.0062882267522271218 0 0.010879912818448396 0.0046420314526154525 0 0.013809824857569744 0.0053381244490213857 0 0.013713764431096963 -0.00085260029627366154 0 0.012110382882643864 0.0022801789351157343 0 0.016026197709960773 0.0021807090222273826 0 0.0091585400466416712 -0.00076947554779018055 0 0.0086997352092294273 0.0031178081863625184 0 0.012110382882643864 0.0022801789351157343 0 0.0091585400466416712 -0.00076947554779018055 0 0.013713764431096963 -0.00085260029627366154 0 0.012110382882643864 0.0022801789351157343 0 0.02633021151503568 0.00082221778354485365 0 0.026740254495744201 -0.00094251762539134865 0 0.0251421777188186 -0.00045963167458980302 0 0.026740254495744201 -0.00094251762539134865 0 0.025902747110226991 -0.0015252752765374247 0 0.0251421777188186 -0.00045963167458980302 0 0.017640340861127091 0.0014698611930010735 0 0.018848314322576276 0.00046140866213212854 0 0.018230549257534111 -0.00096725299195866792 0 0.013713764431096963 -0.00085260029627366154 0 0.016026197709960773 0.0021807090222273826 0 0.018248324559868946 0.000578113935087529 0 0.018848314322576276 0.00046140866213212854 0 0.026438357190864938 -0.0017382343027459695 0 0.026740254495744201 -0.00094251762539134865 0 0.026308591331732255 -0.0016757011137929088 0 0.026740254495744201 -0.00094251762539134865 0 0.026308591331732255 -0.0016757011137929088 0 0.025902747110226991 -0.0015252752765374247 0 0.025902747110226991 -0.0015252752765374247 0 0.026220986080367548 -0.0019850116767340443 0 0.02638616229453385 -0.0018431924652415489 0 0.026308591331732255 -0.0016757011137929088 0 0.025902747110226991 -0.0015252752765374247 0 0.026220986080367548 -0.0019850116767340443 0 0.026438357190864938 -0.0017382343027459695 0 0.026308591331732255 -0.0016757011137929088 0 0.026127780382395806 -0.0020863465741999794 0 0.026308591331732255 -0.0016757011137929088 0 0.026220986080367548 -0.0019850116767340443 0 0.026127780382395806 -0.0020863465741999794 0 0.026220986080367548 -0.0019850116767340443 0 0.026108474292334507 -0.0020117639180148562 0 0.02642813095644958 -0.0015276845299908755 0 0.026220986080367548 -0.0019850116767340443 0 0.026127780382395806 -0.0020863465741999794 0 0.026108474292334507 -0.0020117639180148562 0 0.026220986080367548 -0.0019850116767340443 0 0.02642813095644958 -0.0015276845299908755 0 0.02638616229453385 -0.0018431924652415489 0 0.02642813095644958 -0.0015276845299908755 0 0.027318336926158815 -0.0011220256702383011 0 0.02638616229453385 -0.0018431924652415489 0 0.02642813095644958 -0.0015276845299908755 0 0.02738192402108975 -7.2122948251962464e-05 0 0.027318336926158815 -0.0011220256702383011 0 0.026848603943540984 0.00028707430759399504 0 0.027378496081248295 0.00090497756141476641 0 0.02738192402108975 -7.2122948251962464e-05 0 0.02642813095644958 -0.0015276845299908755 0 0.026120484914165982 -0.00022338338806421833 0 0.02738192402108975 -7.2122948251962464e-05 0 0.02615999833798778 -6.1125418153988052e-06 0 0.02680787612925796 -9.481731990056983e-05 0 0.02642813095644958 -0.0015276845299908755 0 0.026120484914165982 -0.00022338338806421833 0 0.025813441546407238 -0.0016447210180041481 0 0.026108474292334507 -0.0020117639180148562 0 0.02642813095644958 -0.0015276845299908755 0 0.025813441546407238 -0.0016447210180041481 0 0.025839249907601999 -0.0025322574151364842 0 0.025813441546407238 -0.0016447210180041481 0 0.024741525459889314 -0.002372696375993306 0 0.025813441546407238 -0.0016447210180041481 0 0.024751145599184673 -0.0012466437810464981 0 0.024741525459889314 -0.002372696375993306 0 0.023014419319829556 -0.00095814099856263418 0 0.024751145599184673 -0.0012466437810464981 0 0.023382777131048901 -0.0022773447372673424 0 0.023447257068099869 -0.0033380886840837071 0 0.023382777131048901 -0.0022773447372673424 0 0.024741525459889314 -0.002372696375993306 0 0.024751145599184673 -0.0012466437810464981 0 0.023382777131048901 -0.0022773447372673424 0 0.024741525459889314 -0.002372696375993306 0 0.023014419319829556 -0.00095814099856263418 0 0.024751145599184673 -0.0012466437810464981 0 0.024409154150525879 9.4373050272655897e-05 0 0.026120484914165982 -0.00022338338806421833 0 0.025813441546407238 -0.0016447210180041481 0 0.024751145599184673 -0.0012466437810464981 0 0.02615999833798778 -6.1125418153988052e-06 0 0.024799145331622866 0.0001721226942657966 0 0.026120484914165982 -0.00022338338806421833 0 0.024751145599184673 -0.0012466437810464981 0 0.024409154150525879 9.4373050272655897e-05 0 0.026848603943540984 0.00028707430759399504 0 0.025397004995931706 0.00014184101471450712 0 0.026875156933010146 0.0016810223790634225 0 0.022389214512650399 0.00031495270479487851 0 0.025397004995931706 0.00014184101471450712 0 0.025267515266204493 0.0021832728653087474 0 0.023820223069425443 0.0003055317560596288 0 0.024799145331622866 0.0001721226942657966 0 0.025397004995931706 0.00014184101471450712 0 0.025267515266204493 0.0021832728653087474 0 0.026875156933010146 0.0016810223790634225 0 0.026875156933010146 0.0016810223790634225 0 0.027736907746237219 0.0019693102704453633 0 0.027707321600180239 0.0030478110750080749 0 0.027736907746237219 0.0019693102704453633 0 0.027378496081248295 0.00090497756141476641 0 0.028267026630229685 0.0013654007677841931 0 0.026875156933010146 0.0016810223790634225 0 0.027736907746237219 0.0019693102704453633 0 0.027378496081248295 0.00090497756141476641 0 0.027378496081248295 0.00090497756141476641 0 0.028267026630229685 0.0013654007677841931 0 0.02738192402108975 -7.2122948251962464e-05 0 0.026848603943540984 0.00028707430759399504 0 0.026875156933010146 0.0016810223790634225 0 0.027378496081248295 0.00090497756141476641 0 0.028267026630229685 0.0013654007677841931 0 0.02975654293553353 0.0022002341620340074 0 0.028843278390722149 0.0003797765245752885 0 0.028267026630229685 0.0013654007677841931 0 0.028843278390722149 0.0003797765245752885 0 0.02738192402108975 -7.2122948251962464e-05 0 0.027736907746237219 0.0019693102704453633 0 0.028267026630229685 0.0013654007677841931 0 0.028708875406500408 0.0028147354385569326 0 0.028267026630229685 0.0013654007677841931 0 0.02975654293553353 0.0022002341620340074 0 0.028708875406500408 0.0028147354385569326 0 0.02975654293553353 0.0022002341620340074 0 0.031854221408313711 0.0016585511435463782 0 0.03108839197560373 0.0036433139963381865 0 0.02975654293553353 0.0022002341620340074 0 0.030256986755437709 0.0010368096989807106 0 0.031854221408313711 0.0016585511435463782 0 0.030256986755437709 0.0010368096989807106 0 0.030559026157303503 -0.00026265467197630107 0 0.031854221408313711 0.0016585511435463782 0 0.02975654293553353 0.0022002341620340074 0 0.030256986755437709 0.0010368096989807106 0 0.028843278390722149 0.0003797765245752885 0 0.030559026157303503 -0.00026265467197630107 0 0.028796991632524714 -0.000695280264480014 0 0.028843278390722149 0.0003797765245752885 0 0.030256986755437709 0.0010368096989807106 0 0.030559026157303503 -0.00026265467197630107 0 0.028843278390722149 0.0003797765245752885 0 0.030559026157303503 -0.00026265467197630107 0 0.029895681840029845 -0.0011547104333454905 0 0.032211765559040685 -0.00097903188882009608 0 0.030559026157303503 -0.00026265467197630107 0 0.029895681840029845 -0.0011547104333454905 0 0.028796991632524714 -0.000695280264480014 0 0.029895681840029845 -0.0011547104333454905 0 0.028796991632524714 -0.000695280264480014 0 0.027810153429151743 -0.0014576333698595565 0 0.028796991632524714 -0.000695280264480014 0 0.027318336926158815 -0.0011220256702383011 0 0.027810153429151743 -0.0014576333698595565 0 0.028796991632524714 -0.000695280264480014 0 0.028843278390722149 0.0003797765245752885 0 0.027318336926158815 -0.0011220256702383011 0 0.028843278390722149 0.0003797765245752885 0 0.02738192402108975 -7.2122948251962464e-05 0 0.027318336926158815 -0.0011220256702383011 0 0.027318336926158815 -0.0011220256702383011 0 0.026653825793320072 -0.0017973875402831035 0 0.02638616229453385 -0.0018431924652415489 0 0.027318336926158815 -0.0011220256702383011 0 0.026653825793320072 -0.0017973875402831035 0 0.027810153429151743 -0.0014576333698595565 0 0.026653825793320072 -0.0017973875402831035 0 0.025372603999644031 -0.0014508995935446931 0 0.026635269432150863 -0.0021036177343360042 0 0.026653825793320072 -0.0017973875402831035 0 0.026635269432150863 -0.0021036177343360042 0 0.027810153429151743 -0.0014576333698595565 0 0.026653825793320072 -0.0017973875402831035 0 0.02638616229453385 -0.0018431924652415489 0 0.025372603999644031 -0.0014508995935446931 0 0.025902747110226991 -0.0015252752765374247 0 0.025372603999644031 -0.0014508995935446931 0 0.0251421777188186 -0.00045963167458980302 0 0.025902747110226991 -0.0015252752765374247 0 0.02638616229453385 -0.0018431924652415489 0 0.025372603999644031 -0.0014508995935446931 0 0.025372603999644031 -0.0014508995935446931 0 0.025371072050545083 -0.0016315090422046484 0 0.026635269432150863 -0.0021036177343360042 0 0.025372603999644031 -0.0014508995935446931 0 0.024593256291507024 -0.00053152073961632636 0 0.025371072050545083 -0.0016315090422046484 0 0.025372603999644031 -0.0014508995935446931 0 0.024593256291507024 -0.00053152073961632636 0 0.024020562774669962 -3.2253811207532514e-05 0 0.023542243775664082 0.00079598471492167396 0 0.024593256291507024 -0.00053152073961632636 0 0.024020562774669962 -3.2253811207532514e-05 0 0.025372603999644031 -0.0014508995935446931 0 0.024020562774669962 -3.2253811207532514e-05 0 0.0251421777188186 -0.00045963167458980302 0 0.022675530222580495 0.0015257475522496894 0 0.024020562774669962 -3.2253811207532514e-05 0 0.0251421777188186 -0.00045963167458980302 0 0.026583575832102333 -0.0029007958594919597 0 0.028953121285555182 -0.0028669865410237364 0 0.027380534440560718 -0.0044094679997811409 0 0.025859040670537826 -0.0041585126294742076 0 0.02802247689884578 -0.0029400705784948899 0 0.026676442903314848 -0.0052149593829989623 0 0.027380534440560718 -0.0044094679997811409 0 0.025859040670537826 -0.0041585126294742076 0 0.026551134083956283 -0.0028810918562968079 0 0.026583575832102333 -0.0029007958594919597 0 0.023542243775664082 0.00079598471492167396 0 0.024593256291507024 -0.00053152073961632636 0 0.024121741751176061 -0.00017059594567424689 0 0.024593256291507024 -0.00053152073961632636 0 0.024121741751176061 -0.00017059594567424689 0 0.025371072050545083 -0.0016315090422046484 0 0.024121741751176061 -0.00017059594567424689 0 0.024031935840067478 -0.00062219932627084393 0 0.025371072050545083 -0.0016315090422046484 0 0.024031935840067478 -0.00062219932627084393 0 0.02672801447316038 -0.0027375256318999865 0 0.025371072050545083 -0.0016315090422046484 0 0.026583575832102333 -0.0029007958594919597 0 0.026556128695891863 -0.002562294674367009 0 0.02672801447316038 -0.0027375256318999865 0 0.025371072050545083 -0.0016315090422046484 0 0.026635269432150863 -0.0021036177343360042 0 0.026656358564126407 -0.0059677202800910755 0 0.02672801447316038 -0.0027375256318999865 0 0.030695146781933663 -0.0043875726778764453 0 0.02672801447316038 -0.0027375256318999865 0 0.031070802041163192 -0.0026516430711954445 0 0.030695146781933663 -0.0043875726778764453 0 0.02672801447316038 -0.0027375256318999865 0 0.028964897752572813 -0.0018942218942972163 0 0.031070802041163192 -0.0026516430711954445 0 0.02672801447316038 -0.0027375256318999865 0 0.028964897752572813 -0.0018942218942972163 0 0.026635269432150863 -0.0021036177343360042 0 0.028964897752572813 -0.0018942218942972163 0 0.026635269432150863 -0.0021036177343360042 0 0.027810153429151743 -0.0014576333698595565 0 0.029895681840029845 -0.0011547104333454905 0 0.028964897752572813 -0.0018942218942972163 0 0.027810153429151743 -0.0014576333698595565 0 0.029895681840029845 -0.0011547104333454905 0 0.028964897752572813 -0.0018942218942972163 0 0.031548164748981013 -0.0017166762243991326 0 0.031548164748981013 -0.0017166762243991326 0 0.033140153292060999 -0.0023397549495004226 0 0.031070802041163192 -0.0026516430711954445 0 0.031548164748981013 -0.0017166762243991326 0 0.033140153292060999 -0.0023397549495004226 0 0.034018907043622697 -0.0014693140464937162 0 0.033140153292060999 -0.0023397549495004226 0 0.034409404380048636 -0.0023873955845630972 0 0.034018907043622697 -0.0014693140464937162 0 0.033140153292060999 -0.0023397549495004226 0 0.033523537649989332 -0.0033177550013760563 0 0.031070802041163192 -0.0026516430711954445 0 0.033140153292060999 -0.0023397549495004226 0 0.033523537649989332 -0.0033177550013760563 0 0.034409404380048636 -0.0023873955845630972 0 0.028964897752572813 -0.0018942218942972163 0 0.031548164748981013 -0.0017166762243991326 0 0.031070802041163192 -0.0026516430711954445 0 0.033523537649989332 -0.0033177550013760563 0 0.031070802041163192 -0.0026516430711954445 0 0.030695146781933663 -0.0043875726778764453 0 0.031116660067032162 -0.0023688289114206385 0 0.028953121285555182 -0.0028669865410237364 0 0.030884704036227749 -0.0018878583714458182 0 0.02802247689884578 -0.0029400705784948899 0 0.029576367042034202 -0.004174646703622077 0 0.030884704036227749 -0.0018878583714458182 0 0.029576367042034202 -0.004174646703622077 0 0.03283735239464107 -0.003003883409675087 0 0.027514916052243547 -0.0057278909189166574 0 0.027380534440560718 -0.0044094679997811409 0 0.029576367042034202 -0.004174646703622077 0 0.027380534440560718 -0.0044094679997811409 0 0.02802247689884578 -0.0029400705784948899 0 0.029576367042034202 -0.004174646703622077 0 0.033870635741751504 -0.0041381412638717523 0 0.031871099382702335 -0.0048834971570901201 0 0.03283735239464107 -0.003003883409675087 0 0.029576367042034202 -0.004174646703622077 0 0.031871099382702335 -0.0048834971570901201 0 0.03283735239464107 -0.003003883409675087 0 0.03465448237267324 -0.0026472385928742559 0 0.033870635741751504 -0.0041381412638717523 0 0.03283735239464107 -0.003003883409675087 0 0.03465448237267324 -0.0026472385928742559 0 0.03283735239464107 -0.003003883409675087 0 0.034174871750821227 -0.00184337154604813 0 0.036182692595990752 -0.0040918015458832899 0 0.036238729026152529 -0.0020227829948484353 0 0.034563714568506106 -0.0015920775017533918 0 0.03573552874842454 -0.003553835860988069 0 0.035134591470879294 -0.0024878905533163836 0 0.03465448237267324 -0.0026472385928742559 0 0.034174871750821227 -0.00184337154604813 0 0.034563714568506106 -0.0015920775017533918 0 0.031116660067032162 -0.0023688289114206385 0 0.032072259255478047 -0.0020790467371598867 0 0.030884704036227749 -0.0018878583714458182 0 0.03283735239464107 -0.003003883409675087 0 0.034174871750821227 -0.00184337154604813 0 0.033523537649989332 -0.0033177550013760563 0 0.034174871750821227 -0.00184337154604813 0 0.034409404380048636 -0.0023873955845630972 0 0.034409404380048636 -0.0023873955845630972 0 0.035914255937181519 -0.0018519383515404016 0 0.034018907043622697 -0.0014693140464937162 0 0.034174871750821227 -0.00184337154604813 0 0.034409404380048636 -0.0023873955845630972 0 0.034563714568506106 -0.0015920775017533918 0 0.034409404380048636 -0.0023873955845630972 0 0.037890001628280122 -0.0029980579466979732 0 0.035914255937181519 -0.0018519383515404016 0 0.034409404380048636 -0.0023873955845630972 0 0.034563714568506106 -0.0015920775017533918 0 0.035028550799041297 -0.00094465244709308459 0 0.036238729026152529 -0.0020227829948484353 0 0.034563714568506106 -0.0015920775017533918 0 0.035028550799041297 -0.00094465244709308459 0 0.036619304047893812 -0.0020396547319395486 0 0.037487433032752149 -0.0018607441357553971 0 0.038878120462496835 -0.0011393893748121032 0 0.03790084581027741 -0.0018385964399450856 0 0.036351775564350236 -0.00085634120026173031 0 0.03790084581027741 -0.0018385964399450856 0 0.036351775564350236 -0.00085634120026173031 0 0.035914255937181519 -0.0018519383515404016 0 0.037890001628280122 -0.0029980579466979732 0 0.03790084581027741 -0.0018385964399450856 0 0.035914255937181519 -0.0018519383515404016 0 0.038878120462496835 -0.0011393893748121032 0 0.036351775564350236 -0.00085634120026173031 0 0.038207284676625285 -0.00011588740390790964 0 0.036351775564350236 -0.00085634120026173031 0 0.035914255937181519 -0.0018519383515404016 0 0.034018907043622697 -0.0014693140464937162 0 0.036351775564350236 -0.00085634120026173031 0 0.034018907043622697 -0.0014693140464937162 0 0.033229549606781532 -0.00015665659197886615 0 0.034018907043622697 -0.0014693140464937162 0 0.032211765559040685 -0.00097903188882009608 0 0.033229549606781532 -0.00015665659197886615 0 0.031548164748981013 -0.0017166762243991326 0 0.034018907043622697 -0.0014693140464937162 0 0.032211765559040685 -0.00097903188882009608 0 0.029895681840029845 -0.0011547104333454905 0 0.031548164748981013 -0.0017166762243991326 0 0.032211765559040685 -0.00097903188882009608 0 0.030559026157303503 -0.00026265467197630107 0 0.033229549606781532 -0.00015665659197886615 0 0.031854221408313711 0.0016585511435463782 0 0.030559026157303503 -0.00026265467197630107 0 0.032211765559040685 -0.00097903188882009608 0 0.033229549606781532 -0.00015665659197886615 0 0.036351775564350236 -0.00085634120026173031 0 0.033229549606781532 -0.00015665659197886615 0 0.036887217965063106 0.0010756757972925439 0 0.033229549606781532 -0.00015665659197886615 0 0.031854221408313711 0.0016585511435463782 0 0.036887217965063106 0.0010756757972925439 0 0.031854221408313711 0.0016585511435463782 0 0.036887217965063106 0.0010756757972925439 0 0.033828204201349764 0.0036168026915626367 0 0.037177288057868234 0.0010940672751451415 0 0.036892199111187296 0.0016865738729434916 0 0.039157245391052357 0.00053871347093993876 0 0.036887217965063106 0.0010756757972925439 0 0.03935673213715437 0.0010258530502892695 0 0.040430104421857321 0.00064303167733075471 0 0.039157245391052357 0.00053871347093993876 0 0.03935673213715437 0.0010258530502892695 0 0.039626344279444024 -0.00038278751406683499 0 0.039157245391052357 0.00053871347093993876 0 0.038207284676625285 -0.00011588740390790964 0 0.039157245391052357 0.00053871347093993876 0 0.038207284676625285 -0.00011588740390790964 0 0.036887217965063106 0.0010756757972925439 0 0.036351775564350236 -0.00085634120026173031 0 0.038207284676625285 -0.00011588740390790964 0 0.036887217965063106 0.0010756757972925439 0 0.03935673213715437 0.0010258530502892695 0 0.040088913920728379 0.0010908791350289467 0 0.040432858865621708 0.0010040154124409185 0 0.040922073565589252 0.00078505808999131826 0 0.03935673213715437 0.0010258530502892695 0 0.040432858865621708 0.0010040154124409185 0 0.040922073565589252 0.00078505808999131826 0 0.040430104421857321 0.00064303167733075471 0 0.03935673213715437 0.0010258530502892695 0 0.036887217965063106 0.0010756757972925439 0 0.03935673213715437 0.0010258530502892695 0 0.039520635260092515 0.0011411113747582934 0 0.031854221408313711 0.0016585511435463782 0 0.033828204201349764 0.0036168026915626367 0 0.03108839197560373 0.0036433139963381865 0 0.033828204201349764 0.0036168026915626367 0 0.031975594368846658 0.0045997850936370672 0 0.03108839197560373 0.0036433139963381865 0 0.036892199111187296 0.0016865738729434916 0 0.036540339665059353 0.0022795376034711709 0 0.039520635260092515 0.0011411113747582934 0 0.040088913920728379 0.0010908791350289467 0 0.040675782071278768 0.0012734366737592638 0 0.03935673213715437 0.0010258530502892695 0 0.039520635260092515 0.0011411113747582934 0 0.040088913920728379 0.0010908791350289467 0 0.040088913920728379 0.0010908791350289467 0 0.040386125645206661 0.0010045360234980237 0 0.040675782071278768 0.0012734366737592638 0 0.040088913920728379 0.0010908791350289467 0 0.040386125645206661 0.0010045360234980237 0 0.040458035595212063 0.00108174686270179 0 0.040386125645206661 0.0010045360234980237 0 0.040675782071278768 0.0012734366737592638 0 0.040708948149398023 0.00080761863512122326 0 0.040675782071278768 0.0012734366737592638 0 0.040708948149398023 0.00080761863512122326 0 0.041498181382863812 0.0001789759994567635 0 0.040708948149398023 0.00080761863512122326 0 0.040983893727933297 0.00052841281966970171 0 0.040776852779965567 0.00074468714052778327 0 0.040708948149398023 0.00080761863512122326 0 0.040983893727933297 0.00052841281966970171 0 0.041498181382863812 0.0001789759994567635 0 0.040386125645206661 0.0010045360234980237 0 0.040550014430759014 0.00094930439936312741 0 0.040458035595212063 0.00108174686270179 0 0.040386125645206661 0.0010045360234980237 0 0.040708948149398023 0.00080761863512122326 0 0.040550014430759014 0.00094930439936312741 0 0.040708948149398023 0.00080761863512122326 0 0.040550014430759014 0.00094930439936312741 0 0.040776852779965567 0.00074468714052778327 0 0.040550014430759014 0.00094930439936312741 0 0.04064649981510618 0.0011036427423000293 0 0.040776852779965567 0.00074468714052778327 0 0.040649490955344855 0.001228908464504823 0 0.040458035595212063 0.00108174686270179 0 0.04064649981510618 0.0011036427423000293 0 0.040550014430759014 0.00094930439936312741 0 0.040458035595212063 0.00108174686270179 0 0.04064649981510618 0.0011036427423000293 0 0.040649490955344855 0.001228908464504823 0 0.040458035595212063 0.00108174686270179 0 0.040915058843794795 0.0012166609202052853 0 0.040458035595212063 0.00108174686270179 0 0.040432858865621708 0.0010040154124409185 0 0.040915058843794795 0.0012166609202052853 0 0.040088913920728379 0.0010908791350289467 0 0.040458035595212063 0.00108174686270179 0 0.040432858865621708 0.0010040154124409185 0 0.041621457556256999 0.0010235682561410683 0 0.040432858865621708 0.0010040154124409185 0 0.040915058843794795 0.0012166609202052853 0 0.040922073565589252 0.00078505808999131826 0 0.041621457556256999 0.0010235682561410683 0 0.040432858865621708 0.0010040154124409185 0 0.042067421720593058 0.001765759693762128 0 0.041621457556256999 0.0010235682561410683 0 0.040915058843794795 0.0012166609202052853 0 0.042067421720593058 0.001765759693762128 0 0.040915058843794795 0.0012166609202052853 0 0.040684016965803697 0.0014757993815402426 0 0.040649490955344855 0.001228908464504823 0 0.040915058843794795 0.0012166609202052853 0 0.040684016965803697 0.0014757993815402426 0 0.042067421720593058 0.001765759693762128 0 0.040684016965803697 0.0014757993815402426 0 0.041184207748532785 0.0021795854441490755 0 0.044743478492802753 0.0022601650604340555 0 0.045589507053593908 0.0017402521318101469 0 0.040684016965803697 0.0014757993815402426 0 0.04036431542266726 0.0010519255253535261 0 0.040692635072421608 0.0010200072545926224 0 0.045103377236745033 0.0014164579227934064 0 0.045589507053593908 0.0017402521318101469 0 0.040684016965803697 0.0014757993815402426 0 0.04064649981510618 0.0011036427423000293 0 0.040692635072421608 0.0010200072545926224 0 0.040649490955344855 0.001228908464504823 0 0.040684016965803697 0.0014757993815402426 0 0.04064649981510618 0.0011036427423000293 0 0.04064649981510618 0.0011036427423000293 0 0.040692635072421608 0.0010200072545926224 0 0.040804244993774379 0.00080120529773088751 0 0.040692635072421608 0.0010200072545926224 0 0.040688481738795482 0.00059658105732323676 0 0.040804244993774379 0.00080120529773088751 0 0.040688481738795482 0.00059658105732323676 0 0.040804244993774379 0.00080120529773088751 0 0.040905602840169662 0.00056995339614158795 0 0.049851404949501896 0.0015475756757545405 0 0.049828854975444169 0.0015289431720927568 0 0.049816602651462961 0.0015501438367327217 0 0.045589507053593908 0.0017402521318101469 0 0.045389945754908248 0.001136226702331899 0 0.04036431542266726 0.0010519255253535261 0 0.040692635072421608 0.0010200072545926224 0 0.040688481738795482 0.00059658105732323676 0 0.0470783127971603 0.0025953550435828623 0 0.045589507053593908 0.0017402521318101469 0 0.049851404949501896 0.0015475756757545405 0 0.049816602651462961 0.0015501438367327217 0 0.049842687373005137 0.0015741057943807109 0 0.049816602651462961 0.0015501438367327217 0 0.049842687373005137 0.0015741057943807109 0 0.04980428344452148 0.0015684291223310878 0 0.040688481738795482 0.00059658105732323676 0 0.040850913979001903 0.00041120245017279807 0 0.040905602840169662 0.00056995339614158795 0 0.045389945754908248 0.001136226702331899 0 0.045305437544498929 0.00047802590728976082 0 0.049842687373005137 0.0015741057943807109 0 0.04980428344452148 0.0015684291223310878 0 0.049829298034866604 0.00158872556097421 0 0.04980428344452148 0.0015684291223310878 0 0.049812700760601326 0.0015930685672127028 0 0.049829298034866604 0.00158872556097421 0 0.049842687373005137 0.0015741057943807109 0 0.049829298034866604 0.00158872556097421 0 0.049865366284142697 0.0016112708283501289 0 0.043880439386095739 -0.00096704840476332786 0 0.045595019678357676 -0.00085769691014532447 0 0.0436370432243985 -0.0025257850904917157 0 0.043103582182035451 -0.0026031273915940933 0 0.043285401134620566 -0.0025012034407957888 0 0.0436370432243985 -0.0025257850904917157 0 0.043103582182035451 -0.0026031273915940933 0 0.043606337081533553 -0.0025355541861660528 0 0.040850913979001903 0.00041120245017279807 0 0.041001410307002113 0.00046030429945179645 0 0.040969927018281914 0.00027188773101636952 0 0.045305437544498929 0.00047802590728976082 0 0.045595019678357676 -0.00085769691014532447 0 0.04980428344452148 0.0015684291223310878 0 0.049812700760601326 0.0015930685672127028 0 0.049793444836451567 0.0015822787184072891 0 0.040850913979001903 0.00041120245017279807 0 0.041001410307002113 0.00046030429945179645 0 0.040905602840169662 0.00056995339614158795 0 0.043880439386095739 -0.00096704840476332786 0 0.043069924600136492 -0.00061039510265967472 0 0.043103582182035451 -0.0026031273915940933 0 0.042011449200667232 -0.002179149971167828 0 0.042757277062759801 -0.0026812812176558579 0 0.041004604641126416 0.00053789207887862292 0 0.040905602840169662 0.00056995339614158795 0 0.040928888467299439 0.0006123576845919078 0 0.041001410307002113 0.00046030429945179645 0 0.041004604641126416 0.00053789207887862292 0 0.040905602840169662 0.00056995339614158795 0 0.040804244993774379 0.00080120529773088751 0 0.040905602840169662 0.00056995339614158795 0 0.040928888467299439 0.0006123576845919078 0 0.040804244993774379 0.00080120529773088751 0 0.040928888467299439 0.0006123576845919078 0 0.040776852779965567 0.00074468714052778327 0 0.040928888467299439 0.0006123576845919078 0 0.040776852779965567 0.00074468714052778327 0 0.041030165828066116 0.00047785266483234555 0 0.04064649981510618 0.0011036427423000293 0 0.040804244993774379 0.00080120529773088751 0 0.040776852779965567 0.00074468714052778327 0 0.043069924600136492 -0.00061039510265967472 0 0.042862160181722037 -0.0002823526976140351 0 0.041004604641126416 0.00053789207887862292 0 0.041030165828066116 0.00047785266483234555 0 0.041498181382863812 0.0001789759994567635 0 0.041004604641126416 0.00053789207887862292 0 0.040928888467299439 0.0006123576845919078 0 0.041030165828066116 0.00047785266483234555 0 0.040983893727933297 0.00052841281966970171 0 0.040776852779965567 0.00074468714052778327 0 0.041030165828066116 0.00047785266483234555 0 0.040983893727933297 0.00052841281966970171 0 0.041030165828066116 0.00047785266483234555 0 0.041498181382863812 0.0001789759994567635 0 0.042314200981129195 -0.0015513142352860923 0 0.041498181382863812 0.0001789759994567635 0 0.042264429623917639 0.00017163007525899032 0 0.042011449200667232 -0.002179149971167828 0 0.042314200981129195 -0.0015513142352860923 0 0.041498181382863812 0.0001789759994567635 0 0.042314200981129195 -0.0015513142352860923 0 0.043253868190225031 -0.0029167654932983848 0 0.042264429623917639 0.00017163007525899032 0 0.036142004088072784 0.0020281835212205522 0 0.036400992455887515 0.0022486394613418538 0 0.030152997761786204 0.0051763772816632468 0 0.030298832282464272 0.0055813179314732403 0 0.030814802404311243 0.0051627839112335129 0 0.042011449200667232 -0.002179149971167828 0 0.042314200981129195 -0.0015513142352860923 0 0.042757277062759801 -0.0026812812176558579 0 0.042314200981129195 -0.0015513142352860923 0 0.043253868190225031 -0.0029167654932983848 0 0.042757277062759801 -0.0026812812176558579 0 0.042757277062759801 -0.0026812812176558579 0 0.042851489440081714 -0.0027231422809372774 0 0.043285401134620566 -0.0025012034407957888 0 0.043103582182035451 -0.0026031273915940933 0 0.042757277062759801 -0.0026812812176558579 0 0.043285401134620566 -0.0025012034407957888 0 0.043253868190225031 -0.0029167654932983848 0 0.042757277062759801 -0.0026812812176558579 0 0.042851489440081714 -0.0027231422809372774 0 0.043253868190225031 -0.0029167654932983848 0 0.042196351523915446 -0.0027174803127661992 0 0.042851489440081714 -0.0027231422809372774 0 0.043253868190225031 -0.0029167654932983848 0 0.042196351523915446 -0.0027174803127661992 0 0.039731716098131344 -0.0026300859920827956 0 0.042196351523915446 -0.0027174803127661992 0 0.042851489440081714 -0.0027231422809372774 0 0.043123086054122559 -0.0020955980946476883 0 0.042196351523915446 -0.0027174803127661992 0 0.043123086054122559 -0.0020955980946476883 0 0.039731716098131344 -0.0026300859920827956 0 0.0436370432243985 -0.0025257850904917157 0 0.043285401134620566 -0.0025012034407957888 0 0.043751371812787591 -0.0025251037555290992 0 0.043123086054122559 -0.0020955980946476883 0 0.043285401134620566 -0.0025012034407957888 0 0.043751371812787591 -0.0025251037555290992 0 0.042851489440081714 -0.0027231422809372774 0 0.043123086054122559 -0.0020955980946476883 0 0.043285401134620566 -0.0025012034407957888 0 0.030767613107010747 0.0048413977783715867 0 0.030815831200684391 0.0046127844737801358 0 0.032163805632396604 0.004983513168386188 0 0.030879165103425942 0.0058522659535799933 0 0.034092950482035811 0.0048606973900233389 0 0.033318982368252162 0.0043576180626723636 0 0.032163805632396604 0.004983513168386188 0 0.034092950482035811 0.0048606973900233389 0 0.033318982368252162 0.0043576180626723636 0 0.034092950482035811 0.0048606973900233389 0 0.034036006198964686 0.004037996119534773 0 0.032163805632396604 0.004983513168386188 0 0.030653854871393597 0.0056110346352936406 0 0.034887414225159986 0.0033209164764509726 0 0.043123086054122559 -0.0020955980946476883 0 0.039731716098131344 -0.0026300859920827956 0 0.036766209614845398 0.002952979709218791 0 0.032163805632396604 0.004983513168386188 0 0.030653854871393597 0.0056110346352936406 0 0.030879165103425942 0.0058522659535799933 0 0.030298832282464272 0.0055813179314732403 0 0.030653854871393597 0.0056110346352936406 0 0.030244002232514781 0.0056201670783609312 0 0.030653854871393597 0.0056110346352936406 0 0.030879165103425942 0.0058522659535799933 0 0.030244002232514781 0.0056201670783609312 0 0.036142004088072784 0.0020281835212205522 0 0.035376776476317227 0.0025892962272945868 0 0.030879165103425942 0.0058522659535799933 0 0.029651182839591166 0.0057216357595340061 0 0.029024923434505696 0.0066835301706454093 0 0.030879165103425942 0.0058522659535799933 0 0.029651182839591166 0.0057216357595340061 0 0.030244002232514781 0.0056201670783609312 0 0.029651182839591166 0.0057216357595340061 0 0.029324337897733331 0.0052771086485266057 0 0.028700210701030838 0.0054643042271105965 0 0.029651182839591166 0.0057216357595340061 0 0.029324337897733331 0.0052771086485266057 0 0.030244002232514781 0.0056201670783609312 0 0.029324337897733331 0.0052771086485266057 0 0.030244002232514781 0.0056201670783609312 0 0.02986690038100694 0.0052830828773867602 0 0.030298832282464272 0.0055813179314732403 0 0.030244002232514781 0.0056201670783609312 0 0.02986690038100694 0.0052830828773867602 0 0.030152997761786204 0.0051763772816632468 0 0.02986690038100694 0.0052830828773867602 0 0.029506646103648372 0.0048383766393385232 0 0.030152997761786204 0.0051763772816632468 0 0.030298832282464272 0.0055813179314732403 0 0.02986690038100694 0.0052830828773867602 0 0.029324337897733331 0.0052771086485266057 0 0.02986690038100694 0.0052830828773867602 0 0.029007657846977661 0.0049357836052225813 0 0.029324337897733331 0.0052771086485266057 0 0.029007657846977661 0.0049357836052225813 0 0.028394200576053109 0.0049618995383773293 0 0.02986690038100694 0.0052830828773867602 0 0.029007657846977661 0.0049357836052225813 0 0.029506646103648372 0.0048383766393385232 0 0.029007657846977661 0.0049357836052225813 0 0.028825598057983102 0.0044971724491426569 0 0.029506646103648372 0.0048383766393385232 0 0.028825598057983102 0.0044971724491426569 0 0.029596090202222033 0.0044592898300746019 0 0.029506646103648372 0.0048383766393385232 0 0.028825598057983102 0.0044971724491426569 0 0.029596090202222033 0.0044592898300746019 0 0.029281537938653488 0.0038033950768083351 0 0.028825598057983102 0.0044971724491426569 0 0.029281537938653488 0.0038033950768083351 0 0.028362457131349151 0.0037707777123980836 0 0.029596090202222033 0.0044592898300746019 0 0.030148800015740614 0.004177834656116256 0 0.029281537938653488 0.0038033950768083351 0 0.029596090202222033 0.0044592898300746019 0 0.029506646103648372 0.0048383766393385232 0 0.030212949476462105 0.0048568085052988737 0 0.030152997761786204 0.0051763772816632468 0 0.029506646103648372 0.0048383766393385232 0 0.030212949476462105 0.0048568085052988737 0 0.030212949476462105 0.0048568085052988737 0 0.030814802404311243 0.0051627839112335129 0 0.030833264485514208 0.0046130346070920349 0 0.030152997761786204 0.0051763772816632468 0 0.030212949476462105 0.0048568085052988737 0 0.030814802404311243 0.0051627839112335129 0 0.036540339665059353 0.0022795376034711709 0 0.036400992455887515 0.0022486394613418538 0 0.040675782071278768 0.0012734366737592638 0 0.041498181382863812 0.0001789759994567635 0 0.042264429623917639 0.00017163007525899032 0 0.031975594368846658 0.0045997850936370672 0 0.030814802404311243 0.0051627839112335129 0 0.030833264485514208 0.0046130346070920349 0 0.030212949476462105 0.0048568085052988737 0 0.030833264485514208 0.0046130346070920349 0 0.030148800015740614 0.004177834656116256 0 0.029596090202222033 0.0044592898300746019 0 0.030212949476462105 0.0048568085052988737 0 0.030148800015740614 0.004177834656116256 0 0.030833264485514208 0.0046130346070920349 0 0.030148800015740614 0.004177834656116256 0 0.03108839197560373 0.0036433139963381865 0 0.030148800015740614 0.004177834656116256 0 0.03108839197560373 0.0036433139963381865 0 0.029807662316508939 0.0033382695430560125 0 0.031975594368846658 0.0045997850936370672 0 0.030833264485514208 0.0046130346070920349 0 0.03108839197560373 0.0036433139963381865 0 0.02975654293553353 0.0022002341620340074 0 0.03108839197560373 0.0036433139963381865 0 0.029807662316508939 0.0033382695430560125 0 0.02975654293553353 0.0022002341620340074 0 0.029807662316508939 0.0033382695430560125 0 0.028708875406500408 0.0028147354385569326 0 0.028708875406500408 0.0028147354385569326 0 0.029281537938653488 0.0038033950768083351 0 0.028362457131349151 0.0037707777123980836 0 0.029807662316508939 0.0033382695430560125 0 0.028708875406500408 0.0028147354385569326 0 0.029281537938653488 0.0038033950768083351 0 0.030148800015740614 0.004177834656116256 0 0.029807662316508939 0.0033382695430560125 0 0.029281537938653488 0.0038033950768083351 0 0.02746619432743188 0.0040179499979996732 0 0.027707321600180239 0.0030478110750080749 0 0.02693454086843677 0.0033362714024729374 0 0.02746619432743188 0.0040179499979996732 0 0.028362457131349151 0.0037707777123980836 0 0.027707321600180239 0.0030478110750080749 0 0.028708875406500408 0.0028147354385569326 0 0.028362457131349151 0.0037707777123980836 0 0.027707321600180239 0.0030478110750080749 0 0.027736907746237219 0.0019693102704453633 0 0.028708875406500408 0.0028147354385569326 0 0.027707321600180239 0.0030478110750080749 0 0.026875156933010146 0.0016810223790634225 0 0.027707321600180239 0.0030478110750080749 0 0.02693454086843677 0.0033362714024729374 0 0.025267515266204493 0.0021832728653087474 0 0.02693454086843677 0.0033362714024729374 0 0.026036718051392779 0.0036960156381281419 0 0.025267515266204493 0.0021832728653087474 0 0.026875156933010146 0.0016810223790634225 0 0.02693454086843677 0.0033362714024729374 0 0.025267515266204493 0.0021832728653087474 0 0.026036718051392779 0.0036960156381281419 0 0.024639877316622347 0.0030538997395467937 0 0.026036718051392779 0.0036960156381281419 0 0.026822101873654587 0.005159778231424569 0 0.025349493063398038 0.0043338777074522061 0 0.026036718051392779 0.0036960156381281419 0 0.026955099402476864 0.0043251218174227384 0 0.026822101873654587 0.005159778231424569 0 0.026036718051392779 0.0036960156381281419 0 0.025349493063398038 0.0043338777074522061 0 0.024639877316622347 0.0030538997395467937 0 0.02693454086843677 0.0033362714024729374 0 0.026036718051392779 0.0036960156381281419 0 0.026955099402476864 0.0043251218174227384 0 0.02746619432743188 0.0040179499979996732 0 0.02693454086843677 0.0033362714024729374 0 0.026955099402476864 0.0043251218174227384 0 0.026955099402476864 0.0043251218174227384 0 0.027357253935732476 0.0048415835540524281 0 0.026822101873654587 0.005159778231424569 0 0.02746619432743188 0.0040179499979996732 0 0.026955099402476864 0.0043251218174227384 0 0.027357253935732476 0.0048415835540524281 0 0.026822101873654587 0.005159778231424569 0 0.027355906172768334 0.0056990628993006014 0 0.026449541951182515 0.0056051243189193228 0 0.026822101873654587 0.005159778231424569 0 0.027453826522144117 0.0052019763440293758 0 0.027355906172768334 0.0056990628993006014 0 0.027357253935732476 0.0048415835540524281 0 0.026822101873654587 0.005159778231424569 0 0.027453826522144117 0.0052019763440293758 0 0.027357253935732476 0.0048415835540524281 0 0.027453826522144117 0.0052019763440293758 0 0.027680915342703491 0.0048891604714637674 0 0.027357253935732476 0.0048415835540524281 0 0.027680915342703491 0.0048891604714637674 0 0.027932894376846314 0.0045073928469910622 0 0.027680915342703491 0.0048891604714637674 0 0.027932894376846314 0.0045073928469910622 0 0.028213493985946553 0.0047933299322494597 0 0.02746619432743188 0.0040179499979996732 0 0.027357253935732476 0.0048415835540524281 0 0.027932894376846314 0.0045073928469910622 0 0.02746619432743188 0.0040179499979996732 0 0.028362457131349151 0.0037707777123980836 0 0.027932894376846314 0.0045073928469910622 0 0.028825598057983102 0.0044971724491426569 0 0.028362457131349151 0.0037707777123980836 0 0.027932894376846314 0.0045073928469910622 0 0.028825598057983102 0.0044971724491426569 0 0.027932894376846314 0.0045073928469910622 0 0.028213493985946553 0.0047933299322494597 0 0.029007657846977661 0.0049357836052225813 0 0.028825598057983102 0.0044971724491426569 0 0.028213493985946553 0.0047933299322494597 0 0.028213493985946553 0.0047933299322494597 0 0.028394200576053109 0.0049618995383773293 0 0.027838120962545135 0.00486941674175054 0 0.029007657846977661 0.0049357836052225813 0 0.028213493985946553 0.0047933299322494597 0 0.028394200576053109 0.0049618995383773293 0 0.027838120962545135 0.00486941674175054 0 0.027591506002722293 0.0048239830847242324 0 0.027644402322887219 0.0048368230322600398 0 0.027680915342703491 0.0048891604714637674 0 0.027838120962545135 0.00486941674175054 0 0.027644402322887219 0.0048368230322600398 0 0.027680915342703491 0.0048891604714637674 0 0.028213493985946553 0.0047933299322494597 0 0.027838120962545135 0.00486941674175054 0 0.028394200576053109 0.0049618995383773293 0 0.027838120962545135 0.00486941674175054 0 0.027591506002722293 0.0048239830847242324 0 0.029324337897733331 0.0052771086485266057 0 0.028394200576053109 0.0049618995383773293 0 0.028700210701030838 0.0054643042271105965 0 0.028394200576053109 0.0049618995383773293 0 0.027591506002722293 0.0048239830847242324 0 0.028700210701030838 0.0054643042271105965 0 0.029651182839591166 0.0057216357595340061 0 0.028700210701030838 0.0054643042271105965 0 0.029024923434505696 0.0066835301706454093 0 0.028700210701030838 0.0054643042271105965 0 0.027902038837055398 0.0060024142434395925 0 0.029024923434505696 0.0066835301706454093 0 0.027591506002722293 0.0048239830847242324 0 0.028700210701030838 0.0054643042271105965 0 0.027902038837055398 0.0060024142434395925 0 0.027591506002722293 0.0048239830847242324 0 0.027902038837055398 0.0060024142434395925 0 0.026765194341147831 0.0060838217672793005 0 0.028666399925886363 0.0044539771845210066 0 0.029096648571988102 0.0041180277197738939 0 0.027902038837055398 0.0060024142434395925 0 0.02750020009536611 0.0069970738042509518 0 0.026765194341147831 0.0060838217672793005 0 0.030657883790264507 0.0039068328567052005 0 0.030815831200684391 0.0046127844737801358 0 0.027902038837055398 0.0060024142434395925 0 0.02750020009536611 0.0069970738042509518 0 0.029024923434505696 0.0066835301706454093 0 0.033957668199938625 0.0042238123694269929 0 0.034092950482035811 0.0048606973900233389 0 0.033970136974863396 0.0041403113501256644 0 0.034092950482035811 0.0048606973900233389 0 0.034036006198964686 0.004037996119534773 0 0.033970136974863396 0.0041403113501256644 0 0.031177430154099371 0.0022999301232953483 0 0.030677630565372691 0.0020241477138237805 0 0.030486631848574055 0.00070123630552743023 0 0.029929087851573142 0.00084832714231369095 0 0.030372502820397908 0.002260732244018228 0 0.028301308548037061 0.0013266477704963571 0 0.028537555949271435 0.0029269341290861653 0 0.030372502820397908 0.002260732244018228 0 0.031079990171280155 0.0022476597128606394 0 0.031177430154099371 0.0022999301232953483 0 0.030657883790264507 0.0039068328567052005 0 0.031177430154099371 0.0022999301232953483 0 0.028301308548037061 0.0013266477704963571 0 0.027528683105274957 0.0030417843673707563 0 0.028537555949271435 0.0029269341290861653 0 0.031177430154099371 0.0022999301232953483 0 0.029096648571988102 0.0041180277197738939 0 0.02750020009536611 0.0069970738042509518 0 0.025944172872052109 0.007221605245316419 0 0.026765194341147831 0.0060838217672793005 0 0.027591506002722293 0.0048239830847242324 0 0.027528683105274957 0.0030417843673707563 0 0.027975298314834984 0.0041544879743787557 0 0.027528683105274957 0.0030417843673707563 0 0.028537555949271435 0.0029269341290861653 0 0.027975298314834984 0.0041544879743787557 0 0.028537555949271435 0.0029269341290861653 0 0.02890658082872246 0.0035777616127654955 0 0.030372502820397908 0.002260732244018228 0 0.028537555949271435 0.0029269341290861653 0 0.02890658082872246 0.0035777616127654955 0 0.027975298314834984 0.0041544879743787557 0 0.02890658082872246 0.0035777616127654955 0 0.028128982992420566 0.0046999993098332813 0 0.029549734603913264 0.0037709630420533252 0 0.02890658082872246 0.0035777616127654955 0 0.027975298314834984 0.0041544879743787557 0 0.028128982992420566 0.0046999993098332813 0 0.027975298314834984 0.0041544879743787557 0 0.027644402322887219 0.0048368230322600398 0 0.028128982992420566 0.0046999993098332813 0 0.027591506002722293 0.0048239830847242324 0 0.027975298314834984 0.0041544879743787557 0 0.027644402322887219 0.0048368230322600398 0 0.027453826522144117 0.0052019763440293758 0 0.027644402322887219 0.0048368230322600398 0 0.028128982992420566 0.0046999993098332813 0 0.027453826522144117 0.0052019763440293758 0 0.027680915342703491 0.0048891604714637674 0 0.027644402322887219 0.0048368230322600398 0 0.027453826522144117 0.0052019763440293758 0 0.028128982992420566 0.0046999993098332813 0 0.027355906172768334 0.0056990628993006014 0 0.028128982992420566 0.0046999993098332813 0 0.029285360438554672 0.0048376539271692987 0 0.029549734603913264 0.0037709630420533252 0 0.028128982992420566 0.0046999993098332813 0 0.029285360438554672 0.0048376539271692987 0 0.027355906172768334 0.0056990628993006014 0 0.029285360438554672 0.0048376539271692987 0 0.031279176824332504 0.003197489062303899 0 0.032486011626969923 0.0049671344236150387 0 0.029285360438554672 0.0048376539271692987 0 0.032486011626969923 0.0049671344236150387 0 0.029732454075826312 0.0058106837700625646 0 0.031279176824332504 0.003197489062303899 0 0.029549734603913264 0.0037709630420533252 0 0.030372502820397908 0.002260732244018228 0 0.029285360438554672 0.0048376539271692987 0 0.031279176824332504 0.003197489062303899 0 0.029549734603913264 0.0037709630420533252 0 0.02890658082872246 0.0035777616127654955 0 0.029549734603913264 0.0037709630420533252 0 0.030372502820397908 0.002260732244018228 0 0.030372502820397908 0.002260732244018228 0 0.032455346657215847 0.0019491769581340039 0 0.032307773607054488 0.0011274397600532101 0 0.031279176824332504 0.003197489062303899 0 0.032455346657215847 0.0019491769581340039 0 0.033437367470146785 0.0021653799358735183 0 0.031279176824332504 0.003197489062303899 0 0.030372502820397908 0.002260732244018228 0 0.032455346657215847 0.0019491769581340039 0 0.032307773607054488 0.0011274397600532101 0 0.034171767946643589 0.0011667017703018651 0 0.034150948497511852 0.00043797617140244901 0 0.032455346657215847 0.0019491769581340039 0 0.032307773607054488 0.0011274397600532101 0 0.034171767946643589 0.0011667017703018651 0 0.032307773607054488 0.0011274397600532101 0 0.034150948497511852 0.00043797617140244901 0 0.033023366868387381 0.00011559117727284308 0 0.032307773607054488 0.0011274397600532101 0 0.032040281412445887 0.00031990589848452787 0 0.033023366868387381 0.00011559117727284308 0 0.030372502820397908 0.002260732244018228 0 0.032307773607054488 0.0011274397600532101 0 0.031301699979101788 0.00090399897580983239 0 0.030486631848574055 0.00070123630552743023 0 0.030372502820397908 0.002260732244018228 0 0.031301699979101788 0.00090399897580983239 0 0.032307773607054488 0.0011274397600532101 0 0.031301699979101788 0.00090399897580983239 0 0.032040281412445887 0.00031990589848452787 0 0.035907160102944473 0.00050682986725256532 0 0.034171767946643589 0.0011667017703018651 0 0.035034945180875514 4.0553516908350297e-06 0 0.035907160102944473 0.00050682986725256532 0 0.035034945180875514 4.0553516908350297e-06 0 0.03777061981095254 1.0809973237718414e-06 0 0.035907160102944473 0.00050682986725256532 0 0.034171767946643589 0.0011667017703018651 0 0.034150948497511852 0.00043797617140244901 0 0.034171767946643589 0.0011667017703018651 0 0.033437367470146785 0.0021653799358735183 0 0.035034945180875514 4.0553516908350297e-06 0 0.032455346657215847 0.0019491769581340039 0 0.034171767946643589 0.0011667017703018651 0 0.033437367470146785 0.0021653799358735183 0 0.035027441465408676 -8.7180302899978447e-07 0 0.031433795026177339 0.00018606790807472543 0 0.032553284028203303 8.0604859233250476e-07 0 0.035024878522058302 1.5128622894905052e-06 0 0.03264358055936338 0.0012761583231312604 0 0.033437367470146785 0.0021653799358735183 0 0.035034945180875514 4.0553516908350297e-06 0 0.034383067345317875 0.0028739584584155874 0 0.031433795026177339 0.00018606790807472543 0 0.032553284028203303 8.0604859233250476e-07 0 0.030083397855881853 -6.9787491331717696e-07 0 0.031279176824332504 0.003197489062303899 0 0.033437367470146785 0.0021653799358735183 0 0.032486011626969923 0.0049671344236150387 0 0.033437367470146785 0.0021653799358735183 0 0.034383067345317875 0.0028739584584155874 0 0.032486011626969923 0.0049671344236150387 0 0.03264358055936338 0.0012761583231312604 0 0.030479969379397162 0.0016804674318409763 0 0.031433795026177339 0.00018606790807472543 0 0.030083397855881853 -6.9787491331717696e-07 0 0.030872700089659033 -0.00055600855113586132 0 0.031433795026177339 0.00018606790807472543 0 0.031440438338651434 -0.00060894006377833058 0 0.030872700089659033 -0.00055600855113586132 0 0.030072329713192368 7.4388272002743559e-06 0 0.028009104123688434 0.0002588303732840915 0 0.030083397855881853 -6.9787491331717696e-07 0 0.030872700089659033 -0.00055600855113586132 0 0.030365846646281499 -0.0010783632804892383 0 0.031440438338651434 -0.00060894006377833058 0 0.030872700089659033 -0.00055600855113586132 0 0.031059702882907981 -0.001191582367429141 0 0.030365846646281499 -0.0010783632804892383 0 0.031059702882907981 -0.001191582367429141 0 0.030446321420846887 -0.0019040506825547391 0 0.028009104123688434 0.0002588303732840915 0 0.025721442593209447 0.00026330886551193813 0 0.027587195194962034 9.8371006163113555e-08 0 0.025042627241393518 -9.6263548822490177e-08 0 0.025165012034251834 -2.6235674443864425e-06 0 0.030872700089659033 -0.00055600855113586132 0 0.030365846646281499 -0.0010783632804892383 0 0.031059702882907981 -0.001191582367429141 0 0.031059702882907981 -0.001191582367429141 0 0.030446321420846887 -0.0019040506825547391 0 0.031238037968911812 -0.0017825727819945863 0 0.017957114991585314 0.0065325550030007852 0 0.0195506583348392 0.0051788094122121892 0 0.018168404188060767 0.0036253857641542209 0 0.025721442593209447 0.00026330886551193813 0 0.023464932996351745 0.0020715856388461478 0 0.025039508706903316 -6.5493406938963864e-07 0 0.024924540505158996 -1.8786268227721683e-05 0 0.021773788746372705 -6.1382113530347452e-05 0 0.025047219834205322 3.7969841906722891e-06 0 0.025721442593209447 0.00026330886551193813 0 0.025721442593209447 0.00026330886551193813 0 0.026281882115459398 0.0014834104654721416 0 0.017957114991585314 0.0065325550030007852 0 0.0195506583348392 0.0051788094122121892 0 0.020129893991366186 0.0068705081300181941 0 0.02151679828901126 0.0059602924277317544 0 0.022604377132966896 0.0050667533016375476 0 0.021092619645712719 0.0045067043885227984 0 0.0195506583348392 0.0051788094122121892 0 0.02151679828901126 0.0059602924277317544 0 0.021092619645712719 0.0045067043885227984 0 0.0195506583348392 0.0051788094122121892 0 0.02151679828901126 0.0059602924277317544 0 0.020129893991366186 0.0068705081300181941 0 0.026281882115459398 0.0014834104654721416 0 0.027221317323073101 0.0025341568680824337 0 0.02151679828901126 0.0059602924277317544 0 0.020129893991366186 0.0068705081300181941 0 0.022761943926920436 0.0072257370454135239 0 0.031059702882907981 -0.001191582367429141 0 0.031238037968911812 -0.0017825727819945863 0 0.032002365006171325 -0.0016683697932123496 0 0.031440438338651434 -0.00060894006377833058 0 0.031059702882907981 -0.001191582367429141 0 0.032002365006171325 -0.0016683697932123496 0 0.030479969379397162 0.0016804674318409763 0 0.027221317323073101 0.0025341568680824337 0 0.029285360438554672 0.0048376539271692987 0 0.029732454075826312 0.0058106837700625646 0 0.026991315146614289 0.0066586288564693718 0 0.032486011626969923 0.0049671344236150387 0 0.029732454075826312 0.0058106837700625646 0 0.030460764452558482 0.0076330800060475969 0 0.029732454075826312 0.0058106837700625646 0 0.026991315146614289 0.0066586288564693718 0 0.030460764452558482 0.0076330800060475969 0 0.027157141273670356 0.0029064030080080024 0 0.027221317323073101 0.0025341568680824337 0 0.029285360438554672 0.0048376539271692987 0 0.027355906172768334 0.0056990628993006014 0 0.026991315146614289 0.0066586288564693718 0 0.027355906172768334 0.0056990628993006014 0 0.026991315146614289 0.0066586288564693718 0 0.026449541951182515 0.0056051243189193228 0 0.026991315146614289 0.0066586288564693718 0 0.026449541951182515 0.0056051243189193228 0 0.025297064456821422 0.005123678225937579 0 0.026449541951182515 0.0056051243189193228 0 0.025297064456821422 0.005123678225937579 0 0.025349493063398038 0.0043338777074522061 0 0.026822101873654587 0.005159778231424569 0 0.026449541951182515 0.0056051243189193228 0 0.025349493063398038 0.0043338777074522061 0 0.02151679828901126 0.0059602924277317544 0 0.023485881143805513 0.0059321705245266414 0 0.022761943926920436 0.0072257370454135239 0 0.02700593741819228 0.0028669613731325083 0 0.027221317323073101 0.0025341568680824337 0 0.026991315146614289 0.0066586288564693718 0 0.023485881143805513 0.0059321705245266414 0 0.022777585735958131 0.0072869672921797735 0 0.026991315146614289 0.0066586288564693718 0 0.025297064456821422 0.005123678225937579 0 0.023485881143805513 0.0059321705245266414 0 0.025297064456821422 0.005123678225937579 0 0.023485881143805513 0.0059321705245266414 0 0.023783673885767465 0.0050569970707975177 0 0.02151679828901126 0.0059602924277317544 0 0.023485881143805513 0.0059321705245266414 0 0.022604377132966896 0.0050667533016375476 0 0.023485881143805513 0.0059321705245266414 0 0.023783673885767465 0.0050569970707975177 0 0.022604377132966896 0.0050667533016375476 0 0.023032539094234722 0.0041151534405451749 0 0.025349493063398038 0.0043338777074522061 0 0.02320258324113646 0.0029811979483332415 0 0.023783673885767465 0.0050569970707975177 0 0.022604377132966896 0.0050667533016375476 0 0.023032539094234722 0.0041151534405451749 0 0.022604377132966896 0.0050667533016375476 0 0.023032539094234722 0.0041151534405451749 0 0.021092619645712719 0.0045067043885227984 0 0.025297064456821422 0.005123678225937579 0 0.023783673885767465 0.0050569970707975177 0 0.023032539094234722 0.0041151534405451749 0 0.023032539094234722 0.0041151534405451749 0 0.02320258324113646 0.0029811979483332415 0 0.021393207833871358 0.0027653047280212458 0 0.025297064456821422 0.005123678225937579 0 0.023032539094234722 0.0041151534405451749 0 0.025349493063398038 0.0043338777074522061 0 0.025349493063398038 0.0043338777074522061 0 0.024639877316622347 0.0030538997395467937 0 0.02320258324113646 0.0029811979483332415 0 0.023005994293594897 0.0019354221167960819 0 0.025267515266204493 0.0021832728653087474 0 0.024639877316622347 0.0030538997395467937 0 0.023005994293594897 0.0019354221167960819 0 0.024639877316622347 0.0030538997395467937 0 0.02320258324113646 0.0029811979483332415 0 0.02320258324113646 0.0029811979483332415 0 0.021594795953727351 0.0020494907771833595 0 0.021393207833871358 0.0027653047280212458 0 0.023005994293594897 0.0019354221167960819 0 0.02320258324113646 0.0029811979483332415 0 0.021594795953727351 0.0020494907771833595 0 0.021594795953727351 0.0020494907771833595 0 0.019982915635615186 0.001630888707057633 0 0.021393207833871358 0.0027653047280212458 0 0.019982915635615186 0.001630888707057633 0 0.021393207833871358 0.0027653047280212458 0 0.019627156710619223 0.0023770125173989574 0 0.021393207833871358 0.0027653047280212458 0 0.019627156710619223 0.0023770125173989574 0 0.020809049974773137 0.0033651523118957117 0 0.018418628611697029 0.00054704510492375633 0 0.019627156710619223 0.0023770125173989574 0 0.018168404188060767 0.0036253857641542209 0 0.022714207467510843 0.0021231419879502605 0 0.023464932996351745 0.0020715856388461478 0 0.018418628611697029 0.00054704510492375633 0 0.019982915635615186 0.001630888707057633 0 0.019627156710619223 0.0023770125173989574 0 0.018418628611697029 0.00054704510492375633 0 0.020607789332474924 4.7438436484260772e-07 0 0.021773788746372705 -6.1382113530347452e-05 0 0.019627156710619223 0.0023770125173989574 0 0.018168404188060767 0.0036253857641542209 0 0.019815567457247177 0.0037687876001584585 0 0.025039508706903316 -6.5493406938963864e-07 0 0.020607789332474924 4.7438436484260772e-07 0 0.021773788746372705 -6.1382113530347452e-05 0 0.0195506583348392 0.0051788094122121892 0 0.018168404188060767 0.0036253857641542209 0 0.019815567457247177 0.0037687876001584585 0 0.0195506583348392 0.0051788094122121892 0 0.021092619645712719 0.0045067043885227984 0 0.019815567457247177 0.0037687876001584585 0 0.023032539094234722 0.0041151534405451749 0 0.021092619645712719 0.0045067043885227984 0 0.020809049974773137 0.0033651523118957117 0 0.023032539094234722 0.0041151534405451749 0 0.021393207833871358 0.0027653047280212458 0 0.020809049974773137 0.0033651523118957117 0 0.019627156710619223 0.0023770125173989574 0 0.020809049974773137 0.0033651523118957117 0 0.019815567457247177 0.0037687876001584585 0 0.021092619645712719 0.0045067043885227984 0 0.020809049974773137 0.0033651523118957117 0 0.019815567457247177 0.0037687876001584585 0 0.054279824841014568 0.0003149598659845225 0 0.053585523526040311 0.00021906588395796315 0 0.051600012498186763 0.00021810632228139482 0 0.054279824841014568 0.0003149598659845225 0 0.053776072561681924 6.8274356116319655e-07 0 0.051600012498186763 0.00021810632228139482 0 0.053776072561681924 6.8274356116319655e-07 0 0.056462202479557785 0.00054435675451410957 0 0.058194914259029021 1.0528788818953956e-06 0 0.054279824841014568 0.0003149598659845225 0 0.053776072561681924 6.8274356116319655e-07 0 0.056462202479557785 0.00054435675451410957 0 0.054279824841014568 0.0003149598659845225 0 0.056256245773697963 0.00066815854096020813 0 0.056462202479557785 0.00054435675451410957 0 0.056256245773697963 0.00066815854096020813 0 0.056178426540927959 0.00095103167377935444 0 0.05626727071517864 0.00068658665492265668 0 0.054279824841014568 0.0003149598659845225 0 0.056256245773697963 0.00066815854096020813 0 0.053585523526040311 0.00021906588395796315 0 0.056256245773697963 0.00066815854096020813 0 0.056178426540927959 0.00095103167377935444 0 0.056346973259595756 0.00094328698413651847 0 0.053503310002132161 0.0016559248861314176 0 0.052825901278215369 0.0015599844999904847 0 0.056346973259595756 0.00094328698413651847 0 0.056244604609754743 0.0010987765042207299 0 0.056368819523114254 0.0011924232461291021 0 0.056178426540927959 0.00095103167377935444 0 0.056346973259595756 0.00094328698413651847 0 0.056244604609754743 0.0010987765042207299 0 0.052825901278215369 0.0015599844999904847 0 0.050872266349910551 0.0011197508349857432 0 0.056178426540927959 0.00095103167377935444 0 0.056244604609754743 0.0010987765042207299 0 0.056088854636760624 0.0011900674433463615 0 0.056178426540927959 0.00095103167377935444 0 0.056088854636760624 0.0011900674433463615 0 0.056003456472559901 0.00110673727718125 0 0.045369006112917928 0.00019401025532232862 0 0.043334848170092963 0.0016371396085116748 0 0.056244604609754743 0.0010987765042207299 0 0.056088854636760624 0.0011900674433463615 0 0.056183206072697514 0.0013112135000299342 0 0.056088854636760624 0.0011900674433463615 0 0.056183206072697514 0.0013112135000299342 0 0.055885938806643151 0.0012250090913727655 0 0.056244604609754743 0.0010987765042207299 0 0.056368819523114254 0.0011924232461291021 0 0.056183206072697514 0.0013112135000299342 0 0.050702512306655775 0.00013205198173725792 0 0.051600012498186763 0.00021810632228139482 0 0.048212480224663949 6.1161903830704608e-05 0 0.053585523526040311 0.00021906588395796315 0 0.050702512306655775 0.00013205198173725792 0 0.051600012498186763 0.00021810632228139482 0 0.053776072561681924 6.8274356116319655e-07 0 0.051600012498186763 0.00021810632228139482 0 0.049357580779947695 1.1455069564305182e-06 0 0.049357580779947695 1.1455069564305182e-06 0 0.048212480224663949 6.1161903830704608e-05 0 0.044935155028791141 -2.7578690854909855e-06 0 0.051600012498186763 0.00021810632228139482 0 0.049357580779947695 1.1455069564305182e-06 0 0.048212480224663949 6.1161903830704608e-05 0 0.048212480224663949 6.1161903830704608e-05 0 0.046498104058858784 -0.00028512979831206886 0 0.044935155028791141 -2.7578690854909855e-06 0 0.048212480224663949 6.1161903830704608e-05 0 0.046498104058858784 -0.00028512979831206886 0 0.048505467518167589 -0.00088297165888446801 0 0.046498104058858784 -0.00028512979831206886 0 0.044935155028791141 -2.7578690854909855e-06 0 0.043428905437126297 -0.00038943320425268991 0 0.050872266349910551 0.0011197508349857432 0 0.047115861181912008 -0.00082595599976773601 0 0.050702512306655775 0.00013205198173725792 0 0.048212480224663949 6.1161903830704608e-05 0 0.048505467518167589 -0.00088297165888446801 0 0.039826451545254382 -0.0024402887495679417 0 0.040410311758539291 0.00020754939268372304 0 0.043428905437126297 -0.00038943320425268991 0 0.038485114526297076 -0.0031069574733307067 0 0.037626000361086508 -0.0011855841297408896 0 0.035406526695527837 -0.0022267124734305795 0 0.038485114526297076 -0.0031069574733307067 0 0.037626000361086508 -0.0011855841297408896 0 0.040410311758539291 0.00020754939268372304 0 0.047115861181912008 -0.00082595599976773601 0 0.046460793827479835 -0.00099922316237759904 0 0.037626000361086508 -0.0011855841297408896 0 0.040410311758539291 0.00020754939268372304 0 0.040041576953388072 0.00078077047157448841 0 0.040410311758539291 0.00020754939268372304 0 0.043428905437126297 -0.00038943320425268991 0 0.040521205352278392 2.0152806233140981e-06 0 0.044935155028791141 -2.7578690854909855e-06 0 0.043428905437126297 -0.00038943320425268991 0 0.040521205352278392 2.0152806233140981e-06 0 0.046498104058858784 -0.00028512979831206886 0 0.048505467518167589 -0.00088297165888446801 0 0.043428905437126297 -0.00038943320425268991 0 0.047115861181912008 -0.00082595599976773601 0 0.045987437862983947 -0.0011066193242441544 0 0.040410311758539291 0.00020754939268372304 0 0.040521205352278392 2.0152806233140981e-06 0 0.040041576953388072 0.00078077047157448841 0 0.040510757531450087 -4.3924377482518625e-06 0 0.036461198230837398 -0.00067612276129630348 0 0.037685210737391145 7.9917294638458448e-05 0 0.040510757531450087 -4.3924377482518625e-06 0 0.035101406031992598 -0.0023547745948276641 0 0.036461198230837398 -0.00067612276129630348 0 0.040512816001300044 -6.8756208926316509e-07 0 0.037997017100916346 -0.0007701786165581362 0 0.035101406031992598 -0.0023547745948276641 0 0.035113217070697714 -0.0014365676521099968 0 0.036461198230837398 -0.00067612276129630348 0 0.035101406031992598 -0.0023547745948276641 0 0.035113217070697714 -0.0014365676521099968 0 0.034331094458408686 -0.0016157422371314673 0 0.034807370894441331 -0.0008979772513292249 0 0.035113217070697714 -0.0014365676521099968 0 0.034331094458408686 -0.0016157422371314673 0 0.034807370894441331 -0.0008979772513292249 0 0.036461198230837398 -0.00067612276129630348 0 0.035521605049232075 -5.7438916754147633e-05 0 0.034807370894441331 -0.0008979772513292249 0 0.035113217070697714 -0.0014365676521099968 0 0.036461198230837398 -0.00067612276129630348 0 0.035907160102944473 0.00050682986725256532 0 0.035521605049232075 -5.7438916754147633e-05 0 0.034150948497511852 0.00043797617140244901 0 0.034807370894441331 -0.0008979772513292249 0 0.035521605049232075 -5.7438916754147633e-05 0 0.033928156747552153 -0.00039340661351408644 0 0.035521605049232075 -5.7438916754147633e-05 0 0.034150948497511852 0.00043797617140244901 0 0.033928156747552153 -0.00039340661351408644 0 0.040510757531450087 -4.3924377482518625e-06 0 0.03777061981095254 1.0809973237718414e-06 0 0.037685210737391145 7.9917294638458448e-05 0 0.035907160102944473 0.00050682986725256532 0 0.035521605049232075 -5.7438916754147633e-05 0 0.037685210737391145 7.9917294638458448e-05 0 0.035907160102944473 0.00050682986725256532 0 0.03777061981095254 1.0809973237718414e-06 0 0.037685210737391145 7.9917294638458448e-05 0 0.036461198230837398 -0.00067612276129630348 0 0.035521605049232075 -5.7438916754147633e-05 0 0.037685210737391145 7.9917294638458448e-05 0 0.032780472169151989 -0.00065323345404978879 0 0.031367531906572682 0.00015758501367714648 0 0.030941750524975151 -0.00054504064703934701 0 0.030486631848574055 0.00070123630552743023 0 0.031301699979101788 0.00090399897580983239 0 0.031367531906572682 0.00015758501367714648 0 0.031301699979101788 0.00090399897580983239 0 0.031367531906572682 0.00015758501367714648 0 0.032040281412445887 0.00031990589848452787 0 0.032780472169151989 -0.00065323345404978879 0 0.031367531906572682 0.00015758501367714648 0 0.032040281412445887 0.00031990589848452787 0 0.032780472169151989 -0.00065323345404978879 0 0.032040281412445887 0.00031990589848452787 0 0.033023366868387381 0.00011559117727284308 0 0.034150948497511852 0.00043797617140244901 0 0.033023366868387381 0.00011559117727284308 0 0.033928156747552153 -0.00039340661351408644 0 0.032780472169151989 -0.00065323345404978879 0 0.033023366868387381 0.00011559117727284308 0 0.033928156747552153 -0.00039340661351408644 0 0.032780472169151989 -0.00065323345404978879 0 0.033884010327314397 -0.0011647663987941293 0 0.033634333886312165 -0.0013814395038963497 0 0.032780472169151989 -0.00065323345404978879 0 0.033928156747552153 -0.00039340661351408644 0 0.033884010327314397 -0.0011647663987941293 0 0.034807370894441331 -0.0008979772513292249 0 0.033884010327314397 -0.0011647663987941293 0 0.034331094458408686 -0.0016157422371314673 0 0.034807370894441331 -0.0008979772513292249 0 0.033928156747552153 -0.00039340661351408644 0 0.033884010327314397 -0.0011647663987941293 0 0.033884010327314397 -0.0011647663987941293 0 0.034331094458408686 -0.0016157422371314673 0 0.033634333886312165 -0.0013814395038963497 0 0.034331094458408686 -0.0016157422371314673 0 0.033634333886312165 -0.0013814395038963497 0 0.034016487014683613 -0.0013200833279375154 0 0.032493387425408596 -0.00030003107262289958 0 0.032208145683843316 0.00021902469861678425 0 0.032780472169151989 -0.00065323345404978879 0 0.03307506824770768 -0.0015676485449677396 0 0.030941750524975151 -0.00054504064703934701 0 0.032780472169151989 -0.00065323345404978879 0 0.033634333886312165 -0.0013814395038963497 0 0.03307506824770768 -0.0015676485449677396 0 0.03307506824770768 -0.0015676485449677396 0 0.033342900696556217 -0.0016599401594647276 0 0.033388056783045093 -0.0016789801620997111 0 0.033634333886312165 -0.0013814395038963497 0 0.03307506824770768 -0.0015676485449677396 0 0.034016487014683613 -0.0013200833279375154 0 0.03307506824770768 -0.0015676485449677396 0 0.033342900696556217 -0.0016599401594647276 0 0.034016487014683613 -0.0013200833279375154 0 0.033342900696556217 -0.0016599401594647276 0 0.034016487014683613 -0.0013200833279375154 0 0.033870801624616101 -0.0020236256057303624 0 0.035101406031992598 -0.0023547745948276641 0 0.034331094458408686 -0.0016157422371314673 0 0.034016487014683613 -0.0013200833279375154 0 0.037626000361086508 -0.0011855841297408896 0 0.040041576953388072 0.00078077047157448841 0 0.034016487014683613 -0.0013200833279375154 0 0.037997017100916346 -0.0007701786165581362 0 0.036661527886753968 -0.0011694502971949274 0 0.034016487014683613 -0.0013200833279375154 0 0.035406526695527837 -0.0022267124734305795 0 0.033870801624616101 -0.0020236256057303624 0 0.037626000361086508 -0.0011855841297408896 0 0.034016487014683613 -0.0013200833279375154 0 0.035406526695527837 -0.0022267124734305795 0 0.038485114526297076 -0.0031069574733307067 0 0.035406526695527837 -0.0022267124734305795 0 0.033689884920729475 -0.0028320516996976418 0 0.047115861181912008 -0.00082595599976773601 0 0.045369006112917928 0.00019401025532232862 0 0.056368819523114254 0.0011924232461291021 0 0.056383377897001742 0.0013873181699591735 0 0.056183206072697514 0.0013112135000299342 0 0.035406526695527837 -0.0022267124734305795 0 0.033870801624616101 -0.0020236256057303624 0 0.033689884920729475 -0.0028320516996976418 0 0.033438285318561238 -0.0019966021690796974 0 0.033689884920729475 -0.0028320516996976418 0 0.033377841384847187 -0.001801627291052784 0 0.033342900696556217 -0.0016599401594647276 0 0.033438285318561238 -0.0019966021690796974 0 0.033362338765439696 -0.0017006169050856571 0 0.033342900696556217 -0.0016599401594647276 0 0.033438285318561238 -0.0019966021690796974 0 0.033870801624616101 -0.0020236256057303624 0 0.033438285318561238 -0.0019966021690796974 0 0.033870801624616101 -0.0020236256057303624 0 0.033689884920729475 -0.0028320516996976418 0 0.033377841384847187 -0.001801627291052784 0 0.033362338765439696 -0.0017006169050856571 0 0.033511902020335389 -0.0013615552645166969 0 0.033362338765439696 -0.0017006169050856571 0 0.033511902020335389 -0.0013615552645166969 0 0.033577150143078029 -0.0015909992469147231 0 0.033438285318561238 -0.0019966021690796974 0 0.033377841384847187 -0.001801627291052784 0 0.033362338765439696 -0.0017006169050856571 0 0.033511902020335389 -0.0013615552645166969 0 0.033937378999940225 -0.0013193344523096059 0 0.03426956123959126 -0.00016129347723028832 0 0.033511902020335389 -0.0013615552645166969 0 0.033937378999940225 -0.0013193344523096059 0 0.033577150143078029 -0.0015909992469147231 0 0.033937378999940225 -0.0013193344523096059 0 0.033847099574137778 -0.0016087336199892065 0 0.033577150143078029 -0.0015909992469147231 0 0.033847099574137778 -0.0016087336199892065 0 0.033577150143078029 -0.0015909992469147231 0 0.033671365137165968 -0.001719045961415933 0 0.033577150143078029 -0.0015909992469147231 0 0.033671365137165968 -0.001719045961415933 0 0.033388056783045093 -0.0016789801620997111 0 0.033847099574137778 -0.0016087336199892065 0 0.033671365137165968 -0.001719045961415933 0 0.033919990448069336 -0.0017685311309898406 0 0.033362338765439696 -0.0017006169050856571 0 0.033577150143078029 -0.0015909992469147231 0 0.033388056783045093 -0.0016789801620997111 0 0.033342900696556217 -0.0016599401594647276 0 0.033362338765439696 -0.0017006169050856571 0 0.033388056783045093 -0.0016789801620997111 0 0.033388056783045093 -0.0016789801620997111 0 0.033630607165607652 -0.0019137521849192931 0 0.033306597588409814 -0.0020192949674005889 0 0.03307506824770768 -0.0015676485449677396 0 0.033388056783045093 -0.0016789801620997111 0 0.033306597588409814 -0.0020192949674005889 0 0.033630607165607652 -0.0019137521849192931 0 0.033939907636258176 -0.0020362240245201794 0 0.033919990448069336 -0.0017685311309898406 0 0.033671365137165968 -0.001719045961415933 0 0.033388056783045093 -0.0016789801620997111 0 0.033630607165607652 -0.0019137521849192931 0 0.033671365137165968 -0.001719045961415933 0 0.033630607165607652 -0.0019137521849192931 0 0.033919990448069336 -0.0017685311309898406 0 0.033537683948993764 -0.0023385525512207347 0 0.033568457206917229 -0.0021855247119839352 0 0.033939907636258176 -0.0020362240245201794 0 0.033630607165607652 -0.0019137521849192931 0 0.033568457206917229 -0.0021855247119839352 0 0.033939907636258176 -0.0020362240245201794 0 0.031177430154099371 0.0022999301232953483 0 0.033905211939530361 0.0010828338636199762 0 0.033957668199938625 0.0042238123694269929 0 0.034020774929356373 0.0041931035623924929 0 0.033783300039654587 0.0040960480262173943 0 0.030486631848574055 0.00070123630552743023 0 0.029452898215794554 0.00096685746683465134 0 0.030941750524975151 -0.00054504064703934701 0 0.033537683948993764 -0.0023385525512207347 0 0.033568457206917229 -0.0021855247119839352 0 0.033306597588409814 -0.0020192949674005889 0 0.031177430154099371 0.0022999301232953483 0 0.032208145683843316 0.00021902469861678425 0 0.033630607165607652 -0.0019137521849192931 0 0.033568457206917229 -0.0021855247119839352 0 0.033306597588409814 -0.0020192949674005889 0 0.030486631848574055 0.00070123630552743023 0 0.031367531906572682 0.00015758501367714648 0 0.030941750524975151 -0.00054504064703934701 0 0.033838536581995038 0.0039992386656542084 0 0.033970136974863396 0.0041403113501256644 0 0.033783300039654587 0.0040960480262173943 0 0.033838536581995038 0.0039992386656542084 0 0.034036006198964686 0.004037996119534773 0 0.034134693056983856 0.0037917049026394739 0 0.033838536581995038 0.0039992386656542084 0 0.034036006198964686 0.004037996119534773 0 0.033970136974863396 0.0041403113501256644 0 0.033957668199938625 0.0042238123694269929 0 0.033970136974863396 0.0041403113501256644 0 0.033783300039654587 0.0040960480262173943 0 0.033939907636258176 -0.0020362240245201794 0 0.033919990448069336 -0.0017685311309898406 0 0.034301275891077544 -0.0017621939087133815 0 0.033838536581995038 0.0039992386656542084 0 0.03327108307821651 0.0051583067882611426 0 0.034887414225159986 0.0033209164764509726 0 0.033905211939530361 0.0010828338636199762 0 0.036154217331437345 -0.00040385042361875155 0 0.033838536581995038 0.0039992386656542084 0 0.033783300039654587 0.0040960480262173943 0 0.03327108307821651 0.0051583067882611426 0 0.036786813537715346 -0.0038562661830669536 0 0.035107231442467461 -0.0023004677238049674 0 0.03680357705589403 -0.0014005557811269157 0 0.036154217331437345 -0.00040385042361875155 0 0.035619817145242316 -0.00073858995891913247 0 0.033919990448069336 -0.0017685311309898406 0 0.034301275891077544 -0.0017621939087133815 0 0.034077140815555886 -0.0015783110805284346 0 0.033847099574137778 -0.0016087336199892065 0 0.033919990448069336 -0.0017685311309898406 0 0.034077140815555886 -0.0015783110805284346 0 0.033937378999940225 -0.0013193344523096059 0 0.033847099574137778 -0.0016087336199892065 0 0.034077140815555886 -0.0015783110805284346 0 0.033937378999940225 -0.0013193344523096059 0 0.035270083483868037 -0.00078142688691543389 0 0.03426956123959126 -0.00016129347723028832 0 0.035311744684234404 -0.00071751241713966451 0 0.035619817145242316 -0.00073858995891913247 0 0.033937378999940225 -0.0013193344523096059 0 0.035107231442467461 -0.0023004677238049674 0 0.035270083483868037 -0.00078142688691543389 0 0.035270083483868037 -0.00078142688691543389 0 0.03680357705589403 -0.0014005557811269157 0 0.036747097185289526 0.00087228333790289984 0 0.035107231442467461 -0.0023004677238049674 0 0.035270083483868037 -0.00078142688691543389 0 0.03680357705589403 -0.0014005557811269157 0 0.035234539054650293 0.0028624275707115916 0 0.033371550682893616 0.0054845017219215062 0 0.030539055312197364 0.0036437393186584256 0 0.035234539054650293 0.0028624275707115916 0 0.033371550682893616 0.0054845017219215062 0 0.038062166187920937 0.0065539923262788805 0 0.033371550682893616 0.0054845017219215062 0 0.034196136911900418 0.0083435438253097044 0 0.038062166187920937 0.0065539923262788805 0 0.033371550682893616 0.0054845017219215062 0 0.034196136911900418 0.0083435438253097044 0 0.030040355571449993 0.0061633264085137612 0 0.045358349689671132 0.0036172732485452879 0 0.043758183914761384 0.0026921254141679513 0 0.055050116957342243 0.0011195583189148347 0 0.05554689433407322 0.0012487078531999353 0 0.055609691363151602 0.00099294053175465755 0 0.036866320357211838 0.0019522203484342751 0 0.036082005459809566 0.002111336619067056 0 0.033371550682893616 0.0054845017219215062 0 0.030040355571449993 0.0061633264085137612 0 0.030539055312197364 0.0036437393186584256 0 0.035270083483868037 -0.00078142688691543389 0 0.036747097185289526 0.00087228333790289984 0 0.03426956123959126 -0.00016129347723028832 0 0.036082005459809566 0.002111336619067056 0 0.043334848170092963 0.0016371396085116748 0 0.033511902020335389 -0.0013615552645166969 0 0.03426956123959126 -0.00016129347723028832 0 0.033333757115050787 -0.001116934658701806 0 0.030040355571449993 0.0061633264085137612 0 0.030539055312197364 0.0036437393186584256 0 0.026151463946308785 0.0042360345531440953 0 0.043758183914761384 0.0026921254141679513 0 0.043334848170092963 0.0016371396085116748 0 0.047404385750502695 0.0012271371863687287 0 0.043334848170092963 0.0016371396085116748 0 0.033689884920729475 -0.0028320516996976418 0 0.033377841384847187 -0.001801627291052784 0 0.033333757115050787 -0.001116934658701806 0 0.056088854636760624 0.0011900674433463615 0 0.055913275045625328 0.0012874753826870055 0 0.056003456472559901 0.00110673727718125 0 0.033377841384847187 -0.001801627291052784 0 0.033511902020335389 -0.0013615552645166969 0 0.033333757115050787 -0.001116934658701806 0 0.056178426540927959 0.00095103167377935444 0 0.056003456472559901 0.00110673727718125 0 0.055959591138770561 0.00095826336951417522 0 0.055913275045625328 0.0012874753826870055 0 0.056003456472559901 0.00110673727718125 0 0.055827824205089131 0.0011300950582235592 0 0.056003456472559901 0.00110673727718125 0 0.055827824205089131 0.0011300950582235592 0 0.055959591138770561 0.00095826336951417522 0 0.05554689433407322 0.0012487078531999353 0 0.055913275045625328 0.0012874753826870055 0 0.055827824205089131 0.0011300950582235592 0 0.05554689433407322 0.0012487078531999353 0 0.055827824205089131 0.0011300950582235592 0 0.055609691363151602 0.00099294053175465755 0 0.055827824205089131 0.0011300950582235592 0 0.055609691363151602 0.00099294053175465755 0 0.055959591138770561 0.00095826336951417522 0 0.055609691363151602 0.00099294053175465755 0 0.055959591138770561 0.00095826336951417522 0 0.055760059037623225 0.00069978842502570475 0 0.055609691363151602 0.00099294053175465755 0 0.055760059037623225 0.00069978842502570475 0 0.055397951707275815 0.00080089426022931468 0 0.056178426540927959 0.00095103167377935444 0 0.055959591138770561 0.00095826336951417522 0 0.05626727071517864 0.00068658665492265668 0 0.055959591138770561 0.00095826336951417522 0 0.05626727071517864 0.00068658665492265668 0 0.055760059037623225 0.00069978842502570475 0 0.05626727071517864 0.00068658665492265668 0 0.055760059037623225 0.00069978842502570475 0 0.055673097719222374 0.00015235224285340047 0 0.055760059037623225 0.00069978842502570475 0 0.055265971908666438 0.0004161524742262919 0 0.055673097719222374 0.00015235224285340047 0 0.055265971908666438 0.0004161524742262919 0 0.054965068571942381 0.00072405479151454652 0 0.055397951707275815 0.00080089426022931468 0 0.055760059037623225 0.00069978842502570475 0 0.055265971908666438 0.0004161524742262919 0 0.055397951707275815 0.00080089426022931468 0 0.055265971908666438 0.0004161524742262919 0 0.054965068571942381 0.00072405479151454652 0 0.05465073938087113 0.00038447301958604462 0 0.055050116957342243 0.0011195583189148347 0 0.054965068571942381 0.00072405479151454652 0 0.055397951707275815 0.00080089426022931468 0 0.055050116957342243 0.0011195583189148347 0 0.054965068571942381 0.00072405479151454652 0 0.054511847711390136 0.00090623982315070112 0 0.055050116957342243 0.0011195583189148347 0 0.055609691363151602 0.00099294053175465755 0 0.055397951707275815 0.00080089426022931468 0 0.047533750806333916 0.0041371449087757202 0 0.050407217353925213 0.004009129970062599 0 0.041046651186685136 0.01019630422556273 0 0.038560455821007367 0.010614613784157232 0 0.042875175487517528 0.012989581463715436 0 0.041046651186685136 0.01019630422556273 0 0.042518931675054945 0.010512904042550101 0 0.042875175487517528 0.012989581463715436 0 0.041046651186685136 0.01019630422556273 0 0.042518931675054945 0.010512904042550101 0 0.042394406549130077 0.0085630417360785388 0 0.041046651186685136 0.01019630422556273 0 0.038560455821007367 0.010614613784157232 0 0.038062166187920937 0.0065539923262788805 0 0.045358349689671132 0.0036172732485452879 0 0.047533750806333916 0.0041371449087757202 0 0.054965068571942381 0.00072405479151454652 0 0.054511847711390136 0.00090623982315070112 0 0.05465073938087113 0.00038447301958604462 0 0.054511847711390136 0.00090623982315070112 0 0.05465073938087113 0.00038447301958604462 0 0.054333444691627729 0.00065131512552904351 0 0.05465073938087113 0.00038447301958604462 0 0.054299483670629881 0.00042362836932531594 0 0.054333444691627729 0.00065131512552904351 0 0.054511847711390136 0.00090623982315070112 0 0.054333444691627729 0.00065131512552904351 0 0.053995301516190891 0.00065536718182864591 0 0.054299483670629881 0.00042362836932531594 0 0.054333444691627729 0.00065131512552904351 0 0.054104499583600231 0.00051540120672666928 0 0.054333444691627729 0.00065131512552904351 0 0.054104499583600231 0.00051540120672666928 0 0.053995301516190891 0.00065536718182864591 0 0.054104499583600231 0.00051540120672666928 0 0.053995301516190891 0.00065536718182864591 0 0.054009330791985367 0.00057679291303751844 0 0.054299483670629881 0.00042362836932531594 0 0.054104499583600231 0.00051540120672666928 0 0.054111280570585764 0.00035742622147741235 0 0.054111280570585764 0.00035742622147741235 0 0.054017990640144932 0.0004127187740289732 0 0.053988412951228068 0.00031122832598442547 0 0.054104499583600231 0.00051540120672666928 0 0.054111280570585764 0.00035742622147741235 0 0.054017990640144932 0.0004127187740289732 0 0.044391044478332559 0.012787302622074344 0 0.042875175487517528 0.012989581463715436 0 0.046328096866770294 0.01358609775866051 0 0.054017990640144932 0.0004127187740289732 0 0.053979226254670512 0.00049577631691500104 0 0.053907792939619455 0.00038422670523847899 0 0.054017990640144932 0.0004127187740289732 0 0.053907792939619455 0.00038422670523847899 0 0.053988412951228068 0.00031122832598442547 0 0.050407217353925213 0.004009129970062599 0 0.052987850745836056 0.0044881499549034457 0 0.053859512019208897 0.00053060560832956475 0 0.053995301516190891 0.00065536718182864591 0 0.053459356298877436 0.00038011576244627993 0 0.053859512019208897 0.00053060560832956475 0 0.053784420670350865 0.00047714887801650915 0 0.053459356298877436 0.00038011576244627993 0 0.050407217353925213 0.004009129970062599 0 0.051606854087389242 0.0034437802329905401 0 0.042875175487517528 0.012989581463715436 0 0.048495376320826518 0.015136533961343691 0 0.046328096866770294 0.01358609775866051 0 0.054104499583600231 0.00051540120672666928 0 0.053979226254670512 0.00049577631691500104 0 0.054009330791985367 0.00057679291303751844 0 0.054104499583600231 0.00051540120672666928 0 0.054017990640144932 0.0004127187740289732 0 0.053979226254670512 0.00049577631691500104 0 0.053979226254670512 0.00049577631691500104 0 0.054009330791985367 0.00057679291303751844 0 0.053942794987077353 0.00054656174399432826 0 0.053979226254670512 0.00049577631691500104 0 0.053884173892321724 0.00047206140818948749 0 0.053942794987077353 0.00054656174399432826 0 0.053979226254670512 0.00049577631691500104 0 0.053884173892321724 0.00047206140818948749 0 0.053907792939619455 0.00038422670523847899 0 0.053859512019208897 0.00053060560832956475 0 0.053884173892321724 0.00047206140818948749 0 0.053942794987077353 0.00054656174399432826 0 0.053884173892321724 0.00047206140818948749 0 0.053907792939619455 0.00038422670523847899 0 0.0538115198570066 0.00041817986503499857 0 0.0538115198570066 0.00041817986503499857 0 0.053695186281608097 0.00041255338800049043 0 0.053786421663715188 0.00034484512103690509 0 0.053907792939619455 0.00038422670523847899 0 0.0538115198570066 0.00041817986503499857 0 0.053786421663715188 0.00034484512103690509 0 0.0538115198570066 0.00041817986503499857 0 0.053695186281608097 0.00041255338800049043 0 0.053784420670350865 0.00047714887801650915 0 0.053695186281608097 0.00041255338800049043 0 0.053664912395264469 0.00033129910354168436 0 0.053786421663715188 0.00034484512103690509 0 0.053884173892321724 0.00047206140818948749 0 0.0538115198570066 0.00041817986503499857 0 0.053784420670350865 0.00047714887801650915 0 0.053859512019208897 0.00053060560832956475 0 0.053884173892321724 0.00047206140818948749 0 0.053784420670350865 0.00047714887801650915 0 0.045272606773823269 0.012860517254857984 0 0.044391044478332559 0.012787302622074344 0 0.046328096866770294 0.01358609775866051 0 0.045738145316047606 0.012945274550723713 0 0.045272606773823269 0.012860517254857984 0 0.046328096866770294 0.01358609775866051 0 0.045738145316047606 0.012945274550723713 0 0.046313309687859523 0.012627020130027257 0 0.045440568964870469 0.012208487739391725 0 0.045272606773823269 0.012860517254857984 0 0.044608824473075626 0.01229592868338652 0 0.045440568964870469 0.012208487739391725 0 0.045738145316047606 0.012945274550723713 0 0.045272606773823269 0.012860517254857984 0 0.045440568964870469 0.012208487739391725 0 0.045272606773823269 0.012860517254857984 0 0.044391044478332559 0.012787302622074344 0 0.044608824473075626 0.01229592868338652 0 0.044391044478332559 0.012787302622074344 0 0.043855404229260028 0.01247138081335554 0 0.044608824473075626 0.01229592868338652 0 0.044391044478332559 0.012787302622074344 0 0.043855404229260028 0.01247138081335554 0 0.042875175487517528 0.012989581463715436 0 0.043855404229260028 0.01247138081335554 0 0.042875175487517528 0.012989581463715436 0 0.043632094290031335 0.012058929773879202 0 0.053995301516190891 0.00065536718182864591 0 0.054009330791985367 0.00057679291303751844 0 0.053942794987077353 0.00054656174399432826 0 0.053859512019208897 0.00053060560832956475 0 0.053995301516190891 0.00065536718182864591 0 0.053942794987077353 0.00054656174399432826 0 0.053810516990616265 0.00061404421040832196 0 0.053459356298877436 0.00038011576244627993 0 0.053415067748736396 0.00044358002425381711 0 0.048495376320826518 0.015136533961343691 0 0.048874226360126644 0.014190931893883965 0 0.049829782746181828 0.014297339089921828 0 0.053397850796301431 0.00034402939062479199 0 0.053415067748736396 0.00044358002425381711 0 0.053298306496785124 0.00029669631964459334 0 0.053397850796301431 0.00034402939062479199 0 0.053459356298877436 0.00038011576244627993 0 0.053415067748736396 0.00044358002425381711 0 0.048495376320826518 0.015136533961343691 0 0.047719491376238737 0.014224277205745251 0 0.048253404687438745 0.014129970582385177 0 0.048495376320826518 0.015136533961343691 0 0.048253404687438745 0.014129970582385177 0 0.048874226360126644 0.014190931893883965 0 0.053695186281608097 0.00041255338800049043 0 0.053784420670350865 0.00047714887801650915 0 0.053459356298877436 0.00038011576244627993 0 0.053695186281608097 0.00041255338800049043 0 0.053459356298877436 0.00038011576244627993 0 0.0535913785520266 0.00034791371499184989 0 0.053695186281608097 0.00041255338800049043 0 0.053664912395264469 0.00033129910354168436 0 0.0535913785520266 0.00034791371499184989 0 0.048495376320826518 0.015136533961343691 0 0.046328096866770294 0.01358609775866051 0 0.047719491376238737 0.014224277205745251 0 0.046328096866770294 0.01358609775866051 0 0.046313309687859523 0.012627020130027257 0 0.047068600161586996 0.012992794444879604 0 0.045738145316047606 0.012945274550723713 0 0.046328096866770294 0.01358609775866051 0 0.046313309687859523 0.012627020130027257 0 0.047068600161586996 0.012992794444879604 0 0.047633690294668823 0.013526876950454873 0 0.047972721810480443 0.012657677544725125 0 0.046328096866770294 0.01358609775866051 0 0.047068600161586996 0.012992794444879604 0 0.047633690294668823 0.013526876950454873 0 0.046328096866770294 0.01358609775866051 0 0.047633690294668823 0.013526876950454873 0 0.047719491376238737 0.014224277205745251 0 0.047633690294668823 0.013526876950454873 0 0.047719491376238737 0.014224277205745251 0 0.048253404687438745 0.014129970582385177 0 0.048253404687438745 0.014129970582385177 0 0.048488272392850036 0.013566679621580351 0 0.048874226360126644 0.014190931893883965 0 0.047633690294668823 0.013526876950454873 0 0.048253404687438745 0.014129970582385177 0 0.048488272392850036 0.013566679621580351 0 0.047633690294668823 0.013526876950454873 0 0.048488272392850036 0.013566679621580351 0 0.047972721810480443 0.012657677544725125 0 0.048488272392850036 0.013566679621580351 0 0.047972721810480443 0.012657677544725125 0 0.049302790941293299 0.012538312321022468 0 0.048488272392850036 0.013566679621580351 0 0.049367921750176992 0.013582686780176755 0 0.049302790941293299 0.012538312321022468 0 0.049367921750176992 0.013582686780176755 0 0.048874226360126644 0.014190931893883965 0 0.049829782746181828 0.014297339089921828 0 0.048488272392850036 0.013566679621580351 0 0.049367921750176992 0.013582686780176755 0 0.048874226360126644 0.014190931893883965 0 0.049302790941293299 0.012538312321022468 0 0.04834934204566077 0.011648598495086237 0 0.049601433733928037 0.010756004039047334 0 0.04834934204566077 0.011648598495086237 0 0.047814692108323439 0.01041286129113906 0 0.049601433733928037 0.010756004039047334 0 0.047972721810480443 0.012657677544725125 0 0.049302790941293299 0.012538312321022468 0 0.04834934204566077 0.011648598495086237 0 0.047972721810480443 0.012657677544725125 0 0.04834934204566077 0.011648598495086237 0 0.047217100291292585 0.011949792187181131 0 0.04834934204566077 0.011648598495086237 0 0.047217100291292585 0.011949792187181131 0 0.047814692108323439 0.01041286129113906 0 0.047217100291292585 0.011949792187181131 0 0.046409498137169623 0.01050896193991214 0 0.047814692108323439 0.01041286129113906 0 0.046313309687859523 0.012627020130027257 0 0.047068600161586996 0.012992794444879604 0 0.047217100291292585 0.011949792187181131 0 0.047068600161586996 0.012992794444879604 0 0.047972721810480443 0.012657677544725125 0 0.047217100291292585 0.011949792187181131 0 0.046313309687859523 0.012627020130027257 0 0.047217100291292585 0.011949792187181131 0 0.046172813205684338 0.011781579540625517 0 0.046313309687859523 0.012627020130027257 0 0.046172813205684338 0.011781579540625517 0 0.045440568964870469 0.012208487739391725 0 0.046172813205684338 0.011781579540625517 0 0.046409498137169623 0.01050896193991214 0 0.045323572794497849 0.011212741384437439 0 0.047217100291292585 0.011949792187181131 0 0.046172813205684338 0.011781579540625517 0 0.046409498137169623 0.01050896193991214 0 0.046409498137169623 0.01050896193991214 0 0.045676600010617054 0.0092382544454288149 0 0.046843547613051463 0.0087784526257114557 0 0.046409498137169623 0.01050896193991214 0 0.047814692108323439 0.01041286129113906 0 0.046843547613051463 0.0087784526257114557 0 0.047814692108323439 0.01041286129113906 0 0.048523062716129377 0.0093116312480630743 0 0.049601433733928037 0.010756004039047334 0 0.047814692108323439 0.01041286129113906 0 0.048523062716129377 0.0093116312480630743 0 0.046843547613051463 0.0087784526257114557 0 0.042518931675054945 0.010512904042550101 0 0.042875175487517528 0.012989581463715436 0 0.043321821571975352 0.011466107236187085 0 0.044237452667582403 0.010936862771477433 0 0.043321821571975352 0.011466107236187085 0 0.044059764102763167 0.011751577323618699 0 0.043468892954889947 0.010676346460412683 0 0.044237452667582403 0.010936862771477433 0 0.043321821571975352 0.011466107236187085 0 0.042518931675054945 0.010512904042550101 0 0.043468892954889947 0.010676346460412683 0 0.043321821571975352 0.011466107236187085 0 0.042875175487517528 0.012989581463715436 0 0.043321821571975352 0.011466107236187085 0 0.043632094290031335 0.012058929773879202 0 0.043321821571975352 0.011466107236187085 0 0.043632094290031335 0.012058929773879202 0 0.044059764102763167 0.011751577323618699 0 0.043855404229260028 0.01247138081335554 0 0.043632094290031335 0.012058929773879202 0 0.044059764102763167 0.011751577323618699 0 0.043855404229260028 0.01247138081335554 0 0.044059764102763167 0.011751577323618699 0 0.044608824473075626 0.01229592868338652 0 0.044608824473075626 0.01229592868338652 0 0.044710723851721791 0.011721873629069207 0 0.045440568964870469 0.012208487739391725 0 0.044059764102763167 0.011751577323618699 0 0.044608824473075626 0.01229592868338652 0 0.044710723851721791 0.011721873629069207 0 0.046172813205684338 0.011781579540625517 0 0.045440568964870469 0.012208487739391725 0 0.045323572794497849 0.011212741384437439 0 0.044710723851721791 0.011721873629069207 0 0.045440568964870469 0.012208487739391725 0 0.045323572794497849 0.011212741384437439 0 0.044237452667582403 0.010936862771477433 0 0.044710723851721791 0.011721873629069207 0 0.045323572794497849 0.011212741384437439 0 0.044237452667582403 0.010936862771477433 0 0.045323572794497849 0.011212741384437439 0 0.044983391424129424 0.010127161169617553 0 0.044237452667582403 0.010936862771477433 0 0.044059764102763167 0.011751577323618699 0 0.044710723851721791 0.011721873629069207 0 0.044237452667582403 0.010936862771477433 0 0.044983391424129424 0.010127161169617553 0 0.043649202082762434 0.0097610627242944881 0 0.046409498137169623 0.01050896193991214 0 0.044983391424129424 0.010127161169617553 0 0.045676600010617054 0.0092382544454288149 0 0.046409498137169623 0.01050896193991214 0 0.045323572794497849 0.011212741384437439 0 0.044983391424129424 0.010127161169617553 0 0.044983391424129424 0.010127161169617553 0 0.045676600010617054 0.0092382544454288149 0 0.044590588873626796 0.0090971323087687787 0 0.044983391424129424 0.010127161169617553 0 0.044590588873626796 0.0090971323087687787 0 0.043649202082762434 0.0097610627242944881 0 0.044590588873626796 0.0090971323087687787 0 0.043649202082762434 0.0097610627242944881 0 0.043808832947661532 0.008133581647487155 0 0.042518931675054945 0.010512904042550101 0 0.043649202082762434 0.0097610627242944881 0 0.042394406549130077 0.0085630417360785388 0 0.043468892954889947 0.010676346460412683 0 0.044237452667582403 0.010936862771477433 0 0.043649202082762434 0.0097610627242944881 0 0.042518931675054945 0.010512904042550101 0 0.043468892954889947 0.010676346460412683 0 0.043649202082762434 0.0097610627242944881 0 0.043808832947661532 0.008133581647487155 0 0.042714641902672996 0.0064543430826670368 0 0.042394406549130077 0.0085630417360785388 0 0.043649202082762434 0.0097610627242944881 0 0.043808832947661532 0.008133581647487155 0 0.042394406549130077 0.0085630417360785388 0 0.044590588873626796 0.0090971323087687787 0 0.043808832947661532 0.008133581647487155 0 0.045280309353224961 0.0079450139240971798 0 0.045676600010617054 0.0092382544454288149 0 0.044590588873626796 0.0090971323087687787 0 0.045280309353224961 0.0079450139240971798 0 0.043808832947661532 0.008133581647487155 0 0.045280309353224961 0.0079450139240971798 0 0.044495135608664291 0.0064318110125646611 0 0.045280309353224961 0.0079450139240971798 0 0.044495135608664291 0.0064318110125646611 0 0.046215135445747069 0.0069125795899052257 0 0.044495135608664291 0.0064318110125646611 0 0.046215135445747069 0.0069125795899052257 0 0.045412567449691438 0.0047673453775208654 0 0.043808832947661532 0.008133581647487155 0 0.044495135608664291 0.0064318110125646611 0 0.042714641902672996 0.0064543430826670368 0 0.044495135608664291 0.0064318110125646611 0 0.042714641902672996 0.0064543430826670368 0 0.043499396530121824 0.0049081713462533014 0 0.048523062716129377 0.0093116312480630743 0 0.047980004770043688 0.0076771115654713047 0 0.050425779516019092 0.0087559029366191827 0 0.048523062716129377 0.0093116312480630743 0 0.047980004770043688 0.0076771115654713047 0 0.046843547613051463 0.0087784526257114557 0 0.045280309353224961 0.0079450139240971798 0 0.046843547613051463 0.0087784526257114557 0 0.046215135445747069 0.0069125795899052257 0 0.047980004770043688 0.0076771115654713047 0 0.046843547613051463 0.0087784526257114557 0 0.046215135445747069 0.0069125795899052257 0 0.045676600010617054 0.0092382544454288149 0 0.045280309353224961 0.0079450139240971798 0 0.046843547613051463 0.0087784526257114557 0 0.047980004770043688 0.0076771115654713047 0 0.046215135445747069 0.0069125795899052257 0 0.047352516382422064 0.0059281132645975648 0 0.046215135445747069 0.0069125795899052257 0 0.047352516382422064 0.0059281132645975648 0 0.045412567449691438 0.0047673453775208654 0 0.047980004770043688 0.0076771115654713047 0 0.047352516382422064 0.0059281132645975648 0 0.049565053362417386 0.0057368544710855547 0 0.047314838987322083 0.0041626903795001849 0 0.048707375605976218 0.0026843364874258903 0 0.049565053362417386 0.0057368544710855547 0 0.047352516382422064 0.0059281132645975648 0 0.047314838987322083 0.0041626903795001849 0 0.049565053362417386 0.0057368544710855547 0 0.047314838987322083 0.0041626903795001849 0 0.045618655228431546 0.0026394228834328006 0 0.045412567449691438 0.0047673453775208654 0 0.047352516382422064 0.0059281132645975648 0 0.047314838987322083 0.0041626903795001849 0 0.045412567449691438 0.0047673453775208654 0 0.047314838987322083 0.0041626903795001849 0 0.045618655228431546 0.0026394228834328006 0 0.048707375605976218 0.0026843364874258903 0 0.043499396530121824 0.0049081713462533014 0 0.045412567449691438 0.0047673453775208654 0 0.043725177710650986 0.0030689100082676715 0 0.043499396530121824 0.0049081713462533014 0 0.043725177710650986 0.0030689100082676715 0 0.041818501009277295 0.0042360201592499605 0 0.044495135608664291 0.0064318110125646611 0 0.043499396530121824 0.0049081713462533014 0 0.045412567449691438 0.0047673453775208654 0 0.045618655228431546 0.0026394228834328006 0 0.043725177710650986 0.0030689100082676715 0 0.043389105094347083 0.00082424170420836141 0 0.045618655228431546 0.0026394228834328006 0 0.045412567449691438 0.0047673453775208654 0 0.043725177710650986 0.0030689100082676715 0 0.043725177710650986 0.0030689100082676715 0 0.042338071043238293 0.0019789595627019013 0 0.041818501009277295 0.0042360201592499605 0 0.042338071043238293 0.0019789595627019013 0 0.040543761071216766 0.0018744467397922709 0 0.041818501009277295 0.0042360201592499605 0 0.041818501009277295 0.0042360201592499605 0 0.040943171937315968 0.0067049388817019369 0 0.039341610154908918 0.0044550341724868218 0 0.040543761071216766 0.0018744467397922709 0 0.041818501009277295 0.0042360201592499605 0 0.039341610154908918 0.0044550341724868218 0 0.042714641902672996 0.0064543430826670368 0 0.043499396530121824 0.0049081713462533014 0 0.041818501009277295 0.0042360201592499605 0 0.041046651186685136 0.01019630422556273 0 0.040943171937315968 0.0067049388817019369 0 0.038062166187920937 0.0065539923262788805 0 0.042714641902672996 0.0064543430826670368 0 0.041818501009277295 0.0042360201592499605 0 0.040943171937315968 0.0067049388817019369 0 0.041046651186685136 0.01019630422556273 0 0.040943171937315968 0.0067049388817019369 0 0.042394406549130077 0.0085630417360785388 0 0.042714641902672996 0.0064543430826670368 0 0.040943171937315968 0.0067049388817019369 0 0.042394406549130077 0.0085630417360785388 0 0.034196136911900418 0.0083435438253097044 0 0.038560455821007367 0.010614613784157232 0 0.038062166187920937 0.0065539923262788805 0 0.040943171937315968 0.0067049388817019369 0 0.038062166187920937 0.0065539923262788805 0 0.039341610154908918 0.0044550341724868218 0 0.035234539054650293 0.0028624275707115916 0 0.038062166187920937 0.0065539923262788805 0 0.039341610154908918 0.0044550341724868218 0 0.035234539054650293 0.0028624275707115916 0 0.040543761071216766 0.0018744467397922709 0 0.039341610154908918 0.0044550341724868218 0 0.036866320357211838 0.0019522203484342751 0 0.038338278147840653 0.0018005579160311935 0 0.036747097185289526 0.00087228333790289984 0 0.040543761071216766 0.0018744467397922709 0 0.038799268007339183 -7.2596725521728044e-05 0 0.03680357705589403 -0.0014005557811269157 0 0.036747097185289526 0.00087228333790289984 0 0.038799268007339183 -7.2596725521728044e-05 0 0.038799268007339183 -7.2596725521728044e-05 0 0.041803391375418449 1.3259648342276226e-05 0 0.038863569981670079 -0.0023596209893081612 0 0.03680357705589403 -0.0014005557811269157 0 0.038799268007339183 -7.2596725521728044e-05 0 0.038863569981670079 -0.0023596209893081612 0 0.042338071043238293 0.0019789595627019013 0 0.041803391375418449 1.3259648342276226e-05 0 0.043389105094347083 0.00082424170420836141 0 0.042338071043238293 0.0019789595627019013 0 0.040543761071216766 0.0018744467397922709 0 0.041803391375418449 1.3259648342276226e-05 0 0.040543761071216766 0.0018744467397922709 0 0.038799268007339183 -7.2596725521728044e-05 0 0.041803391375418449 1.3259648342276226e-05 0 0.039175109615491872 0.00033150172998279876 0 0.038272274485259952 -1.9300346870875899e-05 0 0.041803391375418449 1.3259648342276226e-05 0 0.042873627280649286 -0.00064389425216051285 0 0.042391232174505272 -0.001288464568796393 0 0.041803391375418449 1.3259648342276226e-05 0 0.042873627280649286 -0.00064389425216051285 0 0.043389105094347083 0.00082424170420836141 0 0.042873627280649286 -0.00064389425216051285 0 0.042391232174505272 -0.001288464568796393 0 0.043330189292714018 -0.0014036703587083808 0 0.041803391375418449 1.3259648342276226e-05 0 0.042391232174505272 -0.001288464568796393 0 0.041660520461132944 -0.001170645413889021 0 0.042391232174505272 -0.001288464568796393 0 0.041660520461132944 -0.001170645413889021 0 0.042334166457416549 -0.0020071977108150449 0 0.042391232174505272 -0.001288464568796393 0 0.042334166457416549 -0.0020071977108150449 0 0.043333442282399826 -0.0021209956889635122 0 0.042391232174505272 -0.001288464568796393 0 0.043333442282399826 -0.0021209956889635122 0 0.043330189292714018 -0.0014036703587083808 0 0.040866846443156211 -0.0019357564342180674 0 0.041660520461132944 -0.001170645413889021 0 0.042334166457416549 -0.0020071977108150449 0 0.036786813537715346 -0.0038562661830669536 0 0.03680357705589403 -0.0014005557811269157 0 0.038863569981670079 -0.0023596209893081612 0 0.036154217331437345 -0.00040385042361875155 0 0.038272274485259952 -1.9300346870875899e-05 0 0.040866846443156211 -0.0019357564342180674 0 0.042334166457416549 -0.0020071977108150449 0 0.042723149456262689 -0.0029078571690772581 0 0.036154217331437345 -0.00040385042361875155 0 0.038927848913893899 -0.00089159270359808309 0 0.03327108307821651 0.0051583067882611426 0 0.036766209614845398 0.002952979709218791 0 0.034887414225159986 0.0033209164764509726 0 0.042334166457416549 -0.0020071977108150449 0 0.043087679766178069 -0.0025576910910014381 0 0.042723149456262689 -0.0029078571690772581 0 0.042334166457416549 -0.0020071977108150449 0 0.043087679766178069 -0.0025576910910014381 0 0.043333442282399826 -0.0021209956889635122 0 0.040602699366196898 -0.001707036465922135 0 0.038927848913893899 -0.00089159270359808309 0 0.043087679766178069 -0.0025576910910014381 0 0.042723149456262689 -0.0029078571690772581 0 0.043459273741100035 -0.0026490146584354107 0 0.039731716098131344 -0.0026300859920827956 0 0.036766209614845398 0.002952979709218791 0 0.034887414225159986 0.0033209164764509726 0 0.035376776476317227 0.0025892962272945868 0 0.034910439911317329 0.0032491145276505842 0 0.033318982368252162 0.0043576180626723636 0 0.032163805632396604 0.004983513168386188 0 0.034887414225159986 0.0033209164764509726 0 0.033318982368252162 0.0043576180626723636 0 0.034134693056983856 0.0037917049026394739 0 0.034887414225159986 0.0033209164764509726 0 0.033318982368252162 0.0043576180626723636 0 0.034036006198964686 0.004037996119534773 0 0.034134693056983856 0.0037917049026394739 0 0.033838536581995038 0.0039992386656542084 0 0.034134693056983856 0.0037917049026394739 0 0.034887414225159986 0.0033209164764509726 0 0.0436370432243985 -0.0025257850904917157 0 0.043751371812787591 -0.0025251037555290992 0 0.044520653362163258 -0.0025343118798615782 0 0.043751371812787591 -0.0025251037555290992 0 0.043459273741100035 -0.0026490146584354107 0 0.044339636714954354 -0.0026495655108910469 0 0.043751371812787591 -0.0025251037555290992 0 0.044339636714954354 -0.0026495655108910469 0 0.044520653362163258 -0.0025343118798615782 0 0.043123086054122559 -0.0020955980946476883 0 0.043751371812787591 -0.0025251037555290992 0 0.043459273741100035 -0.0026490146584354107 0 0.043123086054122559 -0.0020955980946476883 0 0.042723149456262689 -0.0029078571690772581 0 0.043459273741100035 -0.0026490146584354107 0 0.043459273741100035 -0.0026490146584354107 0 0.043538213399077985 -0.0025656396068188168 0 0.044263215529925418 -0.0027019871854274081 0 0.043459273741100035 -0.0026490146584354107 0 0.044263215529925418 -0.0027019871854274081 0 0.044339636714954354 -0.0026495655108910469 0 0.043087679766178069 -0.0025576910910014381 0 0.043459273741100035 -0.0026490146584354107 0 0.043538213399077985 -0.0025656396068188168 0 0.043087679766178069 -0.0025576910910014381 0 0.043538213399077985 -0.0025656396068188168 0 0.043333442282399826 -0.0021209956889635122 0 0.043538213399077985 -0.0025656396068188168 0 0.043333442282399826 -0.0021209956889635122 0 0.044263215529925418 -0.0027019871854274081 0 0.043333442282399826 -0.0021209956889635122 0 0.044263215529925418 -0.0027019871854274081 0 0.044281038436593145 -0.0020088851360739535 0 0.044263215529925418 -0.0027019871854274081 0 0.044339636714954354 -0.0026495655108910469 0 0.045813851441111594 -0.0032522768311783802 0 0.044263215529925418 -0.0027019871854274081 0 0.045813851441111594 -0.0032522768311783802 0 0.044281038436593145 -0.0020088851360739535 0 0.044339636714954354 -0.0026495655108910469 0 0.045813851441111594 -0.0032522768311783802 0 0.044520653362163258 -0.0025343118798615782 0 0.045813851441111594 -0.0032522768311783802 0 0.045389844198595687 -0.0013128389594975493 0 0.048937109901170804 -0.0006166839618254147 0 0.045813851441111594 -0.0032522768311783802 0 0.045389844198595687 -0.0013128389594975493 0 0.044281038436593145 -0.0020088851360739535 0 0.043333442282399826 -0.0021209956889635122 0 0.044281038436593145 -0.0020088851360739535 0 0.043330189292714018 -0.0014036703587083808 0 0.045389844198595687 -0.0013128389594975493 0 0.044281038436593145 -0.0020088851360739535 0 0.043993859795137001 -0.00075332646788999196 0 0.042873627280649286 -0.00064389425216051285 0 0.043993859795137001 -0.00075332646788999196 0 0.043330189292714018 -0.0014036703587083808 0 0.044281038436593145 -0.0020088851360739535 0 0.043993859795137001 -0.00075332646788999196 0 0.043330189292714018 -0.0014036703587083808 0 0.042873627280649286 -0.00064389425216051285 0 0.043993859795137001 -0.00075332646788999196 0 0.043389105094347083 0.00082424170420836141 0 0.043993859795137001 -0.00075332646788999196 0 0.043389105094347083 0.00082424170420836141 0 0.045722157079143344 0.0007026731417564112 0 0.045389844198595687 -0.0013128389594975493 0 0.043993859795137001 -0.00075332646788999196 0 0.045722157079143344 0.0007026731417564112 0 0.045618655228431546 0.0026394228834328006 0 0.043389105094347083 0.00082424170420836141 0 0.045722157079143344 0.0007026731417564112 0 0.043725177710650986 0.0030689100082676715 0 0.042338071043238293 0.0019789595627019013 0 0.043389105094347083 0.00082424170420836141 0 0.045722157079143344 0.0007026731417564112 0 0.048937109901170804 -0.0006166839618254147 0 0.048707375605976218 0.0026843364874258903 0 0.045389844198595687 -0.0013128389594975493 0 0.045722157079143344 0.0007026731417564112 0 0.048937109901170804 -0.0006166839618254147 0 0.045618655228431546 0.0026394228834328006 0 0.045722157079143344 0.0007026731417564112 0 0.048707375605976218 0.0026843364874258903 0 0.051332094453489956 0.0015207753538837656 0 0.048937109901170804 -0.0006166839618254147 0 0.048707375605976218 0.0026843364874258903 0 0.051332094453489956 0.0015207753538837656 0 0.054997389512161619 -0.00019585317740362153 0 0.048937109901170804 -0.0006166839618254147 0 0.051332094453489956 0.0015207753538837656 0 0.054997389512161619 -0.00019585317740362153 0 0.052893989622225968 0.0041068808659090478 0 0.054997389512161619 -0.00019585317740362153 0 0.048937109901170804 -0.0006166839618254147 0 0.052899969991799994 -0.005899537212664941 0 0.058334205667838701 -0.00019522337372613089 0 0.057681748176813381 -0.0040635651119851702 0 0.060631142784165246 -0.002517394807450809 0 0.053966505146617945 0.0010996797788512256 0 0.050687331608303778 -0.00077527322188844733 0 0.045813851441111594 -0.0032522768311783802 0 0.048937109901170804 -0.0006166839618254147 0 0.052899969991799994 -0.005899537212664941 0 0.045813851441111594 -0.0032522768311783802 0 0.044520653362163258 -0.0025343118798615782 0 0.042821016703660744 -0.0030538675740050653 0 0.048388031215221915 -0.0011043070980286944 0 0.050687331608303778 -0.00077527322188844733 0 0.050687331608303778 -0.00077527322188844733 0 0.045595019678357676 -0.00085769691014532447 0 0.049805886520731708 0.0016034940788313429 0 0.049812700760601326 0.0015930685672127028 0 0.049793444836451567 0.0015822787184072891 0 0.044520653362163258 -0.0025343118798615782 0 0.042821016703660744 -0.0030538675740050653 0 0.043342377349001343 -0.0010550731350377636 0 0.045334258530958821 -0.0010810016804299965 0 0.045595019678357676 -0.00085769691014532447 0 0.0436370432243985 -0.0025257850904917157 0 0.044520653362163258 -0.0025343118798615782 0 0.043606337081533553 -0.0025355541861660528 0 0.049829298034866604 0.00158872556097421 0 0.049834097167387764 0.0016054045746664726 0 0.049865366284142697 0.0016112708283501289 0 0.054835948905062319 0.00026586353915616267 0 0.05662669911098895 0.0025440700474919486 0 0.049812700760601326 0.0015930685672127028 0 0.049829298034866604 0.00158872556097421 0 0.049834097167387764 0.0016054045746664726 0 0.057681748176813381 -0.0040635651119851702 0 0.061118124879833549 -0.0049060424035056779 0 0.060631142784165246 -0.002517394807450809 0 0.049805886520731708 0.0016034940788313429 0 0.049812700760601326 0.0015930685672127028 0 0.049834097167387764 0.0016054045746664726 0 0.050687331608303778 -0.00077527322188844733 0 0.054835948905062319 0.00026586353915616267 0 0.061118124879833549 -0.0049060424035056779 0 0.063478237766439821 -0.002725599193590039 0 0.064357971640421438 -0.005589260918211345 0 0.061118124879833549 -0.0049060424035056779 0 0.063478237766439821 -0.002725599193590039 0 0.060631142784165246 -0.002517394807450809 0 0.063478237766439821 -0.002725599193590039 0 0.060631142784165246 -0.002517394807450809 0 0.06251943366926431 -0.00034849481023751833 0 0.063478237766439821 -0.002725599193590039 0 0.06251943366926431 -0.00034849481023751833 0 0.065080529124010453 0.00058440066153056167 0 0.058334205667838701 -0.00019522337372613089 0 0.060631142784165246 -0.002517394807450809 0 0.06251943366926431 -0.00034849481023751833 0 0.058334205667838701 -0.00019522337372613089 0 0.06251943366926431 -0.00034849481023751833 0 0.063748739700211124 0.0027840923161806812 0 0.06251943366926431 -0.00034849481023751833 0 0.063748739700211124 0.0027840923161806812 0 0.065080529124010453 0.00058440066153056167 0 0.063748739700211124 0.0027840923161806812 0 0.065555975314563544 0.0025899529436595996 0 0.065258502344176753 0.002221364079706801 0 0.063748739700211124 0.0027840923161806812 0 0.06571727102521846 0.0025014794629264528 0 0.066795963604967742 0.0023683989886868245 0 0.063489924847127302 0.0035628322749484895 0 0.063050508762391086 0.0044803849054939381 0 0.063748739700211124 0.0027840923161806812 0 0.06571727102521846 0.0025014794629264528 0 0.065555975314563544 0.0025899529436595996 0 0.06571727102521846 0.0025014794629264528 0 0.066795963604967742 0.0023683989886868245 0 0.066495557042720407 0.0020487414138189559 0 0.06571727102521846 0.0025014794629264528 0 0.066147330044284081 0.0022075721704864692 0 0.065555975314563544 0.0025899529436595996 0 0.06571727102521846 0.0025014794629264528 0 0.066147330044284081 0.0022075721704864692 0 0.066495557042720407 0.0020487414138189559 0 0.063748739700211124 0.0027840923161806812 0 0.060774623571093624 0.0085635570440722227 0 0.058345968409337028 0.0051774580584230167 0 0.060774623571093624 0.0085635570440722227 0 0.058345968409337028 0.0051774580584230167 0 0.056818867029941454 0.0086941639437724746 0 0.053966505146617945 0.0010996797788512256 0 0.055360741045743816 0.0034077822338860878 0 0.058334205667838701 -0.00019522337372613089 0 0.063748739700211124 0.0027840923161806812 0 0.058345968409337028 0.0051774580584230167 0 0.058345968409337028 0.0051774580584230167 0 0.052893989622225968 0.0041068808659090478 0 0.054973545711564986 0.0067180415320759537 0 0.054997389512161619 -0.00019585317740362153 0 0.058345968409337028 0.0051774580584230167 0 0.052893989622225968 0.0041068808659090478 0 0.052893989622225968 0.0041068808659090478 0 0.048707375605976218 0.0026843364874258903 0 0.049565053362417386 0.0057368544710855547 0 0.051332094453489956 0.0015207753538837656 0 0.052893989622225968 0.0041068808659090478 0 0.048707375605976218 0.0026843364874258903 0 0.049565053362417386 0.0057368544710855547 0 0.052616981168643114 0.0071924998757260652 0 0.050425779516019092 0.0087559029366191827 0 0.052893989622225968 0.0041068808659090478 0 0.049565053362417386 0.0057368544710855547 0 0.052616981168643114 0.0071924998757260652 0 0.052616981168643114 0.0071924998757260652 0 0.052309259065120718 0.0090491202074203074 0 0.050425779516019092 0.0087559029366191827 0 0.047980004770043688 0.0076771115654713047 0 0.049565053362417386 0.0057368544710855547 0 0.050425779516019092 0.0087559029366191827 0 0.058345968409337028 0.0051774580584230167 0 0.054973545711564986 0.0067180415320759537 0 0.056818867029941454 0.0086941639437724746 0 0.052893989622225968 0.0041068808659090478 0 0.052616981168643114 0.0071924998757260652 0 0.054973545711564986 0.0067180415320759537 0 0.052616981168643114 0.0071924998757260652 0 0.054973545711564986 0.0067180415320759537 0 0.054022264961407038 0.0094540275323725439 0 0.052616981168643114 0.0071924998757260652 0 0.052309259065120718 0.0090491202074203074 0 0.054022264961407038 0.0094540275323725439 0 0.054973545711564986 0.0067180415320759537 0 0.056818867029941454 0.0086941639437724746 0 0.054022264961407038 0.0094540275323725439 0 0.056818867029941454 0.0086941639437724746 0 0.055434137354253836 0.010833722470189875 0 0.054022264961407038 0.0094540275323725439 0 0.056818867029941454 0.0086941639437724746 0 0.055434137354253836 0.010833722470189875 0 0.057333511595341252 0.01141660335398847 0 0.054022264961407038 0.0094540275323725439 0 0.053756567227087652 0.011544550039365791 0 0.051881156950964083 0.010617267666918794 0 0.055434137354253836 0.010833722470189875 0 0.054022264961407038 0.0094540275323725439 0 0.053756567227087652 0.011544550039365791 0 0.055434137354253836 0.010833722470189875 0 0.053756567227087652 0.011544550039365791 0 0.055177711716513339 0.01248814989816709 0 0.053756567227087652 0.011544550039365791 0 0.052280795284241267 0.012581882327125458 0 0.05372597044052152 0.013251503720020321 0 0.053756567227087652 0.011544550039365791 0 0.055177711716513339 0.01248814989816709 0 0.05372597044052152 0.013251503720020321 0 0.055434137354253836 0.010833722470189875 0 0.055177711716513339 0.01248814989816709 0 0.057333511595341252 0.01141660335398847 0 0.055177711716513339 0.01248814989816709 0 0.056287262522144596 0.013460479118690246 0 0.057333511595341252 0.01141660335398847 0 0.048523062716129377 0.0093116312480630743 0 0.050425779516019092 0.0087559029366191827 0 0.049601433733928037 0.010756004039047334 0 0.050425779516019092 0.0087559029366191827 0 0.049601433733928037 0.010756004039047334 0 0.051881156950964083 0.010617267666918794 0 0.052309259065120718 0.0090491202074203074 0 0.054022264961407038 0.0094540275323725439 0 0.051881156950964083 0.010617267666918794 0 0.052309259065120718 0.0090491202074203074 0 0.050425779516019092 0.0087559029366191827 0 0.051881156950964083 0.010617267666918794 0 0.051881156950964083 0.010617267666918794 0 0.052280795284241267 0.012581882327125458 0 0.050800435609034494 0.012262486142710865 0 0.053756567227087652 0.011544550039365791 0 0.051881156950964083 0.010617267666918794 0 0.052280795284241267 0.012581882327125458 0 0.049601433733928037 0.010756004039047334 0 0.051881156950964083 0.010617267666918794 0 0.050800435609034494 0.012262486142710865 0 0.049302790941293299 0.012538312321022468 0 0.049601433733928037 0.010756004039047334 0 0.050800435609034494 0.012262486142710865 0 0.052987850745836056 0.0044881499549034457 0 0.059534800186458368 0.0036552984122389179 0 0.048495376320826518 0.015136533961343691 0 0.052364227690291386 0.01551421155753388 0 0.050987202054172509 0.014848777807516211 0 0.053415067748736396 0.00044358002425381711 0 0.052853354355785885 0.00028778965220475157 0 0.053298306496785124 0.00029669631964459334 0 0.048495376320826518 0.015136533961343691 0 0.052364227690291386 0.01551421155753388 0 0.054576564718529834 0.017126247108504147 0 0.049829782746181828 0.014297339089921828 0 0.050264877575442408 0.0133934706176786 0 0.050858163551990819 0.014145940600770049 0 0.049367921750176992 0.013582686780176755 0 0.049829782746181828 0.014297339089921828 0 0.050264877575442408 0.0133934706176786 0 0.049367921750176992 0.013582686780176755 0 0.049302790941293299 0.012538312321022468 0 0.050264877575442408 0.0133934706176786 0 0.049302790941293299 0.012538312321022468 0 0.050800435609034494 0.012262486142710865 0 0.050264877575442408 0.0133934706176786 0 0.050800435609034494 0.012262486142710865 0 0.050264877575442408 0.0133934706176786 0 0.051434850613220361 0.013544862826357182 0 0.049829782746181828 0.014297339089921828 0 0.050858163551990819 0.014145940600770049 0 0.050987202054172509 0.014848777807516211 0 0.050264877575442408 0.0133934706176786 0 0.050858163551990819 0.014145940600770049 0 0.051434850613220361 0.013544862826357182 0 0.050858163551990819 0.014145940600770049 0 0.051562360188910597 0.014328447222333226 0 0.050987202054172509 0.014848777807516211 0 0.051562360188910597 0.014328447222333226 0 0.051434850613220361 0.013544862826357182 0 0.05245797958241865 0.01425669773128164 0 0.051562360188910597 0.014328447222333226 0 0.05245797958241865 0.01425669773128164 0 0.052076042739187034 0.014846801226431932 0 0.050858163551990819 0.014145940600770049 0 0.051562360188910597 0.014328447222333226 0 0.051434850613220361 0.013544862826357182 0 0.052280795284241267 0.012581882327125458 0 0.050800435609034494 0.012262486142710865 0 0.051434850613220361 0.013544862826357182 0 0.052280795284241267 0.012581882327125458 0 0.051434850613220361 0.013544862826357182 0 0.05245797958241865 0.01425669773128164 0 0.052280795284241267 0.012581882327125458 0 0.05245797958241865 0.01425669773128164 0 0.05372597044052152 0.013251503720020321 0 0.052824759844584984 0.014986002911127106 0 0.052364227690291386 0.01551421155753388 0 0.053399509693191662 0.015337068458836371 0 0.05245797958241865 0.01425669773128164 0 0.052824759844584984 0.014986002911127106 0 0.053786402935593954 0.014708116345518132 0 0.05245797958241865 0.01425669773128164 0 0.052824759844584984 0.014986002911127106 0 0.052076042739187034 0.014846801226431932 0 0.052824759844584984 0.014986002911127106 0 0.052364227690291386 0.01551421155753388 0 0.052076042739187034 0.014846801226431932 0 0.052364227690291386 0.01551421155753388 0 0.052076042739187034 0.014846801226431932 0 0.050987202054172509 0.014848777807516211 0 0.051562360188910597 0.014328447222333226 0 0.052076042739187034 0.014846801226431932 0 0.050987202054172509 0.014848777807516211 0 0.048495376320826518 0.015136533961343691 0 0.049829782746181828 0.014297339089921828 0 0.050987202054172509 0.014848777807516211 0 0.056121968139568518 0.014939231595858304 0 0.057970671131909617 0.013306227286451009 0 0.056224942511428316 0.017561643276415951 0 0.056287262522144596 0.013460479118690246 0 0.056121968139568518 0.014939231595858304 0 0.057970671131909617 0.013306227286451009 0 0.054905378785238407 0.014017555885629503 0 0.054794013419396069 0.015139508611974438 0 0.056121968139568518 0.014939231595858304 0 0.056287262522144596 0.013460479118690246 0 0.054905378785238407 0.014017555885629503 0 0.056121968139568518 0.014939231595858304 0 0.055177711716513339 0.01248814989816709 0 0.056287262522144596 0.013460479118690246 0 0.054905378785238407 0.014017555885629503 0 0.055177711716513339 0.01248814989816709 0 0.05372597044052152 0.013251503720020321 0 0.054905378785238407 0.014017555885629503 0 0.05245797958241865 0.01425669773128164 0 0.05372597044052152 0.013251503720020321 0 0.053786402935593954 0.014708116345518132 0 0.05372597044052152 0.013251503720020321 0 0.054905378785238407 0.014017555885629503 0 0.053786402935593954 0.014708116345518132 0 0.054905378785238407 0.014017555885629503 0 0.054794013419396069 0.015139508611974438 0 0.053786402935593954 0.014708116345518132 0 0.054794013419396069 0.015139508611974438 0 0.054101828760115975 0.015385244267680774 0 0.053786402935593954 0.014708116345518132 0 0.052364227690291386 0.01551421155753388 0 0.053953841834101887 0.016032323681166971 0 0.054576564718529834 0.017126247108504147 0 0.054794013419396069 0.015139508611974438 0 0.054101828760115975 0.015385244267680774 0 0.054630341284544234 0.015885382618505747 0 0.052824759844584984 0.014986002911127106 0 0.053786402935593954 0.014708116345518132 0 0.053399509693191662 0.015337068458836371 0 0.054101828760115975 0.015385244267680774 0 0.053786402935593954 0.014708116345518132 0 0.053399509693191662 0.015337068458836371 0 0.052364227690291386 0.01551421155753388 0 0.053399509693191662 0.015337068458836371 0 0.053953841834101887 0.016032323681166971 0 0.054101828760115975 0.015385244267680774 0 0.053399509693191662 0.015337068458836371 0 0.053953841834101887 0.016032323681166971 0 0.054794013419396069 0.015139508611974438 0 0.054630341284544234 0.015885382618505747 0 0.055266794273596147 0.016116092255214886 0 0.053953841834101887 0.016032323681166971 0 0.054630341284544234 0.015885382618505747 0 0.054576564718529834 0.017126247108504147 0 0.054630341284544234 0.015885382618505747 0 0.055266794273596147 0.016116092255214886 0 0.054576564718529834 0.017126247108504147 0 0.054101828760115975 0.015385244267680774 0 0.053953841834101887 0.016032323681166971 0 0.054630341284544234 0.015885382618505747 0 0.055266794273596147 0.016116092255214886 0 0.056121968139568518 0.014939231595858304 0 0.056224942511428316 0.017561643276415951 0 0.054794013419396069 0.015139508611974438 0 0.055266794273596147 0.016116092255214886 0 0.056121968139568518 0.014939231595858304 0 0.062225867373788782 0.0053022676016313284 0 0.06095483449626226 0.004021035258917692 0 0.067946580604711621 0.0012237186033459244 0 0.067921781211615642 0.00091127908511110943 0 0.06716872376959844 0.0015803284296706643 0 0.062225867373788782 0.0053022676016313284 0 0.064530374428013959 0.0033699702484419679 0 0.067946580604711621 0.0012237186033459244 0 0.067921781211615642 0.00091127908511110943 0 0.068225073119851612 0.00053306899530419175 0 0.06716872376959844 0.0015803284296706643 0 0.067599185812185672 0.00051997639158024871 0 0.067220731397623981 0.00089446519891859795 0 0.067921781211615642 0.00091127908511110943 0 0.06716872376959844 0.0015803284296706643 0 0.068370875567647246 0.00047896510595561622 0 0.06716872376959844 0.0015803284296706643 0 0.067220731397623981 0.00089446519891859795 0 0.066897037164760767 0.0013219275367099606 0 0.068338332039382901 0.00092832419015951358 0 0.06856706759582433 0.00050144532301440396 0 0.06716872376959844 0.0015803284296706643 0 0.066613652827005196 0.0017893482621716245 0 0.066897037164760767 0.0013219275367099606 0 0.066147330044284081 0.0022075721704864692 0 0.066613652827005196 0.0017893482621716245 0 0.066495557042720407 0.0020487414138189559 0 0.066795963604967742 0.0023683989886868245 0 0.06716872376959844 0.0015803284296706643 0 0.066495557042720407 0.0020487414138189559 0 0.06716872376959844 0.0015803284296706643 0 0.066613652827005196 0.0017893482621716245 0 0.066495557042720407 0.0020487414138189559 0 0.063050508762391086 0.0044803849054939381 0 0.062225867373788782 0.0053022676016313284 0 0.066795963604967742 0.0023683989886868245 0 0.067946580604711621 0.0012237186033459244 0 0.06716872376959844 0.0015803284296706643 0 0.060774623571093624 0.0085635570440722227 0 0.058193226923924632 0.013700301032639351 0 0.057333511595341252 0.01141660335398847 0 0.060774623571093624 0.0085635570440722227 0 0.056818867029941454 0.0086941639437724746 0 0.057333511595341252 0.01141660335398847 0 0.056287262522144596 0.013460479118690246 0 0.057970671131909617 0.013306227286451009 0 0.057333511595341252 0.01141660335398847 0 0.062225867373788782 0.0053022676016313284 0 0.062223205435934847 0.0059781379449104916 0 0.064409087853395525 0.002990806012852538 0 0.06432475150672709 0.0031768775220721236 0 0.064219323866283595 0.0028856248859252722 0 0.064409087853395525 0.002990806012852538 0 0.064345933205206318 0.0028654347505321365 0 0.064219323866283595 0.0028856248859252722 0 0.064409087853395525 0.002990806012852538 0 0.06432475150672709 0.0031768775220721236 0 0.064429558894825559 0.0031039132531762311 0 0.064409087853395525 0.002990806012852538 0 0.064429558894825559 0.0031039132531762311 0 0.064508725828712726 0.0030501170661621606 0 0.064409087853395525 0.002990806012852538 0 0.064524598439668138 0.0029395055243638503 0 0.064478633485098025 0.0028644675377513524 0 0.064409087853395525 0.002990806012852538 0 0.064345933205206318 0.0028654347505321365 0 0.064478633485098025 0.0028644675377513524 0 0.064409087853395525 0.002990806012852538 0 0.064508725828712726 0.0030501170661621606 0 0.064524598439668138 0.0029395055243638503 0 0.068667527687802807 0.00034670398278327264 0 0.068370875567647246 0.00047896510595561622 0 0.069608031745175727 -0.00014071443204291418 0 0.064530374428013959 0.0033699702484419679 0 0.067772548955625886 0.0021820387308439542 0 0.068667527687802807 0.00034670398278327264 0 0.069343479177576398 -7.8629575547175357e-05 0 0.069608031745175727 -0.00014071443204291418 0 0.068667527687802807 0.00034670398278327264 0 0.068870552284423875 0.00042251370152192791 0 0.069343479177576398 -7.8629575547175357e-05 0 0.06856706759582433 0.00050144532301440396 0 0.0692052334485974 -2.9507748332044047e-05 0 0.068667527687802807 0.00034670398278327264 0 0.068370875567647246 0.00047896510595561622 0 0.068225073119851612 0.00053306899530419175 0 0.065119415939544137 0.0033253052875858113 0 0.064530374428013959 0.0033699702484419679 0 0.067599185812185672 0.00051997639158024871 0 0.067220731397623981 0.00089446519891859795 0 0.067415674496390632 0.00049999146093606013 0 0.067921781211615642 0.00091127908511110943 0 0.068370875567647246 0.00047896510595561622 0 0.068225073119851612 0.00053306899530419175 0 0.063050913775251363 0.0042677804249647774 0 0.062558979144718224 0.0030000400086188901 0 0.063455038933249205 0.0032625009539668987 0 0.06432475150672709 0.0031768775220721236 0 0.064429558894825559 0.0031039132531762311 0 0.064528537173721034 0.0032370463499049196 0 0.064530374428013959 0.0033699702484419679 0 0.06095483449626226 0.004021035258917692 0 0.064429558894825559 0.0031039132531762311 0 0.064528537173721034 0.0032370463499049196 0 0.064508725828712726 0.0030501170661621606 0 0.0644588213812997 0.0033635526310897522 0 0.064586052807827699 0.0033990036530466526 0 0.064645818622443132 0.0029582958340046849 0 0.059534800186458368 0.0036552984122389179 0 0.062095613402080287 0.0024561891414629504 0 0.06095483449626226 0.004021035258917692 0 0.059534800186458368 0.0036552984122389179 0 0.055266794273596147 0.016116092255214886 0 0.056224942511428316 0.017561643276415951 0 0.054576564718529834 0.017126247108504147 0 0.052853354355785885 0.00028778965220475157 0 0.053298306496785124 0.00029669631964459334 0 0.053145286325424618 8.9634333538148221e-05 0 0.052853354355785885 0.00028778965220475157 0 0.053145286325424618 8.9634333538148221e-05 0 0.053087609799492973 -0.00030044966161867624 0 0.053298306496785124 0.00029669631964459334 0 0.053145286325424618 8.9634333538148221e-05 0 0.053335075484272285 5.2084610811842164e-05 0 0.053145286325424618 8.9634333538148221e-05 0 0.053087609799492973 -0.00030044966161867624 0 0.053335075484272285 5.2084610811842164e-05 0 0.053087609799492973 -0.00030044966161867624 0 0.053553204024110977 -0.00014285567792874016 0 0.053335075484272285 5.2084610811842164e-05 0 0.06095483449626226 0.004021035258917692 0 0.062036023375756852 0.0030324850806010928 0 0.064528537173721034 0.0032370463499049196 0 0.064508725828712726 0.0030501170661621606 0 0.064645818622443132 0.0029582958340046849 0 0.064586052807827699 0.0033990036530466526 0 0.064781910152384811 0.002955959602514126 0 0.064645818622443132 0.0029582958340046849 0 0.064781910152384811 0.002955959602514126 0 0.064645818622443132 0.0029582958340046849 0 0.064644078139547229 0.0028351877170262455 0 0.064645818622443132 0.0029582958340046849 0 0.064524598439668138 0.0029395055243638503 0 0.064644078139547229 0.0028351877170262455 0 0.064508725828712726 0.0030501170661621606 0 0.064645818622443132 0.0029582958340046849 0 0.064524598439668138 0.0029395055243638503 0 0.064524598439668138 0.0029395055243638503 0 0.064644078139547229 0.0028351877170262455 0 0.064478633485098025 0.0028644675377513524 0 0.064644078139547229 0.0028351877170262455 0 0.06493094295284467 0.0025992386991369521 0 0.064534069340335301 0.0026922097814927482 0 0.064644078139547229 0.0028351877170262455 0 0.064534069340335301 0.0026922097814927482 0 0.064478633485098025 0.0028644675377513524 0 0.064781910152384811 0.002955959602514126 0 0.064644078139547229 0.0028351877170262455 0 0.06493094295284467 0.0025992386991369521 0 0.053087609799492973 -0.00030044966161867624 0 0.053345601898462366 -0.00088854463911436344 0 0.053570156980995577 -0.00056608253548638004 0 0.062095613402080287 0.0024561891414629504 0 0.067009037793139339 0.001377141927097219 0 0.067009037793139339 0.001377141927097219 0 0.069314683579162956 0.0015680053945679338 0 0.074956459781281931 1.0212199467939436e-05 0 0.074959063941174908 1.121131298577682e-05 0 0.074967396132943523 6.9504166962909185e-06 0 0.074959063941174908 1.121131298577682e-05 0 0.074962448277682725 9.0526785753110886e-06 0 0.074967396132943523 6.9504166962909185e-06 0 0.074959063941174908 1.121131298577682e-05 0 0.074962448277682725 9.0526785753110886e-06 0 0.074953900269264503 1.408295693079694e-05 0 0.074962448277682725 9.0526785753110886e-06 0 0.074965808578609863 7.4924742433350758e-06 0 0.074969531001466083 6.2989871403338874e-06 0 0.064534069340335301 0.0026922097814927482 0 0.064345933205206318 0.0028654347505321365 0 0.06417922660948458 0.0027758154925919807 0 0.069314683579162956 0.0015680053945679338 0 0.069266632154454486 0.0023220428588265943 0 0.064534069340335301 0.0026922097814927482 0 0.064345933205206318 0.0028654347505321365 0 0.064478633485098025 0.0028644675377513524 0 0.069343479177576398 -7.8629575547175357e-05 0 0.069662697527890644 -2.8857682282526268e-05 0 0.069608031745175727 -0.00014071443204291418 0 0.067772548955625886 0.0021820387308439542 0 0.069266632154454486 0.0023220428588265943 0 0.064345933205206318 0.0028654347505321365 0 0.064219323866283595 0.0028856248859252722 0 0.06417922660948458 0.0027758154925919807 0 0.074959501331860912 9.533183740259073e-06 0 0.074968966456357325 1.1440912004938914e-07 0 0.074958178174718032 7.8825007741770663e-06 0 0.074953900269264503 1.408295693079694e-05 0 0.074959501331860912 9.533183740259073e-06 0 0.074958178174718032 7.8825007741770663e-06 0 0.074962448277682725 9.0526785753110886e-06 0 0.074953900269264503 1.408295693079694e-05 0 0.074959501331860912 9.533183740259073e-06 0 0.069266632154454486 0.0023220428588265943 0 0.070629225697961387 0.0011530713862865577 0 0.074959501331860912 9.533183740259073e-06 0 0.074965808578609863 7.4924742433350758e-06 0 0.074970469699472533 5.9275221879505697e-06 0 0.074962448277682725 9.0526785753110886e-06 0 0.074959501331860912 9.533183740259073e-06 0 0.074965808578609863 7.4924742433350758e-06 0 0.074977685380235901 4.312473570493729e-06 0 0.074981124577785774 2.2669054630052239e-06 0 0.074959501331860912 9.533183740259073e-06 0 0.074970469699472533 5.9275221879505697e-06 0 0.074975684763018371 4.4456231350371026e-06 0 0.074965808578609863 7.4924742433350758e-06 0 0.074970469699472533 5.9275221879505697e-06 0 0.074969531001466083 6.2989871403338874e-06 0 0.074970469699472533 5.9275221879505697e-06 0 0.074969531001466083 6.2989871403338874e-06 0 0.074976126660207851 4.4918614573457584e-06 0 0.074970469699472533 5.9275221879505697e-06 0 0.074975684763018371 4.4456231350371026e-06 0 0.074976126660207851 4.4918614573457584e-06 0 0.074969531001466083 6.2989871403338874e-06 0 0.074975194250219729 4.6440226294656273e-06 0 0.074967396132943523 6.9504166962909185e-06 0 0.074962448277682725 9.0526785753110886e-06 0 0.074969531001466083 6.2989871403338874e-06 0 0.074967396132943523 6.9504166962909185e-06 0 0.074969531001466083 6.2989871403338874e-06 0 0.074975194250219729 4.6440226294656273e-06 0 0.074976126660207851 4.4918614573457584e-06 0 0.074975194250219729 4.6440226294656273e-06 0 0.074982041398510738 3.2902996090893787e-06 0 0.074978367571125734 3.4605689490474477e-06 0 0.074975194250219729 4.6440226294656273e-06 0 0.074982041398510738 3.2902996090893787e-06 0 0.074976126660207851 4.4918614573457584e-06 0 0.074975684763018371 4.4456231350371026e-06 0 0.074982873659204252 3.2458237378069538e-06 0 0.074989180856265755 2.2594014652630698e-06 0 0.074975684763018371 4.4456231350371026e-06 0 0.074976126660207851 4.4918614573457584e-06 0 0.074982873659204252 3.2458237378069538e-06 0 0.074982041398510738 3.2902996090893787e-06 0 0.074976126660207851 4.4918614573457584e-06 0 0.074982873659204252 3.2458237378069538e-06 0 0.074982041398510738 3.2902996090893787e-06 0 0.074982873659204252 3.2458237378069538e-06 0 0.074991615674532594 1.8067390840810472e-06 0 0.074982873659204252 3.2458237378069538e-06 0 0.074991615674532594 1.8067390840810472e-06 0 0.074989180856265755 2.2594014652630698e-06 0 0.074982041398510738 3.2902996090893787e-06 0 0.074991615674532594 1.8067390840810472e-06 0 0.074989707070474712 1.8091142469947574e-06 0 0.074982041398510738 3.2902996090893787e-06 0 0.074989707070474712 1.8091142469947574e-06 0 0.074978367571125734 3.4605689490474477e-06 0 0.074999983791421573 2.234625201278259e-09 0 0.074999987988703318 -2.1939028588862024e-10 0 0.074989707070474712 1.8091142469947574e-06 0 0.074991615674532594 1.8067390840810472e-06 0 0.074999983791421573 2.234625201278259e-09 0 0.074989707070474712 1.8091142469947574e-06 0 0.074991615674532594 1.8067390840810472e-06 0 0.074999983791421573 2.234625201278259e-09 0 0.074999991174117112 1.241557475687426e-09 0 0.074999987988703318 -2.1939028588862024e-10 0 0.074984547214960492 1.3935852409778889e-06 0 0.074999968038696394 8.0398170391254502e-09 0 0.074999987988703318 -2.1939028588862024e-10 0 0.074989707070474712 1.8091142469947574e-06 0 0.074984547214960492 1.3935852409778889e-06 0 0.074989707070474712 1.8091142469947574e-06 0 0.074984547214960492 1.3935852409778889e-06 0 0.074978367571125734 3.4605689490474477e-06 0 0.074984547214960492 1.3935852409778889e-06 0 0.07497121361632704 3.8853480311117534e-06 0 0.074969817267208111 1.017684335382533e-06 0 0.074984547214960492 1.3935852409778889e-06 0 0.074978367571125734 3.4605689490474477e-06 0 0.07497121361632704 3.8853480311117534e-06 0 0.074978367571125734 3.4605689490474477e-06 0 0.074967396132943523 6.9504166962909185e-06 0 0.07497121361632704 3.8853480311117534e-06 0 0.074975194250219729 4.6440226294656273e-06 0 0.074978367571125734 3.4605689490474477e-06 0 0.074967396132943523 6.9504166962909185e-06 0 0.074956459781281931 1.0212199467939436e-05 0 0.074967396132943523 6.9504166962909185e-06 0 0.07497121361632704 3.8853480311117534e-06 0 0.074813362313369144 0.00011536952126289584 0 0.074882418328106687 3.2914861817584734e-05 0 0.074907132805191276 8.4243420343585839e-05 0 0.074956459781281931 1.0212199467939436e-05 0 0.07497121361632704 3.8853480311117534e-06 0 0.074969817267208111 1.017684335382533e-06 0 0.067009037793139339 0.001377141927097219 0 0.071568989050090362 -0.0006625809805495276 0 0.074882418328106687 3.2914861817584734e-05 0 0.074948571323220262 2.2713626724300452e-05 0 0.074907132805191276 8.4243420343585839e-05 0 0.071568989050090362 -0.0006625809805495276 0 0.072599876028141705 -0.00075508854599337248 0 0.074882418328106687 3.2914861817584734e-05 0 0.074970780475688073 -2.5955157456132213e-07 0 0.074948571323220262 2.2713626724300452e-05 0 0.074984547214960492 1.3935852409778889e-06 0 0.074969817267208111 1.017684335382533e-06 0 0.074970780475688073 -2.5955157456132213e-07 0 0.074970780475688073 -2.5955157456132213e-07 0 0.074999968038696394 8.0398170391254502e-09 0 0.074999960901784193 -2.4707666499046136e-09 0 0.074984547214960492 1.3935852409778889e-06 0 0.074970780475688073 -2.5955157456132213e-07 0 0.074999968038696394 8.0398170391254502e-09 0 0.074999960901784193 -2.4707666499046136e-09 0 0.074979992565112119 3.0655782950752153e-06 0 0.074999977722796651 2.6079671289797433e-09 0 0.074970780475688073 -2.5955157456132213e-07 0 0.074999960901784193 -2.4707666499046136e-09 0 0.074979992565112119 3.0655782950752153e-06 0 0.074979992565112119 3.0655782950752153e-06 0 0.074972798524797685 1.1384357719680283e-05 0 0.074948571323220262 2.2713626724300452e-05 0 0.074970780475688073 -2.5955157456132213e-07 0 0.074979992565112119 3.0655782950752153e-06 0 0.074948571323220262 2.2713626724300452e-05 0 0.074979992565112119 3.0655782950752153e-06 0 0.074972798524797685 1.1384357719680283e-05 0 0.074999977722796651 2.6079671289797433e-09 0 0.074972798524797685 1.1384357719680283e-05 0 0.074949874731820437 4.7053157024036485e-05 0 0.074969301918842796 1.8645862749164775e-05 0 0.074972798524797685 1.1384357719680283e-05 0 0.074948571323220262 2.2713626724300452e-05 0 0.074949874731820437 4.7053157024036485e-05 0 0.074948571323220262 2.2713626724300452e-05 0 0.074949874731820437 4.7053157024036485e-05 0 0.074907132805191276 8.4243420343585839e-05 0 0.054493280485864201 -0.00119545544171478 0 0.054368821029659654 -0.00067820069688451093 0 0.054856822248890748 -0.00086373736243086435 0 0.054701990035049476 -0.00040069145585640596 0 0.055046396576694294 -0.00016854052431306858 0 0.054368821029659654 -0.00067820069688451093 0 0.054389074266574522 -0.0003029110270543645 0 0.055048058216292751 -0.00027137829598922739 0 0.054368821029659654 -0.00067820069688451093 0 0.053920633142939906 -0.00046477210624654017 0 0.054389074266574522 -0.0003029110270543645 0 0.054368821029659654 -0.00067820069688451093 0 0.053936305297261733 -0.0010239845641198703 0 0.053920633142939906 -0.00046477210624654017 0 0.054493280485864201 -0.00119545544171478 0 0.054368821029659654 -0.00067820069688451093 0 0.053936305297261733 -0.0010239845641198703 0 0.064790767477550373 -0.00032488216426559502 0 0.065012654318799643 0.00037566119195999375 0 0.067009037793139339 0.001377141927097219 0 0.065012654318799643 0.00037566119195999375 0 0.053345601898462366 -0.00088854463911436344 0 0.053936305297261733 -0.0010239845641198703 0 0.053570156980995577 -0.00056608253548638004 0 0.053936305297261733 -0.0010239845641198703 0 0.053570156980995577 -0.00056608253548638004 0 0.053920633142939906 -0.00046477210624654017 0 0.053920633142939906 -0.00046477210624654017 0 0.053848074551660637 -0.00010103563020614286 0 0.054134678722248593 -6.4750990465396794e-05 0 0.053920633142939906 -0.00046477210624654017 0 0.053848074551660637 -0.00010103563020614286 0 0.053553204024110977 -0.00014285567792874016 0 0.053848074551660637 -0.00010103563020614286 0 0.053553204024110977 -0.00014285567792874016 0 0.053699968864404729 0.00014180882299175433 0 0.053848074551660637 -0.00010103563020614286 0 0.053920472957162478 7.5746031173399138e-05 0 0.054134678722248593 -6.4750990465396794e-05 0 0.053570156980995577 -0.00056608253548638004 0 0.053920633142939906 -0.00046477210624654017 0 0.053553204024110977 -0.00014285567792874016 0 0.053087609799492973 -0.00030044966161867624 0 0.053570156980995577 -0.00056608253548638004 0 0.053553204024110977 -0.00014285567792874016 0 0.053553204024110977 -0.00014285567792874016 0 0.053335075484272285 5.2084610811842164e-05 0 0.053508490340718591 0.00011508593881763469 0 0.053335075484272285 5.2084610811842164e-05 0 0.053508490340718591 0.00011508593881763469 0 0.053419252323029347 0.00024747114138524089 0 0.053553204024110977 -0.00014285567792874016 0 0.053508490340718591 0.00011508593881763469 0 0.053699968864404729 0.00014180882299175433 0 0.053508490340718591 0.00011508593881763469 0 0.053546068347471533 0.00026843425285391376 0 0.053699968864404729 0.00014180882299175433 0 0.053664912395264469 0.00033129910354168436 0 0.053546068347471533 0.00026843425285391376 0 0.053699968864404729 0.00014180882299175433 0 0.053664912395264469 0.00033129910354168436 0 0.0535913785520266 0.00034791371499184989 0 0.053546068347471533 0.00026843425285391376 0 0.053459356298877436 0.00038011576244627993 0 0.0535913785520266 0.00034791371499184989 0 0.053546068347471533 0.00026843425285391376 0 0.053298306496785124 0.00029669631964459334 0 0.053335075484272285 5.2084610811842164e-05 0 0.053419252323029347 0.00024747114138524089 0 0.053508490340718591 0.00011508593881763469 0 0.053546068347471533 0.00026843425285391376 0 0.053419252323029347 0.00024747114138524089 0 0.053459356298877436 0.00038011576244627993 0 0.053546068347471533 0.00026843425285391376 0 0.053419252323029347 0.00024747114138524089 0 0.053397850796301431 0.00034402939062479199 0 0.053459356298877436 0.00038011576244627993 0 0.053419252323029347 0.00024747114138524089 0 0.053397850796301431 0.00034402939062479199 0 0.053298306496785124 0.00029669631964459334 0 0.053419252323029347 0.00024747114138524089 0 0.053920472957162478 7.5746031173399138e-05 0 0.053862685090757721 0.00024010633430436142 0 0.054057727833674366 0.0001632180424123012 0 0.053848074551660637 -0.00010103563020614286 0 0.053920472957162478 7.5746031173399138e-05 0 0.053699968864404729 0.00014180882299175433 0 0.053920472957162478 7.5746031173399138e-05 0 0.053699968864404729 0.00014180882299175433 0 0.053862685090757721 0.00024010633430436142 0 0.053664912395264469 0.00033129910354168436 0 0.053699968864404729 0.00014180882299175433 0 0.05375153432032008 0.00026140817171040314 0 0.053699968864404729 0.00014180882299175433 0 0.05375153432032008 0.00026140817171040314 0 0.053862685090757721 0.00024010633430436142 0 0.053664912395264469 0.00033129910354168436 0 0.05375153432032008 0.00026140817171040314 0 0.053786421663715188 0.00034484512103690509 0 0.05375153432032008 0.00026140817171040314 0 0.053786421663715188 0.00034484512103690509 0 0.053862685090757721 0.00024010633430436142 0 0.053907792939619455 0.00038422670523847899 0 0.053862685090757721 0.00024010633430436142 0 0.053988412951228068 0.00031122832598442547 0 0.053862685090757721 0.00024010633430436142 0 0.053988412951228068 0.00031122832598442547 0 0.054057727833674366 0.0001632180424123012 0 0.053907792939619455 0.00038422670523847899 0 0.053786421663715188 0.00034484512103690509 0 0.053862685090757721 0.00024010633430436142 0 0.054301525612796206 0.0002099254309517056 0 0.054552549672305974 -2.091111339044644e-05 0 0.054134678722248593 -6.4750990465396794e-05 0 0.054111280570585764 0.00035742622147741235 0 0.053988412951228068 0.00031122832598442547 0 0.054057727833674366 0.0001632180424123012 0 0.054111280570585764 0.00035742622147741235 0 0.054057727833674366 0.0001632180424123012 0 0.054301525612796206 0.0002099254309517056 0 0.054057727833674366 0.0001632180424123012 0 0.054301525612796206 0.0002099254309517056 0 0.054134678722248593 -6.4750990465396794e-05 0 0.053920472957162478 7.5746031173399138e-05 0 0.054057727833674366 0.0001632180424123012 0 0.054134678722248593 -6.4750990465396794e-05 0 0.054299483670629881 0.00042362836932531594 0 0.054111280570585764 0.00035742622147741235 0 0.054301525612796206 0.0002099254309517056 0 0.05465073938087113 0.00038447301958604462 0 0.054301525612796206 0.0002099254309517056 0 0.054552549672305974 -2.091111339044644e-05 0 0.05465073938087113 0.00038447301958604462 0 0.054552549672305974 -2.091111339044644e-05 0 0.055048058216292751 -0.00027137829598922739 0 0.05465073938087113 0.00038447301958604462 0 0.054299483670629881 0.00042362836932531594 0 0.054301525612796206 0.0002099254309517056 0 0.054552549672305974 -2.091111339044644e-05 0 0.054389074266574522 -0.0003029110270543645 0 0.055048058216292751 -0.00027137829598922739 0 0.054552549672305974 -2.091111339044644e-05 0 0.054389074266574522 -0.0003029110270543645 0 0.054134678722248593 -6.4750990465396794e-05 0 0.053920633142939906 -0.00046477210624654017 0 0.054389074266574522 -0.0003029110270543645 0 0.054134678722248593 -6.4750990465396794e-05 0 0.055046396576694294 -0.00016854052431306858 0 0.055620379905777832 0.00022002172037614959 0 0.054893517635661943 -0.00020027649559802705 0 0.055721813020027842 0.00044456755017900293 0 0.055430647526335211 -0.0006058053876569281 0 0.055265971908666438 0.0004161524742262919 0 0.05465073938087113 0.00038447301958604462 0 0.055048058216292751 -0.00027137829598922739 0 0.055265971908666438 0.0004161524742262919 0 0.055048058216292751 -0.00027137829598922739 0 0.055673097719222374 0.00015235224285340047 0 0.055937035336049497 0.00043138002321349664 0 0.055620379905777832 0.00022002172037614959 0 0.05626727071517864 0.00068658665492265668 0 0.055721813020027842 0.00044456755017900293 0 0.05627228070669657 0.00039286791797006051 0 0.05627228070669657 0.00039286791797006051 0 0.056061144096749949 -0.00010195058904256518 0 0.056556881984275248 0.00015737507845793992 0 0.056061144096749949 -0.00010195058904256518 0 0.056426212654570214 -0.00039493906140234232 0 0.056556881984275248 0.00015737507845793992 0 0.055721813020027842 0.00044456755017900293 0 0.05627228070669657 0.00039286791797006051 0 0.056061144096749949 -0.00010195058904256518 0 0.055721813020027842 0.00044456755017900293 0 0.056061144096749949 -0.00010195058904256518 0 0.055430647526335211 -0.0006058053876569281 0 0.056061144096749949 -0.00010195058904256518 0 0.056050712286646674 -0.00085117116054524503 0 0.055430647526335211 -0.0006058053876569281 0 0.056061144096749949 -0.00010195058904256518 0 0.056426212654570214 -0.00039493906140234232 0 0.056050712286646674 -0.00085117116054524503 0 0.056426212654570214 -0.00039493906140234232 0 0.056050712286646674 -0.00085117116054524503 0 0.056737886870618141 -0.00090213813977500952 0 0.056050712286646674 -0.00085117116054524503 0 0.056586822656032765 -0.0016380514635335386 0 0.056737886870618141 -0.00090213813977500952 0 0.056050712286646674 -0.00085117116054524503 0 0.056586822656032765 -0.0016380514635335386 0 0.055946649225889274 -0.0015170919177089361 0 0.056050712286646674 -0.00085117116054524503 0 0.055603505238948338 -0.0010926562725042876 0 0.055430647526335211 -0.0006058053876569281 0 0.056050712286646674 -0.00085117116054524503 0 0.055603505238948338 -0.0010926562725042876 0 0.055946649225889274 -0.0015170919177089361 0 0.055603505238948338 -0.0010926562725042876 0 0.055946649225889274 -0.0015170919177089361 0 0.055470941703500254 -0.0014811604019329349 0 0.055281601777606278 -0.0011068511061669488 0 0.054856822248890748 -0.00086373736243086435 0 0.055123324644311245 -0.0014859244758285328 0 0.055281601777606278 -0.0011068511061669488 0 0.055430647526335211 -0.0006058053876569281 0 0.054856822248890748 -0.00086373736243086435 0 0.055603505238948338 -0.0010926562725042876 0 0.055281601777606278 -0.0011068511061669488 0 0.055470941703500254 -0.0014811604019329349 0 0.055603505238948338 -0.0010926562725042876 0 0.055281601777606278 -0.0011068511061669488 0 0.055430647526335211 -0.0006058053876569281 0 0.054368821029659654 -0.00067820069688451093 0 0.054893517635661943 -0.00020027649559802705 0 0.054856822248890748 -0.00086373736243086435 0 0.054893517635661943 -0.00020027649559802705 0 0.055430647526335211 -0.0006058053876569281 0 0.054856822248890748 -0.00086373736243086435 0 0.054493280485864201 -0.00119545544171478 0 0.054856822248890748 -0.00086373736243086435 0 0.055123324644311245 -0.0014859244758285328 0 0.064790767477550373 -0.00032488216426559502 0 0.064585236811692329 -0.0008481559378453982 0 0.074949874731820437 4.7053157024036485e-05 0 0.074958133436669724 2.2706859868345037e-05 0 0.074969301918842796 1.8645862749164775e-05 0 0.074958133436669724 2.2706859868345037e-05 0 0.074968022504239742 1.2875110175268221e-05 0 0.074955138277863764 9.0981795921676143e-06 0 0.064585236811692329 -0.0008481559378453982 0 0.062544504509842905 -0.001156220804591604 0 0.055281601777606278 -0.0011068511061669488 0 0.055123324644311245 -0.0014859244758285328 0 0.055470941703500254 -0.0014811604019329349 0 0.074958133436669724 2.2706859868345037e-05 0 0.074968022504239742 1.2875110175268221e-05 0 0.074969301918842796 1.8645862749164775e-05 0 0.074968022504239742 1.2875110175268221e-05 0 0.074969301918842796 1.8645862749164775e-05 0 0.074982976094808085 7.8144483376197355e-06 0 0.074972798524797685 1.1384357719680283e-05 0 0.074969301918842796 1.8645862749164775e-05 0 0.074982976094808085 7.8144483376197355e-06 0 0.074972798524797685 1.1384357719680283e-05 0 0.074982976094808085 7.8144483376197355e-06 0 0.074999977722796651 2.6079671289797433e-09 0 0.074982976094808085 7.8144483376197355e-06 0 0.074999986026633117 3.564063113835616e-09 0 0.074977740292454131 6.6761460543148234e-06 0 0.074968022504239742 1.2875110175268221e-05 0 0.074982976094808085 7.8144483376197355e-06 0 0.074977740292454131 6.6761460543148234e-06 0 0.074982976094808085 7.8144483376197355e-06 0 0.074999986026633117 3.564063113835616e-09 0 0.074999977722796651 2.6079671289797433e-09 0 0.074985592994907951 4.0040410030479055e-06 0 0.074999946843282192 1.4609483849504883e-08 0 0.074971704935268751 4.7067415031479704e-06 0 0.074993644375063145 2.3616666194982298e-06 0 0.072149469560923871 0.00024024756890516415 0 0.074999986026633117 3.564063113835616e-09 0 0.074985592994907951 4.0040410030479055e-06 0 0.074977740292454131 6.6761460543148234e-06 0 0.074999986026633117 3.564063113835616e-09 0 0.074985592994907951 4.0040410030479055e-06 0 0.074999946843282192 1.4609483849504883e-08 0 0.074985592994907951 4.0040410030479055e-06 0 0.074970880423287214 2.8154021549732868e-06 0 0.074971704935268751 4.7067415031479704e-06 0 0.074977740292454131 6.6761460543148234e-06 0 0.074970880423287214 2.8154021549732868e-06 0 0.074958882266737858 1.5155377019775304e-06 0 0.074985592994907951 4.0040410030479055e-06 0 0.074977740292454131 6.6761460543148234e-06 0 0.074970880423287214 2.8154021549732868e-06 0 0.065468727239448354 -0.0011142485352848 0 0.062544504509842905 -0.001156220804591604 0 0.074977740292454131 6.6761460543148234e-06 0 0.074958882266737858 1.5155377019775304e-06 0 0.074955138277863764 9.0981795921676143e-06 0 0.05666639538094121 -0.0030971145616290937 0 0.055634489087781375 -0.0023566653089274756 0 0.056677657378920963 -0.0025769466343166874 0 0.074968022504239742 1.2875110175268221e-05 0 0.074977740292454131 6.6761460543148234e-06 0 0.074955138277863764 9.0981795921676143e-06 0 0.055123324644311245 -0.0014859244758285328 0 0.055824931605430061 -0.0017682137521289395 0 0.055470941703500254 -0.0014811604019329349 0 0.055946649225889274 -0.0015170919177089361 0 0.055894808695303708 -0.0021045917250748533 0 0.055470941703500254 -0.0014811604019329349 0 0.062544504509842905 -0.001156220804591604 0 0.060877823901490172 -0.00052996087824360653 0 0.055894808695303708 -0.0021045917250748533 0 0.056677657378920963 -0.0025769466343166874 0 0.05634489966436778 -0.0019929958282556256 0 0.062544504509842905 -0.001156220804591604 0 0.060564878498846522 -0.0010352054001073994 0 0.056677657378920963 -0.0025769466343166874 0 0.05634489966436778 -0.0019929958282556256 0 0.056768774154435826 -0.0021752490953324227 0 0.055946649225889274 -0.0015170919177089361 0 0.055894808695303708 -0.0021045917250748533 0 0.05634489966436778 -0.0019929958282556256 0 0.056586822656032765 -0.0016380514635335386 0 0.055946649225889274 -0.0015170919177089361 0 0.05634489966436778 -0.0019929958282556256 0 0.056586822656032765 -0.0016380514635335386 0 0.05634489966436778 -0.0019929958282556256 0 0.056768774154435826 -0.0021752490953324227 0 0.056586822656032765 -0.0016380514635335386 0 0.056768774154435826 -0.0021752490953324227 0 0.057201225577062267 -0.0021583263128971898 0 0.056586822656032765 -0.0016380514635335386 0 0.057201225577062267 -0.0021583263128971898 0 0.057303387674968988 -0.0015264954529002404 0 0.057201225577062267 -0.0021583263128971898 0 0.057808022711526637 -0.0021097847898127048 0 0.057303387674968988 -0.0015264954529002404 0 0.057201225577062267 -0.0021583263128971898 0 0.057638837259012546 -0.0028051423505285741 0 0.057104583167017414 -0.0026822869510843917 0 0.057201225577062267 -0.0021583263128971898 0 0.057638837259012546 -0.0028051423505285741 0 0.057808022711526637 -0.0021097847898127048 0 0.056768774154435826 -0.0021752490953324227 0 0.057201225577062267 -0.0021583263128971898 0 0.057104583167017414 -0.0026822869510843917 0 0.056677657378920963 -0.0025769466343166874 0 0.056768774154435826 -0.0021752490953324227 0 0.057104583167017414 -0.0026822869510843917 0 0.057638837259012546 -0.0028051423505285741 0 0.058759083018890539 -0.0026103814573143888 0 0.057808022711526637 -0.0021097847898127048 0 0.058759083018890539 -0.0026103814573143888 0 0.057808022711526637 -0.0021097847898127048 0 0.058261678437105474 -0.0013924560517814407 0 0.06861326267147401 -0.00054987014983635658 0 0.068555411134275795 -0.00037180153891063134 0 0.057638837259012546 -0.0028051423505285741 0 0.058759083018890539 -0.0026103814573143888 0 0.057607885154542758 -0.00375399936038317 0 0.06504316702966384 0.0022574061138835935 0 0.06476207912147218 0.002446031538220103 0 0.063638285697104474 0.0017904170179814166 0 0.063866779557886846 0.00058977840689789537 0 0.06504316702966384 0.0022574061138835935 0 0.063638285697104474 0.0017904170179814166 0 0.063812503092961742 -0.0015193351780904232 0 0.067765893979286299 -0.00058910387994190331 0 0.065468727239448354 -0.0011142485352848 0 0.067765893979286299 -0.00058910387994190331 0 0.05666639538094121 -0.0030971145616290937 0 0.057279454543505977 -0.0031372957931801756 0 0.057607885154542758 -0.00375399936038317 0 0.074970880423287214 2.8154021549732868e-06 0 0.074958882266737858 1.5155377019775304e-06 0 0.074951736653019699 -1.2763598780313992e-06 0 0.057638837259012546 -0.0028051423505285741 0 0.057279454543505977 -0.0031372957931801756 0 0.057607885154542758 -0.00375399936038317 0 0.05666639538094121 -0.0030971145616290937 0 0.057104583167017414 -0.0026822869510843917 0 0.057279454543505977 -0.0031372957931801756 0 0.05666639538094121 -0.0030971145616290937 0 0.056677657378920963 -0.0025769466343166874 0 0.057104583167017414 -0.0026822869510843917 0 0.057638837259012546 -0.0028051423505285741 0 0.057104583167017414 -0.0026822869510843917 0 0.057279454543505977 -0.0031372957931801756 0 0.074970880423287214 2.8154021549732868e-06 0 0.074951736653019699 -1.2763598780313992e-06 0 0.074971704935268751 4.7067415031479704e-06 0 0.07498626148956436 -8.7049203696983956e-06 0 0.074978384598305484 -1.4301535361224972e-05 0 0.074992535721318351 -5.4104656164781983e-06 0 0.067765893979286299 -0.00058910387994190331 0 0.072149469560923871 0.00024024756890516415 0 0.074976523034119086 -1.8665074791441532e-05 0 0.074978384598305484 -1.4301535361224972e-05 0 0.074992535721318351 -5.4104656164781983e-06 0 0.070462741175789323 -2.0561775033426829e-05 0 0.069748197277723148 0.0004578530531315232 0 0.069424201416305939 -0.00063534624662827928 0 0.067765893979286299 -0.00058910387994190331 0 0.06861326267147401 -0.00054987014983635658 0 0.074976523034119086 -1.8665074791441532e-05 0 0.074978384598305484 -1.4301535361224972e-05 0 0.074970425074935135 -1.6961542994482215e-05 0 0.074978384598305484 -1.4301535361224972e-05 0 0.074977777648931598 -1.5216277907605724e-05 0 0.074982134033349551 -1.0973039102561825e-05 0 0.068701989710304584 -0.00051103272727928543 0 0.06861326267147401 -0.00054987014983635658 0 0.06861326267147401 -0.00054987014983635658 0 0.07119339729218592 -0.00064237655879394791 0 0.074977777648931598 -1.5216277907605724e-05 0 0.074975971590190399 -1.0871313284186868e-05 0 0.074982134033349551 -1.0973039102561825e-05 0 0.07498626148956436 -8.7049203696983956e-06 0 0.074982134033349551 -1.0973039102561825e-05 0 0.074990626195462443 -4.9190737381334901e-06 0 0.074975971590190399 -1.0871313284186868e-05 0 0.074982134033349551 -1.0973039102561825e-05 0 0.074990626195462443 -4.9190737381334901e-06 0 0.07498626148956436 -8.7049203696983956e-06 0 0.074978384598305484 -1.4301535361224972e-05 0 0.074982134033349551 -1.0973039102561825e-05 0 0.074975971590190399 -1.0871313284186868e-05 0 0.074990626195462443 -4.9190737381334901e-06 0 0.074999942689637 -6.8288868014718742e-09 0 0.07119339729218592 -0.00064237655879394791 0 0.074991816295279151 6.9362940200360651e-07 0 0.075000014574184537 8.6068418670137104e-10 0 0.074990626195462443 -4.9190737381334901e-06 0 0.074999942689637 -6.8288868014718742e-09 0 0.075000014574184537 8.6068418670137104e-10 0 0.074990626195462443 -4.9190737381334901e-06 0 0.074992535721318351 -5.4104656164781983e-06 0 0.07498626148956436 -8.7049203696983956e-06 0 0.074990626195462443 -4.9190737381334901e-06 0 0.074992535721318351 -5.4104656164781983e-06 0 0.0750014673929085 -3.9950860043761794e-07 0 0.074995019538778462 7.4111251504066654e-07 0 0.074755607840724381 -1.4695309359142206e-05 0 0.074995019538778462 7.4111251504066654e-07 0 0.071671044228871328 0.00030275609684836868 0 0.067044208504845146 -1.0865228786385867e-06 0 0.074995019538778462 7.4111251504066654e-07 0 0.074755607840724381 -1.4695309359142206e-05 0 0.071671044228871328 0.00030275609684836868 0 0.074755607840724381 -1.4695309359142206e-05 0 0.072233279854293328 -3.2532447510848235e-07 0 0.071671044228871328 0.00030275609684836868 0 0.072431651530006996 -0.00074103513337128908 0 0.072116737664009806 -0.00072431061146178109 0 0.07494867667232101 -0.00015135946356907982 0 0.0750014673929085 -3.9950860043761794e-07 0 0.074853346957452396 -8.4393233330261772e-05 0 0.0750014673929085 -3.9950860043761794e-07 0 0.074755607840724381 -1.4695309359142206e-05 0 0.074853346957452396 -8.4393233330261772e-05 0 0.07119339729218592 -0.00064237655879394791 0 0.072116737664009806 -0.00072431061146178109 0 0.07119339729218592 -0.00064237655879394791 0 0.068555411134275795 -0.00037180153891063134 0 0.072233279854293328 -3.2532447510848235e-07 0 0.071791147475764622 0.00021068516138908369 0 0.071671044228871328 0.00030275609684836868 0 0.071734601618488492 0.00018602127851324421 0 0.071791147475764622 0.00021068516138908369 0 0.071593808924592814 3.9886816575663658e-05 0 0.071734601618488492 0.00018602127851324421 0 0.072233279854293328 -3.2532447510848235e-07 0 0.071791147475764622 0.00021068516138908369 0 0.071791147475764622 0.00021068516138908369 0 0.071671044228871328 0.00030275609684836868 0 0.071593808924592814 3.9886816575663658e-05 0 0.071671044228871328 0.00030275609684836868 0 0.070225154936340128 -0.00030969941364236198 0 0.067044208504845146 -1.0865228786385867e-06 0 0.071671044228871328 0.00030275609684836868 0 0.070225154936340128 -0.00030969941364236198 0 0.071593808924592814 3.9886816575663658e-05 0 0.067621975962841738 -0.00033636951499949324 0 0.068555411134275795 -0.00037180153891063134 0 0.068555411134275795 -0.00037180153891063134 0 0.06691147286587551 -0.00084597655749080191 0 0.063866779557886846 0.00058977840689789537 0 0.063638285697104474 0.0017904170179814166 0 0.062746348071586619 0.00019380881223044603 0 0.064022023185302021 -0.0022062824947982774 0 0.062282814636632676 -0.0032642330510967298 0 0.062746348071586619 0.00019380881223044603 0 0.064022023185302021 -0.0022062824947982774 0 0.067028556721117044 -3.9491162764531992e-06 0 0.062746348071586619 0.00019380881223044603 0 0.067621975962841738 -0.00033636951499949324 0 0.067037337087422544 -1.276209182113149e-06 0 0.061382116179543984 -0.00023966469206754512 0 0.06261559754662771 9.6937441538373963e-07 0 0.062746348071586619 0.00019380881223044603 0 0.067028556721117044 -3.9491162764531992e-06 0 0.06261559754662771 9.6937441538373963e-07 0 0.062746348071586619 0.00019380881223044603 0 0.061382116179543984 -0.00023966469206754512 0 0.06261559754662771 9.6937441538373963e-07 0 0.059198360647902376 0.00032848263436360229 0 0.061382116179543984 -0.00023966469206754512 0 0.059159393087058698 0.00015378019037400802 0 0.059198360647902376 0.00032848263436360229 0 0.061382116179543984 -0.00023966469206754512 0 0.059159393087058698 0.00015378019037400802 0 0.058556050119838644 -0.00035417867425353741 0 0.058759083018890539 -0.0026103814573143888 0 0.061382116179543984 -0.00023966469206754512 0 0.058261678437105474 -0.0013924560517814407 0 0.063866779557886846 0.00058977840689789537 0 0.061382116179543984 -0.00023966469206754512 0 0.062746348071586619 0.00019380881223044603 0 0.063812503092961742 -0.0015193351780904232 0 0.063178264971283024 -0.001106320499430494 0 0.061382116179543984 -0.00023966469206754512 0 0.058261678437105474 -0.0013924560517814407 0 0.058556050119838644 -0.00035417867425353741 0 0.057808022711526637 -0.0021097847898127048 0 0.058261678437105474 -0.0013924560517814407 0 0.057303387674968988 -0.0015264954529002404 0 0.058261678437105474 -0.0013924560517814407 0 0.057303387674968988 -0.0015264954529002404 0 0.057490718434188598 -0.00068770775315126582 0 0.058261678437105474 -0.0013924560517814407 0 0.058556050119838644 -0.00035417867425353741 0 0.057490718434188598 -0.00068770775315126582 0 0.056586822656032765 -0.0016380514635335386 0 0.057303387674968988 -0.0015264954529002404 0 0.056737886870618141 -0.00090213813977500952 0 0.057303387674968988 -0.0015264954529002404 0 0.056737886870618141 -0.00090213813977500952 0 0.057490718434188598 -0.00068770775315126582 0 0.056426212654570214 -0.00039493906140234232 0 0.056737886870618141 -0.00090213813977500952 0 0.056920405047038956 -0.00030806032881427212 0 0.056737886870618141 -0.00090213813977500952 0 0.056920405047038956 -0.00030806032881427212 0 0.057490718434188598 -0.00068770775315126582 0 0.056920405047038956 -0.00030806032881427212 0 0.057490718434188598 -0.00068770775315126582 0 0.057532832414574346 0.00015250704482122992 0 0.056426212654570214 -0.00039493906140234232 0 0.056920405047038956 -0.00030806032881427212 0 0.056556881984275248 0.00015737507845793992 0 0.059159393087058698 0.00015378019037400802 0 0.058556050119838644 -0.00035417867425353741 0 0.057532832414574346 0.00015250704482122992 0 0.058556050119838644 -0.00035417867425353741 0 0.057490718434188598 -0.00068770775315126582 0 0.057532832414574346 0.00015250704482122992 0 0.059159393087058698 0.00015378019037400802 0 0.057532832414574346 0.00015250704482122992 0 0.05765141258028169 0.00056407922712920129 0 0.057532832414574346 0.00015250704482122992 0 0.056704409614444076 0.00056182010672502366 0 0.05765141258028169 0.00056407922712920129 0 0.057532832414574346 0.00015250704482122992 0 0.056556881984275248 0.00015737507845793992 0 0.056704409614444076 0.00056182010672502366 0 0.05627228070669657 0.00039286791797006051 0 0.056556881984275248 0.00015737507845793992 0 0.056704409614444076 0.00056182010672502366 0 0.056920405047038956 -0.00030806032881427212 0 0.057532832414574346 0.00015250704482122992 0 0.056556881984275248 0.00015737507845793992 0 0.056256245773697963 0.00066815854096020813 0 0.05626727071517864 0.00068658665492265668 0 0.056704409614444076 0.00056182010672502366 0 0.05626727071517864 0.00068658665492265668 0 0.05627228070669657 0.00039286791797006051 0 0.056704409614444076 0.00056182010672502366 0 0.056256245773697963 0.00066815854096020813 0 0.056704409614444076 0.00056182010672502366 0 0.05765141258028169 0.00056407922712920129 0 0.056256245773697963 0.00066815854096020813 0 0.056462202479557785 0.00054435675451410957 0 0.05765141258028169 0.00056407922712920129 0 0.056462202479557785 0.00054435675451410957 0 0.058194914259029021 1.0528788818953956e-06 0 0.059198360647902376 0.00032848263436360229 0 0.06261559754662771 9.6937441538373963e-07 0 0.058194914259029021 1.0528788818953956e-06 0 0.059198360647902376 0.00032848263436360229 0 0.059159393087058698 0.00015378019037400802 0 0.059198360647902376 0.00032848263436360229 0 0.05765141258028169 0.00056407922712920129 0 0.056462202479557785 0.00054435675451410957 0 0.059198360647902376 0.00032848263436360229 0 0.05765141258028169 0.00056407922712920129 0 0.06991005999826766 -0.0015404786987233457 0 0.069684323937633227 -0.00048326127684690165 0 0.071071213987076262 -0.0020095117039808821 0 0.066035953268874584 0.0013531241955580366 0 0.065427453758329007 0.0011529063551891522 0 0.06991005999826766 -0.0015404786987233457 0 0.071071213987076262 -0.0020095117039808821 0 0.070180886359846553 -0.0026062709931827127 0 0.06991005999826766 -0.0015404786987233457 0 0.068836156522061556 -0.0020226725940713569 0 0.069513038073339667 -0.0024604546504391729 0 0.06991005999826766 -0.0015404786987233457 0 0.068836156522061556 -0.0020226725940713569 0 0.06894554117701647 -0.0011077755229223301 0 0.06991005999826766 -0.0015404786987233457 0 0.06894554117701647 -0.0011077755229223301 0 0.069585439448705627 -0.00068707883358519624 0 0.068573941895937685 -0.00050023755875194451 0 0.06894554117701647 -0.0011077755229223301 0 0.069585439448705627 -0.00068707883358519624 0 0.058667213672429684 0.0055757683964313175 0 0.058752704772115319 0.0056009237692926988 0 0.0585291836827663 0.0049006299075754966 0 0.058667213672429684 0.0055757683964313175 0 0.058752704772115319 0.0056009237692926988 0 0.058852286148164748 0.0056323627742323667 0 0.066490725868369391 0.00046283853882990667 0 0.066035953268874584 0.0013531241955580366 0 0.058752704772115319 0.0056009237692926988 0 0.058882886491625708 0.0055640262691261577 0 0.0585291836827663 0.0049006299075754966 0 0.058752704772115319 0.0056009237692926988 0 0.058882886491625708 0.0055640262691261577 0 0.058854417674916358 0.0056962772711823132 0 0.058882886491625708 0.0055640262691261577 0 0.059021326446902368 0.00577848341017755 0 0.058854417674916358 0.0056962772711823132 0 0.059201948423462714 0.0054660998373923719 0 0.059021326446902368 0.00577848341017755 0 0.059566984214562857 0.0057519462408169627 0 0.058882886491625708 0.0055640262691261577 0 0.059201948423462714 0.0054660998373923719 0 0.059021326446902368 0.00577848341017755 0 0.059455875093028313 0.0049536893112636354 0 0.0585291836827663 0.0049006299075754966 0 0.059856412461374346 0.0041617364206899274 0 0.059201948423462714 0.0054660998373923719 0 0.059455875093028313 0.0049536893112636354 0 0.0585291836827663 0.0049006299075754966 0 0.059201948423462714 0.0054660998373923719 0 0.059455875093028313 0.0049536893112636354 0 0.060071147774620047 0.0052063874999492962 0 0.059455875093028313 0.0049536893112636354 0 0.059856412461374346 0.0041617364206899274 0 0.060071147774620047 0.0052063874999492962 0 0.058882886491625708 0.0055640262691261577 0 0.059201948423462714 0.0054660998373923719 0 0.0585291836827663 0.0049006299075754966 0 0.071071213987076262 -0.0020095117039808821 0 0.071003384282345247 -0.0031080683953118096 0 0.072278174449043303 -0.0036165237845281455 0 0.065427453758329007 0.0011529063551891522 0 0.066116390085782531 -0.00019226153109402273 0 0.071071213987076262 -0.0020095117039808821 0 0.071003384282345247 -0.0031080683953118096 0 0.070180886359846553 -0.0026062709931827127 0 0.0585291836827663 0.0049006299075754966 0 0.059856412461374346 0.0041617364206899274 0 0.059403181355211922 0.0028295456803590522 0 0.072278174449043303 -0.0036165237845281455 0 0.070963940376215173 -0.0039418113464025949 0 0.072317770455378599 -0.0041785297347200906 0 0.071003384282345247 -0.0031080683953118096 0 0.072278174449043303 -0.0036165237845281455 0 0.070963940376215173 -0.0039418113464025949 0 0.071003384282345247 -0.0031080683953118096 0 0.070963940376215173 -0.0039418113464025949 0 0.070308225939192226 -0.0031964453659327065 0 0.073259590447485812 -0.0041275919646691231 0 0.072745702767899073 -0.0040362401025625201 0 0.072914203651936016 -0.0040562835638756848 0 0.070963940376215173 -0.0039418113464025949 0 0.070308225939192226 -0.0031964453659327065 0 0.069225499853454789 -0.0031796100290955626 0 0.073259590447485812 -0.0041275919646691231 0 0.072695105615548691 -0.003675218609287257 0 0.072745702767899073 -0.0040362401025625201 0 0.071678277423690706 -0.0038434814204225828 0 0.070722617978793145 -0.0034515516207022532 0 0.071003384282345247 -0.0031080683953118096 0 0.070308225939192226 -0.0031964453659327065 0 0.070180886359846553 -0.0026062709931827127 0 0.070308225939192226 -0.0031964453659327065 0 0.069844244532093799 -0.0028895581213258877 0 0.069225499853454789 -0.0031796100290955626 0 0.06991005999826766 -0.0015404786987233457 0 0.070180886359846553 -0.0026062709931827127 0 0.069513038073339667 -0.0024604546504391729 0 0.070308225939192226 -0.0031964453659327065 0 0.069844244532093799 -0.0028895581213258877 0 0.070180886359846553 -0.0026062709931827127 0 0.069844244532093799 -0.0028895581213258877 0 0.070180886359846553 -0.0026062709931827127 0 0.069513038073339667 -0.0024604546504391729 0 0.068836156522061556 -0.0020226725940713569 0 0.069513038073339667 -0.0024604546504391729 0 0.069225499853454789 -0.0031796100290955626 0 0.072170515754608935 -0.0041746045073104872 0 0.072695105615548691 -0.003675218609287257 0 0.068052023749426399 -0.0025400663417786597 0 0.069844244532093799 -0.0028895581213258877 0 0.069513038073339667 -0.0024604546504391729 0 0.069225499853454789 -0.0031796100290955626 0 0.072170515754608935 -0.0041746045073104872 0 0.072695105615548691 -0.003675218609287257 0 0.072745702767899073 -0.0040362401025625201 0 0.072745702767899073 -0.0040362401025625201 0 0.072592758974648702 -0.0041082569790065549 0 0.072914203651936016 -0.0040562835638756848 0 0.072170515754608935 -0.0041746045073104872 0 0.072745702767899073 -0.0040362401025625201 0 0.072441863554812136 -0.0041165241472532251 0 0.072745702767899073 -0.0040362401025625201 0 0.072441863554812136 -0.0041165241472532251 0 0.072592758974648702 -0.0041082569790065549 0 0.072170515754608935 -0.0041746045073104872 0 0.072441863554812136 -0.0041165241472532251 0 0.072500197708169706 -0.0041151300523030411 0 0.072441863554812136 -0.0041165241472532251 0 0.072500197708169706 -0.0041151300523030411 0 0.072592758974648702 -0.0041082569790065549 0 0.072170515754608935 -0.0041746045073104872 0 0.072500197708169706 -0.0041151300523030411 0 0.07286458748581788 -0.0041729816773092114 0 0.072170515754608935 -0.0041746045073104872 0 0.067248003702334011 -0.0050981330911997686 0 0.068052023749426399 -0.0025400663417786597 0 0.071104424121667911 -0.0041081000197545148 0 0.07016067996037903 -0.0042284666272589689 0 0.067248003702334011 -0.0050981330911997686 0 0.066484392483968063 -0.0032163425355513755 0 0.065550343885298151 -0.0039682332058004989 0 0.067248003702334011 -0.0050981330911997686 0 0.066484392483968063 -0.0032163425355513755 0 0.068052023749426399 -0.0025400663417786597 0 0.066484392483968063 -0.0032163425355513755 0 0.068052023749426399 -0.0025400663417786597 0 0.066035803883794958 -0.0013757244837279609 0 0.070722617978793145 -0.0034515516207022532 0 0.069752903025099219 -0.0030844996783842304 0 0.068836156522061556 -0.0020226725940713569 0 0.069225499853454789 -0.0031796100290955626 0 0.068052023749426399 -0.0025400663417786597 0 0.065550343885298151 -0.0039682332058004989 0 0.064352178490252224 -0.0035529356109711336 0 0.064619328728284228 -0.0052195808964308798 0 0.064352178490252224 -0.0035529356109711336 0 0.064619328728284228 -0.0052195808964308798 0 0.063422502745603501 -0.0040808971570165517 0 0.064352178490252224 -0.0035529356109711336 0 0.063422502745603501 -0.0040808971570165517 0 0.063317222119657526 -0.0031769626495912169 0 0.067248003702334011 -0.0050981330911997686 0 0.065550343885298151 -0.0039682332058004989 0 0.064619328728284228 -0.0052195808964308798 0 0.07016067996037903 -0.0042284666272589689 0 0.068881566333251237 -0.0041760482332022925 0 0.066484392483968063 -0.0032163425355513755 0 0.065299039098277195 -0.0028496517843829869 0 0.066035803883794958 -0.0013757244837279609 0 0.066484392483968063 -0.0032163425355513755 0 0.065550343885298151 -0.0039682332058004989 0 0.065299039098277195 -0.0028496517843829869 0 0.065550343885298151 -0.0039682332058004989 0 0.065299039098277195 -0.0028496517843829869 0 0.064352178490252224 -0.0035529356109711336 0 0.064352178490252224 -0.0035529356109711336 0 0.063948899882930968 -0.0017956416292375123 0 0.063317222119657526 -0.0031769626495912169 0 0.065299039098277195 -0.0028496517843829869 0 0.064352178490252224 -0.0035529356109711336 0 0.063948899882930968 -0.0017956416292375123 0 0.063948899882930968 -0.0017956416292375123 0 0.066035803883794958 -0.0013757244837279609 0 0.063962569803776653 0.00056199534176294404 0 0.065299039098277195 -0.0028496517843829869 0 0.063948899882930968 -0.0017956416292375123 0 0.066035803883794958 -0.0013757244837279609 0 0.066035803883794958 -0.0013757244837279609 0 0.067921817930018627 -0.00083704345792285707 0 0.066500915535283242 0.00087352884369196226 0 0.068836156522061556 -0.0020226725940713569 0 0.06894554117701647 -0.0011077755229223301 0 0.067921817930018627 -0.00083704345792285707 0 0.068836156522061556 -0.0020226725940713569 0 0.068052023749426399 -0.0025400663417786597 0 0.067921817930018627 -0.00083704345792285707 0 0.068052023749426399 -0.0025400663417786597 0 0.066035803883794958 -0.0013757244837279609 0 0.067921817930018627 -0.00083704345792285707 0 0.068573941895937685 -0.00050023755875194451 0 0.06894554117701647 -0.0011077755229223301 0 0.067921817930018627 -0.00083704345792285707 0 0.068573941895937685 -0.00050023755875194451 0 0.067921817930018627 -0.00083704345792285707 0 0.068215708634479982 0.00018707783457722326 0 0.067921817930018627 -0.00083704345792285707 0 0.068215708634479982 0.00018707783457722326 0 0.067372731424177199 6.7126391337325237e-05 0 0.066458127778198817 -0.00079868226722496036 0 0.065643804848689161 -0.00034834654431887586 0 0.067372731424177199 6.7126391337325237e-05 0 0.067590352503633863 0.00046201485227981835 0 0.06716992106575026 0.00054090833692949916 0 0.068215708634479982 0.00018707783457722326 0 0.067372731424177199 6.7126391337325237e-05 0 0.067590352503633863 0.00046201485227981835 0 0.068215708634479982 0.00018707783457722326 0 0.067590352503633863 0.00046201485227981835 0 0.067993757151647849 0.00046729327166488842 0 0.066035803883794958 -0.0013757244837279609 0 0.066500915535283242 0.00087352884369196226 0 0.063962569803776653 0.00056199534176294404 0 0.065643804848689161 -0.00034834654431887586 0 0.063518332733547372 6.5988484569471102e-05 0 0.066500915535283242 0.00087352884369196226 0 0.063962569803776653 0.00056199534176294404 0 0.065195910719174285 0.0026098629595677496 0 0.063962569803776653 0.00056199534176294404 0 0.065195910719174285 0.0026098629595677496 0 0.06344531159539113 0.0026125464259473949 0 0.063518332733547372 6.5988484569471102e-05 0 0.058850071849302556 0.00033109459891281597 0 0.065195910719174285 0.0026098629595677496 0 0.063479566942909932 0.0040659725480489692 0 0.06344531159539113 0.0026125464259473949 0 0.06716992106575026 0.00054090833692949916 0 0.067204029387253186 0.00074171133732538414 0 0.067452982326751107 0.00071195399004598278 0 0.067204029387253186 0.00074171133732538414 0 0.067452982326751107 0.00071195399004598278 0 0.067362231510345913 0.00083229347613667469 0 0.06716992106575026 0.00054090833692949916 0 0.067204029387253186 0.00074171133732538414 0 0.067027056745816854 0.00079641492714585364 0 0.065195910719174285 0.0026098629595677496 0 0.063880513379606221 0.0045592459557076666 0 0.063479566942909932 0.0040659725480489692 0 0.058850071849302556 0.00033109459891281597 0 0.059213213755423995 0.00073143860980139086 0 0.067993757151647849 0.00046729327166488842 0 0.067721566174017478 0.00066371226354212801 0 0.067860925693188176 0.00071428921503777405 0 0.067590352503633863 0.00046201485227981835 0 0.067993757151647849 0.00046729327166488842 0 0.067721566174017478 0.00066371226354212801 0 0.067590352503633863 0.00046201485227981835 0 0.06716992106575026 0.00054090833692949916 0 0.067452982326751107 0.00071195399004598278 0 0.067590352503633863 0.00046201485227981835 0 0.067721566174017478 0.00066371226354212801 0 0.067452982326751107 0.00071195399004598278 0 0.067452982326751107 0.00071195399004598278 0 0.067494410326350132 0.00082493228785660586 0 0.067605758031218668 0.00078724378566904824 0 0.067452982326751107 0.00071195399004598278 0 0.067362231510345913 0.00083229347613667469 0 0.067494410326350132 0.00082493228785660586 0 0.067494410326350132 0.00082493228785660586 0 0.067572627736113 0.00083298517542361591 0 0.067605758031218668 0.00078724378566904824 0 0.067721566174017478 0.00066371226354212801 0 0.067452982326751107 0.00071195399004598278 0 0.067605758031218668 0.00078724378566904824 0 0.067721566174017478 0.00066371226354212801 0 0.067605758031218668 0.00078724378566904824 0 0.067705100797037024 0.00077442208863337969 0 0.067721566174017478 0.00066371226354212801 0 0.067705100797037024 0.00077442208863337969 0 0.067860925693188176 0.00071428921503777405 0 0.067605758031218668 0.00078724378566904824 0 0.067705100797037024 0.00077442208863337969 0 0.067605426764904858 0.00087878715650337505 0 0.067572627736113 0.00083298517542361591 0 0.067605758031218668 0.00078724378566904824 0 0.067605426764904858 0.00087878715650337505 0 0.067551960211047216 0.00078173421742161941 0 0.067572627736113 0.00083298517542361591 0 0.067605426764904858 0.00087878715650337505 0 0.067395452690653349 0.00077952646084937136 0 0.067605426764904858 0.00087878715650337505 0 0.067236469304214674 0.00095010010159313424 0 0.063321681769001686 0.0010328548508170866 0 0.062950157493160769 0.0010255651904923224 0 0.067705100797037024 0.00077442208863337969 0 0.067605426764904858 0.00087878715650337505 0 0.067780626611490882 0.00088716574396287132 0 0.062950157493160769 0.0010255651904923224 0 0.060797455046124077 0.0010810935447869172 0 0.067161885114655401 0.00077675193275508899 0 0.067236469304214674 0.00095010010159313424 0 0.066882405651328011 0.00093140447757268663 0 0.061758663129909068 0.0028861737226733505 0 0.06347116486478617 0.0029495077345318838 0 0.062263386530935133 0.00037685415545106894 0 0.059120238481467378 0.0050734174900161563 0 0.059193824693846112 0.0052300688411104791 0 0.059009733969437157 0.0052101477328757168 0 0.060797455046124077 0.0010810935447869172 0 0.063068439250780969 0.0019666937986215749 0 0.067705100797037024 0.00077442208863337969 0 0.067780626611490882 0.00088716574396287132 0 0.067860925693188176 0.00071428921503777405 0 0.062950157493160769 0.0010255651904923224 0 0.063068439250780969 0.0019666937986215749 0 0.059120238481467378 0.0050734174900161563 0 0.059009733969437157 0.0052101477328757168 0 0.058876355424769065 0.00504831972637723 0 0.060797455046124077 0.0010810935447869172 0 0.056213153953011671 0.00074646662332206496 0 0.059009733969437157 0.0052101477328757168 0 0.058945923939526357 0.0053679347651541653 0 0.058887940333093684 0.005201338827652096 0 0.059009733969437157 0.0052101477328757168 0 0.059025911574247254 0.0053841275070375828 0 0.058945923939526357 0.0053679347651541653 0 0.059193824693846112 0.0052300688411104791 0 0.059009733969437157 0.0052101477328757168 0 0.059025911574247254 0.0053841275070375828 0 0.059025911574247254 0.0053841275070375828 0 0.058945923939526357 0.0053679347651541653 0 0.05893937596211922 0.0055298028844323601 0 0.067993757151647849 0.00046729327166488842 0 0.068183220115783372 0.00090289275337800253 0 0.068339071411433333 0.0002641241157569339 0 0.059193824693846112 0.0052300688411104791 0 0.059025911574247254 0.0053841275070375828 0 0.059010338903362394 0.0055857697605269487 0 0.063889976591461964 0.0019714578812182401 0 0.063068439250780969 0.0019666937986215749 0 0.063068439250780969 0.0019666937986215749 0 0.064207232980812559 0.0025433970564909389 0 0.068215708634479982 0.00018707783457722326 0 0.067993757151647849 0.00046729327166488842 0 0.068339071411433333 0.0002641241157569339 0 0.059025911574247254 0.0053841275070375828 0 0.059010338903362394 0.0055857697605269487 0 0.05893937596211922 0.0055298028844323601 0 0.058945923939526357 0.0053679347651541653 0 0.05893937596211922 0.0055298028844323601 0 0.058879562413959037 0.0055894155220587907 0 0.05893937596211922 0.0055298028844323601 0 0.058852286148164748 0.0056323627742323667 0 0.058879562413959037 0.0055894155220587907 0 0.059010338903362394 0.0055857697605269487 0 0.05893937596211922 0.0055298028844323601 0 0.058852286148164748 0.0056323627742323667 0 0.058667213672429684 0.0055757683964313175 0 0.059010338903362394 0.0055857697605269487 0 0.058852286148164748 0.0056323627742323667 0 0.066035953268874584 0.0013531241955580366 0 0.064207232980812559 0.0025433970564909389 0 0.068371308499159844 6.5229653094030601e-06 0 0.068215708634479982 0.00018707783457722326 0 0.068339071411433333 0.0002641241157569339 0 0.066035953268874584 0.0013531241955580366 0 0.067445393029138337 0.00011273290459039877 0 0.068573941895937685 -0.00050023755875194451 0 0.069585439448705627 -0.00068707883358519624 0 0.068215708634479982 0.00018707783457722326 0 0.058855112579092664 0.0057177783248810524 0 0.059021326446902368 0.00577848341017755 0 0.058730638754869224 0.0057668177505449721 0 0.059021326446902368 0.00577848341017755 0 0.058730638754869224 0.0057668177505449721 0 0.058883053759866591 0.0058826286871224596 0 0.058855112579092664 0.0057177783248810524 0 0.059021326446902368 0.00577848341017755 0 0.058854417674916358 0.0056962772711823132 0 0.058852286148164748 0.0056323627742323667 0 0.058854417674916358 0.0056962772711823132 0 0.058879562413959037 0.0055894155220587907 0 0.058855112579092664 0.0057177783248810524 0 0.058854417674916358 0.0056962772711823132 0 0.058879562413959037 0.0055894155220587907 0 0.058752704772115319 0.0056009237692926988 0 0.058852286148164748 0.0056323627742323667 0 0.058854417674916358 0.0056962772711823132 0 0.058855112579092664 0.0057177783248810524 0 0.058879562413959037 0.0055894155220587907 0 0.058780513773501478 0.0055919947279788988 0 0.058879562413959037 0.0055894155220587907 0 0.058780513773501478 0.0055919947279788988 0 0.058815156538778224 0.005363418625284248 0 0.058855112579092664 0.0057177783248810524 0 0.058780513773501478 0.0055919947279788988 0 0.058730638754869224 0.0057668177505449721 0 0.058780513773501478 0.0055919947279788988 0 0.058730638754869224 0.0057668177505449721 0 0.058580031757013255 0.005472277813462041 0 0.058580031757013255 0.005472277813462041 0 0.058563747162062037 0.0051794527055514222 0 0.058815156538778224 0.005363418625284248 0 0.058780513773501478 0.0055919947279788988 0 0.058580031757013255 0.005472277813462041 0 0.058815156538778224 0.005363418625284248 0 0.058563747162062037 0.0051794527055514222 0 0.058815156538778224 0.005363418625284248 0 0.058755248040758497 0.0050689724540065898 0 0.058945923939526357 0.0053679347651541653 0 0.058815156538778224 0.005363418625284248 0 0.058887940333093684 0.005201338827652096 0 0.058945923939526357 0.0053679347651541653 0 0.058879562413959037 0.0055894155220587907 0 0.058815156538778224 0.005363418625284248 0 0.058815156538778224 0.005363418625284248 0 0.058887940333093684 0.005201338827652096 0 0.058755248040758497 0.0050689724540065898 0 0.056213153953011671 0.00074646662332206496 0 0.054996175148043558 0.0010279367547117591 0 0.059175706143252245 0.004678438595094851 0 0.058755248040758497 0.0050689724540065898 0 0.058606134992428068 0.0046553512498128825 0 0.059009733969437157 0.0052101477328757168 0 0.058887940333093684 0.005201338827652096 0 0.058876355424769065 0.00504831972637723 0 0.058887940333093684 0.005201338827652096 0 0.058876355424769065 0.00504831972637723 0 0.058755248040758497 0.0050689724540065898 0 0.056213153953011671 0.00074646662332206496 0 0.056317576067449832 0.0013326753433881091 0 0.054996175148043558 0.0010279367547117591 0 0.053735096741015308 0.0014008787248187781 0 0.058415004299933508 0.004895427582026989 0 0.058606134992428068 0.0046553512498128825 0 0.058130940684362052 0.0046036308634480093 0 0.058563747162062037 0.0051794527055514222 0 0.058415004299933508 0.004895427582026989 0 0.058755248040758497 0.0050689724540065898 0 0.058415004299933508 0.004895427582026989 0 0.058755248040758497 0.0050689724540065898 0 0.058606134992428068 0.0046553512498128825 0 0.058563747162062037 0.0051794527055514222 0 0.058415004299933508 0.004895427582026989 0 0.057947729940940627 0.0049722418452128369 0 0.058415004299933508 0.004895427582026989 0 0.058130940684362052 0.0046036308634480093 0 0.057947729940940627 0.0049722418452128369 0 0.053735096741015308 0.0014008787248187781 0 0.054182972284288457 0.0037213795182810833 0 0.054726932035196067 0.0055872046577185265 0 0.055513191627482555 0.0057033245519068927 0 0.054888400924093105 0.0056738955964719812 0 0.054528050105887474 0.0055485754849914871 0 0.054726932035196067 0.0055872046577185265 0 0.054888400924093105 0.0056738955964719812 0 0.053805931678747247 0.0014852667256920872 0 0.053735096741015308 0.0014008787248187781 0 0.054182972284288457 0.0037213795182810833 0 0.054367312832808642 0.0043895987392518626 0 0.057947729940940627 0.0049722418452128369 0 0.058273952033333354 0.0056743145739357528 0 0.057378638796494172 0.0056067632105826415 0 0.058580031757013255 0.005472277813462041 0 0.058563747162062037 0.0051794527055514222 0 0.057947729940940627 0.0049722418452128369 0 0.058580031757013255 0.005472277813462041 0 0.057947729940940627 0.0049722418452128369 0 0.058273952033333354 0.0056743145739357528 0 0.055513191627482555 0.0057033245519068927 0 0.056246441077525293 0.0056634174097162163 0 0.055107258916286865 0.0057531053271144481 0 0.055513191627482555 0.0057033245519068927 0 0.056246441077525293 0.0056634174097162163 0 0.057378638796494172 0.0056067632105826415 0 0.055513191627482555 0.0057033245519068927 0 0.055107258916286865 0.0057531053271144481 0 0.054888400924093105 0.0056738955964719812 0 0.054390453476585603 0.005654353757572882 0 0.054528050105887474 0.0055485754849914871 0 0.054888400924093105 0.0056738955964719812 0 0.05390307364026161 0.0058070942341350634 0 0.054390453476585603 0.005654353757572882 0 0.055107258916286865 0.0057531053271144481 0 0.054390453476585603 0.005654353757572882 0 0.055107258916286865 0.0057531053271144481 0 0.054888400924093105 0.0056738955964719812 0 0.05390307364026161 0.0058070942341350634 0 0.053958011586445705 0.00624237692093727 0 0.055279852972273655 0.0058744112176516323 0 0.05390307364026161 0.0058070942341350634 0 0.055107258916286865 0.0057531053271144481 0 0.055279852972273655 0.0058744112176516323 0 0.05274426402978559 0.0070787002176563507 0 0.053958011586445705 0.00624237692093727 0 0.055161786414142121 0.0059110217841814626 0 0.053958011586445705 0.00624237692093727 0 0.055161786414142121 0.0059110217841814626 0 0.055279852972273655 0.0058744112176516323 0 0.056137583619736364 0.005688588193820468 0 0.055279852972273655 0.0058744112176516323 0 0.056717336893046082 0.0056532839722132043 0 0.055161786414142121 0.0059110217841814626 0 0.056137583619736364 0.005688588193820468 0 0.055279852972273655 0.0058744112176516323 0 0.056246441077525293 0.0056634174097162163 0 0.055107258916286865 0.0057531053271144481 0 0.055279852972273655 0.0058744112176516323 0 0.056246441077525293 0.0056634174097162163 0 0.055279852972273655 0.0058744112176516323 0 0.056717336893046082 0.0056532839722132043 0 0.056246441077525293 0.0056634174097162163 0 0.056717336893046082 0.0056532839722132043 0 0.057511972653850101 0.0057261825032752884 0 0.056717336893046082 0.0056532839722132043 0 0.057529315469537261 0.0056389041846036251 0 0.057511972653850101 0.0057261825032752884 0 0.057529315469537261 0.0056389041846036251 0 0.057511972653850101 0.0057261825032752884 0 0.058238161045681899 0.0057594698578907469 0 0.056717336893046082 0.0056532839722132043 0 0.057063137803102591 0.0054755784071133561 0 0.057709745169455623 0.0054779266551626387 0 0.056137583619736364 0.005688588193820468 0 0.056717336893046082 0.0056532839722132043 0 0.057063137803102591 0.0054755784071133561 0 0.056717336893046082 0.0056532839722132043 0 0.057529315469537261 0.0056389041846036251 0 0.057709745169455623 0.0054779266551626387 0 0.057063137803102591 0.0054755784071133561 0 0.057709745169455623 0.0054779266551626387 0 0.058055309169025009 0.0052714980709946714 0 0.057709745169455623 0.0054779266551626387 0 0.058595987483731155 0.0051783867694624557 0 0.058055309169025009 0.0052714980709946714 0 0.057709745169455623 0.0054779266551626387 0 0.05848504794237893 0.0053094454184392705 0 0.058238161045681899 0.0057594698578907469 0 0.057709745169455623 0.0054779266551626387 0 0.05848504794237893 0.0053094454184392705 0 0.058595987483731155 0.0051783867694624557 0 0.058238161045681899 0.0057594698578907469 0 0.05854741609668427 0.0058452129569374978 0 0.062055362765791829 0.0043157452007839625 0 0.057511972653850101 0.0057261825032752884 0 0.058238161045681899 0.0057594698578907469 0 0.05854741609668427 0.0058452129569374978 0 0.057529315469537261 0.0056389041846036251 0 0.057709745169455623 0.0054779266551626387 0 0.058238161045681899 0.0057594698578907469 0 0.057511972653850101 0.0057261825032752884 0 0.05854741609668427 0.0058452129569374978 0 0.058241994785103494 0.0058286791723741408 0 0.05854741609668427 0.0058452129569374978 0 0.059102414157416183 0.005883455952890148 0 0.058241994785103494 0.0058286791723741408 0 0.05854741609668427 0.0058452129569374978 0 0.059102414157416183 0.005883455952890148 0 0.060004202655183601 0.0057476480739792482 0 0.059102414157416183 0.005883455952890148 0 0.058883053759866591 0.0058826286871224596 0 0.059566984214562857 0.0057519462408169627 0 0.059021326446902368 0.00577848341017755 0 0.058883053759866591 0.0058826286871224596 0 0.059566984214562857 0.0057519462408169627 0 0.059102414157416183 0.005883455952890148 0 0.058883053759866591 0.0058826286871224596 0 0.058241994785103494 0.0058286791723741408 0 0.058730638754869224 0.0057668177505449721 0 0.058883053759866591 0.0058826286871224596 0 0.058273952033333354 0.0056743145739357528 0 0.058883053759866591 0.0058826286871224596 0 0.058273952033333354 0.0056743145739357528 0 0.058241994785103494 0.0058286791723741408 0 0.058730638754869224 0.0057668177505449721 0 0.058580031757013255 0.005472277813462041 0 0.058273952033333354 0.0056743145739357528 0 0.058273952033333354 0.0056743145739357528 0 0.057378638796494172 0.0056067632105826415 0 0.058241994785103494 0.0058286791723741408 0 0.056246441077525293 0.0056634174097162163 0 0.057511972653850101 0.0057261825032752884 0 0.057378638796494172 0.0056067632105826415 0 0.057511972653850101 0.0057261825032752884 0 0.057378638796494172 0.0056067632105826415 0 0.058241994785103494 0.0058286791723741408 0 0.063478237766439821 -0.002725599193590039 0 0.064357971640421438 -0.005589260918211345 0 0.066198267114580406 -0.0019480901326239925 0 0.059311863108528567 0.0057456181066956801 0 0.059122127594475056 0.005661788137109278 0 0.059146089303293431 0.0054308521655533253 0 0.05662669911098895 0.0025440700474919486 0 0.060018705488699642 0.0027292993452002401 0 0.049871943413584689 0.0015915580274175121 0 0.049865366284142697 0.0016112708283501289 0 0.049903331779805847 0.0016121491214883326 0 0.059311863108528567 0.0057456181066956801 0 0.058984621780267213 0.0058470555672942223 0 0.059122127594475056 0.005661788137109278 0 0.05662669911098895 0.0025440700474919486 0 0.053622920845156664 0.0046488098316746704 0 0.053622920845156664 0.0046488098316746704 0 0.052488601784212809 0.0052592898198072962 0 0.053622920845156664 0.0046488098316746704 0 0.055862276390649133 0.0055546869892008624 0 0.058984621780267213 0.0058470555672942223 0 0.059122127594475056 0.005661788137109278 0 0.058858477526994191 0.0055224110201858015 0 0.059122127594475056 0.005661788137109278 0 0.058858477526994191 0.0055224110201858015 0 0.059146089303293431 0.0054308521655533253 0 0.05726736449945926 0.0063155083962154971 0 0.057064347264068754 0.0053417410049367521 0 0.05620909634656459 0.0057130368144514788 0 0.057064347264068754 0.0053417410049367521 0 0.05620909634656459 0.0057130368144514788 0 0.056567150943032378 0.0055117222122277338 0 0.05274426402978559 0.0070787002176563507 0 0.05620909634656459 0.0057130368144514788 0 0.057124947744178679 0.0071166283238032306 0 0.05726736449945926 0.0063155083962154971 0 0.05620909634656459 0.0057130368144514788 0 0.056786572692932948 0.0064496775273565456 0 0.053472042263114708 0.0059869570042255394 0 0.052488601784212809 0.0052592898198072962 0 0.05274426402978559 0.0070787002176563507 0 0.055161786414142121 0.0059110217841814626 0 0.05620909634656459 0.0057130368144514788 0 0.055161786414142121 0.0059110217841814626 0 0.05620909634656459 0.0057130368144514788 0 0.056567150943032378 0.0055117222122277338 0 0.056137583619736364 0.005688588193820468 0 0.057063137803102591 0.0054755784071133561 0 0.056567150943032378 0.0055117222122277338 0 0.055161786414142121 0.0059110217841814626 0 0.056137583619736364 0.005688588193820468 0 0.056567150943032378 0.0055117222122277338 0 0.057063137803102591 0.0054755784071133561 0 0.056567150943032378 0.0055117222122277338 0 0.057489077925840334 0.0053457756279622418 0 0.057063137803102591 0.0054755784071133561 0 0.057489077925840334 0.0053457756279622418 0 0.058055309169025009 0.0052714980709946714 0 0.058595987483731155 0.0051783867694624557 0 0.058055309169025009 0.0052714980709946714 0 0.058980919531210714 0.004951508600082412 0 0.058055309169025009 0.0052714980709946714 0 0.058980919531210714 0.004951508600082412 0 0.058655298072615256 0.0051093429854421682 0 0.057489077925840334 0.0053457756279622418 0 0.058055309169025009 0.0052714980709946714 0 0.058655298072615256 0.0051093429854421682 0 0.055862276390649133 0.0055546869892008624 0 0.056427155630545074 0.0054433634105563343 0 0.058858477526994191 0.0055224110201858015 0 0.058655298072615256 0.0051093429854421682 0 0.058979193402700331 0.0050453528774766871 0 0.057064347264068754 0.0053417410049367521 0 0.056567150943032378 0.0055117222122277338 0 0.057489077925840334 0.0053457756279622418 0 0.057064347264068754 0.0053417410049367521 0 0.057489077925840334 0.0053457756279622418 0 0.058655298072615256 0.0051093429854421682 0 0.061530321878412057 0.0029465270926529587 0 0.060018705488699642 0.0027292993452002401 0 0.058858477526994191 0.0055224110201858015 0 0.058979193402700331 0.0050453528774766871 0 0.059146089303293431 0.0054308521655533253 0 0.066908032551485308 0.0013058936128627105 0 0.065080529124010453 0.00058440066153056167 0 0.066198267114580406 -0.0019480901326239925 0 0.066908032551485308 0.0013058936128627105 0 0.065080529124010453 0.00058440066153056167 0 0.065944605940464862 0.0019648116288146938 0 0.063478237766439821 -0.002725599193590039 0 0.065080529124010453 0.00058440066153056167 0 0.066198267114580406 -0.0019480901326239925 0 0.066147330044284081 0.0022075721704864692 0 0.066138748704698047 0.0022862513339603555 0 0.065555975314563544 0.0025899529436595996 0 0.066138748704698047 0.0022862513339603555 0 0.06592859641972787 0.002469892363202132 0 0.065555975314563544 0.0025899529436595996 0 0.06592859641972787 0.002469892363202132 0 0.065555975314563544 0.0025899529436595996 0 0.065258502344176753 0.002221364079706801 0 0.063748739700211124 0.0027840923161806812 0 0.065080529124010453 0.00058440066153056167 0 0.065258502344176753 0.002221364079706801 0 0.065080529124010453 0.00058440066153056167 0 0.065258502344176753 0.002221364079706801 0 0.065944605940464862 0.0019648116288146938 0 0.06592859641972787 0.002469892363202132 0 0.065258502344176753 0.002221364079706801 0 0.065944605940464862 0.0019648116288146938 0 0.06592859641972787 0.002469892363202132 0 0.065944605940464862 0.0019648116288146938 0 0.066180858298671277 0.0023942109009579765 0 0.066908032551485308 0.0013058936128627105 0 0.065944605940464862 0.0019648116288146938 0 0.066180858298671277 0.0023942109009579765 0 0.06592859641972787 0.002469892363202132 0 0.066180858298671277 0.0023942109009579765 0 0.066090742906884978 0.0024407506611685221 0 0.066138748704698047 0.0022862513339603555 0 0.06592859641972787 0.002469892363202132 0 0.066090742906884978 0.0024407506611685221 0 0.066180858298671277 0.0023942109009579765 0 0.066090742906884978 0.0024407506611685221 0 0.065835010569993579 0.0029202458343504088 0 0.066090742906884978 0.0024407506611685221 0 0.065835010569993579 0.0029202458343504088 0 0.065689806182729099 0.0020594310894419903 0 0.065835010569993579 0.0029202458343504088 0 0.063169932327053133 0.0024534988009264147 0 0.065689806182729099 0.0020594310894419903 0 0.066908032551485308 0.0013058936128627105 0 0.066180858298671277 0.0023942109009579765 0 0.065835010569993579 0.0029202458343504088 0 0.058980919531210714 0.004951508600082412 0 0.058655298072615256 0.0051093429854421682 0 0.060105069602120573 0.0045035560398657944 0 0.058655298072615256 0.0051093429854421682 0 0.058979193402700331 0.0050453528774766871 0 0.060105069602120573 0.0045035560398657944 0 0.061530321878412057 0.0029465270926529587 0 0.061960775218726644 0.0026870623323008058 0 0.060105069602120573 0.0045035560398657944 0 0.059496260624896984 0.004766238856008102 0 0.060684365091326256 0.0040900006930954429 0 0.058980919531210714 0.004951508600082412 0 0.060105069602120573 0.0045035560398657944 0 0.059496260624896984 0.004766238856008102 0 0.058595987483731155 0.0051783867694624557 0 0.058980919531210714 0.004951508600082412 0 0.059496260624896984 0.004766238856008102 0 0.060105069602120573 0.0045035560398657944 0 0.060684365091326256 0.0040900006930954429 0 0.063169932327053133 0.0024534988009264147 0 0.061960775218726644 0.0026870623323008058 0 0.061929774920011046 0.0022514909116179735 0 0.060684365091326256 0.0040900006930954429 0 0.063169932327053133 0.0024534988009264147 0 0.061863161292878929 0.0018566828413185492 0 0.063169932327053133 0.0024534988009264147 0 0.064982192304005759 0.0015048909642103902 0 0.065689806182729099 0.0020594310894419903 0 0.063169932327053133 0.0024534988009264147 0 0.064436789966239999 0.0011750073991402858 0 0.064982192304005759 0.0015048909642103902 0 0.063169932327053133 0.0024534988009264147 0 0.064436789966239999 0.0011750073991402858 0 0.061863161292878929 0.0018566828413185492 0 0.064436789966239999 0.0011750073991402858 0 0.061863161292878929 0.0018566828413185492 0 0.06593332483546735 -0.00011517849039444731 0 0.064436789966239999 0.0011750073991402858 0 0.065877165985808728 0.00081683565546005453 0 0.06593332483546735 -0.00011517849039444731 0 0.064436789966239999 0.0011750073991402858 0 0.065877165985808728 0.00081683565546005453 0 0.064982192304005759 0.0015048909642103902 0 0.065877165985808728 0.00081683565546005453 0 0.066145362326042192 0.0013793080741633273 0 0.064982192304005759 0.0015048909642103902 0 0.065877165985808728 0.00081683565546005453 0 0.066145362326042192 0.0013793080741633273 0 0.06680629130946257 0.00076127480715943731 0 0.066145362326042192 0.0013793080741633273 0 0.064982192304005759 0.0015048909642103902 0 0.065689806182729099 0.0020594310894419903 0 0.066138748704698047 0.0022862513339603555 0 0.066090742906884978 0.0024407506611685221 0 0.066379369748922626 0.0017319220646575021 0 0.066145362326042192 0.0013793080741633273 0 0.065689806182729099 0.0020594310894419903 0 0.066379369748922626 0.0017319220646575021 0 0.066090742906884978 0.0024407506611685221 0 0.065689806182729099 0.0020594310894419903 0 0.066379369748922626 0.0017319220646575021 0 0.066145362326042192 0.0013793080741633273 0 0.066379369748922626 0.0017319220646575021 0 0.06680629130946257 0.00076127480715943731 0 0.066379369748922626 0.0017319220646575021 0 0.06680629130946257 0.00076127480715943731 0 0.066836696889346417 0.0011676818507918348 0 0.06680629130946257 0.00076127480715943731 0 0.066836696889346417 0.0011676818507918348 0 0.067170073331955335 0.00070427182928805676 0 0.066836696889346417 0.0011676818507918348 0 0.067220731397623981 0.00089446519891859795 0 0.067170073331955335 0.00070427182928805676 0 0.066836696889346417 0.0011676818507918348 0 0.067220731397623981 0.00089446519891859795 0 0.066897037164760767 0.0013219275367099606 0 0.066836696889346417 0.0011676818507918348 0 0.066897037164760767 0.0013219275367099606 0 0.066507016656841458 0.0017692888915576735 0 0.066613652827005196 0.0017893482621716245 0 0.066897037164760767 0.0013219275367099606 0 0.066507016656841458 0.0017692888915576735 0 0.066379369748922626 0.0017319220646575021 0 0.066836696889346417 0.0011676818507918348 0 0.066507016656841458 0.0017692888915576735 0 0.066138748704698047 0.0022862513339603555 0 0.066379369748922626 0.0017319220646575021 0 0.066507016656841458 0.0017692888915576735 0 0.066147330044284081 0.0022075721704864692 0 0.066138748704698047 0.0022862513339603555 0 0.066507016656841458 0.0017692888915576735 0 0.066147330044284081 0.0022075721704864692 0 0.066613652827005196 0.0017893482621716245 0 0.066507016656841458 0.0017692888915576735 0 0.060836709384219367 0.0053055283329370454 0 0.060004202655183601 0.0057476480739792482 0 0.061820808163802782 0.0054537797269702745 0 0.060836709384219367 0.0053055283329370454 0 0.061820808163802782 0.0054537797269702745 0 0.062241216285362506 0.0042943519927103975 0 0.060836709384219367 0.0053055283329370454 0 0.062241216285362506 0.0042943519927103975 0 0.060940841250335671 0.0044393520840199903 0 0.060836709384219367 0.0053055283329370454 0 0.060071147774620047 0.0052063874999492962 0 0.060940841250335671 0.0044393520840199903 0 0.059856412461374346 0.0041617364206899274 0 0.060071147774620047 0.0052063874999492962 0 0.060940841250335671 0.0044393520840199903 0 0.060836709384219367 0.0053055283329370454 0 0.060071147774620047 0.0052063874999492962 0 0.059566984214562857 0.0057519462408169627 0 0.059201948423462714 0.0054660998373923719 0 0.060071147774620047 0.0052063874999492962 0 0.059566984214562857 0.0057519462408169627 0 0.059102414157416183 0.005883455952890148 0 0.059566984214562857 0.0057519462408169627 0 0.060004202655183601 0.0057476480739792482 0 0.05854741609668427 0.0058452129569374978 0 0.060004202655183601 0.0057476480739792482 0 0.061820808163802782 0.0054537797269702745 0 0.060836709384219367 0.0053055283329370454 0 0.059566984214562857 0.0057519462408169627 0 0.060004202655183601 0.0057476480739792482 0 0.061616441399336086 0.0050010801633147989 0 0.062525100255483565 0.0040184069169943151 0 0.05854741609668427 0.0058452129569374978 0 0.062055362765791829 0.0043157452007839625 0 0.060911177390538765 0.0037913206524921176 0 0.06049507568440133 0.0046373593983113784 0 0.061222732165336344 0.0038475317468596041 0 0.05848504794237893 0.0053094454184392705 0 0.058238161045681899 0.0057594698578907469 0 0.058812148690877274 0.0044946843760497995 0 0.05848504794237893 0.0053094454184392705 0 0.059112989066562344 0.0048971722118423986 0 0.058812148690877274 0.0044946843760497995 0 0.060684365091326256 0.0040900006930954429 0 0.059112989066562344 0.0048971722118423986 0 0.058812148690877274 0.0044946843760497995 0 0.05848504794237893 0.0053094454184392705 0 0.058595987483731155 0.0051783867694624557 0 0.059112989066562344 0.0048971722118423986 0 0.058595987483731155 0.0051783867694624557 0 0.059496260624896984 0.004766238856008102 0 0.059112989066562344 0.0048971722118423986 0 0.059496260624896984 0.004766238856008102 0 0.060684365091326256 0.0040900006930954429 0 0.059112989066562344 0.0048971722118423986 0 0.062055362765791829 0.0043157452007839625 0 0.062770255932153643 0.0026948654429379891 0 0.064762881860538107 0.0015515586749058475 0 0.060684365091326256 0.0040900006930954429 0 0.058812148690877274 0.0044946843760497995 0 0.061863161292878929 0.0018566828413185492 0 0.061222732165336344 0.0038475317468596041 0 0.062634563627606554 0.0021838046293143724 0 0.062055362765791829 0.0043157452007839625 0 0.060911177390538765 0.0037913206524921176 0 0.062770255932153643 0.0026948654429379891 0 0.060911177390538765 0.0037913206524921176 0 0.062770255932153643 0.0026948654429379891 0 0.063243338755363698 0.0010400690297042102 0 0.062770255932153643 0.0026948654429379891 0 0.064762881860538107 0.0015515586749058475 0 0.063243338755363698 0.0010400690297042102 0 0.062525100255483565 0.0040184069169943151 0 0.064435513814862594 0.001787204171540031 0 0.064762881860538107 0.0015515586749058475 0 0.064940591941379411 0.00043837497821152502 0 0.06593332483546735 -0.00011517849039444731 0 0.062634563627606554 0.0021838046293143724 0 0.063455373220948144 0.0011629303098951082 0 0.064762881860538107 0.0015515586749058475 0 0.064940591941379411 0.00043837497821152502 0 0.063243338755363698 0.0010400690297042102 0 0.065064130453183711 0.0028460679700698897 0 0.062047814961087987 0.0024535840863575582 0 0.064722928368183635 0.00079041463612526219 0 0.065064130453183711 0.0028460679700698897 0 0.062241216285362506 0.0042943519927103975 0 0.062047814961087987 0.0024535840863575582 0 0.062241216285362506 0.0042943519927103975 0 0.060940841250335671 0.0044393520840199903 0 0.062047814961087987 0.0024535840863575582 0 0.061820808163802782 0.0054537797269702745 0 0.065064130453183711 0.0028460679700698897 0 0.062241216285362506 0.0042943519927103975 0 0.059856412461374346 0.0041617364206899274 0 0.060940841250335671 0.0044393520840199903 0 0.062047814961087987 0.0024535840863575582 0 0.059856412461374346 0.0041617364206899274 0 0.059403181355211922 0.0028295456803590522 0 0.062047814961087987 0.0024535840863575582 0 0.059403181355211922 0.0028295456803590522 0 0.062047814961087987 0.0024535840863575582 0 0.06263771069915916 -0.00053595835094467068 0 0.066116390085782531 -0.00019226153109402273 0 0.067017717119435119 -0.0014234903449516687 0 0.072278174449043303 -0.0036165237845281455 0 0.071884113113691334 -0.0044276551144314764 0 0.072317770455378599 -0.0041785297347200906 0 0.071884113113691334 -0.0044276551144314764 0 0.072332985201562464 -0.0037346385487518831 0 0.072317770455378599 -0.0041785297347200906 0 0.071884113113691334 -0.0044276551144314764 0 0.072332985201562464 -0.0037346385487518831 0 0.071611118437769947 -0.0030916977222439851 0 0.072332985201562464 -0.0037346385487518831 0 0.071611118437769947 -0.0030916977222439851 0 0.072524155632787121 -0.0029731342040410919 0 0.067017717119435119 -0.0014234903449516687 0 0.067510170575851 -0.0018835103286536099 0 0.071884113113691334 -0.0044276551144314764 0 0.071611118437769947 -0.0030916977222439851 0 0.069084122504236511 -0.0028174332404255127 0 0.06263771069915916 -0.00053595835094467068 0 0.068478034320524725 -0.0017012183646867641 0 0.069084122504236511 -0.0028174332404255127 0 0.062047814961087987 0.0024535840863575582 0 0.06263771069915916 -0.00053595835094467068 0 0.064722928368183635 0.00079041463612526219 0 0.06263771069915916 -0.00053595835094467068 0 0.064722928368183635 0.00079041463612526219 0 0.068478034320524725 -0.0017012183646867641 0 0.064435513814862594 0.001787204171540031 0 0.066518607111528447 -0.00033102334738028828 0 0.065064130453183711 0.0028460679700698897 0 0.064722928368183635 0.00079041463612526219 0 0.068478034320524725 -0.0017012183646867641 0 0.064940591941379411 0.00043837497821152502 0 0.063243338755363698 0.0010400690297042102 0 0.065790490116114556 -0.00030621651574785241 0 0.064940591941379411 0.00043837497821152502 0 0.065790490116114556 -0.00030621651574785241 0 0.06593332483546735 -0.00011517849039444731 0 0.067357004088072492 -0.00053989683204676384 0 0.065790490116114556 -0.00030621651574785241 0 0.06593332483546735 -0.00011517849039444731 0 0.068478034320524725 -0.0017012183646867641 0 0.070047607962375774 -0.0025684561162439357 0 0.069084122504236511 -0.0028174332404255127 0 0.067357004088072492 -0.00053989683204676384 0 0.065790490116114556 -0.00030621651574785241 0 0.068333948573658515 -0.0007541955531129898 0 0.070047607962375774 -0.0025684561162439357 0 0.069084122504236511 -0.0028174332404255127 0 0.070676605489075617 -0.0023497753251872501 0 0.066518607111528447 -0.00033102334738028828 0 0.068122296320703546 -0.0010458643759840732 0 0.067357004088072492 -0.00053989683204676384 0 0.068333948573658515 -0.0007541955531129898 0 0.069156310708556504 -0.00077509146115711282 0 0.067357004088072492 -0.00053989683204676384 0 0.069156310708556504 -0.00077509146115711282 0 0.068672752977872412 -0.0007003966140445132 0 0.068333948573658515 -0.0007541955531129898 0 0.069156310708556504 -0.00077509146115711282 0 0.071400919745686686 -0.00069733091061263339 0 0.069156310708556504 -0.00077509146115711282 0 0.068672752977872412 -0.0007003966140445132 0 0.070029275147265535 -0.00073954614729866437 0 0.068122296320703546 -0.0010458643759840732 0 0.068818395173441058 -0.0009094940178849232 0 0.070047607962375774 -0.0025684561162439357 0 0.071352640295326161 -0.0015021710925758453 0 0.071581896501489023 -0.0018037672785290388 0 0.070047607962375774 -0.0025684561162439357 0 0.071352640295326161 -0.0015021710925758453 0 0.071400919745686686 -0.00069733091061263339 0 0.071352640295326161 -0.0015021710925758453 0 0.071581896501489023 -0.0018037672785290388 0 0.072426617969506238 -0.0011409081408558128 0 0.071581896501489023 -0.0018037672785290388 0 0.072888236902480183 -0.0015766678277303961 0 0.072032229009498155 -0.0022457997108811297 0 0.071581896501489023 -0.0018037672785290388 0 0.072888236902480183 -0.0015766678277303961 0 0.072426617969506238 -0.0011409081408558128 0 0.072888236902480183 -0.0015766678277303961 0 0.072032229009498155 -0.0022457997108811297 0 0.072842668598954705 -0.0022889460123021194 0 0.072032229009498155 -0.0022457997108811297 0 0.072842668598954705 -0.0022889460123021194 0 0.072524155632787121 -0.0029731342040410919 0 0.071611118437769947 -0.0030916977222439851 0 0.072032229009498155 -0.0022457997108811297 0 0.072524155632787121 -0.0029731342040410919 0 0.071611118437769947 -0.0030916977222439851 0 0.072032229009498155 -0.0022457997108811297 0 0.070676605489075617 -0.0023497753251872501 0 0.070047607962375774 -0.0025684561162439357 0 0.071581896501489023 -0.0018037672785290388 0 0.070676605489075617 -0.0023497753251872501 0 0.071611118437769947 -0.0030916977222439851 0 0.069084122504236511 -0.0028174332404255127 0 0.070676605489075617 -0.0023497753251872501 0 0.071581896501489023 -0.0018037672785290388 0 0.072032229009498155 -0.0022457997108811297 0 0.070676605489075617 -0.0023497753251872501 0 0.06767492975830755 8.6432983758223553e-05 0 0.067924023794934771 -0.00033510043809560402 0 0.068142112274560324 -0.00042292227870784646 0 0.067599185812185672 0.00051997639158024871 0 0.06767492975830755 8.6432983758223553e-05 0 0.068142112274560324 -0.00042292227870784646 0 0.067599185812185672 0.00051997639158024871 0 0.06767492975830755 8.6432983758223553e-05 0 0.067415674496390632 0.00049999146093606013 0 0.067220731397623981 0.00089446519891859795 0 0.067415674496390632 0.00049999146093606013 0 0.067170073331955335 0.00070427182928805676 0 0.06680629130946257 0.00076127480715943731 0 0.067170073331955335 0.00070427182928805676 0 0.067410156686851283 0.00033006743882946682 0 0.067415674496390632 0.00049999146093606013 0 0.067170073331955335 0.00070427182928805676 0 0.067410156686851283 0.00033006743882946682 0 0.06767492975830755 8.6432983758223553e-05 0 0.067415674496390632 0.00049999146093606013 0 0.067410156686851283 0.00033006743882946682 0 0.06767492975830755 8.6432983758223553e-05 0 0.067410156686851283 0.00033006743882946682 0 0.067367903501821869 0.00011812390394454573 0 0.06680629130946257 0.00076127480715943731 0 0.067410156686851283 0.00033006743882946682 0 0.067367903501821869 0.00011812390394454573 0 0.06680629130946257 0.00076127480715943731 0 0.067367903501821869 0.00011812390394454573 0 0.066756737368669522 0.00018072602090655665 0 0.067367903501821869 0.00011812390394454573 0 0.067524900658902182 -0.00021729044977288639 0 0.066756737368669522 0.00018072602090655665 0 0.067367903501821869 0.00011812390394454573 0 0.067524900658902182 -0.00021729044977288639 0 0.067924023794934771 -0.00033510043809560402 0 0.06767492975830755 8.6432983758223553e-05 0 0.067367903501821869 0.00011812390394454573 0 0.067924023794934771 -0.00033510043809560402 0 0.067524900658902182 -0.00021729044977288639 0 0.067924023794934771 -0.00033510043809560402 0 0.068180326562410493 -0.00054218429379212336 0 0.067220812482554779 -0.00027859537269603248 0 0.067593830326083876 -0.00050621738085053622 0 0.068180326562410493 -0.00054218429379212336 0 0.067524900658902182 -0.00021729044977288639 0 0.067220812482554779 -0.00027859537269603248 0 0.068180326562410493 -0.00054218429379212336 0 0.067524900658902182 -0.00021729044977288639 0 0.067220812482554779 -0.00027859537269603248 0 0.066756737368669522 0.00018072602090655665 0 0.065877165985808728 0.00081683565546005453 0 0.06680629130946257 0.00076127480715943731 0 0.066756737368669522 0.00018072602090655665 0 0.065877165985808728 0.00081683565546005453 0 0.066756737368669522 0.00018072602090655665 0 0.06593332483546735 -0.00011517849039444731 0 0.067220812482554779 -0.00027859537269603248 0 0.066756737368669522 0.00018072602090655665 0 0.06593332483546735 -0.00011517849039444731 0 0.067220812482554779 -0.00027859537269603248 0 0.06593332483546735 -0.00011517849039444731 0 0.067593830326083876 -0.00050621738085053622 0 0.067357004088072492 -0.00053989683204676384 0 0.06593332483546735 -0.00011517849039444731 0 0.067593830326083876 -0.00050621738085053622 0 0.067593830326083876 -0.00050621738085053622 0 0.068672752977872412 -0.0007003966140445132 0 0.068971940562902415 -0.00071390762069242037 0 0.067357004088072492 -0.00053989683204676384 0 0.067593830326083876 -0.00050621738085053622 0 0.068672752977872412 -0.0007003966140445132 0 0.068672752977872412 -0.0007003966140445132 0 0.068971940562902415 -0.00071390762069242037 0 0.070029275147265535 -0.00073954614729866437 0 0.068971940562902415 -0.00071390762069242037 0 0.070135673793150874 -0.00065584016063586223 0 0.070029275147265535 -0.00073954614729866437 0 0.068971940562902415 -0.00071390762069242037 0 0.069189163652325719 -0.00070474568274116059 0 0.070135673793150874 -0.00065584016063586223 0 0.068971940562902415 -0.00071390762069242037 0 0.068180326562410493 -0.00054218429379212336 0 0.069189163652325719 -0.00070474568274116059 0 0.067593830326083876 -0.00050621738085053622 0 0.068971940562902415 -0.00071390762069242037 0 0.068180326562410493 -0.00054218429379212336 0 0.068180326562410493 -0.00054218429379212336 0 0.06850061704805803 -0.00058624698028019145 0 0.069189163652325719 -0.00070474568274116059 0 0.067924023794934771 -0.00033510043809560402 0 0.068180326562410493 -0.00054218429379212336 0 0.06850061704805803 -0.00058624698028019145 0 0.069189163652325719 -0.00070474568274116059 0 0.069039206610526371 -0.00067129013851216534 0 0.070079194312943696 -0.00057609303240529987 0 0.06850061704805803 -0.00058624698028019145 0 0.069189163652325719 -0.00070474568274116059 0 0.069039206610526371 -0.00067129013851216534 0 0.071114381879253341 0.00013944920472770572 0 0.070388118490274154 0.00012870873162627579 0 0.069608031745175727 -0.00014071443204291418 0 0.07017544152494902 -0.00013241906551726115 0 0.0692052334485974 -2.9507748332044047e-05 0 0.06850061704805803 -0.00058624698028019145 0 0.069039206610526371 -0.00067129013851216534 0 0.068142112274560324 -0.00042292227870784646 0 0.069662697527890644 -2.8857682282526268e-05 0 0.070388118490274154 0.00012870873162627579 0 0.069608031745175727 -0.00014071443204291418 0 0.067924023794934771 -0.00033510043809560402 0 0.06850061704805803 -0.00058624698028019145 0 0.068142112274560324 -0.00042292227870784646 0 0.074968966456357325 1.1440912004938914e-07 0 0.074970746856094436 -7.5378126457826568e-07 0 0.074982739635136908 -4.5724940670043125e-07 0 0.074981124577785774 2.2669054630052239e-06 0 0.074989379227686212 2.4534919232891215e-07 0 0.072354059783678343 0.00034718234612868818 0 0.073695534708089053 3.6618778188370725e-06 0 0.074968966456357325 1.1440912004938914e-07 0 0.074958178174718032 7.8825007741770663e-06 0 0.074970746856094436 -7.5378126457826568e-07 0 0.071114381879253341 0.00013944920472770572 0 0.070388118490274154 0.00012870873162627579 0 0.071695334637034702 0.00039137434813916907 0 0.070629225697961387 0.0011530713862865577 0 0.072354059783678343 0.00034718234612868818 0 0.07017544152494902 -0.00013241906551726115 0 0.071239650515749514 2.9585201520044357e-05 0 0.069039206610526371 -0.00067129013851216534 0 0.070079194312943696 -0.00057609303240529987 0 0.070798724051665832 -0.00022208858333368849 0 0.071114381879253341 0.00013944920472770572 0 0.071695334637034702 0.00039137434813916907 0 0.072622977606920394 0.00040564401607279938 0 0.070079194312943696 -0.00057609303240529987 0 0.070798724051665832 -0.00022208858333368849 0 0.07120741702936402 -0.00041723097457100028 0 0.071695334637034702 0.00039137434813916907 0 0.072622977606920394 0.00040564401607279938 0 0.073100288425410179 0.00041841622225449585 0 0.070798724051665832 -0.00022208858333368849 0 0.07120741702936402 -0.00041723097457100028 0 0.072478532741750964 -7.4964200831146143e-05 0 0.07120741702936402 -0.00041723097457100028 0 0.072350726216308975 -0.00020572186572760515 0 0.072478532741750964 -7.4964200831146143e-05 0 0.070079194312943696 -0.00057609303240529987 0 0.07120741702936402 -0.00041723097457100028 0 0.070135673793150874 -0.00065584016063586223 0 0.069189163652325719 -0.00070474568274116059 0 0.070079194312943696 -0.00057609303240529987 0 0.070135673793150874 -0.00065584016063586223 0 0.07120741702936402 -0.00041723097457100028 0 0.070135673793150874 -0.00065584016063586223 0 0.071016975351584119 -0.00056063861913327516 0 0.070135673793150874 -0.00065584016063586223 0 0.070029275147265535 -0.00073954614729866437 0 0.071016975351584119 -0.00056063861913327516 0 0.07120741702936402 -0.00041723097457100028 0 0.071016975351584119 -0.00056063861913327516 0 0.072350726216308975 -0.00020572186572760515 0 0.071016975351584119 -0.00056063861913327516 0 0.072350726216308975 -0.00020572186572760515 0 0.071400919745686686 -0.00069733091061263339 0 0.072350726216308975 -0.00020572186572760515 0 0.073592997121713452 7.5300774867733453e-06 0 0.073417378816272541 -8.0514708425568528e-05 0 0.072350726216308975 -0.00020572186572760515 0 0.073592997121713452 7.5300774867733453e-06 0 0.072478532741750964 -7.4964200831146143e-05 0 0.073592997121713452 7.5300774867733453e-06 0 0.074997955915589998 9.0047593060170408e-08 0 0.073417378816272541 -8.0514708425568528e-05 0 0.073592997121713452 7.5300774867733453e-06 0 0.074997955915589998 9.0047593060170408e-08 0 0.074096684257143067 0.00017250179718653684 0 0.074997955915589998 9.0047593060170408e-08 0 0.074096684257143067 0.00017250179718653684 0 0.074996074781676914 2.9659192629090254e-07 0 0.073592997121713452 7.5300774867733453e-06 0 0.074096684257143067 0.00017250179718653684 0 0.072478532741750964 -7.4964200831146143e-05 0 0.070798724051665832 -0.00022208858333368849 0 0.074096684257143067 0.00017250179718653684 0 0.072478532741750964 -7.4964200831146143e-05 0 0.071239650515749514 2.9585201520044357e-05 0 0.071847785365053068 0.00017331790106716658 0 0.072622977606920394 0.00040564401607279938 0 0.074096684257143067 0.00017250179718653684 0 0.073100288425410179 0.00041841622225449585 0 0.074987682177544021 -5.204206551537694e-07 0 0.075000003688533781 -1.9715749287271757e-09 0 0.074999976743974933 3.7806308200526636e-09 0 0.074096684257143067 0.00017250179718653684 0 0.073100288425410179 0.00041841622225449585 0 0.074996074781676914 2.9659192629090254e-07 0 0.073695534708089053 3.6618778188370725e-06 0 0.0749974506304764 8.822093005545451e-08 0 0.074999978343548226 1.4380125385958411e-09 0 0.074989379227686212 2.4534919232891215e-07 0 0.074991615674532594 1.8067390840810472e-06 0 0.074999991174117112 1.241557475687426e-09 0 0.074989180856265755 2.2594014652630698e-06 0 0.074987682177544021 -5.204206551537694e-07 0 0.074999976743974933 3.7806308200526636e-09 0 0.074982739635136908 -4.5724940670043125e-07 0 0.074970746856094436 -7.5378126457826568e-07 0 0.074987682177544021 -5.204206551537694e-07 0 0.074982739635136908 -4.5724940670043125e-07 0 0.073247207256259161 -0.0004848885386661289 0 0.071400919745686686 -0.00069733091061263339 0 0.07375328292756457 -8.6602950344120641e-05 0 0.073247207256259161 -0.0004848885386661289 0 0.074239630124496206 -0.00015168623862688466 0 0.07354637183264004 -0.00082846437744414658 0 0.073247207256259161 -0.0004848885386661289 0 0.072426617969506238 -0.0011409081408558128 0 0.07354637183264004 -0.00082846437744414658 0 0.072888236902480183 -0.0015766678277303961 0 0.072426617969506238 -0.0011409081408558128 0 0.07354637183264004 -0.00082846437744414658 0 0.073247207256259161 -0.0004848885386661289 0 0.072426617969506238 -0.0011409081408558128 0 0.071400919745686686 -0.00069733091061263339 0 0.071352640295326161 -0.0015021710925758453 0 0.072426617969506238 -0.0011409081408558128 0 0.071400919745686686 -0.00069733091061263339 0 0.069156310708556504 -0.00077509146115711282 0 0.070029275147265535 -0.00073954614729866437 0 0.071400919745686686 -0.00069733091061263339 0 0.070029275147265535 -0.00073954614729866437 0 0.071016975351584119 -0.00056063861913327516 0 0.071400919745686686 -0.00069733091061263339 0 0.072350726216308975 -0.00020572186572760515 0 0.071400919745686686 -0.00069733091061263339 0 0.073417378816272541 -8.0514708425568528e-05 0 0.071400919745686686 -0.00069733091061263339 0 0.073417378816272541 -8.0514708425568528e-05 0 0.07375328292756457 -8.6602950344120641e-05 0 0.074997955915589998 9.0047593060170408e-08 0 0.073417378816272541 -8.0514708425568528e-05 0 0.074998118470670644 3.1146429107811704e-08 0 0.073417378816272541 -8.0514708425568528e-05 0 0.074998118470670644 3.1146429107811704e-08 0 0.07375328292756457 -8.6602950344120641e-05 0 0.074998118470670644 3.1146429107811704e-08 0 0.07375328292756457 -8.6602950344120641e-05 0 0.074998771027098232 1.0871102406726844e-07 0 0.073247207256259161 -0.0004848885386661289 0 0.07375328292756457 -8.6602950344120641e-05 0 0.074239630124496206 -0.00015168623862688466 0 0.074998771027098232 1.0871102406726844e-07 0 0.07499937032593347 -2.1114686481443641e-08 0 0.074239630124496206 -0.00015168623862688466 0 0.07375328292756457 -8.6602950344120641e-05 0 0.074998771027098232 1.0871102406726844e-07 0 0.074239630124496206 -0.00015168623862688466 0 0.07499937032593347 -2.1114686481443641e-08 0 0.074726248143100596 -0.00012144077608299194 0 0.074239630124496206 -0.00015168623862688466 0 0.07499937032593347 -2.1114686481443641e-08 0 0.074726248143100596 -0.00012144077608299194 0 0.074999761905077317 -2.9247412144863644e-08 0 0.074726248143100596 -0.00012144077608299194 0 0.074732046958372933 -0.00035048052381000196 0 0.074291149144902285 -0.00051146019638549872 0 0.074726248143100596 -0.00012144077608299194 0 0.074239630124496206 -0.00015168623862688466 0 0.074291149144902285 -0.00051146019638549872 0 0.074999761905077317 -2.9247412144863644e-08 0 0.074953906885654398 -0.00010633812652042063 0 0.075000067562706371 -6.2208935036594841e-08 0 0.074726248143100596 -0.00012144077608299194 0 0.074999761905077317 -2.9247412144863644e-08 0 0.074953906885654398 -0.00010633812652042063 0 0.074726248143100596 -0.00012144077608299194 0 0.074953906885654398 -0.00010633812652042063 0 0.074732046958372933 -0.00035048052381000196 0 0.074953906885654398 -0.00010633812652042063 0 0.075035445122574318 -0.00036273850637400488 0 0.074732046958372933 -0.00035048052381000196 0 0.074708665978612407 -0.00049167883358094272 0 0.074665654439104848 -0.00058465442883922584 0 0.075035445122574318 -0.00036273850637400488 0 0.074732046958372933 -0.00035048052381000196 0 0.074657588831742505 -0.00082128145619004991 0 0.074732046958372933 -0.00035048052381000196 0 0.074657588831742505 -0.00082128145619004991 0 0.074291149144902285 -0.00051146019638549872 0 0.074657588831742505 -0.00082128145619004991 0 0.074291149144902285 -0.00051146019638549872 0 0.074577702569602181 -0.00087832019957012153 0 0.074657588831742505 -0.00082128145619004991 0 0.074577702569602181 -0.00087832019957012153 0 0.074544705090866442 -0.00083473186079951122 0 0.074657588831742505 -0.00082128145619004991 0 0.074544705090866442 -0.00083473186079951122 0 0.074418676518386642 -0.00092888341793146551 0 0.074350842735421779 -0.00086937613770710304 0 0.074657588831742505 -0.00082128145619004991 0 0.074418676518386642 -0.00092888341793146551 0 0.074239630124496206 -0.00015168623862688466 0 0.074291149144902285 -0.00051146019638549872 0 0.07354637183264004 -0.00082846437744414658 0 0.073957884101263735 -0.0010583219388508537 0 0.074010668428884471 -0.0014880307243063608 0 0.074291149144902285 -0.00051146019638549872 0 0.073695691570070235 -0.0013555052440257676 0 0.0739885612633715 -0.0015955831100809698 0 0.074291149144902285 -0.00051146019638549872 0 0.0739885612633715 -0.0015955831100809698 0 0.074382093451165129 -0.0014726825837941991 0 0.072888236902480183 -0.0015766678277303961 0 0.07354637183264004 -0.00082846437744414658 0 0.073695691570070235 -0.0013555052440257676 0 0.074291149144902285 -0.00051146019638549872 0 0.07354637183264004 -0.00082846437744414658 0 0.073695691570070235 -0.0013555052440257676 0 0.072888236902480183 -0.0015766678277303961 0 0.073695691570070235 -0.0013555052440257676 0 0.073435170170432412 -0.0019642332118902186 0 0.072888236902480183 -0.0015766678277303961 0 0.073435170170432412 -0.0019642332118902186 0 0.072842668598954705 -0.0022889460123021194 0 0.073435170170432412 -0.0019642332118902186 0 0.072842668598954705 -0.0022889460123021194 0 0.073241235741533711 -0.0026867464112994379 0 0.072842668598954705 -0.0022889460123021194 0 0.073241235741533711 -0.0026867464112994379 0 0.072524155632787121 -0.0029731342040410919 0 0.073241235741533711 -0.0026867464112994379 0 0.073836021466504878 -0.0023358122455867307 0 0.073558749721938654 -0.0031988370308797306 0 0.073836021466504878 -0.0023358122455867307 0 0.074263762217967225 -0.0026630560988546641 0 0.073558749721938654 -0.0031988370308797306 0 0.073435170170432412 -0.0019642332118902186 0 0.073241235741533711 -0.0026867464112994379 0 0.073836021466504878 -0.0023358122455867307 0 0.073836021466504878 -0.0023358122455867307 0 0.0739885612633715 -0.0015955831100809698 0 0.074311829170421326 -0.0021340545644908892 0 0.073435170170432412 -0.0019642332118902186 0 0.073836021466504878 -0.0023358122455867307 0 0.0739885612633715 -0.0015955831100809698 0 0.073695691570070235 -0.0013555052440257676 0 0.073435170170432412 -0.0019642332118902186 0 0.0739885612633715 -0.0015955831100809698 0 0.074382093451165129 -0.0014726825837941991 0 0.074311829170421326 -0.0021340545644908892 0 0.075131577283658227 -0.0026055775582830682 0 0.074010668428884471 -0.0014880307243063608 0 0.073824640644410702 -0.002427147846832488 0 0.0739885612633715 -0.0015955831100809698 0 0.074382093451165129 -0.0014726825837941991 0 0.074311829170421326 -0.0021340545644908892 0 0.074544705090866442 -0.00083473186079951122 0 0.074538785338774657 -0.00073287494660795891 0 0.074407473553432052 -0.00082123979402025848 0 0.074577702569602181 -0.00087832019957012153 0 0.074544705090866442 -0.00083473186079951122 0 0.074538785338774657 -0.00073287494660795891 0 0.074311829170421326 -0.0021340545644908892 0 0.075131577283658227 -0.0026055775582830682 0 0.074263762217967225 -0.0026630560988546641 0 0.075131577283658227 -0.0026055775582830682 0 0.074263762217967225 -0.0026630560988546641 0 0.074466703199139478 -0.0032798418531402493 0 0.073836021466504878 -0.0023358122455867307 0 0.074311829170421326 -0.0021340545644908892 0 0.074263762217967225 -0.0026630560988546641 0 0.074263762217967225 -0.0026630560988546641 0 0.074466703199139478 -0.0032798418531402493 0 0.073558749721938654 -0.0031988370308797306 0 0.074466703199139478 -0.0032798418531402493 0 0.073353842571648079 -0.0039646236738381125 0 0.073558749721938654 -0.0031988370308797306 0 0.07357310002087146 -0.002969711941186413 0 0.073479488841425952 -0.003152219758748632 0 0.072782563873737244 -0.0040197270057443623 0 0.072780043894120502 -0.003956981596593875 0 0.072826205398356075 -0.0037653802256110962 0 0.073824640644410702 -0.002427147846832488 0 0.073752530045323839 -0.0026921447016076722 0 0.073824640644410702 -0.002427147846832488 0 0.07357310002087146 -0.002969711941186413 0 0.072782563873737244 -0.0040197270057443623 0 0.072888987182296 -0.0040790533821910965 0 0.072780043894120502 -0.003956981596593875 0 0.072888987182296 -0.0040790533821910965 0 0.072780043894120502 -0.003956981596593875 0 0.072774076589306277 -0.0040516410806522253 0 0.072780043894120502 -0.003956981596593875 0 0.072654728437397953 -0.0040837524951931811 0 0.072826205398356075 -0.0037653802256110962 0 0.072780043894120502 -0.003956981596593875 0 0.072774076589306277 -0.0040516410806522253 0 0.072654728437397953 -0.0040837524951931811 0 0.072774076589306277 -0.0040516410806522253 0 0.072592758974648702 -0.0041082569790065549 0 0.072914203651936016 -0.0040562835638756848 0 0.072500197708169706 -0.0041151300523030411 0 0.072592758974648702 -0.0041082569790065549 0 0.072654728437397953 -0.0040837524951931811 0 0.072774076589306277 -0.0040516410806522253 0 0.072592758974648702 -0.0041082569790065549 0 0.072654728437397953 -0.0040837524951931811 0 0.072888987182296 -0.0040790533821910965 0 0.073061062756611367 -0.004010447475066032 0 0.073353842571648079 -0.0039646236738381125 0 0.072888987182296 -0.0040790533821910965 0 0.072774076589306277 -0.0040516410806522253 0 0.073061062756611367 -0.004010447475066032 0 0.073259590447485812 -0.0041275919646691231 0 0.073061062756611367 -0.004010447475066032 0 0.073353842571648079 -0.0039646236738381125 0 0.072774076589306277 -0.0040516410806522253 0 0.073061062756611367 -0.004010447475066032 0 0.072914203651936016 -0.0040562835638756848 0 0.073259590447485812 -0.0041275919646691231 0 0.073061062756611367 -0.004010447475066032 0 0.072914203651936016 -0.0040562835638756848 0 0.071678277423690706 -0.0038434814204225828 0 0.071959236667442583 -0.0039682622653193301 0 0.073259590447485812 -0.0041275919646691231 0 0.073353842571648079 -0.0039646236738381125 0 0.072972076581575729 -0.003838600412875883 0 0.073259590447485812 -0.0041275919646691231 0 0.072972076581575729 -0.003838600412875883 0 0.072317770455378599 -0.0041785297347200906 0 0.072332985201562464 -0.0037346385487518831 0 0.072972076581575729 -0.003838600412875883 0 0.072317770455378599 -0.0041785297347200906 0 0.072332985201562464 -0.0037346385487518831 0 0.072972076581575729 -0.003838600412875883 0 0.072932041033765327 -0.00335005201435069 0 0.072332985201562464 -0.0037346385487518831 0 0.072524155632787121 -0.0029731342040410919 0 0.072932041033765327 -0.00335005201435069 0 0.073241235741533711 -0.0026867464112994379 0 0.072524155632787121 -0.0029731342040410919 0 0.072932041033765327 -0.00335005201435069 0 0.073241235741533711 -0.0026867464112994379 0 0.072932041033765327 -0.00335005201435069 0 0.073558749721938654 -0.0031988370308797306 0 0.073353842571648079 -0.0039646236738381125 0 0.072972076581575729 -0.003838600412875883 0 0.073558749721938654 -0.0031988370308797306 0 0.072972076581575729 -0.003838600412875883 0 0.072932041033765327 -0.00335005201435069 0 0.073558749721938654 -0.0031988370308797306 0 0.074502941592913166 -0.0037356121309642023 0 0.074609167304577576 -0.0031529934494525769 0 0.075069546352662803 -0.0034919054686743211 0 0.074502941592913166 -0.0037356121309642023 0 0.074609167304577576 -0.0031529934494525769 0 0.074184157781497173 -0.0034368401047960516 0 0.074609167304577576 -0.0031529934494525769 0 0.074184157781497173 -0.0034368401047960516 0 0.074082603217989373 -0.0030258548999017284 0 0.074609167304577576 -0.0031529934494525769 0 0.075069546352662803 -0.0034919054686743211 0 0.075091067962163013 -0.0029405758243083746 0 0.075480502600753063 -0.0032289885992636143 0 0.075069546352662803 -0.0034919054686743211 0 0.075091067962163013 -0.0029405758243083746 0 0.075480502600753063 -0.0032289885992636143 0 0.075505544399361718 -0.0027726353898962072 0 0.075858137510502896 -0.0030428003884445153 0 0.075480502600753063 -0.0032289885992636143 0 0.075505544399361718 -0.0027726353898962072 0 0.075091067962163013 -0.0029405758243083746 0 0.075480502600753063 -0.0032289885992636143 0 0.075501435161260816 -0.0036874798022927461 0 0.075824818171899913 -0.0034412810089075548 0 0.075480502600753063 -0.0032289885992636143 0 0.075069546352662803 -0.0034919054686743211 0 0.075501435161260816 -0.0036874798022927461 0 0.068881566333251237 -0.0041760482332022925 0 0.068946131566620439 -0.0038984640792036475 0 0.075118208666502581 -0.0042686123689725059 0 0.075501435161260816 -0.0036874798022927461 0 0.075970885461103602 -0.0039203768446088565 0 0.075069546352662803 -0.0034919054686743211 0 0.075118208666502581 -0.0042686123689725059 0 0.075501435161260816 -0.0036874798022927461 0 0.074502941592913166 -0.0037356121309642023 0 0.075118208666502581 -0.0042686123689725059 0 0.073956828832271115 -0.0043223076299165357 0 0.068881566333251237 -0.0041760482332022925 0 0.072259757496724142 -0.0043175831706346859 0 0.07286458748581788 -0.0041729816773092114 0 0.07298489829137654 -0.0041070534994117969 0 0.072884952434888517 -0.0041086121881944316 0 0.074502941592913166 -0.0037356121309642023 0 0.075069546352662803 -0.0034919054686743211 0 0.075118208666502581 -0.0042686123689725059 0 0.07286458748581788 -0.0041729816773092114 0 0.072884952434888517 -0.0041086121881944316 0 0.072654728437397953 -0.0040837524951931811 0 0.074502941592913166 -0.0037356121309642023 0 0.073956828832271115 -0.0043223076299165357 0 0.073994191543619803 -0.0037990687896389754 0 0.073956828832271115 -0.0043223076299165357 0 0.073523719859879405 -0.0039629346350291104 0 0.073994191543619803 -0.0037990687896389754 0 0.073523719859879405 -0.0039629346350291104 0 0.072654728437397953 -0.0040837524951931811 0 0.073172701013535221 -0.0038643993027196824 0 0.072500197708169706 -0.0041151300523030411 0 0.07286458748581788 -0.0041729816773092114 0 0.072654728437397953 -0.0040837524951931811 0 0.073956828832271115 -0.0043223076299165357 0 0.073523719859879405 -0.0039629346350291104 0 0.072654728437397953 -0.0040837524951931811 0 0.072259757496724142 -0.0043175831706346859 0 0.072641030843228135 -0.0043023518740219879 0 0.072654728437397953 -0.0040837524951931811 0 0.072826205398356075 -0.0037653802256110962 0 0.073172701013535221 -0.0038643993027196824 0 0.072184246084663034 -0.0027943085348819722 0 0.072826205398356075 -0.0037653802256110962 0 0.073325990436526781 -0.0029436443651429797 0 0.072826205398356075 -0.0037653802256110962 0 0.073172701013535221 -0.0038643993027196824 0 0.07362065330798169 -0.0035609066491544606 0 0.072826205398356075 -0.0037653802256110962 0 0.07362065330798169 -0.0035609066491544606 0 0.073325990436526781 -0.0029436443651429797 0 0.073994191543619803 -0.0037990687896389754 0 0.074184157781497173 -0.0034368401047960516 0 0.07362065330798169 -0.0035609066491544606 0 0.074502941592913166 -0.0037356121309642023 0 0.073994191543619803 -0.0037990687896389754 0 0.074184157781497173 -0.0034368401047960516 0 0.073523719859879405 -0.0039629346350291104 0 0.073994191543619803 -0.0037990687896389754 0 0.07362065330798169 -0.0035609066491544606 0 0.073523719859879405 -0.0039629346350291104 0 0.073172701013535221 -0.0038643993027196824 0 0.07362065330798169 -0.0035609066491544606 0 0.07362065330798169 -0.0035609066491544606 0 0.074082603217989373 -0.0030258548999017284 0 0.073325990436526781 -0.0029436443651429797 0 0.074184157781497173 -0.0034368401047960516 0 0.07362065330798169 -0.0035609066491544606 0 0.074082603217989373 -0.0030258548999017284 0 0.074082603217989373 -0.0030258548999017284 0 0.073880172922565671 -0.002504470749969968 0 0.074678066156494721 -0.0025467846206762234 0 0.073880172922565671 -0.002504470749969968 0 0.074379194872671861 -0.0019441637896000935 0 0.074678066156494721 -0.0025467846206762234 0 0.074082603217989373 -0.0030258548999017284 0 0.073880172922565671 -0.002504470749969968 0 0.073325990436526781 -0.0029436443651429797 0 0.072184246084663034 -0.0027943085348819722 0 0.073325990436526781 -0.0029436443651429797 0 0.073150754035330015 -0.0019317750696644369 0 0.073880172922565671 -0.002504470749969968 0 0.073325990436526781 -0.0029436443651429797 0 0.073150754035330015 -0.0019317750696644369 0 0.073824640644410702 -0.002427147846832488 0 0.074020162295548614 -0.0018659011077704736 0 0.074544705090866442 -0.00083473186079951122 0 0.074407473553432052 -0.00082123979402025848 0 0.074418676518386642 -0.00092888341793146551 0 0.073880172922565671 -0.002504470749969968 0 0.073150754035330015 -0.0019317750696644369 0 0.074379194872671861 -0.0019441637896000935 0 0.073150754035330015 -0.0019317750696644369 0 0.074379194872671861 -0.0019441637896000935 0 0.074283121999292726 -0.0011195299160952712 0 0.074020162295548614 -0.0018659011077704736 0 0.074153400410020207 -0.0016410218353269984 0 0.074379194872671861 -0.0019441637896000935 0 0.074751527165164186 -0.0015853881491292219 0 0.074283121999292726 -0.0011195299160952712 0 0.074379194872671861 -0.0019441637896000935 0 0.074678066156494721 -0.0025467846206762234 0 0.075087358243325977 -0.0020348326731356543 0 0.074751527165164186 -0.0015853881491292219 0 0.075087358243325977 -0.0020348326731356543 0 0.075028760954569756 -0.0012658531857093777 0 0.074379194872671861 -0.0019441637896000935 0 0.074751527165164186 -0.0015853881491292219 0 0.075087358243325977 -0.0020348326731356543 0 0.074678066156494721 -0.0025467846206762234 0 0.075194776633350169 -0.0025071096389558665 0 0.075087358243325977 -0.0020348326731356543 0 0.074678066156494721 -0.0025467846206762234 0 0.075091067962163013 -0.0029405758243083746 0 0.075194776633350169 -0.0025071096389558665 0 0.074609167304577576 -0.0031529934494525769 0 0.074678066156494721 -0.0025467846206762234 0 0.075091067962163013 -0.0029405758243083746 0 0.074609167304577576 -0.0031529934494525769 0 0.074082603217989373 -0.0030258548999017284 0 0.074678066156494721 -0.0025467846206762234 0 0.075505544399361718 -0.0027726353898962072 0 0.075091067962163013 -0.0029405758243083746 0 0.075194776633350169 -0.0025071096389558665 0 0.075194776633350169 -0.0025071096389558665 0 0.075581520744949823 -0.0022550051517704435 0 0.075087358243325977 -0.0020348326731356543 0 0.075505544399361718 -0.0027726353898962072 0 0.075194776633350169 -0.0025071096389558665 0 0.075581520744949823 -0.0022550051517704435 0 0.075581520744949823 -0.0022550051517704435 0 0.075087358243325977 -0.0020348326731356543 0 0.075669171236070615 -0.0016032501626551743 0 0.075087358243325977 -0.0020348326731356543 0 0.075028760954569756 -0.0012658531857093777 0 0.075669171236070615 -0.0016032501626551743 0 0.075420997799352227 -0.0011146353648048462 0 0.075028760954569756 -0.0012658531857093777 0 0.075669171236070615 -0.0016032501626551743 0 0.075420997799352227 -0.0011146353648048462 0 0.075028760954569756 -0.0012658531857093777 0 0.074961654112851842 -0.00087332170617981019 0 0.074751527165164186 -0.0015853881491292219 0 0.074658149613160973 -0.0010113143290542651 0 0.075028760954569756 -0.0012658531857093777 0 0.074751527165164186 -0.0015853881491292219 0 0.074658149613160973 -0.0010113143290542651 0 0.074283121999292726 -0.0011195299160952712 0 0.074658149613160973 -0.0010113143290542651 0 0.075028760954569756 -0.0012658531857093777 0 0.074961654112851842 -0.00087332170617981019 0 0.074658149613160973 -0.0010113143290542651 0 0.074961654112851842 -0.00087332170617981019 0 0.07477700288877584 -0.00070714573090842076 0 0.074961654112851842 -0.00087332170617981019 0 0.07477700288877584 -0.00070714573090842076 0 0.075038081164892356 -0.00054694992123047311 0 0.074961654112851842 -0.00087332170617981019 0 0.075285710572790085 -0.00077776786416214425 0 0.075038081164892356 -0.00054694992123047311 0 0.075285710572790085 -0.00077776786416214425 0 0.075267379154665623 -0.00051109699625454213 0 0.075848065583572752 -0.0009570751745020305 0 0.075285710572790085 -0.00077776786416214425 0 0.075267379154665623 -0.00051109699625454213 0 0.075038081164892356 -0.00054694992123047311 0 0.075420997799352227 -0.0011146353648048462 0 0.075285710572790085 -0.00077776786416214425 0 0.075848065583572752 -0.0009570751745020305 0 0.075420997799352227 -0.0011146353648048462 0 0.074961654112851842 -0.00087332170617981019 0 0.075285710572790085 -0.00077776786416214425 0 0.074407473553432052 -0.00082123979402025848 0 0.074418676518386642 -0.00092888341793146551 0 0.074283121999292726 -0.0011195299160952712 0 0.074418676518386642 -0.00092888341793146551 0 0.074283121999292726 -0.0011195299160952712 0 0.074436198318531141 -0.00085441420683167869 0 0.074658149613160973 -0.0010113143290542651 0 0.074283121999292726 -0.0011195299160952712 0 0.074436198318531141 -0.00085441420683167869 0 0.074658149613160973 -0.0010113143290542651 0 0.07477700288877584 -0.00070714573090842076 0 0.074436198318531141 -0.00085441420683167869 0 0.07477700288877584 -0.00070714573090842076 0 0.074436198318531141 -0.00085441420683167869 0 0.074682613774645037 -0.00049516021479457223 0 0.074350842735421779 -0.00086937613770710304 0 0.074418676518386642 -0.00092888341793146551 0 0.074436198318531141 -0.00085441420683167869 0 0.074953906885654398 -0.00010633812652042063 0 0.075035445122574318 -0.00036273850637400488 0 0.07506923111481352 -9.3657102136194157e-05 0 0.074350842735421779 -0.00086937613770710304 0 0.074436198318531141 -0.00085441420683167869 0 0.074435674201815266 -0.00043271814029052547 0 0.074708665978612407 -0.00049167883358094272 0 0.074814255767126372 -0.00028285855608565271 0 0.074436198318531141 -0.00085441420683167869 0 0.074435674201815266 -0.00043271814029052547 0 0.074682613774645037 -0.00049516021479457223 0 0.074814255767126372 -0.00028285855608565271 0 0.074999784271556333 -3.7430666445757301e-07 0 0.07506923111481352 -9.3657102136194157e-05 0 0.075000102018087184 -1.3625809382296068e-08 0 0.075000067562706371 -6.2208935036594841e-08 0 0.074435674201815266 -0.00043271814029052547 0 0.074682613774645037 -0.00049516021479457223 0 0.074998867237284522 1.4736564503432212e-09 0 0.074953906885654398 -0.00010633812652042063 0 0.07506923111481352 -9.3657102136194157e-05 0 0.075000067562706371 -6.2208935036594841e-08 0 0.075384613281540072 -0.00025129289926866042 0 0.075267379154665623 -0.00051109699625454213 0 0.075848065583572752 -0.0009570751745020305 0 0.075080652306120738 -0.00031674739436033544 0 0.075253295892545646 -0.00028799439875133129 0 0.075267379154665623 -0.00051109699625454213 0 0.075253295892545646 -0.00028799439875133129 0 0.0753207071346359 -0.00026826018787994 0 0.075045098465604906 -0.00014377721962159697 0 0.075080652306120738 -0.00031674739436033544 0 0.075253295892545646 -0.00028799439875133129 0 0.075045098465604906 -0.00014377721962159697 0 0.075253295892545646 -0.00028799439875133129 0 0.075384613281540072 -0.00025129289926866042 0 0.075267379154665623 -0.00051109699625454213 0 0.075128652390185943 -0.00016754137237132434 0 0.07512442298021163 -0.00016734418290921511 0 0.075080652306120738 -0.00031674739436033544 0 0.075267379154665623 -0.00051109699625454213 0 0.075038081164892356 -0.00054694992123047311 0 0.07477700288877584 -0.00070714573090842076 0 0.075038081164892356 -0.00054694992123047311 0 0.074932920642429943 -0.00033527318742500594 0 0.07477700288877584 -0.00070714573090842076 0 0.074682613774645037 -0.00049516021479457223 0 0.074932920642429943 -0.00033527318742500594 0 0.075080652306120738 -0.00031674739436033544 0 0.075038081164892356 -0.00054694992123047311 0 0.074932920642429943 -0.00033527318742500594 0 0.075080652306120738 -0.00031674739436033544 0 0.074932920642429943 -0.00033527318742500594 0 0.075045098465604906 -0.00014377721962159697 0 0.074998867237284522 1.4736564503432212e-09 0 0.075000984146596214 -1.5047379946111212e-07 0 0.075045098465604906 -0.00014377721962159697 0 0.074682613774645037 -0.00049516021479457223 0 0.074998867237284522 1.4736564503432212e-09 0 0.074932920642429943 -0.00033527318742500594 0 0.074998867237284522 1.4736564503432212e-09 0 0.074932920642429943 -0.00033527318742500594 0 0.075045098465604906 -0.00014377721962159697 0 0.0753207071346359 -0.00026826018787994 0 0.075000984146596214 -1.5047379946111212e-07 0 0.075045098465604906 -0.00014377721962159697 0 0.07512442298021163 -0.00016734418290921511 0 0.075000245466020354 -2.2797858144255528e-07 0 0.075000228735534608 -2.7134629160018917e-07 0 0.074999999988637003 -1.5151039092965033e-10 0 0.075000001008497755 -1.5517152987928311e-10 0 0.075000228735534608 -2.7134629160018917e-07 0 0.075000001008497755 -1.5517152987928311e-10 0 0.075000111583926124 -9.0418975407062196e-08 0 0.07512442298021163 -0.00016734418290921511 0 0.075052622370771357 -8.1240905368823763e-05 0 0.075058644853477616 2.7733316677051782e-07 0 0.07505641497446626 2.0804338289654993e-06 0 0.075056599523285625 -6.9469259648186012e-09 0 0.075058644853477616 2.7733316677051782e-07 0 0.07505641497446626 2.0804338289654993e-06 0 0.075057700091176266 -7.2663130612765762e-07 0 0.07505641497446626 2.0804338289654993e-06 0 0.075057700091176266 -7.2663130612765762e-07 0 0.075052827067100342 5.7206097916585524e-06 0 0.075000001008497755 -1.5517152987928311e-10 0 0.075000111583926124 -9.0418975407062196e-08 0 0.074999997665932946 3.085542587119163e-12 0 0.075057700091176266 -7.2663130612765762e-07 0 0.075038830444851434 -6.5908326327401055e-06 0 0.075041816631906275 3.5876480979352485e-06 0 0.075052622370771357 -8.1240905368823763e-05 0 0.075029608546355139 -4.3889962851838718e-05 0 0.075000111583926124 -9.0418975407062196e-08 0 0.074999997665932946 3.085542587119163e-12 0 0.074999753873977712 3.3007638027639192e-08 0 0.074999997665932946 3.085542587119163e-12 0 0.074999753873977712 3.3007638027639192e-08 0 0.075000006381178513 -4.8274453365657924e-10 0 0.075038830444851434 -6.5908326327401055e-06 0 0.075025518261499072 3.6707221691218026e-06 0 0.075041816631906275 3.5876480979352485e-06 0 0.075041816631906275 3.5876480979352485e-06 0 0.075029690007474087 1.7236523056604782e-05 0 0.075052827067100342 5.7206097916585524e-06 0 0.075690288640518202 -0.0002273344960186758 0 0.075381110428905385 -0.00016279321957756533 0 0.075025518261499072 3.6707221691218026e-06 0 0.075041816631906275 3.5876480979352485e-06 0 0.075029690007474087 1.7236523056604782e-05 0 0.075057700091176266 -7.2663130612765762e-07 0 0.075041816631906275 3.5876480979352485e-06 0 0.075052827067100342 5.7206097916585524e-06 0 0.07505641497446626 2.0804338289654993e-06 0 0.075052827067100342 5.7206097916585524e-06 0 0.075056325542704083 -3.2387953240301394e-07 0 0.075061419169758489 4.3837912292814467e-06 0 0.075052827067100342 5.7206097916585524e-06 0 0.075056325542704083 -3.2387953240301394e-07 0 0.075690288640518202 -0.0002273344960186758 0 0.075837398478315735 -0.00065789839580349314 0 0.07774014540684604 -0.00089231521831415427 0 0.077586789908652781 -0.0018507442361246321 0 0.077081039803266665 -0.0015310056241415789 0 0.077586789908652781 -0.0018507442361246321 0 0.077081039803266665 -0.0015310056241415789 0 0.077190789155769574 -0.0023431732384132566 0 0.07505641497446626 2.0804338289654993e-06 0 0.075056325542704083 -3.2387953240301394e-07 0 0.075056599523285625 -6.9469259648186012e-09 0 0.075837398478315735 -0.00065789839580349314 0 0.075523114907244213 -0.001274825788383168 0 0.075056325542704083 -3.2387953240301394e-07 0 0.075056599523285625 -6.9469259648186012e-09 0 0.075057230965289282 -4.5496681239469976e-06 0 0.075343035261742061 -0.00062407078549608452 0 0.075523114907244213 -0.001274825788383168 0 0.075420997799352227 -0.0011146353648048462 0 0.075669171236070615 -0.0016032501626551743 0 0.075848065583572752 -0.0009570751745020305 0 0.075669171236070615 -0.0016032501626551743 0 0.075848065583572752 -0.0009570751745020305 0 0.076362806317343129 -0.001991086475306571 0 0.07512442298021163 -0.00016734418290921511 0 0.075343035261742061 -0.00062407078549608452 0 0.074950844317274293 -1.0302612845403306e-05 0 0.074930051490087315 -1.8896698658118629e-05 0 0.074966803550460551 -4.0794546702649237e-06 0 0.074930051490087315 -1.8896698658118629e-05 0 0.074966803550460551 -4.0794546702649237e-06 0 0.074964919727216695 -1.3980729199444893e-05 0 0.074966803550460551 -4.0794546702649237e-06 0 0.074982635969487191 -4.5249206024548411e-06 0 0.074964919727216695 -1.3980729199444893e-05 0 0.074999969657769186 -8.2660490724875925e-09 0 0.074982635969487191 -4.5249206024548411e-06 0 0.074999981135406471 1.0621789681887066e-08 0 0.074966803550460551 -4.0794546702649237e-06 0 0.074982635969487191 -4.5249206024548411e-06 0 0.074999981135406471 1.0621789681887066e-08 0 0.074999969657769186 -8.2660490724875925e-09 0 0.074982635969487191 -4.5249206024548411e-06 0 0.074988130393736044 -8.4357371065900627e-06 0 0.074982635969487191 -4.5249206024548411e-06 0 0.074988130393736044 -8.4357371065900627e-06 0 0.074964919727216695 -1.3980729199444893e-05 0 0.074999969657769186 -8.2660490724875925e-09 0 0.074988130393736044 -8.4357371065900627e-06 0 0.074999955199369306 -1.8186127514086367e-08 0 0.074986189148127436 -9.5633953142738656e-06 0 0.074992265368170719 2.3191658129213421e-06 0 0.0749644218847344 2.881163099309935e-06 0 0.074988130393736044 -8.4357371065900627e-06 0 0.074964919727216695 -1.3980729199444893e-05 0 0.074986189148127436 -9.5633953142738656e-06 0 0.074930051490087315 -1.8896698658118629e-05 0 0.074964919727216695 -1.3980729199444893e-05 0 0.0749644218847344 2.881163099309935e-06 0 0.074964919727216695 -1.3980729199444893e-05 0 0.074986189148127436 -9.5633953142738656e-06 0 0.0749644218847344 2.881163099309935e-06 0 0.074988130393736044 -8.4357371065900627e-06 0 0.074986189148127436 -9.5633953142738656e-06 0 0.074989332478388182 -9.5352927692718276e-06 0 0.074986189148127436 -9.5633953142738656e-06 0 0.074989332478388182 -9.5352927692718276e-06 0 0.074987730668755123 -8.2329280825597511e-06 0 0.075216177030485665 -0.00056146156675283853 0 0.075199707498939936 -0.00064145600176832224 0 0.075000002578455571 -8.6118231287029285e-09 0 0.075001050452158963 -8.610032344286393e-07 0 0.075000006381178513 -4.8274453365657924e-10 0 0.074988130393736044 -8.4357371065900627e-06 0 0.074999955199369306 -1.8186127514086367e-08 0 0.074989332478388182 -9.5352927692718276e-06 0 0.075000470955052162 -3.7580263741167453e-07 0 0.075250310128123971 -0.00013424401649758297 0 0.075000002578455571 -8.6118231287029285e-09 0 0.075001050452158963 -8.610032344286393e-07 0 0.075007459481317873 4.7437721241995689e-06 0 0.075029608546355139 -4.3889962851838718e-05 0 0.075020364721736968 -3.3822514532561878e-05 0 0.075025518261499072 3.6707221691218026e-06 0 0.075001050452158963 -8.610032344286393e-07 0 0.075007459481317873 4.7437721241995689e-06 0 0.075038830444851434 -6.5908326327401055e-06 0 0.075025518261499072 3.6707221691218026e-06 0 0.075001050452158963 -8.610032344286393e-07 0 0.074999753873977712 3.3007638027639192e-08 0 0.075001050452158963 -8.610032344286393e-07 0 0.075000006381178513 -4.8274453365657924e-10 0 0.075690288640518202 -0.0002273344960186758 0 0.075250310128123971 -0.00013424401649758297 0 0.074992906241468912 -8.4718726715945644e-06 0 0.074989332478388182 -9.5352927692718276e-06 0 0.074987730668755123 -8.2329280825597511e-06 0 0.075025518261499072 3.6707221691218026e-06 0 0.075029690007474087 1.7236523056604782e-05 0 0.075007459481317873 4.7437721241995689e-06 0 0.075690288640518202 -0.0002273344960186758 0 0.075199707498939936 -0.00064145600176832224 0 0.07774014540684604 -0.00089231521831415427 0 0.07816373334144909 -0.001759284581378023 0 0.07854172526691415 -0.0010030863584016933 0 0.07774014540684604 -0.00089231521831415427 0 0.077586789908652781 -0.0018507442361246321 0 0.07816373334144909 -0.001759284581378023 0 0.073486860237113677 -0.00059390094734120078 0 0.073793186052306989 4.1078417710478818e-05 0 0.073988336734471388 -0.00043908257394157632 0 0.073486860237113677 -0.00059390094734120078 0 0.073988336734471388 -0.00043908257394157632 0 0.074111037367738733 -0.00093584367036578958 0 0.074719684544214876 -0.00081233389259845602 0 0.075199707498939936 -0.00064145600176832224 0 0.073793186052306989 4.1078417710478818e-05 0 0.074253613252013337 4.0405115774213088e-06 0 0.073988336734471388 -0.00043908257394157632 0 0.075199707498939936 -0.00064145600176832224 0 0.07486510390209819 -0.00045182850289711966 0 0.074253613252013337 4.0405115774213088e-06 0 0.073988336734471388 -0.00043908257394157632 0 0.07441587491873923 -0.00061542762343118275 0 0.073988336734471388 -0.00043908257394157632 0 0.07441587491873923 -0.00061542762343118275 0 0.074111037367738733 -0.00093584367036578958 0 0.07441587491873923 -0.00061542762343118275 0 0.074630608379740976 -0.00040875988678274329 0 0.074625367779022622 -0.00053389197332738656 0 0.07441587491873923 -0.00061542762343118275 0 0.074544379993036897 -0.00090129066734493562 0 0.074623405837597606 -0.00065815535717667073 0 0.07441587491873923 -0.00061542762343118275 0 0.074625367779022622 -0.00053389197332738656 0 0.074623405837597606 -0.00065815535717667073 0 0.07441587491873923 -0.00061542762343118275 0 0.074851057652410083 -4.7241488900286714e-05 0 0.074982429796207076 -4.0025354747972978e-05 0 0.07486510390209819 -0.00045182850289711966 0 0.074830236283254581 -0.00040307182068022589 0 0.074253613252013337 4.0405115774213088e-06 0 0.07441587491873923 -0.00061542762343118275 0 0.074851057652410083 -4.7241488900286714e-05 0 0.07465840905033462 -0.00039084603472334641 0 0.074769663430198419 -0.0002615006601750873 0 0.074930051490087315 -1.8896698658118629e-05 0 0.0749644218847344 2.881163099309935e-06 0 0.074851057652410083 -4.7241488900286714e-05 0 0.074950844317274293 -1.0302612845403306e-05 0 0.074851057652410083 -4.7241488900286714e-05 0 0.074982429796207076 -4.0025354747972978e-05 0 0.074950844317274293 -1.0302612845403306e-05 0 0.074930051490087315 -1.8896698658118629e-05 0 0.074851057652410083 -4.7241488900286714e-05 0 0.07441587491873923 -0.00061542762343118275 0 0.074544379993036897 -0.00090129066734493562 0 0.074111037367738733 -0.00093584367036578958 0 0.074508918705071536 -0.0012489642091198395 0 0.074544379993036897 -0.00090129066734493562 0 0.074111037367738733 -0.00093584367036578958 0 0.067302779884485076 -0.0016464321102666328 0 0.066579505117861579 -0.0023691729388421456 0 0.074508918705071536 -0.0012489642091198395 0 0.074111037367738733 -0.00093584367036578958 0 0.074008589969977709 -0.001448629769391386 0 0.074111037367738733 -0.00093584367036578958 0 0.073646738047649332 -0.0011564186395145388 0 0.074008589969977709 -0.001448629769391386 0 0.073646738047649332 -0.0011564186395145388 0 0.073434886704288896 -0.0016318361190314362 0 0.074008589969977709 -0.001448629769391386 0 0.073486860237113677 -0.00059390094734120078 0 0.074111037367738733 -0.00093584367036578958 0 0.073646738047649332 -0.0011564186395145388 0 0.074719684544214876 -0.00081233389259845602 0 0.073220917829558488 -0.0012814323823496887 0 0.077586789908652781 -0.0018507442361246321 0 0.07816373334144909 -0.001759284581378023 0 0.077795060129351654 -0.0025421152702638792 0 0.073486860237113677 -0.00059390094734120078 0 0.073646738047649332 -0.0011564186395145388 0 0.073170192529426498 -0.0011739174814848596 0 0.073646738047649332 -0.0011564186395145388 0 0.073434886704288896 -0.0016318361190314362 0 0.073170192529426498 -0.0011739174814848596 0 0.05849573644502052 -0.0043857158103633408 0 0.059357131948282037 -0.0042139758908430131 0 0.058830954618522696 -0.0036183693457580426 0 0.05849573644502052 -0.0043857158103633408 0 0.057892433076006868 -0.0036862614485701005 0 0.058830954618522696 -0.0036183693457580426 0 0.05849573644502052 -0.0043857158103633408 0 0.057892433076006868 -0.0036862614485701005 0 0.057446167288811849 -0.0037740850929096313 0 0.066950023694484134 -0.0028498574408459391 0 0.066579505117861579 -0.0023691729388421456 0 0.057446167288811849 -0.0037740850929096313 0 0.057512433079138794 -0.0037187718537697468 0 0.057728834921670365 -0.0032148964977021409 0 0.057892433076006868 -0.0036862614485701005 0 0.057446167288811849 -0.0037740850929096313 0 0.057512433079138794 -0.0037187718537697468 0 0.057892433076006868 -0.0036862614485701005 0 0.057512433079138794 -0.0037187718537697468 0 0.057565079789632746 -0.0036869473024789146 0 0.057512433079138794 -0.0037187718537697468 0 0.057565079789632746 -0.0036869473024789146 0 0.057535768529306794 -0.00398607948506922 0 0.057512433079138794 -0.0037187718537697468 0 0.057535768529306794 -0.00398607948506922 0 0.0581561252442774 -0.0041849998264257881 0 0.057512433079138794 -0.0037187718537697468 0 0.057728834921670365 -0.0032148964977021409 0 0.0581561252442774 -0.0041849998264257881 0 0.057849281949591123 -0.001744999268125129 0 0.057728834921670365 -0.0032148964977021409 0 0.059891574312817566 -0.0022029184562565914 0 0.057849281949591123 -0.001744999268125129 0 0.057446167288811849 -0.0037740850929096313 0 0.057728834921670365 -0.0032148964977021409 0 0.076511024306957207 -0.0024417593573439864 0 0.076731888869098278 -0.0026763571809876908 0 0.076374648681001286 -0.0026897611020927697 0 0.076511024306957207 -0.0024417593573439864 0 0.076374648681001286 -0.0026897611020927697 0 0.076261480484247093 -0.0024453917143962807 0 0.076511024306957207 -0.0024417593573439864 0 0.076261480484247093 -0.0024453917143962807 0 0.07621401547064631 -0.0021660485414012392 0 0.076511024306957207 -0.0024417593573439864 0 0.076731888869098278 -0.0026763571809876908 0 0.07678267917544522 -0.0022298562334690077 0 0.076731888869098278 -0.0026763571809876908 0 0.076425593411261483 -0.0030104671452908451 0 0.076749063626018479 -0.0031827695783302108 0 0.076731888869098278 -0.0026763571809876908 0 0.076374648681001286 -0.0026897611020927697 0 0.076425593411261483 -0.0030104671452908451 0 0.076374648681001286 -0.0026897611020927697 0 0.076148769532748045 -0.0028996040748807263 0 0.076425593411261483 -0.0030104671452908451 0 0.076148769532748045 -0.0028996040748807263 0 0.075868639166118454 -0.0026642469572256285 0 0.076123380887906406 -0.0026145637067753161 0 0.076374648681001286 -0.0026897611020927697 0 0.076148769532748045 -0.0028996040748807263 0 0.076123380887906406 -0.0026145637067753161 0 0.075505544399361718 -0.0027726353898962072 0 0.075868639166118454 -0.0026642469572256285 0 0.075858137510502896 -0.0030428003884445153 0 0.076148769532748045 -0.0028996040748807263 0 0.075868639166118454 -0.0026642469572256285 0 0.075858137510502896 -0.0030428003884445153 0 0.075505544399361718 -0.0027726353898962072 0 0.075581520744949823 -0.0022550051517704435 0 0.075868639166118454 -0.0026642469572256285 0 0.075581520744949823 -0.0022550051517704435 0 0.075868639166118454 -0.0026642469572256285 0 0.075970990072417602 -0.0023383207800961466 0 0.076374648681001286 -0.0026897611020927697 0 0.076123380887906406 -0.0026145637067753161 0 0.076261480484247093 -0.0024453917143962807 0 0.075868639166118454 -0.0026642469572256285 0 0.076123380887906406 -0.0026145637067753161 0 0.075970990072417602 -0.0023383207800961466 0 0.076123380887906406 -0.0026145637067753161 0 0.075970990072417602 -0.0023383207800961466 0 0.076261480484247093 -0.0024453917143962807 0 0.07621401547064631 -0.0021660485414012392 0 0.07593575887943238 -0.0020321355034052069 0 0.076362806317343129 -0.001991086475306571 0 0.075669171236070615 -0.0016032501626551743 0 0.07593575887943238 -0.0020321355034052069 0 0.076362806317343129 -0.001991086475306571 0 0.075970990072417602 -0.0023383207800961466 0 0.076261480484247093 -0.0024453917143962807 0 0.07621401547064631 -0.0021660485414012392 0 0.075581520744949823 -0.0022550051517704435 0 0.075669171236070615 -0.0016032501626551743 0 0.07593575887943238 -0.0020321355034052069 0 0.075970990072417602 -0.0023383207800961466 0 0.07621401547064631 -0.0021660485414012392 0 0.07593575887943238 -0.0020321355034052069 0 0.075581520744949823 -0.0022550051517704435 0 0.075970990072417602 -0.0023383207800961466 0 0.07593575887943238 -0.0020321355034052069 0 0.077081039803266665 -0.0015310056241415789 0 0.076406816712316764 -0.0021741010677207369 0 0.07678267917544522 -0.0022298562334690077 0 0.076511024306957207 -0.0024417593573439864 0 0.076406816712316764 -0.0021741010677207369 0 0.07678267917544522 -0.0022298562334690077 0 0.076511024306957207 -0.0024417593573439864 0 0.07621401547064631 -0.0021660485414012392 0 0.076378587878293894 -0.002005729027892689 0 0.075603965965579084 -0.0014316011394504321 0 0.075523114907244213 -0.001274825788383168 0 0.075529252747437658 -0.001285795199192277 0 0.075523114907244213 -0.001274825788383168 0 0.077081039803266665 -0.0015310056241415789 0 0.07678267917544522 -0.0022298562334690077 0 0.077190789155769574 -0.0023431732384132566 0 0.076731888869098278 -0.0026763571809876908 0 0.07678267917544522 -0.0022298562334690077 0 0.077190789155769574 -0.0023431732384132566 0 0.077586789908652781 -0.0018507442361246321 0 0.077190789155769574 -0.0023431732384132566 0 0.077795060129351654 -0.0025421152702638792 0 0.077795060129351654 -0.0025421152702638792 0 0.077356559767370325 -0.0027904454619591293 0 0.077408490366333654 -0.0033889884092027753 0 0.077190789155769574 -0.0023431732384132566 0 0.077795060129351654 -0.0025421152702638792 0 0.077356559767370325 -0.0027904454619591293 0 0.076731888869098278 -0.0026763571809876908 0 0.077190789155769574 -0.0023431732384132566 0 0.077033183898046184 -0.0028926506936750047 0 0.077190789155769574 -0.0023431732384132566 0 0.077356559767370325 -0.0027904454619591293 0 0.077033183898046184 -0.0028926506936750047 0 0.076731888869098278 -0.0026763571809876908 0 0.077033183898046184 -0.0028926506936750047 0 0.076749063626018479 -0.0031827695783302108 0 0.077356559767370325 -0.0027904454619591293 0 0.077033183898046184 -0.0028926506936750047 0 0.077408490366333654 -0.0033889884092027753 0 0.077033183898046184 -0.0028926506936750047 0 0.077408490366333654 -0.0033889884092027753 0 0.076749063626018479 -0.0031827695783302108 0 0.069435074945541297 -0.0028600445017343914 0 0.0689754230845325 -0.0035330137728733367 0 0.077408490366333654 -0.0033889884092027753 0 0.076721030056456585 -0.0036214365408211934 0 0.076749063626018479 -0.0031827695783302108 0 0.05849573644502052 -0.0043857158103633408 0 0.059815300139574 -0.0046372883123563819 0 0.059357131948282037 -0.0042139758908430131 0 0.073220917829558488 -0.0012814323823496887 0 0.069435074945541297 -0.0028600445017343914 0 0.066950023694484134 -0.0028498574408459391 0 0.069435074945541297 -0.0028600445017343914 0 0.073434886704288896 -0.0016318361190314362 0 0.073170192529426498 -0.0011739174814848596 0 0.072836211471363405 -0.0017915658592435023 0 0.069435074945541297 -0.0028600445017343914 0 0.06923270738521356 -0.0030545972311361047 0 0.059357131948282037 -0.0042139758908430131 0 0.059773410987408238 -0.0039800012951148305 0 0.058830954618522696 -0.0036183693457580426 0 0.059357131948282037 -0.0042139758908430131 0 0.059773410987408238 -0.0039800012951148305 0 0.059985796372186817 -0.0044658629926561796 0 0.059815300139574 -0.0046372883123563819 0 0.059357131948282037 -0.0042139758908430131 0 0.059985796372186817 -0.0044658629926561796 0 0.059853770102063435 -0.0047097539905276795 0 0.059985796372186817 -0.0044658629926561796 0 0.060966334784512799 -0.004571768722170892 0 0.06048815624545073 -0.0042907503902784002 0 0.059985796372186817 -0.0044658629926561796 0 0.060966334784512799 -0.004571768722170892 0 0.059773410987408238 -0.0039800012951148305 0 0.06048815624545073 -0.0042907503902784002 0 0.059985796372186817 -0.0044658629926561796 0 0.059773410987408238 -0.0039800012951148305 0 0.06048815624545073 -0.0042907503902784002 0 0.060353907149515065 -0.0039063968642158641 0 0.0689754230845325 -0.0035330137728733367 0 0.068946131566620439 -0.0038984640792036475 0 0.06048815624545073 -0.0042907503902784002 0 0.061720544972312795 -0.0039066530621675519 0 0.060353907149515065 -0.0039063968642158641 0 0.06048815624545073 -0.0042907503902784002 0 0.060966334784512799 -0.004571768722170892 0 0.061720544972312795 -0.0039066530621675519 0 0.060966334784512799 -0.004571768722170892 0 0.061720544972312795 -0.0039066530621675519 0 0.062099112217210053 -0.0043482938245971731 0 0.076721030056456585 -0.0036214365408211934 0 0.076221542386127439 -0.0033634075876198171 0 0.075970885461103602 -0.0039203768446088565 0 0.076721030056456585 -0.0036214365408211934 0 0.076749063626018479 -0.0031827695783302108 0 0.076221542386127439 -0.0033634075876198171 0 0.076425593411261483 -0.0030104671452908451 0 0.076749063626018479 -0.0031827695783302108 0 0.076221542386127439 -0.0033634075876198171 0 0.076148769532748045 -0.0028996040748807263 0 0.076425593411261483 -0.0030104671452908451 0 0.076221542386127439 -0.0033634075876198171 0 0.075480502600753063 -0.0032289885992636143 0 0.075858137510502896 -0.0030428003884445153 0 0.075824818171899913 -0.0034412810089075548 0 0.076148769532748045 -0.0028996040748807263 0 0.075858137510502896 -0.0030428003884445153 0 0.076221542386127439 -0.0033634075876198171 0 0.075858137510502896 -0.0030428003884445153 0 0.076221542386127439 -0.0033634075876198171 0 0.075824818171899913 -0.0034412810089075548 0 0.076221542386127439 -0.0033634075876198171 0 0.075824818171899913 -0.0034412810089075548 0 0.075970885461103602 -0.0039203768446088565 0 0.075501435161260816 -0.0036874798022927461 0 0.075824818171899913 -0.0034412810089075548 0 0.075970885461103602 -0.0039203768446088565 0 0.068881566333251237 -0.0041760482332022925 0 0.063351712633900006 -0.003995313332594611 0 0.06337457199409656 -0.004033860623067701 0 0.061720544972312795 -0.0039066530621675519 0 0.062099112217210053 -0.0043482938245971731 0 0.062420073360537495 -0.004699290574962392 0 0.063422502745603501 -0.0040808971570165517 0 0.062451454733766218 -0.0033341004812188373 0 0.064619328728284228 -0.0052195808964308798 0 0.062420073360537495 -0.004699290574962392 0 0.063422502745603501 -0.0040808971570165517 0 0.063422502745603501 -0.0040808971570165517 0 0.063317222119657526 -0.0031769626495912169 0 0.062451454733766218 -0.0033341004812188373 0 0.063351712633900006 -0.003995313332594611 0 0.061892389341940753 -0.0039259444059765074 0 0.062420073360537495 -0.004699290574962392 0 0.061441432076583313 -0.003589755665514051 0 0.062451454733766218 -0.0033341004812188373 0 0.062420073360537495 -0.004699290574962392 0 0.061441432076583313 -0.003589755665514051 0 0.060353907149515065 -0.0039063968642158641 0 0.061453526830013011 -0.0024997148251514217 0 0.062451454733766218 -0.0033341004812188373 0 0.062674395100394853 -0.0022889828365872155 0 0.061441432076583313 -0.003589755665514051 0 0.061453526830013011 -0.0024997148251514217 0 0.062451454733766218 -0.0033341004812188373 0 0.061441432076583313 -0.003589755665514051 0 0.061453526830013011 -0.0024997148251514217 0 0.060552191811208439 -0.0032224783604386216 0 0.063948899882930968 -0.0017956416292375123 0 0.063317222119657526 -0.0031769626495912169 0 0.062674395100394853 -0.0022889828365872155 0 0.063317222119657526 -0.0031769626495912169 0 0.062451454733766218 -0.0033341004812188373 0 0.062674395100394853 -0.0022889828365872155 0 0.063948899882930968 -0.0017956416292375123 0 0.062674395100394853 -0.0022889828365872155 0 0.062077876904997914 -0.00099096922327556185 0 0.063948899882930968 -0.0017956416292375123 0 0.063962569803776653 0.00056199534176294404 0 0.062077876904997914 -0.00099096922327556185 0 0.061453526830013011 -0.0024997148251514217 0 0.062674395100394853 -0.0022889828365872155 0 0.062077876904997914 -0.00099096922327556185 0 0.061453526830013011 -0.0024997148251514217 0 0.062077876904997914 -0.00099096922327556185 0 0.060368625293308761 -0.0016653775819624084 0 0.05949171627899634 -0.001936674700941362 0 0.056761884609475968 -0.0041152722946177769 0 0.057328065543369493 -0.0016906968894042473 0 0.059680459577924512 -0.0012487519605622755 0 0.058302960776598654 -0.0023821622540796017 0 0.060427340662348603 -0.00027896541967690585 0 0.060368625293308761 -0.0016653775819624084 0 0.059138928353400538 -0.001375170695396934 0 0.062077876904997914 -0.00099096922327556185 0 0.060427340662348603 -0.00027896541967690585 0 0.060368625293308761 -0.0016653775819624084 0 0.060368625293308761 -0.0016653775819624084 0 0.059282236305447676 -0.0022072021910122825 0 0.060010039952173418 -0.0026213350068798984 0 0.060368625293308761 -0.0016653775819624084 0 0.059282236305447676 -0.0022072021910122825 0 0.059138928353400538 -0.001375170695396934 0 0.060010039952173418 -0.0026213350068798984 0 0.059659556461157198 -0.0033908680097134679 0 0.058979732031058427 -0.0029135276842449701 0 0.059282236305447676 -0.0022072021910122825 0 0.060010039952173418 -0.0026213350068798984 0 0.058979732031058427 -0.0029135276842449701 0 0.060010039952173418 -0.0026213350068798984 0 0.060552191811208439 -0.0032224783604386216 0 0.059659556461157198 -0.0033908680097134679 0 0.061453526830013011 -0.0024997148251514217 0 0.060368625293308761 -0.0016653775819624084 0 0.060010039952173418 -0.0026213350068798984 0 0.061453526830013011 -0.0024997148251514217 0 0.060010039952173418 -0.0026213350068798984 0 0.060552191811208439 -0.0032224783604386216 0 0.061441432076583313 -0.003589755665514051 0 0.060552191811208439 -0.0032224783604386216 0 0.060353907149515065 -0.0039063968642158641 0 0.060552191811208439 -0.0032224783604386216 0 0.060353907149515065 -0.0039063968642158641 0 0.059659556461157198 -0.0033908680097134679 0 0.059773410987408238 -0.0039800012951148305 0 0.059659556461157198 -0.0033908680097134679 0 0.058830954618522696 -0.0036183693457580426 0 0.059773410987408238 -0.0039800012951148305 0 0.060353907149515065 -0.0039063968642158641 0 0.059659556461157198 -0.0033908680097134679 0 0.059659556461157198 -0.0033908680097134679 0 0.058830954618522696 -0.0036183693457580426 0 0.058979732031058427 -0.0029135276842449701 0 0.058830954618522696 -0.0036183693457580426 0 0.058214815688093502 -0.0031987629895296413 0 0.058979732031058427 -0.0029135276842449701 0 0.057892433076006868 -0.0036862614485701005 0 0.058830954618522696 -0.0036183693457580426 0 0.058214815688093502 -0.0031987629895296413 0 0.057892433076006868 -0.0036862614485701005 0 0.058214815688093502 -0.0031987629895296413 0 0.057529677594783904 -0.0032856297914339865 0 0.057348505432981006 -0.0031626377083235576 0 0.057020799967750398 -0.0035344443441133054 0 0.058214815688093502 -0.0031987629895296413 0 0.058133793274405918 -0.0024181337703100044 0 0.057529677594783904 -0.0032856297914339865 0 0.059282236305447676 -0.0022072021910122825 0 0.058133793274405918 -0.0024181337703100044 0 0.058979732031058427 -0.0029135276842449701 0 0.058214815688093502 -0.0031987629895296413 0 0.058133793274405918 -0.0024181337703100044 0 0.058979732031058427 -0.0029135276842449701 0 0.057535768529306794 -0.00398607948506922 0 0.056931418287623596 -0.0038817543709469774 0 0.056106178108477976 -0.0038128029893673508 0 0.057565079789632746 -0.0036869473024789146 0 0.057535768529306794 -0.00398607948506922 0 0.057529677594783904 -0.0032856297914339865 0 0.057032126725289754 -0.0036422093996959629 0 0.057020799967750398 -0.0035344443441133054 0 0.057892433076006868 -0.0036862614485701005 0 0.057565079789632746 -0.0036869473024789146 0 0.057529677594783904 -0.0032856297914339865 0 0.055409089267130458 -0.0043148182438703412 0 0.056106178108477976 -0.0038128029893673508 0 0.05576307720334743 -0.0042552353201968547 0 0.056106178108477976 -0.0038128029893673508 0 0.056273646485041427 -0.0040887789887176151 0 0.05576307720334743 -0.0042552353201968547 0 0.056797920139179753 -0.0061990327640007508 0 0.056433492395141005 -0.0064436419824365713 0 0.056931418287623596 -0.0038817543709469774 0 0.056273646485041427 -0.0040887789887176151 0 0.056308550149973512 -0.0043184336788268662 0 0.056931418287623596 -0.0038817543709469774 0 0.056106178108477976 -0.0038128029893673508 0 0.056273646485041427 -0.0040887789887176151 0 0.056273646485041427 -0.0040887789887176151 0 0.056308550149973512 -0.0043184336788268662 0 0.05576307720334743 -0.0042552353201968547 0 0.056308550149973512 -0.0043184336788268662 0 0.05576307720334743 -0.0042552353201968547 0 0.055627094148435655 -0.0045055706531969249 0 0.05576307720334743 -0.0042552353201968547 0 0.055627094148435655 -0.0045055706531969249 0 0.055211024999898412 -0.0039499261382089472 0 0.056308550149973512 -0.0043184336788268662 0 0.055627094148435655 -0.0045055706531969249 0 0.056069821495445593 -0.0048668781261444723 0 0.056433492395141005 -0.0064436419824365713 0 0.056153705073870519 -0.0063237951343685416 0 0.055409089267130458 -0.0043148182438703412 0 0.056761884609475968 -0.0041152722946177769 0 0.055211024999898412 -0.0039499261382089472 0 0.057348505432981006 -0.0031626377083235576 0 0.058302960776598654 -0.0023821622540796017 0 0.059282236305447676 -0.0022072021910122825 0 0.058133793274405918 -0.0024181337703100044 0 0.059138928353400538 -0.001375170695396934 0 0.055409089267130458 -0.0043148182438703412 0 0.05576307720334743 -0.0042552353201968547 0 0.055211024999898412 -0.0039499261382089472 0 0.055627094148435655 -0.0045055706531969249 0 0.055211024999898412 -0.0039499261382089472 0 0.055187106770122119 -0.0046805963714867662 0 0.055031199081345621 -0.0033478959040327129 0 0.055048676560312197 -0.0030925860616017381 0 0.055211024999898412 -0.0039499261382089472 0 0.054536009767174071 -0.0050868490742788956 0 0.055187106770122119 -0.0046805963714867662 0 0.056761884609475968 -0.0041152722946177769 0 0.055211024999898412 -0.0039499261382089472 0 0.057328065543369493 -0.0016906968894042473 0 0.055211024999898412 -0.0039499261382089472 0 0.055492147063178364 -0.00067422825028942614 0 0.057328065543369493 -0.0016906968894042473 0 0.055492147063178364 -0.00067422825028942614 0 0.057328065543369493 -0.0016906968894042473 0 0.057388127950164132 0.00066890898106189206 0 0.055187106770122119 -0.0046805963714867662 0 0.054976911064629604 -0.0053804104357977065 0 0.055412817601018328 -0.0050736018716717925 0 0.054536009767174071 -0.0050868490742788956 0 0.055187106770122119 -0.0046805963714867662 0 0.054976911064629604 -0.0053804104357977065 0 0.054976911064629604 -0.0053804104357977065 0 0.054573370973464951 -0.0055502164990262459 0 0.054845307349134731 -0.0058110997555904098 0 0.054536009767174071 -0.0050868490742788956 0 0.054976911064629604 -0.0053804104357977065 0 0.054573370973464951 -0.0055502164990262459 0 0.055492147063178364 -0.00067422825028942614 0 0.056214802557416746 0.0022620674462749293 0 0.057388127950164132 0.00066890898106189206 0 0.055048676560312197 -0.0030925860616017381 0 0.05495906191740816 -0.0033377006278949954 0 0.054536009767174071 -0.0050868490742788956 0 0.054573370973464951 -0.0055502164990262459 0 0.054306338114074183 -0.0057787707077147765 0 0.054573370973464951 -0.0055502164990262459 0 0.054181321507210493 -0.0057423924283713868 0 0.054487850851042643 -0.0057938726899171809 0 0.054742923904102146 -0.0036260801123271773 0 0.05495906191740816 -0.0033377006278949954 0 0.056214802557416746 0.0022620674462749293 0 0.05805958904386025 0.0023125115826234687 0 0.057388127950164132 0.00066890898106189206 0 0.055627094148435655 -0.0045055706531969249 0 0.056069821495445593 -0.0048668781261444723 0 0.055412817601018328 -0.0050736018716717925 0 0.056069821495445593 -0.0048668781261444723 0 0.055412817601018328 -0.0050736018716717925 0 0.055299822794073784 -0.0056912636179973497 0 0.055627094148435655 -0.0045055706531969249 0 0.055187106770122119 -0.0046805963714867662 0 0.055412817601018328 -0.0050736018716717925 0 0.055299822794073784 -0.0056912636179973497 0 0.055528787652804321 -0.0061490466139665616 0 0.055234303594620303 -0.0059418582588942354 0 0.054976911064629604 -0.0053804104357977065 0 0.055299822794073784 -0.0056912636179973497 0 0.054845307349134731 -0.0058110997555904098 0 0.054976911064629604 -0.0053804104357977065 0 0.055412817601018328 -0.0050736018716717925 0 0.055299822794073784 -0.0056912636179973497 0 0.056153705073870519 -0.0063237951343685416 0 0.05603716870180013 -0.0062302665850859718 0 0.056069821495445593 -0.0048668781261444723 0 0.055299822794073784 -0.0056912636179973497 0 0.055528787652804321 -0.0061490466139665616 0 0.055696358769102818 -0.0075919385951196848 0 0.055528787652804321 -0.0061490466139665616 0 0.054717618619220469 -0.0067335936842398232 0 0.055528787652804321 -0.0061490466139665616 0 0.055392956270619451 -0.0057401587675399261 0 0.054717618619220469 -0.0067335936842398232 0 0.055528787652804321 -0.0061490466139665616 0 0.055392956270619451 -0.0057401587675399261 0 0.055234303594620303 -0.0059418582588942354 0 0.055392956270619451 -0.0057401587675399261 0 0.055234303594620303 -0.0059418582588942354 0 0.055222017583004941 -0.0060513869746684412 0 0.055299822794073784 -0.0056912636179973497 0 0.055234303594620303 -0.0059418582588942354 0 0.054845307349134731 -0.0058110997555904098 0 0.055234303594620303 -0.0059418582588942354 0 0.054845307349134731 -0.0058110997555904098 0 0.054745236691975924 -0.0060951566732857744 0 0.054906882240466047 -0.0061704573928726605 0 0.055222017583004941 -0.0060513869746684412 0 0.055432275506989065 -0.0065951225673723914 0 0.055234303594620303 -0.0059418582588942354 0 0.054906882240466047 -0.0061704573928726605 0 0.054745236691975924 -0.0060951566732857744 0 0.054906882240466047 -0.0061704573928726605 0 0.054567632357981281 -0.0063178456982666562 0 0.05473018966659831 -0.0066599409096401337 0 0.054906882240466047 -0.0061704573928726605 0 0.054745236691975924 -0.0060951566732857744 0 0.054567632357981281 -0.0063178456982666562 0 0.055234303594620303 -0.0059418582588942354 0 0.054906882240466047 -0.0061704573928726605 0 0.055222017583004941 -0.0060513869746684412 0 0.055392956270619451 -0.0057401587675399261 0 0.054217875885094358 -0.0048861734986332039 0 0.056020082881460417 -0.0031350829118071853 0 0.053417250852658756 -0.005790672434640493 0 0.052661065867271692 -0.006735090277843931 0 0.055392956270619451 -0.0057401587675399261 0 0.055222017583004941 -0.0060513869746684412 0 0.055432275506989065 -0.0065951225673723914 0 0.053516244115680477 -0.004975830366430979 0 0.053284709294235018 -0.0060021880100726158 0 0.052683250447561135 -0.0057563119261211599 0 0.05495906191740816 -0.0033377006278949954 0 0.054050346999159636 -0.0057285585531252669 0 0.054332221779165267 -0.0060861125745635281 0 0.054181321507210493 -0.0057423924283713868 0 0.053826236361754605 -0.0064286225174745252 0 0.054332221779165267 -0.0060861125745635281 0 0.054181321507210493 -0.0057423924283713868 0 0.054487850851042643 -0.0057938726899171809 0 0.054332221779165267 -0.0060861125745635281 0 0.054487850851042643 -0.0057938726899171809 0 0.054845307349134731 -0.0058110997555904098 0 0.054332221779165267 -0.0060861125745635281 0 0.054845307349134731 -0.0058110997555904098 0 0.054269711879608114 -0.0066492237310050934 0 0.054573370973464951 -0.0055502164990262459 0 0.054487850851042643 -0.0057938726899171809 0 0.054845307349134731 -0.0058110997555904098 0 0.054845307349134731 -0.0058110997555904098 0 0.054745236691975924 -0.0060951566732857744 0 0.054063347963684186 -0.006296460644390176 0 0.054262036633936993 -0.0062087236065355537 0 0.053984166026999188 -0.0066165243553841374 0 0.054745236691975924 -0.0060951566732857744 0 0.054567632357981281 -0.0063178456982666562 0 0.054063347963684186 -0.006296460644390176 0 0.054567632357981281 -0.0063178456982666562 0 0.054063347963684186 -0.006296460644390176 0 0.054351440829913743 -0.0065395594619318213 0 0.054332221779165267 -0.0060861125745635281 0 0.054269711879608114 -0.0066492237310050934 0 0.053826236361754605 -0.0064286225174745252 0 0.053284709294235018 -0.0060021880100726158 0 0.052683250447561135 -0.0057563119261211599 0 0.052660201405109103 -0.006444492534203922 0 0.052683250447561135 -0.0057563119261211599 0 0.052660201405109103 -0.006444492534203922 0 0.051905372897929548 -0.006521299379804538 0 0.056214802557416746 0.0022620674462749293 0 0.058431135035206645 0.0039972358014188697 0 0.05805958904386025 0.0023125115826234687 0 0.05495906191740816 -0.0033377006278949954 0 0.055982454043836782 -0.0020173864108070359 0 0.058431135035206645 0.0039972358014188697 0 0.05805958904386025 0.0023125115826234687 0 0.059448231442351562 0.0029104405724338805 0 0.05805958904386025 0.0023125115826234687 0 0.059448231442351562 0.0029104405724338805 0 0.058726670125528811 0.001579170880575813 0 0.058431135035206645 0.0039972358014188697 0 0.059448231442351562 0.0029104405724338805 0 0.060213961850415332 0.0039266095527609223 0 0.059448231442351562 0.0029104405724338805 0 0.061143179825406395 0.0030272851525183068 0 0.060521070349031508 0.0017475581490984009 0 0.059448231442351562 0.0029104405724338805 0 0.060213961850415332 0.0039266095527609223 0 0.061143179825406395 0.0030272851525183068 0 0.059448231442351562 0.0029104405724338805 0 0.058726670125528811 0.001579170880575813 0 0.060521070349031508 0.0017475581490984009 0 0.060213961850415332 0.0039266095527609223 0 0.06164700833624305 0.004230879965273316 0 0.060297826782857819 0.0054257359882824959 0 0.055982454043836782 -0.0020173864108070359 0 0.056674678701345987 -0.0017388316554382941 0 0.058431135035206645 0.0039972358014188697 0 0.060213961850415332 0.0039266095527609223 0 0.060297826782857819 0.0054257359882824959 0 0.06164700833624305 0.004230879965273316 0 0.060297826782857819 0.0054257359882824959 0 0.061685715125338582 0.0052854645007716968 0 0.06164700833624305 0.004230879965273316 0 0.062800337614469265 0.0045837090607508237 0 0.061685715125338582 0.0052854645007716968 0 0.060213961850415332 0.0039266095527609223 0 0.06164700833624305 0.004230879965273316 0 0.061143179825406395 0.0030272851525183068 0 0.063320660134462387 0.0046240422349459135 0 0.062800337614469265 0.0045837090607508237 0 0.06309231917832657 0.0055636094624913722 0 0.063320660134462387 0.0046240422349459135 0 0.062800337614469265 0.0045837090607508237 0 0.063479566942909932 0.0040659725480489692 0 0.063839358672359889 0.0045963808448159548 0 0.063320660134462387 0.0046240422349459135 0 0.063479566942909932 0.0040659725480489692 0 0.06164700833624305 0.004230879965273316 0 0.062800337614469265 0.0045837090607508237 0 0.062780737954476307 0.0037024829202756469 0 0.06164700833624305 0.004230879965273316 0 0.062780737954476307 0.0037024829202756469 0 0.062430065360241531 0.0030777269496966154 0 0.062800337614469265 0.0045837090607508237 0 0.062780737954476307 0.0037024829202756469 0 0.063479566942909932 0.0040659725480489692 0 0.062780737954476307 0.0037024829202756469 0 0.063479566942909932 0.0040659725480489692 0 0.06344531159539113 0.0026125464259473949 0 0.062780737954476307 0.0037024829202756469 0 0.062430065360241531 0.0030777269496966154 0 0.06344531159539113 0.0026125464259473949 0 0.062430065360241531 0.0030777269496966154 0 0.06344531159539113 0.0026125464259473949 0 0.062390406480700641 0.0018849586384905295 0 0.061143179825406395 0.0030272851525183068 0 0.062390406480700641 0.0018849586384905295 0 0.060521070349031508 0.0017475581490984009 0 0.06164700833624305 0.004230879965273316 0 0.062430065360241531 0.0030777269496966154 0 0.061143179825406395 0.0030272851525183068 0 0.062430065360241531 0.0030777269496966154 0 0.061143179825406395 0.0030272851525183068 0 0.062390406480700641 0.0018849586384905295 0 0.062390406480700641 0.0018849586384905295 0 0.061727835402814096 0.00069394181562911948 0 0.060521070349031508 0.0017475581490984009 0 0.063962569803776653 0.00056199534176294404 0 0.062390406480700641 0.0018849586384905295 0 0.061727835402814096 0.00069394181562911948 0 0.063962569803776653 0.00056199534176294404 0 0.06344531159539113 0.0026125464259473949 0 0.062390406480700641 0.0018849586384905295 0 0.063962569803776653 0.00056199534176294404 0 0.062077876904997914 -0.00099096922327556185 0 0.061727835402814096 0.00069394181562911948 0 0.062077876904997914 -0.00099096922327556185 0 0.060427340662348603 -0.00027896541967690585 0 0.061727835402814096 0.00069394181562911948 0 0.05949171627899634 -0.001936674700941362 0 0.061727835402814096 0.00069394181562911948 0 0.059224018186861717 0.00024153447052324125 0 0.059680459577924512 -0.0012487519605622755 0 0.060524633845341666 -0.00053140364120132712 0 0.05949171627899634 -0.001936674700941362 0 0.059224018186861717 0.00024153447052324125 0 0.057328065543369493 -0.0016906968894042473 0 0.059224018186861717 0.00024153447052324125 0 0.057328065543369493 -0.0016906968894042473 0 0.057388127950164132 0.00066890898106189206 0 0.059224018186861717 0.00024153447052324125 0 0.057388127950164132 0.00066890898106189206 0 0.058726670125528811 0.001579170880575813 0 0.05805958904386025 0.0023125115826234687 0 0.057388127950164132 0.00066890898106189206 0 0.058726670125528811 0.001579170880575813 0 0.059224018186861717 0.00024153447052324125 0 0.058726670125528811 0.001579170880575813 0 0.060521070349031508 0.0017475581490984009 0 0.061727835402814096 0.00069394181562911948 0 0.059224018186861717 0.00024153447052324125 0 0.060521070349031508 0.0017475581490984009 0 0.047900760506303423 -0.0077239483789374955 0 0.047366596037347976 -0.0078870234722930952 0 0.047438959344654058 -0.0073675795100621687 0 0.047900760506303423 -0.0077239483789374955 0 0.047438959344654058 -0.0073675795100621687 0 0.0478684715411829 -0.0073374130994866829 0 0.047900760506303423 -0.0077239483789374955 0 0.0478684715411829 -0.0073374130994866829 0 0.048142646623898236 -0.0074761162600141557 0 0.05366904415162066 -0.0072004212411447919 0 0.053436203068520302 -0.0076256724877331325 0 0.054095971220480217 -0.0075617636778357597 0 0.050865345809724509 -0.0074731397094618948 0 0.050276485435286324 -0.0076248036363626044 0 0.053436203068520302 -0.0076256724877331325 0 0.052862831186203808 -0.0075168576444940545 0 0.053122349295816718 -0.0079300676970808781 0 0.05366904415162066 -0.0072004212411447919 0 0.053436203068520302 -0.0076256724877331325 0 0.052862831186203808 -0.0075168576444940545 0 0.046263496711452162 -0.0092570445210110042 0 0.045867125576838259 -0.0095540707372978474 0 0.045813144540352416 -0.0093042746182876255 0 0.047366596037347976 -0.0078870234722930952 0 0.047168723881338949 -0.007726945609013801 0 0.046910089435977409 -0.0080355438946552692 0 0.050276485435286324 -0.0076248036363626044 0 0.050520602485072119 -0.0074608846724706765 0 0.048054057468273792 -0.0085568417218978149 0 0.050520602485072119 -0.0074608846724706765 0 0.046263496711452162 -0.0092570445210110042 0 0.045813144540352416 -0.0093042746182876255 0 0.045718431869148972 -0.008996445181010039 0 0.046263496711452162 -0.0092570445210110042 0 0.046209119703607138 -0.0087646539050049571 0 0.045718431869148972 -0.008996445181010039 0 0.047366596037347976 -0.0078870234722930952 0 0.047168723881338949 -0.007726945609013801 0 0.047438959344654058 -0.0073675795100621687 0 0.046263496711452162 -0.0092570445210110042 0 0.046209119703607138 -0.0087646539050049571 0 0.046826434018199713 -0.0087229762055882707 0 0.048054057468273792 -0.0085568417218978149 0 0.047622087671961182 -0.0082146948163210748 0 0.04632038118076634 -0.0083688528198018249 0 0.046209119703607138 -0.0087646539050049571 0 0.046826434018199713 -0.0087229762055882707 0 0.04632038118076634 -0.0083688528198018249 0 0.046710394639907116 -0.0080504487377298633 0 0.046826434018199713 -0.0087229762055882707 0 0.046209119703607138 -0.0087646539050049571 0 0.045718431869148972 -0.008996445181010039 0 0.045760821622926724 -0.0084107058656928031 0 0.04632038118076634 -0.0083688528198018249 0 0.046209119703607138 -0.0087646539050049571 0 0.045760821622926724 -0.0084107058656928031 0 0.04632038118076634 -0.0083688528198018249 0 0.046096442277180925 -0.0078949939690012988 0 0.045760821622926724 -0.0084107058656928031 0 0.046096442277180925 -0.0078949939690012988 0 0.046710394639907116 -0.0080504487377298633 0 0.046561619163868882 -0.0076918720294668523 0 0.04632038118076634 -0.0083688528198018249 0 0.046096442277180925 -0.0078949939690012988 0 0.046710394639907116 -0.0080504487377298633 0 0.046710394639907116 -0.0080504487377298633 0 0.046826434018199713 -0.0087229762055882707 0 0.047338664489140918 -0.0080479378610311559 0 0.046710394639907116 -0.0080504487377298633 0 0.047338664489140918 -0.0080479378610311559 0 0.047033074507804098 -0.0074884699551676596 0 0.047622087671961182 -0.0082146948163210748 0 0.047728269760460088 -0.0076745525258265813 0 0.047438959344654058 -0.0073675795100621687 0 0.0478684715411829 -0.0073374130994866829 0 0.047822651842921414 -0.0068670543541126455 0 0.0478684715411829 -0.0073374130994866829 0 0.047822651842921414 -0.0068670543541126455 0 0.048289401588261283 -0.0069385802227007951 0 0.047822651842921414 -0.0068670543541126455 0 0.048289401588261283 -0.0069385802227007951 0 0.04828274178260987 -0.0065538062176572218 0 0.048289401588261283 -0.0069385802227007951 0 0.048757107817292394 -0.0066339664887353784 0 0.04828274178260987 -0.0065538062176572218 0 0.048289401588261283 -0.0069385802227007951 0 0.048757107817292394 -0.0066339664887353784 0 0.048927241813101596 -0.0068438703871772765 0 0.048757107817292394 -0.0066339664887353784 0 0.048927241813101596 -0.0068438703871772765 0 0.049484214942922364 -0.0066780518019835039 0 0.048927241813101596 -0.0068438703871772765 0 0.048142646623898236 -0.0074761162600141557 0 0.048382994214269441 -0.0078959051537542575 0 0.048927241813101596 -0.0068438703871772765 0 0.050937527677109733 -0.0070016584522549843 0 0.048382994214269441 -0.0078959051537542575 0 0.048289401588261283 -0.0069385802227007951 0 0.048927241813101596 -0.0068438703871772765 0 0.048142646623898236 -0.0074761162600141557 0 0.0478684715411829 -0.0073374130994866829 0 0.048289401588261283 -0.0069385802227007951 0 0.048142646623898236 -0.0074761162600141557 0 0.04878955006141443 -0.0065842511289857823 0 0.048288752184781618 -0.006823097941399188 0 0.048785898202001077 -0.0067523782177396005 0 0.051848804231166883 -0.0067043640400200237 0 0.052661065867271692 -0.006735090277843931 0 0.048757107817292394 -0.0066339664887353784 0 0.049484214942922364 -0.0066780518019835039 0 0.048785898202001077 -0.0067523782177396005 0 0.04878955006141443 -0.0065842511289857823 0 0.049484214942922364 -0.0066780518019835039 0 0.048785898202001077 -0.0067523782177396005 0 0.048927241813101596 -0.0068438703871772765 0 0.049484214942922364 -0.0066780518019835039 0 0.050937527677109733 -0.0070016584522549843 0 0.052786266133017901 -0.0068716293546505752 0 0.051795386188080099 -0.0072052720753940161 0 0.054217875885094358 -0.0048861734986332039 0 0.050937527677109733 -0.0070016584522549843 0 0.05371253265576828 -0.0065795749228837481 0 0.050937527677109733 -0.0070016584522549843 0 0.05371253265576828 -0.0065795749228837481 0 0.048382994214269441 -0.0078959051537542575 0 0.04878955006141443 -0.0065842511289857823 0 0.049484214942922364 -0.0066780518019835039 0 0.050937527677109733 -0.0070016584522549843 0 0.051848804231166883 -0.0067043640400200237 0 0.051298415558147729 -0.0070760210170758243 0 0.055392956270619451 -0.0057401587675399261 0 0.05371253265576828 -0.0065795749228837481 0 0.054717618619220469 -0.0067335936842398232 0 0.055392956270619451 -0.0057401587675399261 0 0.054217875885094358 -0.0048861734986332039 0 0.05371253265576828 -0.0065795749228837481 0 0.05371253265576828 -0.0065795749228837481 0 0.054717618619220469 -0.0067335936842398232 0 0.054240468180417639 -0.0068742273400661238 0 0.054717618619220469 -0.0067335936842398232 0 0.054240468180417639 -0.0068742273400661238 0 0.054749661722041661 -0.00718599361942207 0 0.054240468180417639 -0.0068742273400661238 0 0.054749661722041661 -0.00718599361942207 0 0.054383233551069769 -0.0071437158872348127 0 0.05371253265576828 -0.0065795749228837481 0 0.054240468180417639 -0.0068742273400661238 0 0.054338914400206453 -0.00700909569830025 0 0.054778033577493147 -0.0075000878994935022 0 0.054749661722041661 -0.00718599361942207 0 0.054383233551069769 -0.0071437158872348127 0 0.054778033577493147 -0.0075000878994935022 0 0.054383233551069769 -0.0071437158872348127 0 0.054499298650739277 -0.0076334052355708278 0 0.054778033577493147 -0.0075000878994935022 0 0.054749661722041661 -0.00718599361942207 0 0.055481827437377243 -0.0078763730058500504 0 0.055696358769102818 -0.0075919385951196848 0 0.054717618619220469 -0.0067335936842398232 0 0.054749661722041661 -0.00718599361942207 0 0.055696358769102818 -0.0075919385951196848 0 0.054749661722041661 -0.00718599361942207 0 0.055481827437377243 -0.0078763730058500504 0 0.047900760506303423 -0.0077239483789374955 0 0.048142646623898236 -0.0074761162600141557 0 0.048382994214269441 -0.0078959051537542575 0 0.050865345809724509 -0.0074731397094618948 0 0.051795386188080099 -0.0072052720753940161 0 0.05366904415162066 -0.0072004212411447919 0 0.054338914400206453 -0.00700909569830025 0 0.054184123091452527 -0.0072369837980695304 0 0.054240468180417639 -0.0068742273400661238 0 0.054338914400206453 -0.00700909569830025 0 0.054383233551069769 -0.0071437158872348127 0 0.054338914400206453 -0.00700909569830025 0 0.054383233551069769 -0.0071437158872348127 0 0.054184123091452527 -0.0072369837980695304 0 0.054383233551069769 -0.0071437158872348127 0 0.05408143445200795 -0.0075728832223130593 0 0.054499298650739277 -0.0076334052355708278 0 0.054383233551069769 -0.0071437158872348127 0 0.054095971220480217 -0.0075617636778357597 0 0.054184123091452527 -0.0072369837980695304 0 0.054164207783055481 -0.007506811676668149 0 0.053966719157714435 -0.0076708080802182169 0 0.05366904415162066 -0.0072004212411447919 0 0.054095971220480217 -0.0075617636778357597 0 0.054184123091452527 -0.0072369837980695304 0 0.05408143445200795 -0.0075728832223130593 0 0.054478929239078183 -0.0082398118506649184 0 0.053745136647420109 -0.0085914065615481129 0 0.053966719157714435 -0.0076708080802182169 0 0.053544091062086747 -0.0080051505726851848 0 0.054499298650739277 -0.0076334052355708278 0 0.054478929239078183 -0.0082398118506649184 0 0.054919086456101135 -0.007957138887265066 0 0.05408143445200795 -0.0075728832223130593 0 0.054499298650739277 -0.0076334052355708278 0 0.054478929239078183 -0.0082398118506649184 0 0.054478929239078183 -0.0082398118506649184 0 0.055386381167049595 -0.008705780492054933 0 0.054267817498793607 -0.0090511134646481372 0 0.054478929239078183 -0.0082398118506649184 0 0.054267817498793607 -0.0090511134646481372 0 0.053745136647420109 -0.0085914065615481129 0 0.056368285486551886 -0.0084753382159348384 0 0.055696358769102818 -0.0075919385951196848 0 0.055481827437377243 -0.0078763730058500504 0 0.054778033577493147 -0.0075000878994935022 0 0.055481827437377243 -0.0078763730058500504 0 0.054919086456101135 -0.007957138887265066 0 0.054778033577493147 -0.0075000878994935022 0 0.054499298650739277 -0.0076334052355708278 0 0.054919086456101135 -0.007957138887265066 0 0.054478929239078183 -0.0082398118506649184 0 0.054919086456101135 -0.007957138887265066 0 0.055386381167049595 -0.008705780492054933 0 0.055481827437377243 -0.0078763730058500504 0 0.054919086456101135 -0.007957138887265066 0 0.055386381167049595 -0.008705780492054933 0 0.056368285486551886 -0.0084753382159348384 0 0.055481827437377243 -0.0078763730058500504 0 0.055386381167049595 -0.008705780492054933 0 0.056822015366022743 -0.010087504151392312 0 0.056368285486551886 -0.0084753382159348384 0 0.056457338568003182 -0.0093814949674692564 0 0.056368285486551886 -0.0084753382159348384 0 0.055386381167049595 -0.008705780492054933 0 0.056457338568003182 -0.0093814949674692564 0 0.055386381167049595 -0.008705780492054933 0 0.056457338568003182 -0.0093814949674692564 0 0.055070194060711619 -0.0099425901124280316 0 0.056457338568003182 -0.0093814949674692564 0 0.057539666757626312 -0.0095588493419091706 0 0.055070194060711619 -0.0099425901124280316 0 0.059111618413863434 -0.0091740272613217606 0 0.06035340412230969 -0.008949120269799965 0 0.057539666757626312 -0.0095588493419091706 0 0.065735741973890219 -0.0094281255549209641 0 0.061602176249965022 -0.0068123745772998723 0 0.057539666757626312 -0.0095588493419091706 0 0.05852314753761699 -0.0068123117017304131 0 0.061602176249965022 -0.0068123745772998723 0 0.056822015366022743 -0.010087504151392312 0 0.057539666757626312 -0.0095588493419091706 0 0.05852314753761699 -0.0068123117017304131 0 0.056822015366022743 -0.010087504151392312 0 0.056457338568003182 -0.0093814949674692564 0 0.057539666757626312 -0.0095588493419091706 0 0.054267817498793607 -0.0090511134646481372 0 0.053887419997271827 -0.0097139916681880656 0 0.053471267917169663 -0.0091339400632016367 0 0.054267817498793607 -0.0090511134646481372 0 0.053471267917169663 -0.0091339400632016367 0 0.053745136647420109 -0.0085914065615481129 0 0.055386381167049595 -0.008705780492054933 0 0.054267817498793607 -0.0090511134646481372 0 0.055070194060711619 -0.0099425901124280316 0 0.06035340412230969 -0.008949120269799965 0 0.062142262507791701 -0.0082866098314999179 0 0.054267817498793607 -0.0090511134646481372 0 0.055070194060711619 -0.0099425901124280316 0 0.053887419997271827 -0.0097139916681880656 0 0.065735741973890219 -0.0094281255549209641 0 0.071555433336370503 -0.0079438087556246151 0 0.070644068709730792 -0.0059525387958883078 0 0.071555433336370503 -0.0079438087556246151 0 0.074509382359066983 -0.0064901614522894224 0 0.073690344176656694 -0.0058776066292472659 0 0.062142262507791701 -0.0082866098314999179 0 0.063335515456092284 -0.0072646509802107764 0 0.053887419997271827 -0.0097139916681880656 0 0.053064105412840699 -0.0095615702713387901 0 0.053471267917169663 -0.0091339400632016367 0 0.053064105412840699 -0.0095615702713387901 0 0.052955826418208972 -0.0090805494611206523 0 0.053471267917169663 -0.0091339400632016367 0 0.052955826418208972 -0.0090805494611206523 0 0.053471267917169663 -0.0091339400632016367 0 0.052970513202906806 -0.008499324379614941 0 0.053471267917169663 -0.0091339400632016367 0 0.053745136647420109 -0.0085914065615481129 0 0.052970513202906806 -0.008499324379614941 0 0.053745136647420109 -0.0085914065615481129 0 0.052970513202906806 -0.008499324379614941 0 0.053511822993459759 -0.0080530776408129345 0 0.053102427449904184 -0.0083421512424877615 0 0.053544091062086747 -0.0080051505726851848 0 0.053083732263619413 -0.0084105653156455497 0 0.053122349295816718 -0.0079300676970808781 0 0.0536100643956215 -0.0079879920031295133 0 0.053436203068520302 -0.0076256724877331325 0 0.053122349295816718 -0.0079300676970808781 0 0.0536100643956215 -0.0079879920031295133 0 0.05408143445200795 -0.0075728832223130593 0 0.053745136647420109 -0.0085914065615481129 0 0.053511822993459759 -0.0080530776408129345 0 0.053436203068520302 -0.0076256724877331325 0 0.054095971220480217 -0.0075617636778357597 0 0.0536100643956215 -0.0079879920031295133 0 0.052605882772161182 -0.0081120589291610694 0 0.05215751699275667 -0.0084174148881960148 0 0.052053348799087053 -0.0078533354657581468 0 0.052862831186203808 -0.0075168576444940545 0 0.052605882772161182 -0.0081120589291610694 0 0.052053348799087053 -0.0078533354657581468 0 0.052862831186203808 -0.0075168576444940545 0 0.053122349295816718 -0.0079300676970808781 0 0.052605882772161182 -0.0081120589291610694 0 0.053083732263619413 -0.0084105653156455497 0 0.053122349295816718 -0.0079300676970808781 0 0.052605882772161182 -0.0081120589291610694 0 0.053083732263619413 -0.0084105653156455497 0 0.052605882772161182 -0.0081120589291610694 0 0.052521918009392439 -0.0088289566341762851 0 0.053102427449904184 -0.0083421512424877615 0 0.052868006966091688 -0.0085152472933123866 0 0.052605882772161182 -0.0081120589291610694 0 0.05215751699275667 -0.0084174148881960148 0 0.052521918009392439 -0.0088289566341762851 0 0.05215751699275667 -0.0084174148881960148 0 0.052521918009392439 -0.0088289566341762851 0 0.051988603634014328 -0.0088906972602305675 0 0.052521918009392439 -0.0088289566341762851 0 0.052303388311722432 -0.0091518411439473688 0 0.051988603634014328 -0.0088906972602305675 0 0.052521918009392439 -0.0088289566341762851 0 0.052651799194368805 -0.0092399081707481359 0 0.052303388311722432 -0.0091518411439473688 0 0.052955826418208972 -0.0090805494611206523 0 0.052521918009392439 -0.0088289566341762851 0 0.052651799194368805 -0.0092399081707481359 0 0.052955826418208972 -0.0090805494611206523 0 0.052970513202906806 -0.008499324379614941 0 0.052521918009392439 -0.0088289566341762851 0 0.053064105412840699 -0.0095615702713387901 0 0.052955826418208972 -0.0090805494611206523 0 0.052651799194368805 -0.0092399081707481359 0 0.074509382359066983 -0.0064901614522894224 0 0.075694694516354813 -0.0060756435764711255 0 0.074956553926872255 -0.0062053639757470875 0 0.063335515456092284 -0.0072646509802107764 0 0.064013353805451617 -0.0056671845122243025 0 0.053064105412840699 -0.0095615702713387901 0 0.052651799194368805 -0.0092399081707481359 0 0.052357506034412492 -0.0095154663907627557 0 0.052303388311722432 -0.0091518411439473688 0 0.052357506034412492 -0.0095154663907627557 0 0.051995108193214359 -0.0092618756725792971 0 0.052651799194368805 -0.0092399081707481359 0 0.052303388311722432 -0.0091518411439473688 0 0.052357506034412492 -0.0095154663907627557 0 0.075694694516354813 -0.0060756435764711255 0 0.075503900606053623 -0.005473109902210351 0 0.07596418807290603 -0.0056680754855621979 0 0.075915649376133362 -0.0044473712355874075 0 0.076360535401332294 -0.0030132476533383922 0 0.07563985189154486 -0.0033355563103321137 0 0.074865295044748467 -0.004380530040015396 0 0.074863416625090662 -0.0033603785296700355 0 0.075503900606053623 -0.005473109902210351 0 0.07596418807290603 -0.0056680754855621979 0 0.07594276572859926 -0.0053972977677506986 0 0.075503900606053623 -0.005473109902210351 0 0.075877927622829078 -0.004990361111486789 0 0.07594276572859926 -0.0053972977677506986 0 0.075009291920826088 -0.0035141910642370977 0 0.075003099750515403 -0.0044633043753501897 0 0.07441979360487859 -0.0035936804132575923 0 0.075009291920826088 -0.0035141910642370977 0 0.075003099750515403 -0.0044633043753501897 0 0.07563985189154486 -0.0033355563103321137 0 0.075915649376133362 -0.0044473712355874075 0 0.075003099750515403 -0.0044633043753501897 0 0.07563985189154486 -0.0033355563103321137 0 0.075694694516354813 -0.0060756435764711255 0 0.075503900606053623 -0.005473109902210351 0 0.074956553926872255 -0.0062053639757470875 0 0.075003099750515403 -0.0044633043753501897 0 0.074956553926872255 -0.0062053639757470875 0 0.074512045770176602 -0.0055916170343892147 0 0.074865295044748467 -0.004380530040015396 0 0.074710373099996508 -0.0049086998871681843 0 0.075915649376133362 -0.0044473712355874075 0 0.075003099750515403 -0.0044633043753501897 0 0.074956553926872255 -0.0062053639757470875 0 0.074509382359066983 -0.0064901614522894224 0 0.074956553926872255 -0.0062053639757470875 0 0.074512045770176602 -0.0055916170343892147 0 0.074509382359066983 -0.0064901614522894224 0 0.073690344176656694 -0.0058776066292472659 0 0.074512045770176602 -0.0055916170343892147 0 0.073690344176656694 -0.0058776066292472659 0 0.072941111821798507 -0.0048518502283281502 0 0.074296940195437575 -0.0048029083071103977 0 0.073690344176656694 -0.0058776066292472659 0 0.074512045770176602 -0.0055916170343892147 0 0.074296940195437575 -0.0048029083071103977 0 0.075003099750515403 -0.0044633043753501897 0 0.074512045770176602 -0.0055916170343892147 0 0.074296940195437575 -0.0048029083071103977 0 0.071555433336370503 -0.0079438087556246151 0 0.073690344176656694 -0.0058776066292472659 0 0.072941111821798507 -0.0048518502283281502 0 0.072941111821798507 -0.0048518502283281502 0 0.072488294662115954 -0.0033974422717507327 0 0.071481474211436843 -0.0043404061845932294 0 0.072941111821798507 -0.0048518502283281502 0 0.07339562439623977 -0.0035334851195055524 0 0.073781464900811264 -0.0041793159648663616 0 0.072941111821798507 -0.0048518502283281502 0 0.07339562439623977 -0.0035334851195055524 0 0.072488294662115954 -0.0033974422717507327 0 0.072941111821798507 -0.0048518502283281502 0 0.074296940195437575 -0.0048029083071103977 0 0.073781464900811264 -0.0041793159648663616 0 0.074296940195437575 -0.0048029083071103977 0 0.073781464900811264 -0.0041793159648663616 0 0.07441979360487859 -0.0035936804132575923 0 0.075003099750515403 -0.0044633043753501897 0 0.074296940195437575 -0.0048029083071103977 0 0.07441979360487859 -0.0035936804132575923 0 0.07339562439623977 -0.0035334851195055524 0 0.073781464900811264 -0.0041793159648663616 0 0.07441979360487859 -0.0035936804132575923 0 0.07441979360487859 -0.0035936804132575923 0 0.074045538358169655 -0.0025750822006050116 0 0.074969087780655488 -0.0027265310324733026 0 0.07339562439623977 -0.0035334851195055524 0 0.07441979360487859 -0.0035936804132575923 0 0.074045538358169655 -0.0025750822006050116 0 0.074045538358169655 -0.0025750822006050116 0 0.074580228371157173 -0.002239252786587596 0 0.074969087780655488 -0.0027265310324733026 0 0.072488294662115954 -0.0033974422717507327 0 0.073281240405454251 -0.0026481112970126322 0 0.072375200796620631 -0.0025433463034337475 0 0.07339562439623977 -0.0035334851195055524 0 0.074045538358169655 -0.0025750822006050116 0 0.073281240405454251 -0.0026481112970126322 0 0.07339562439623977 -0.0035334851195055524 0 0.072488294662115954 -0.0033974422717507327 0 0.073281240405454251 -0.0026481112970126322 0 0.074045538358169655 -0.0025750822006050116 0 0.073281240405454251 -0.0026481112970126322 0 0.073420657970827474 -0.0018546632978677158 0 0.073281240405454251 -0.0026481112970126322 0 0.072949427733761438 -0.0022039274182706235 0 0.073420657970827474 -0.0018546632978677158 0 0.072949427733761438 -0.0022039274182706235 0 0.072375200796620631 -0.0025433463034337475 0 0.072723288624102322 -0.0018354136242625025 0 0.073281240405454251 -0.0026481112970126322 0 0.072949427733761438 -0.0022039274182706235 0 0.072375200796620631 -0.0025433463034337475 0 0.073420657970827474 -0.0018546632978677158 0 0.073129648861939942 -0.0012517239526598498 0 0.074110407196087594 -0.0011322096414867983 0 0.072949427733761438 -0.0022039274182706235 0 0.073420657970827474 -0.0018546632978677158 0 0.072723288624102322 -0.0018354136242625025 0 0.073420657970827474 -0.0018546632978677158 0 0.072723288624102322 -0.0018354136242625025 0 0.073129648861939942 -0.0012517239526598498 0 0.073420657970827474 -0.0018546632978677158 0 0.074301404540395161 -0.001809929918546425 0 0.074110407196087594 -0.0011322096414867983 0 0.074045538358169655 -0.0025750822006050116 0 0.074580228371157173 -0.002239252786587596 0 0.074301404540395161 -0.001809929918546425 0 0.074580228371157173 -0.002239252786587596 0 0.074301404540395161 -0.001809929918546425 0 0.074986104819620744 -0.0018914349673566711 0 0.074045538358169655 -0.0025750822006050116 0 0.073420657970827474 -0.0018546632978677158 0 0.074301404540395161 -0.001809929918546425 0 0.074301404540395161 -0.001809929918546425 0 0.074986104819620744 -0.0018914349673566711 0 0.07464430236611834 -0.0013580686352449708 0 0.074580228371157173 -0.002239252786587596 0 0.074986104819620744 -0.0018914349673566711 0 0.074969087780655488 -0.0027265310324733026 0 0.074986104819620744 -0.0018914349673566711 0 0.075647356348323605 -0.0017054800397975952 0 0.075610193268505724 -0.0024038407111461072 0 0.074986104819620744 -0.0018914349673566711 0 0.075610193268505724 -0.0024038407111461072 0 0.074969087780655488 -0.0027265310324733026 0 0.074986104819620744 -0.0018914349673566711 0 0.075647356348323605 -0.0017054800397975952 0 0.075168702898914502 -0.0012268107351676991 0 0.075647356348323605 -0.0017054800397975952 0 0.076108677194663341 -0.0021362074396388308 0 0.076126749310899106 -0.0016078570815466651 0 0.075647356348323605 -0.0017054800397975952 0 0.076108677194663341 -0.0021362074396388308 0 0.075610193268505724 -0.0024038407111461072 0 0.076108677194663341 -0.0021362074396388308 0 0.075610193268505724 -0.0024038407111461072 0 0.076360535401332294 -0.0030132476533383922 0 0.075610193268505724 -0.0024038407111461072 0 0.076360535401332294 -0.0030132476533383922 0 0.07563985189154486 -0.0033355563103321137 0 0.075009291920826088 -0.0035141910642370977 0 0.07563985189154486 -0.0033355563103321137 0 0.074969087780655488 -0.0027265310324733026 0 0.075009291920826088 -0.0035141910642370977 0 0.07441979360487859 -0.0035936804132575923 0 0.074969087780655488 -0.0027265310324733026 0 0.075610193268505724 -0.0024038407111461072 0 0.07563985189154486 -0.0033355563103321137 0 0.074969087780655488 -0.0027265310324733026 0 0.057728834921670365 -0.0032148964977021409 0 0.059891574312817566 -0.0022029184562565914 0 0.0581561252442774 -0.0041849998264257881 0 0.059891574312817566 -0.0022029184562565914 0 0.0581561252442774 -0.0041849998264257881 0 0.060976308433919227 -0.0042987407384537553 0 0.0581561252442774 -0.0041849998264257881 0 0.05852314753761699 -0.0068123117017304131 0 0.060976308433919227 -0.0042987407384537553 0 0.057535768529306794 -0.00398607948506922 0 0.056931418287623596 -0.0038817543709469774 0 0.0581561252442774 -0.0041849998264257881 0 0.056822015366022743 -0.010087504151392312 0 0.0581561252442774 -0.0041849998264257881 0 0.05852314753761699 -0.0068123117017304131 0 0.056797920139179753 -0.0061990327640007508 0 0.057073958533619358 -0.0053926872320597943 0 0.05852314753761699 -0.0068123117017304131 0 0.060976308433919227 -0.0042987407384537553 0 0.061602176249965022 -0.0068123745772998723 0 0.065735741973890219 -0.0094281255549209641 0 0.061602176249965022 -0.0068123745772998723 0 0.064359132382749623 -0.0055638483149728999 0 0.060976308433919227 -0.0042987407384537553 0 0.061602176249965022 -0.0068123745772998723 0 0.064359132382749623 -0.0055638483149728999 0 0.059891574312817566 -0.0022029184562565914 0 0.063575594659468507 -0.0028173143801458523 0 0.061794596786764626 0.0010248013836387571 0 0.059891574312817566 -0.0022029184562565914 0 0.060976308433919227 -0.0042987407384537553 0 0.063575594659468507 -0.0028173143801458523 0 0.060976308433919227 -0.0042987407384537553 0 0.064359132382749623 -0.0055638483149728999 0 0.063575594659468507 -0.0028173143801458523 0 0.063575594659468507 -0.0028173143801458523 0 0.068595901174617696 -0.0045545855319071371 0 0.067799799462544205 -0.00084786066020569131 0 0.070161790021975354 -0.0027688176696818632 0 0.070270061078364254 -0.0019591518679383879 0 0.064359132382749623 -0.0055638483149728999 0 0.063575594659468507 -0.0028173143801458523 0 0.068595901174617696 -0.0045545855319071371 0 0.068595901174617696 -0.0045545855319071371 0 0.071173547012673061 -0.0032870805752177562 0 0.070107385740331443 -0.0030998164287541329 0 0.065735741973890219 -0.0094281255549209641 0 0.064359132382749623 -0.0055638483149728999 0 0.068595901174617696 -0.0045545855319071371 0 0.065735741973890219 -0.0094281255549209641 0 0.068595901174617696 -0.0045545855319071371 0 0.070644068709730792 -0.0059525387958883078 0 0.068595901174617696 -0.0045545855319071371 0 0.070644068709730792 -0.0059525387958883078 0 0.071481474211436843 -0.0043404061845932294 0 0.072941111821798507 -0.0048518502283281502 0 0.070644068709730792 -0.0059525387958883078 0 0.071481474211436843 -0.0043404061845932294 0 0.071555433336370503 -0.0079438087556246151 0 0.072941111821798507 -0.0048518502283281502 0 0.070644068709730792 -0.0059525387958883078 0 0.068595901174617696 -0.0045545855319071371 0 0.071481474211436843 -0.0043404061845932294 0 0.071173547012673061 -0.0032870805752177562 0 0.072488294662115954 -0.0033974422717507327 0 0.071481474211436843 -0.0043404061845932294 0 0.071173547012673061 -0.0032870805752177562 0 0.072488294662115954 -0.0033974422717507327 0 0.071173547012673061 -0.0032870805752177562 0 0.072375200796620631 -0.0025433463034337475 0 0.071173547012673061 -0.0032870805752177562 0 0.071446752389738563 -0.0024886567840569766 0 0.072375200796620631 -0.0025433463034337475 0 0.071173547012673061 -0.0032870805752177562 0 0.071446752389738563 -0.0024886567840569766 0 0.070107385740331443 -0.0030998164287541329 0 0.071446752389738563 -0.0024886567840569766 0 0.072017922240663543 -0.001662300531441503 0 0.070826555584429893 -0.0017821747586528058 0 0.071446752389738563 -0.0024886567840569766 0 0.07214804090287899 -0.0020346853550561477 0 0.072017922240663543 -0.001662300531441503 0 0.071446752389738563 -0.0024886567840569766 0 0.07214804090287899 -0.0020346853550561477 0 0.072375200796620631 -0.0025433463034337475 0 0.07214804090287899 -0.0020346853550561477 0 0.072375200796620631 -0.0025433463034337475 0 0.072723288624102322 -0.0018354136242625025 0 0.072583014064631093 -0.0014694888919407035 0 0.072017922240663543 -0.001662300531441503 0 0.072877433503672248 -0.00093914137369361815 0 0.07214804090287899 -0.0020346853550561477 0 0.072723288624102322 -0.0018354136242625025 0 0.072583014064631093 -0.0014694888919407035 0 0.072723288624102322 -0.0018354136242625025 0 0.072583014064631093 -0.0014694888919407035 0 0.073129648861939942 -0.0012517239526598498 0 0.07214804090287899 -0.0020346853550561477 0 0.072583014064631093 -0.0014694888919407035 0 0.072017922240663543 -0.001662300531441503 0 0.072017922240663543 -0.001662300531441503 0 0.071960954082451137 -0.001666937222096854 0 0.072877433503672248 -0.00093914137369361815 0 0.075191637907590397 -0.0009685564604765888 0 0.074984879905869911 -0.00082487743569039523 0 0.075157085554524411 -0.00059932818046856944 0 0.070631945287672956 -0.00062162372957817486 0 0.072723810281382015 -0.00090511173341264334 0 0.070721255184093876 -0.00063799088875325118 0 0.070631945287672956 -0.00062162372957817486 0 0.06749487223417279 0.002787922857081751 0 0.067799799462544205 -0.00084786066020569131 0 0.061794596786764626 0.0010248013836387571 0 0.071446752389738563 -0.0024886567840569766 0 0.070826555584429893 -0.0017821747586528058 0 0.070107385740331443 -0.0030998164287541329 0 0.070631945287672956 -0.00062162372957817486 0 0.070270061078364254 -0.0019591518679383879 0 0.070631945287672956 -0.00062162372957817486 0 0.068925222694245461 -0.00091255197077895597 0 0.063575594659468507 -0.0028173143801458523 0 0.067799799462544205 -0.00084786066020569131 0 0.061794596786764626 0.0010248013836387571 0 0.074873003812411021 -0.0010769263334856549 0 0.074984879905869911 -0.00082487743569039523 0 0.074770437073912621 -0.00075828185805067974 0 0.075191637907590397 -0.0009685564604765888 0 0.074873003812411021 -0.0010769263334856549 0 0.074984879905869911 -0.00082487743569039523 0 0.074544379993036897 -0.00090129066734493562 0 0.074873003812411021 -0.0010769263334856549 0 0.074770437073912621 -0.00075828185805067974 0 0.074544379993036897 -0.00090129066734493562 0 0.074623405837597606 -0.00065815535717667073 0 0.074770437073912621 -0.00075828185805067974 0 0.074508918705071536 -0.0012489642091198395 0 0.074544379993036897 -0.00090129066734493562 0 0.074873003812411021 -0.0010769263334856549 0 0.057849281949591123 -0.001744999268125129 0 0.059891574312817566 -0.0022029184562565914 0 0.061794596786764626 0.0010248013836387571 0 0.067302779884485076 -0.0016464321102666328 0 0.068925222694245461 -0.00091255197077895597 0 0.074630608379740976 -0.00040875988678274329 0 0.074776001739959477 -0.00039409508095510185 0 0.07470099183604112 -0.00045970165304760961 0 0.074776001739959477 -0.00039409508095510185 0 0.07470099183604112 -0.00045970165304760961 0 0.07475033706928616 -0.00053663542712884774 0 0.074776001739959477 -0.00039409508095510185 0 0.07475033706928616 -0.00053663542712884774 0 0.074909509995038412 -0.00042299402282784302 0 0.074630608379740976 -0.00040875988678274329 0 0.07470099183604112 -0.00045970165304760961 0 0.074625367779022622 -0.00053389197332738656 0 0.07470099183604112 -0.00045970165304760961 0 0.074625367779022622 -0.00053389197332738656 0 0.07475033706928616 -0.00053663542712884774 0 0.074625367779022622 -0.00053389197332738656 0 0.074623405837597606 -0.00065815535717667073 0 0.07475033706928616 -0.00053663542712884774 0 0.074623405837597606 -0.00065815535717667073 0 0.074770437073912621 -0.00075828185805067974 0 0.07475033706928616 -0.00053663542712884774 0 0.074770437073912621 -0.00075828185805067974 0 0.07475033706928616 -0.00053663542712884774 0 0.074914576003059133 -0.00062703317165583726 0 0.074984879905869911 -0.00082487743569039523 0 0.074914576003059133 -0.00062703317165583726 0 0.075157085554524411 -0.00059932818046856944 0 0.074914576003059133 -0.00062703317165583726 0 0.074909509995038412 -0.00042299402282784302 0 0.075157085554524411 -0.00059932818046856944 0 0.074984879905869911 -0.00082487743569039523 0 0.074770437073912621 -0.00075828185805067974 0 0.074914576003059133 -0.00062703317165583726 0 0.07475033706928616 -0.00053663542712884774 0 0.074914576003059133 -0.00062703317165583726 0 0.074909509995038412 -0.00042299402282784302 0 0.074909509995038412 -0.00042299402282784302 0 0.075157085554524411 -0.00059932818046856944 0 0.075094609381957722 -0.00025070726948784325 0 0.072877433503672248 -0.00093914137369361815 0 0.073971163184581426 -0.00038675549701523519 0 0.073939608618262237 -0.00025448533893625925 0 0.072723810281382015 -0.00090511173341264334 0 0.074015789392886722 -0.00054612645465245367 0 0.072583014064631093 -0.0014694888919407035 0 0.072877433503672248 -0.00093914137369361815 0 0.073129648861939942 -0.0012517239526598498 0 0.072877433503672248 -0.00093914137369361815 0 0.073129648861939942 -0.0012517239526598498 0 0.073841643942587853 -0.00071961534410242391 0 0.072877433503672248 -0.00093914137369361815 0 0.073971163184581426 -0.00038675549701523519 0 0.073841643942587853 -0.00071961534410242391 0 0.073971163184581426 -0.00038675549701523519 0 0.074476430548101213 -0.00011636340109416179 0 0.073939608618262237 -0.00025448533893625925 0 0.073971163184581426 -0.00038675549701523519 0 0.074476430548101213 -0.00011636340109416179 0 0.074567491049168877 -0.00017267498297446942 0 0.074476430548101213 -0.00011636340109416179 0 0.074998688058675489 -2.2664768381896885e-08 0 0.074999274408953029 -5.9588596374808772e-08 0 0.075000439268182686 -1.0447050330094453e-07 0 0.075094609381957722 -0.00025070726948784325 0 0.074999580110499439 9.1682532615667894e-08 0 0.074476430548101213 -0.00011636340109416179 0 0.074998688058675489 -2.2664768381896885e-08 0 0.073939608618262237 -0.00025448533893625925 0 0.074998156963408003 -7.899050838543679e-07 0 0.074015789392886722 -0.00054612645465245367 0 0.074909509995038412 -0.00042299402282784302 0 0.075094609381957722 -0.00025070726948784325 0 0.074833547858362714 -0.00018111135175135634 0 0.074776001739959477 -0.00039409508095510185 0 0.074909509995038412 -0.00042299402282784302 0 0.074833547858362714 -0.00018111135175135634 0 0.074999887424299555 -1.1008558592418089e-07 0 0.074897117386258011 -0.00011514261983077636 0 0.075000007367829163 -5.5935224152664986e-09 0 0.074999981135406471 1.0621789681887066e-08 0 0.074994729177939867 -1.3017843043979431e-06 0 0.075094609381957722 -0.00025070726948784325 0 0.074999580110499439 9.1682532615667894e-08 0 0.074833547858362714 -0.00018111135175135634 0 0.074966803550460551 -4.0794546702649237e-06 0 0.074999981135406471 1.0621789681887066e-08 0 0.074994729177939867 -1.3017843043979431e-06 0 0.074769663430198419 -0.0002615006601750873 0 0.074897117386258011 -0.00011514261983077636 0 0.074630608379740976 -0.00040875988678274329 0 0.074776001739959477 -0.00039409508095510185 0 0.074833547858362714 -0.00018111135175135634 0 0.074950844317274293 -1.0302612845403306e-05 0 0.074966803550460551 -4.0794546702649237e-06 0 0.074994729177939867 -1.3017843043979431e-06 0 0.074950844317274293 -1.0302612845403306e-05 0 0.074982429796207076 -4.0025354747972978e-05 0 0.074994729177939867 -1.3017843043979431e-06 0 0.075167450746276426 -0.00065069865001720782 0 0.074772173304088363 -0.00092943227987376696 0 0.074569112018431333 -0.00056299169796531943 0 0.075167450746276426 -0.00065069865001720782 0 0.074569112018431333 -0.00056299169796531943 0 0.074996296417632349 -0.00017903026638621037 0 0.075167450746276426 -0.00065069865001720782 0 0.075681110170170207 -0.0010851209907741901 0 0.075644142392434027 -0.0002931372823400725 0 0.075167450746276426 -0.00065069865001720782 0 0.075681110170170207 -0.0010851209907741901 0 0.075168702898914502 -0.0012268107351676991 0 0.075647356348323605 -0.0017054800397975952 0 0.075681110170170207 -0.0010851209907741901 0 0.076126749310899106 -0.0016078570815466651 0 0.075647356348323605 -0.0017054800397975952 0 0.075681110170170207 -0.0010851209907741901 0 0.075168702898914502 -0.0012268107351676991 0 0.075167450746276426 -0.00065069865001720782 0 0.075168702898914502 -0.0012268107351676991 0 0.074772173304088363 -0.00092943227987376696 0 0.075168702898914502 -0.0012268107351676991 0 0.074772173304088363 -0.00092943227987376696 0 0.07464430236611834 -0.0013580686352449708 0 0.074986104819620744 -0.0018914349673566711 0 0.075168702898914502 -0.0012268107351676991 0 0.07464430236611834 -0.0013580686352449708 0 0.074772173304088363 -0.00092943227987376696 0 0.074110407196087594 -0.0011322096414867983 0 0.074569112018431333 -0.00056299169796531943 0 0.074301404540395161 -0.001809929918546425 0 0.07464430236611834 -0.0013580686352449708 0 0.074110407196087594 -0.0011322096414867983 0 0.074772173304088363 -0.00092943227987376696 0 0.07464430236611834 -0.0013580686352449708 0 0.074110407196087594 -0.0011322096414867983 0 0.073129648861939942 -0.0012517239526598498 0 0.074110407196087594 -0.0011322096414867983 0 0.073841643942587853 -0.00071961534410242391 0 0.073971163184581426 -0.00038675549701523519 0 0.073841643942587853 -0.00071961534410242391 0 0.074567491049168877 -0.00017267498297446942 0 0.074110407196087594 -0.0011322096414867983 0 0.073841643942587853 -0.00071961534410242391 0 0.074569112018431333 -0.00056299169796531943 0 0.073841643942587853 -0.00071961534410242391 0 0.074569112018431333 -0.00056299169796531943 0 0.074567491049168877 -0.00017267498297446942 0 0.074569112018431333 -0.00056299169796531943 0 0.074567491049168877 -0.00017267498297446942 0 0.074996296417632349 -0.00017903026638621037 0 0.074476430548101213 -0.00011636340109416179 0 0.074567491049168877 -0.00017267498297446942 0 0.074999274408953029 -5.9588596374808772e-08 0 0.074567491049168877 -0.00017267498297446942 0 0.074999274408953029 -5.9588596374808772e-08 0 0.074999681321030867 -5.5458401335201925e-08 0 0.074567491049168877 -0.00017267498297446942 0 0.074999681321030867 -5.5458401335201925e-08 0 0.074996296417632349 -0.00017903026638621037 0 0.074999681321030867 -5.5458401335201925e-08 0 0.074996296417632349 -0.00017903026638621037 0 0.075001147931977818 1.6982941830263411e-07 0 0.075167450746276426 -0.00065069865001720782 0 0.074996296417632349 -0.00017903026638621037 0 0.075644142392434027 -0.0002931372823400725 0 0.074996296417632349 -0.00017903026638621037 0 0.075001147931977818 1.6982941830263411e-07 0 0.075644142392434027 -0.0002931372823400725 0 0.074999971344009514 1.049868626829096e-08 0 0.074997005262367689 -9.0542827951103e-06 0 0.074999991932145071 -1.5140750790872614e-08 0 0.074999971344009514 1.049868626829096e-08 0 0.074997005262367689 -9.0542827951103e-06 0 0.074986102798620641 -3.8090861185782011e-05 0 0.074999842771684533 -5.2435575076579085e-07 0 0.074910816217001658 -0.00046240997643805714 0 0.074997005262367689 -9.0542827951103e-06 0 0.074988184692841506 -8.6424543611468575e-06 0 0.074986756288284773 -1.0979461501946216e-05 0 0.074997005262367689 -9.0542827951103e-06 0 0.074999991932145071 -1.5140750790872614e-08 0 0.074988184692841506 -8.6424543611468575e-06 0 0.074999991932145071 -1.5140750790872614e-08 0 0.074988184692841506 -8.6424543611468575e-06 0 0.074993122849001254 -4.0304576807869474e-06 0 0.074988184692841506 -8.6424543611468575e-06 0 0.074982964902732818 -1.0183165331763011e-05 0 0.074993122849001254 -4.0304576807869474e-06 0 0.074988184692841506 -8.6424543611468575e-06 0 0.074982655685239874 -1.2374124141441437e-05 0 0.074986756288284773 -1.0979461501946216e-05 0 0.074988184692841506 -8.6424543611468575e-06 0 0.074982655685239874 -1.2374124141441437e-05 0 0.07497945582340422 -1.3436997521492143e-05 0 0.074982655685239874 -1.2374124141441437e-05 0 0.07497945582340422 -1.3436997521492143e-05 0 0.074975885497099187 -1.6413406380093774e-05 0 0.074988184692841506 -8.6424543611468575e-06 0 0.07497945582340422 -1.3436997521492143e-05 0 0.074982964902732818 -1.0183165331763011e-05 0 0.074724677298589712 -0.00018702397390543842 0 0.074681178566321588 -0.00033819282075017113 0 0.074997005262367689 -9.0542827951103e-06 0 0.074986102798620641 -3.8090861185782011e-05 0 0.074991352227839508 -4.8073143994073255e-05 0 0.074997005262367689 -9.0542827951103e-06 0 0.074986756288284773 -1.0979461501946216e-05 0 0.074979358777102045 -1.4126122522282533e-05 0 0.074982655685239874 -1.2374124141441437e-05 0 0.074986756288284773 -1.0979461501946216e-05 0 0.074979358777102045 -1.4126122522282533e-05 0 0.074982655685239874 -1.2374124141441437e-05 0 0.074979358777102045 -1.4126122522282533e-05 0 0.074975885497099187 -1.6413406380093774e-05 0 0.074979358777102045 -1.4126122522282533e-05 0 0.074975885497099187 -1.6413406380093774e-05 0 0.074972914925060669 -1.8734686458524071e-05 0 0.075681110170170207 -0.0010851209907741901 0 0.075644142392434027 -0.0002931372823400725 0 0.076355391569067566 -0.0011462850976155558 0 0.074910816217001658 -0.00046240997643805714 0 0.074558935612430488 -0.0010696430354858479 0 0.074681178566321588 -0.00033819282075017113 0 0.074558935612430488 -0.0010696430354858479 0 0.074986102798620641 -3.8090861185782011e-05 0 0.074991352227839508 -4.8073143994073255e-05 0 0.074984705928994547 -0.00010668906090132906 0 0.07497945582340422 -1.3436997521492143e-05 0 0.074963109489993851 -1.9090683956727963e-05 0 0.074982964902732818 -1.0183165331763011e-05 0 0.07497945582340422 -1.3436997521492143e-05 0 0.074975885497099187 -1.6413406380093774e-05 0 0.074963109489993851 -1.9090683956727963e-05 0 0.074975885497099187 -1.6413406380093774e-05 0 0.074972914925060669 -1.8734686458524071e-05 0 0.074963109489993851 -1.9090683956727963e-05 0 0.074886466974591892 -0.00065738034758013465 0 0.074200382987907362 -0.001771226273035197 0 0.074963109489993851 -1.9090683956727963e-05 0 0.074909071140721387 -4.8836532553673244e-05 0 0.074942622269768333 -4.0882975740230115e-05 0 0.074972914925060669 -1.8734686458524071e-05 0 0.074963109489993851 -1.9090683956727963e-05 0 0.074970203870129565 -1.7035103787849407e-05 0 0.074558935612430488 -0.0010696430354858479 0 0.074274197238167833 -0.0021439000573061479 0 0.075681110170170207 -0.0010851209907741901 0 0.076355391569067566 -0.0011462850976155558 0 0.076126749310899106 -0.0016078570815466651 0 0.076355391569067566 -0.0011462850976155558 0 0.076704599458650963 -0.0020127108783088328 0 0.076126749310899106 -0.0016078570815466651 0 0.074558935612430488 -0.0010696430354858479 0 0.074200382987907362 -0.001771226273035197 0 0.074969351851709068 -2.7131465344910651e-05 0 0.074971646802535485 -3.3078187130319016e-05 0 0.074961304216236424 -4.4421749636166713e-05 0 0.074969351851709068 -2.7131465344910651e-05 0 0.074956487892425872 -3.6283451243538647e-05 0 0.074961304216236424 -4.4421749636166713e-05 0 0.074956487892425872 -3.6283451243538647e-05 0 0.074963109489993851 -1.9090683956727963e-05 0 0.074942622269768333 -4.0882975740230115e-05 0 0.074969351851709068 -2.7131465344910651e-05 0 0.074956487892425872 -3.6283451243538647e-05 0 0.074963109489993851 -1.9090683956727963e-05 0 0.074963109489993851 -1.9090683956727963e-05 0 0.074981048208358825 -1.2970040544869011e-05 0 0.074982964902732818 -1.0183165331763011e-05 0 0.074969351851709068 -2.7131465344910651e-05 0 0.074963109489993851 -1.9090683956727963e-05 0 0.074981048208358825 -1.2970040544869011e-05 0 0.074970140530767171 -3.1963555005060619e-06 0 0.074962061174708786 9.4190256170996534e-07 0 0.074969351851709068 -2.7131465344910651e-05 0 0.074981048208358825 -1.2970040544869011e-05 0 0.074976095761497066 -2.3173448401743362e-05 0 0.074981048208358825 -1.2970040544869011e-05 0 0.074993813499861992 -3.5812319224008224e-06 0 0.074994776264394394 -5.112334929475139e-06 0 0.074981048208358825 -1.2970040544869011e-05 0 0.074993813499861992 -3.5812319224008224e-06 0 0.074982964902732818 -1.0183165331763011e-05 0 0.074993813499861992 -3.5812319224008224e-06 0 0.074982964902732818 -1.0183165331763011e-05 0 0.074993122849001254 -4.0304576807869474e-06 0 0.074993813499861992 -3.5812319224008224e-06 0 0.074999987573154694 2.2378160786605513e-09 0 0.074993122849001254 -4.0304576807869474e-06 0 0.074999991932145071 -1.5140750790872614e-08 0 0.074999987573154694 2.2378160786605513e-09 0 0.074993122849001254 -4.0304576807869474e-06 0 0.074993813499861992 -3.5812319224008224e-06 0 0.074999987573154694 2.2378160786605513e-09 0 0.074999989004600767 -1.0723802672915009e-08 0 0.074993813499861992 -3.5812319224008224e-06 0 0.074999989004600767 -1.0723802672915009e-08 0 0.074996121512644509 -3.2156095334403359e-06 0 0.074999992131373636 -1.8779350533736068e-09 0 0.074994820823924987 -1.2307003447425628e-07 0 0.074999989004600767 -1.0723802672915009e-08 0 0.074996121512644509 -3.2156095334403359e-06 0 0.074992595320495306 -6.3099911300342925e-06 0 0.074999998418067856 -9.9136087660911615e-10 0 0.075000004290823472 2.4423689080288977e-09 0 0.075000191098685401 5.46002248017634e-07 0 0.074996121512644509 -3.2156095334403359e-06 0 0.074992595320495306 -6.3099911300342925e-06 0 0.0749930757001602 -3.4736855770591711e-06 0 0.074996121512644509 -3.2156095334403359e-06 0 0.0749930757001602 -3.4736855770591711e-06 0 0.074994927642543854 -3.4629547054190527e-06 0 0.0749930757001602 -3.4736855770591711e-06 0 0.074991321744565742 -7.333650332084936e-07 0 0.074994927642543854 -3.4629547054190527e-06 0 0.074993813499861992 -3.5812319224008224e-06 0 0.074996121512644509 -3.2156095334403359e-06 0 0.074994927642543854 -3.4629547054190527e-06 0 0.074993813499861992 -3.5812319224008224e-06 0 0.074994927642543854 -3.4629547054190527e-06 0 0.074994776264394394 -5.112334929475139e-06 0 0.074999986705683766 -4.42164291540051e-09 0 0.074988344016965205 1.8644470134801153e-06 0 0.074999068598051513 2.9951663133678916e-06 0 0.075000004290823472 2.4423689080288977e-09 0 0.075000191098685401 5.46002248017634e-07 0 0.074999068598051513 2.9951663133678916e-06 0 0.074992595320495306 -6.3099911300342925e-06 0 0.0749930757001602 -3.4736855770591711e-06 0 0.07498192611355034 -4.7971039768667436e-06 0 0.075000004290823472 2.4423689080288977e-09 0 0.074999986705683766 -4.42164291540051e-09 0 0.074999068598051513 2.9951663133678916e-06 0 0.074994820823924987 -1.2307003447425628e-07 0 0.074989852808445168 3.6859244021072047e-07 0 0.0749930757001602 -3.4736855770591711e-06 0 0.074991321744565742 -7.333650332084936e-07 0 0.07498192611355034 -4.7971039768667436e-06 0 0.074991321744565742 -7.333650332084936e-07 0 0.07498192611355034 -4.7971039768667436e-06 0 0.074982421436611546 4.1731033113742553e-06 0 0.074989852808445168 3.6859244021072047e-07 0 0.074985155350899335 1.5413524605200415e-06 0 0.07498192611355034 -4.7971039768667436e-06 0 0.074973951160881971 3.2610074305266578e-06 0 0.074970436899234758 2.95206686159482e-06 0 0.074988344016965205 1.8644470134801153e-06 0 0.074999068598051513 2.9951663133678916e-06 0 0.074970436899234758 2.95206686159482e-06 0 0.07498192611355034 -4.7971039768667436e-06 0 0.074973951160881971 3.2610074305266578e-06 0 0.074982421436611546 4.1731033113742553e-06 0 0.074974877190747635 8.5613966283247863e-06 0 0.074982421436611546 4.1731033113742553e-06 0 0.074980285057629117 1.2250853108920434e-05 0 0.074974877190747635 8.5613966283247863e-06 0 0.074973951160881971 3.2610074305266578e-06 0 0.074982421436611546 4.1731033113742553e-06 0 0.074991321744565742 -7.333650332084936e-07 0 0.074982421436611546 4.1731033113742553e-06 0 0.074990130246316594 5.4715272743206355e-06 0 0.074990782811369436 -3.7120742183394844e-05 0 0.075000247940642292 -3.3610964707744819e-05 0 0.074986373331188294 -2.8724085627301936e-05 0 0.074696726694835208 0.00010841126373180419 0 0.074911101458367491 2.3296600082873897e-05 0 0.074982421436611546 4.1731033113742553e-06 0 0.074980285057629117 1.2250853108920434e-05 0 0.074990130246316594 5.4715272743206355e-06 0 0.074762412949995138 -7.8861392393423448e-05 0 0.074794414746003568 -0.00011693299911458123 0 0.074873237589957439 -9.4406849758390529e-05 0 0.074881617956387356 -2.7898641027222175e-05 0 0.074830667378889076 -7.4151148792123657e-05 0 0.074902825259575825 -5.9679660640141878e-05 0 0.074696726694835208 0.00010841126373180419 0 0.074763664856666967 6.9008722609459818e-05 0 0.074830667378889076 -7.4151148792123657e-05 0 0.074873237589957439 -9.4406849758390529e-05 0 0.074902825259575825 -5.9679660640141878e-05 0 0.074767071656832482 9.0379269206141438e-05 0 0.074696726694835208 0.00010841126373180419 0 0.074991321744565742 -7.333650332084936e-07 0 0.074994776264394394 -5.112334929475139e-06 0 0.074990130246316594 5.4715272743206355e-06 0 0.074962061174708786 9.4190256170996534e-07 0 0.074911101458367491 2.3296600082873897e-05 0 0.074991321744565742 -7.333650332084936e-07 0 0.074994927642543854 -3.4629547054190527e-06 0 0.074994776264394394 -5.112334929475139e-06 0 0.074990782811369436 -3.7120742183394844e-05 0 0.074986373331188294 -2.8724085627301936e-05 0 0.074982511304356458 -3.9949124418103166e-05 0 0.074986373331188294 -2.8724085627301936e-05 0 0.0749776699287691 -3.2427411872728489e-05 0 0.074982511304356458 -3.9949124418103166e-05 0 0.074976095761497066 -2.3173448401743362e-05 0 0.074986373331188294 -2.8724085627301936e-05 0 0.0749776699287691 -3.2427411872728489e-05 0 0.074976095761497066 -2.3173448401743362e-05 0 0.0749776699287691 -3.2427411872728489e-05 0 0.074971646802535485 -3.3078187130319016e-05 0 0.0749776699287691 -3.2427411872728489e-05 0 0.074971646802535485 -3.3078187130319016e-05 0 0.074971856416188101 -4.4710723874971775e-05 0 0.074969351851709068 -2.7131465344910651e-05 0 0.074976095761497066 -2.3173448401743362e-05 0 0.074971646802535485 -3.3078187130319016e-05 0 0.074971646802535485 -3.3078187130319016e-05 0 0.074971856416188101 -4.4710723874971775e-05 0 0.074961304216236424 -4.4421749636166713e-05 0 0.074971856416188101 -4.4710723874971775e-05 0 0.074962707344138652 -5.7131146123289093e-05 0 0.074969049140064012 -5.8549373339948581e-05 0 0.074971856416188101 -4.4710723874971775e-05 0 0.074962707344138652 -5.7131146123289093e-05 0 0.074961304216236424 -4.4421749636166713e-05 0 0.074971856416188101 -4.4710723874971775e-05 0 0.074976148216093455 -5.4481615190774735e-05 0 0.074969049140064012 -5.8549373339948581e-05 0 0.0749776699287691 -3.2427411872728489e-05 0 0.074971856416188101 -4.4710723874971775e-05 0 0.074982511304356458 -3.9949124418103166e-05 0 0.074982511304356458 -3.9949124418103166e-05 0 0.074976148216093455 -5.4481615190774735e-05 0 0.074989571573034666 -4.8545249939843023e-05 0 0.074990782811369436 -3.7120742183394844e-05 0 0.074982511304356458 -3.9949124418103166e-05 0 0.074989571573034666 -4.8545249939843023e-05 0 0.074971856416188101 -4.4710723874971775e-05 0 0.074982511304356458 -3.9949124418103166e-05 0 0.074976148216093455 -5.4481615190774735e-05 0 0.074889450817375414 -5.6240618204045271e-05 0 0.074757172834587229 -0.00015325944562166871 0 0.074787731457012105 -8.3078573699791984e-05 0 0.074976148216093455 -5.4481615190774735e-05 0 0.074973596935011474 -6.9814981153018443e-05 0 0.074989571573034666 -4.8545249939843023e-05 0 0.072679985922184845 0.00029513426159819239 0 0.074088104016289916 0.00030872191453224819 0 0.074976148216093455 -5.4481615190774735e-05 0 0.074973596935011474 -6.9814981153018443e-05 0 0.074969150503247359 -6.8819317945246756e-05 0 0.072679985922184845 0.00029513426159819239 0 0.072759869636536051 0.00026951742204804158 0 0.074973782358988328 -7.0947108742322544e-05 0 0.074969150503247359 -6.8819317945246756e-05 0 0.074962764806947552 -7.2904106032825104e-05 0 0.074969150503247359 -6.8819317945246756e-05 0 0.074963995219231194 -6.5270643137560125e-05 0 0.074969049140064012 -5.8549373339948581e-05 0 0.074969150503247359 -6.8819317945246756e-05 0 0.074963995219231194 -6.5270643137560125e-05 0 0.074962764806947552 -7.2904106032825104e-05 0 0.074963995219231194 -6.5270643137560125e-05 0 0.074962707344138652 -5.7131146123289093e-05 0 0.074956329030585911 -6.9596486803121457e-05 0 0.074963995219231194 -6.5270643137560125e-05 0 0.074962764806947552 -7.2904106032825104e-05 0 0.074956329030585911 -6.9596486803121457e-05 0 0.074963995219231194 -6.5270643137560125e-05 0 0.074962707344138652 -5.7131146123289093e-05 0 0.074969049140064012 -5.8549373339948581e-05 0 0.074976148216093455 -5.4481615190774735e-05 0 0.074969150503247359 -6.8819317945246756e-05 0 0.074969049140064012 -5.8549373339948581e-05 0 0.074762412949995138 -7.8861392393423448e-05 0 0.074794414746003568 -0.00011693299911458123 0 0.074757915137816641 -0.00013667709742126965 0 0.074801562621719955 -0.00015308605688829616 0 0.074794414746003568 -0.00011693299911458123 0 0.074873237589957439 -9.4406849758390529e-05 0 0.074801562621719955 -0.00015308605688829616 0 0.074794414746003568 -0.00011693299911458123 0 0.074757915137816641 -0.00013667709742126965 0 0.074696726694835208 0.00010841126373180419 0 0.074088104016289916 0.00030872191453224819 0 0.074990782811369436 -3.7120742183394844e-05 0 0.075000247940642292 -3.3610964707744819e-05 0 0.074989571573034666 -4.8545249939843023e-05 0 0.074762412949995138 -7.8861392393423448e-05 0 0.074757915137816641 -0.00013667709742126965 0 0.074757172834587229 -0.00015325944562166871 0 0.074757915137816641 -0.00013667709742126965 0 0.074757172834587229 -0.00015325944562166871 0 0.074698400435682002 -0.00011836164085694408 0 0.074757172834587229 -0.00015325944562166871 0 0.074787731457012105 -8.3078573699791984e-05 0 0.074698400435682002 -0.00011836164085694408 0 0.074787731457012105 -8.3078573699791984e-05 0 0.074698400435682002 -0.00011836164085694408 0 0.074794158036675024 1.7337051989237483e-05 0 0.074801562621719955 -0.00015308605688829616 0 0.074757915137816641 -0.00013667709742126965 0 0.074698400435682002 -0.00011836164085694408 0 0.074390028522969401 -0.00043671136800325536 0 0.074698400435682002 -0.00011836164085694408 0 0.074385789192537535 -6.2098512116375173e-05 0 0.074505116839252566 -0.0002067243795123884 0 0.074566973273256412 -0.00016483897591387618 0 0.074359952069629656 0.00016307176889186119 0 0.074586773937610623 0.00019943346007891686 0 0.074133816459268032 0.00038610416245281521 0 0.074698400435682002 -0.00011836164085694408 0 0.074385789192537535 -6.2098512116375173e-05 0 0.074582663525069176 0.00016881077742976624 0 0.074385789192537535 -6.2098512116375173e-05 0 0.074359952069629656 0.00016307176889186119 0 0.074582663525069176 0.00016881077742976624 0 0.071876724108854179 0.00095629800302918829 0 0.07140105775172477 0.00093318316211931469 0 0.071619684514391782 0.00072359214751537763 0 0.071395017232448982 0.00080522391002149835 0 0.071267509198249063 0.00065761536382810215 0 0.07140105775172477 0.00093318316211931469 0 0.069812864368162378 0.00078341974481936465 0 0.07140105775172477 0.00093318316211931469 0 0.07239511269307658 0.00050146144151960747 0 0.074698400435682002 -0.00011836164085694408 0 0.074582663525069176 0.00016881077742976624 0 0.074794158036675024 1.7337051989237483e-05 0 0.067512418077108546 0.0029679644625340397 0 0.066973265252943559 0.0029647352217717646 0 0.067248609801943734 0.00262403517635889 0 0.07140105775172477 0.00093318316211931469 0 0.071070275907256952 0.0013962801353811453 0 0.067512418077108546 0.0029679644625340397 0 0.067905528689874817 0.0027017300419922559 0 0.067739415273134068 0.0024781653672785561 0 0.067512418077108546 0.0029679644625340397 0 0.067739415273134068 0.0024781653672785561 0 0.067248609801943734 0.00262403517635889 0 0.074973782358988328 -7.0947108742322544e-05 0 0.074962764806947552 -7.2904106032825104e-05 0 0.074952638775433025 -8.4052654578832721e-05 0 0.07116947499690765 0.00088986224711274872 0 0.071267509198249063 0.00065761536382810215 0 0.070911273513971168 0.0005933049542586426 0 0.072679985922184845 0.00029513426159819239 0 0.069998142065170063 0.00028496321248907246 0 0.074973782358988328 -7.0947108742322544e-05 0 0.074947276349914965 -0.00010140547288971074 0 0.074952638775433025 -8.4052654578832721e-05 0 0.074962764806947552 -7.2904106032825104e-05 0 0.074952638775433025 -8.4052654578832721e-05 0 0.074956329030585911 -6.9596486803121457e-05 0 0.07116947499690765 0.00088986224711274872 0 0.071395017232448982 0.00080522391002149835 0 0.071267509198249063 0.00065761536382810215 0 0.072679985922184845 0.00029513426159819239 0 0.07239511269307658 0.00050146144151960747 0 0.074889450817375414 -5.6240618204045271e-05 0 0.074787731457012105 -8.3078573699791984e-05 0 0.074794158036675024 1.7337051989237483e-05 0 0.066973265252943559 0.0029647352217717646 0 0.066760353925555599 0.0025614940694919271 0 0.067248609801943734 0.00262403517635889 0 0.066973265252943559 0.0029647352217717646 0 0.066405293482959482 0.0029012348767390368 0 0.066760353925555599 0.0025614940694919271 0 0.069812864368162378 0.00078341974481936465 0 0.069998142065170063 0.00028496321248907246 0 0.068341098091904723 -6.8156395882069438e-05 0 0.067365993705101435 -0.00023819422752129166 0 0.067642842206006873 -0.00086905295395705239 0 0.069998142065170063 0.00028496321248907246 0 0.069974371508149114 -0.00077250415166624307 0 0.069998142065170063 0.00028496321248907246 0 0.067235750990133236 8.9976746567620015e-05 0 0.074947276349914965 -0.00010140547288971074 0 0.074929395856247194 -8.9913170056694724e-05 0 0.074923804703902877 -0.00010822226666094972 0 0.074952638775433025 -8.4052654578832721e-05 0 0.074944166222329647 -7.5644951841026932e-05 0 0.074929395856247194 -8.9913170056694724e-05 0 0.074947276349914965 -0.00010140547288971074 0 0.074952638775433025 -8.4052654578832721e-05 0 0.074929395856247194 -8.9913170056694724e-05 0 0.074952638775433025 -8.4052654578832721e-05 0 0.074944166222329647 -7.5644951841026932e-05 0 0.074956329030585911 -6.9596486803121457e-05 0 0.074929395856247194 -8.9913170056694724e-05 0 0.074904895720288148 -8.1346873329715867e-05 0 0.074933609645391433 -6.9964640831478238e-05 0 0.074944166222329647 -7.5644951841026932e-05 0 0.074929395856247194 -8.9913170056694724e-05 0 0.074933609645391433 -6.9964640831478238e-05 0 0.069974371508149114 -0.00077250415166624307 0 0.068452467040899037 -0.0021914558717761453 0 0.074929395856247194 -8.9913170056694724e-05 0 0.074923804703902877 -0.00010822226666094972 0 0.074896805385792381 -0.0001142990508157188 0 0.067365993705101435 -0.00023819422752129166 0 0.066842033623959102 -0.00048925130321982307 0 0.066401797523281597 -0.00041113828669010977 0 0.067203954046741052 -0.00063906459838724184 0 0.067365993705101435 -0.00023819422752129166 0 0.067642842206006873 -0.00086905295395705239 0 0.067203954046741052 -0.00063906459838724184 0 0.067365993705101435 -0.00023819422752129166 0 0.066842033623959102 -0.00048925130321982307 0 0.066842033623959102 -0.00048925130321982307 0 0.066401797523281597 -0.00041113828669010977 0 0.066426864513999456 -0.00052388405218951385 0 0.065228824531379223 -0.0039759210960491559 0 0.06646860074138751 -0.0038846920638230822 0 0.065058598988797331 -0.003209155727622778 0 0.066842033623959102 -0.00048925130321982307 0 0.066423542570114139 -0.00052033390764653182 0 0.066479940303660723 -0.00077640012428999811 0 0.076565497563265111 -0.0058490199598438776 0 0.076344781250139757 -0.0056388148393775699 0 0.076440051732039091 -0.0054047559338731262 0 0.068452467040899037 -0.0021914558717761453 0 0.071631125443674296 -0.0035647067363776277 0 0.067384959647892206 -0.0019000232554615129 0 0.067442626197934785 -0.0019295496323198081 0 0.067442626197934785 -0.0019295496323198081 0 0.065977938559095992 -0.0018027204381612801 0 0.076565497563265111 -0.0058490199598438776 0 0.076574535145592981 -0.0058976638270244177 0 0.076388933343228882 -0.0059129256673730929 0 0.068452467040899037 -0.0021914558717761453 0 0.067442626197934785 -0.0019295496323198081 0 0.076565497563265111 -0.0058490199598438776 0 0.076356923967252924 -0.0058754226865586736 0 0.076298669096738658 -0.0057699402048068072 0 0.076565497563265111 -0.0058490199598438776 0 0.076388933343228882 -0.0059129256673730929 0 0.076356923967252924 -0.0058754226865586736 0 0.067442626197934785 -0.0019295496323198081 0 0.065532623253110045 -0.0025061463995471583 0 0.065532623253110045 -0.0025061463995471583 0 0.065584043950230861 -0.0025503287562132896 0 0.076565497563265111 -0.0058490199598438776 0 0.076344781250139757 -0.0056388148393775699 0 0.076298669096738658 -0.0057699402048068072 0 0.075694694516354813 -0.0060756435764711255 0 0.076389846702224831 -0.0059093479307425201 0 0.076157028186249018 -0.0058308632283849259 0 0.064013353805451617 -0.0056671845122243025 0 0.065532623253110045 -0.0025061463995471583 0 0.075694694516354813 -0.0060756435764711255 0 0.076157028186249018 -0.0058308632283849259 0 0.07596418807290603 -0.0056680754855621979 0 0.076356923967252924 -0.0058754226865586736 0 0.076157028186249018 -0.0058308632283849259 0 0.076298669096738658 -0.0057699402048068072 0 0.076389846702224831 -0.0059093479307425201 0 0.076356923967252924 -0.0058754226865586736 0 0.076157028186249018 -0.0058308632283849259 0 0.076157028186249018 -0.0058308632283849259 0 0.076225367471621716 -0.0056819315959666487 0 0.076298669096738658 -0.0057699402048068072 0 0.076344781250139757 -0.0056388148393775699 0 0.076225367471621716 -0.0056819315959666487 0 0.076298669096738658 -0.0057699402048068072 0 0.076344781250139757 -0.0056388148393775699 0 0.076251736678607671 -0.0055922821528892564 0 0.076289205245900354 -0.0054986157012232272 0 0.076344781250139757 -0.0056388148393775699 0 0.076225367471621716 -0.0056819315959666487 0 0.076251736678607671 -0.0055922821528892564 0 0.076225367471621716 -0.0056819315959666487 0 0.076251736678607671 -0.0055922821528892564 0 0.076146644425572563 -0.0055496160442388368 0 0.076225367471621716 -0.0056819315959666487 0 0.07596418807290603 -0.0056680754855621979 0 0.076146644425572563 -0.0055496160442388368 0 0.076157028186249018 -0.0058308632283849259 0 0.076225367471621716 -0.0056819315959666487 0 0.07596418807290603 -0.0056680754855621979 0 0.076222693433296837 -0.0052104091272645687 0 0.076331806236440619 -0.00538212352894386 0 0.076291565857740051 -0.0049179598407648089 0 0.074021294509134361 -0.0043436212550644953 0 0.073717361827693659 -0.0038117571197089683 0 0.07596418807290603 -0.0056680754855621979 0 0.07594276572859926 -0.0053972977677506986 0 0.076146644425572563 -0.0055496160442388368 0 0.07594276572859926 -0.0053972977677506986 0 0.076174582383489384 -0.0053832993533909409 0 0.076146644425572563 -0.0055496160442388368 0 0.076174582383489384 -0.0053832993533909409 0 0.076146644425572563 -0.0055496160442388368 0 0.076289205245900354 -0.0054986157012232272 0 0.076251736678607671 -0.0055922821528892564 0 0.076146644425572563 -0.0055496160442388368 0 0.076289205245900354 -0.0054986157012232272 0 0.076174582383489384 -0.0053832993533909409 0 0.076289205245900354 -0.0054986157012232272 0 0.076331806236440619 -0.00538212352894386 0 0.076174582383489384 -0.0053832993533909409 0 0.076222693433296837 -0.0052104091272645687 0 0.076331806236440619 -0.00538212352894386 0 0.076222693433296837 -0.0052104091272645687 0 0.076088501781824566 -0.005225645738229776 0 0.076142109875873581 -0.0050164228178512828 0 0.076174582383489384 -0.0053832993533909409 0 0.076222693433296837 -0.0052104091272645687 0 0.076088501781824566 -0.005225645738229776 0 0.07594276572859926 -0.0053972977677506986 0 0.076174582383489384 -0.0053832993533909409 0 0.076088501781824566 -0.005225645738229776 0 0.075877927622829078 -0.004990361111486789 0 0.07594276572859926 -0.0053972977677506986 0 0.076088501781824566 -0.005225645738229776 0 0.071812365624851396 -0.0025641863396426495 0 0.071806061107628438 -0.0023711037672251843 0 0.071955768985925095 -0.0027473947636777875 0 0.071635627033660915 -0.001996952286300791 0 0.071812365624851396 -0.0025641863396426495 0 0.071806061107628438 -0.0023711037672251843 0 0.076331806236440619 -0.00538212352894386 0 0.076440051732039091 -0.0054047559338731262 0 0.076271216356536137 -0.0048656060991844434 0 0.068452467040899037 -0.0021914558717761453 0 0.071782144128205841 -0.0017428645077173029 0 0.071631125443674296 -0.0035647067363776277 0 0.073717361827693659 -0.0038117571197089683 0 0.074929395856247194 -8.9913170056694724e-05 0 0.074896805385792381 -0.0001142990508157188 0 0.074904895720288148 -8.1346873329715867e-05 0 0.076344781250139757 -0.0056388148393775699 0 0.076289205245900354 -0.0054986157012232272 0 0.076440051732039091 -0.0054047559338731262 0 0.076289205245900354 -0.0054986157012232272 0 0.076331806236440619 -0.00538212352894386 0 0.076440051732039091 -0.0054047559338731262 0 0.071812365624851396 -0.0025641863396426495 0 0.071955768985925095 -0.0027473947636777875 0 0.071973948136643415 -0.0031302961406984818 0 0.071782144128205841 -0.0017428645077173029 0 0.074200382987907362 -0.001771226273035197 0 0.074904895720288148 -8.1346873329715867e-05 0 0.074928141428196635 -5.9078007917710439e-05 0 0.074933609645391433 -6.9964640831478238e-05 0 0.074904895720288148 -8.1346873329715867e-05 0 0.074928141428196635 -5.9078007917710439e-05 0 0.074909071140721387 -4.8836532553673244e-05 0 0.075877927622829078 -0.004990361111486789 0 0.076229666392529483 -0.0047347648376320581 0 0.076240058643267078 -0.0044904702532936099 0 0.074863416625090662 -0.0033603785296700355 0 0.074274197238167833 -0.0021439000573061479 0 0.075877927622829078 -0.004990361111486789 0 0.076088501781824566 -0.005225645738229776 0 0.076142109875873581 -0.0050164228178512828 0 0.075877927622829078 -0.004990361111486789 0 0.076142109875873581 -0.0050164228178512828 0 0.076229666392529483 -0.0047347648376320581 0 0.076222693433296837 -0.0052104091272645687 0 0.076142109875873581 -0.0050164228178512828 0 0.076291565857740051 -0.0049179598407648089 0 0.076286352033648044 -0.0049137418046638279 0 0.076229666392529483 -0.0047347648376320581 0 0.076240058643267078 -0.0044904702532936099 0 0.076142109875873581 -0.0050164228178512828 0 0.076291565857740051 -0.0049179598407648089 0 0.076229666392529483 -0.0047347648376320581 0 0.073717361827693659 -0.0038117571197089683 0 0.074274197238167833 -0.0021439000573061479 0 0.073717361827693659 -0.0038117571197089683 0 0.073788994795737056 -0.0039123903858168758 0 0.076108677194663341 -0.0021362074396388308 0 0.076360535401332294 -0.0030132476533383922 0 0.076704599458650963 -0.0020127108783088328 0 0.074483238494964077 -0.0012758936864122456 0 0.074528083286632338 -0.0017238213097685578 0 0.07456826375846809 -0.0016705852093037766 0 0.071955768985925095 -0.0027473947636777875 0 0.072009784796545184 -0.0030799118989509942 0 0.071973948136643415 -0.0031302961406984818 0 0.074274197238167833 -0.0021439000573061479 0 0.074200382987907362 -0.001771226273035197 0 0.076108677194663341 -0.0021362074396388308 0 0.076704599458650963 -0.0020127108783088328 0 0.076126749310899106 -0.0016078570815466651 0 0.074928141428196635 -5.9078007917710439e-05 0 0.074909071140721387 -4.8836532553673244e-05 0 0.074942622269768333 -4.0882975740230115e-05 0 0.074928141428196635 -5.9078007917710439e-05 0 0.074942622269768333 -4.0882975740230115e-05 0 0.074946536697532595 -5.257302671621042e-05 0 0.074956487892425872 -3.6283451243538647e-05 0 0.074942622269768333 -4.0882975740230115e-05 0 0.074946536697532595 -5.257302671621042e-05 0 0.074956487892425872 -3.6283451243538647e-05 0 0.074946536697532595 -5.257302671621042e-05 0 0.074961304216236424 -4.4421749636166713e-05 0 0.074962707344138652 -5.7131146123289093e-05 0 0.074961304216236424 -4.4421749636166713e-05 0 0.074951072014249817 -6.1171777872436238e-05 0 0.074946536697532595 -5.257302671621042e-05 0 0.074961304216236424 -4.4421749636166713e-05 0 0.074951072014249817 -6.1171777872436238e-05 0 0.074962707344138652 -5.7131146123289093e-05 0 0.074951072014249817 -6.1171777872436238e-05 0 0.074956329030585911 -6.9596486803121457e-05 0 0.074944166222329647 -7.5644951841026932e-05 0 0.074951072014249817 -6.1171777872436238e-05 0 0.074956329030585911 -6.9596486803121457e-05 0 0.074944166222329647 -7.5644951841026932e-05 0 0.074951072014249817 -6.1171777872436238e-05 0 0.074933609645391433 -6.9964640831478238e-05 0 0.074928141428196635 -5.9078007917710439e-05 0 0.074946536697532595 -5.257302671621042e-05 0 0.074933609645391433 -6.9964640831478238e-05 0 0.074946536697532595 -5.257302671621042e-05 0 0.074951072014249817 -6.1171777872436238e-05 0 0.074933609645391433 -6.9964640831478238e-05 0 0.07499580374515237 -3.1491624563495159e-06 0 0.072685788075693453 -0.00051561264157731887 0 0.067286474373480357 -7.7028543304353175e-05 0 0.07499580374515237 -3.1491624563495159e-06 0 0.062636824401315044 2.8936042369037814e-06 0 0.067286474373480357 -7.7028543304353175e-05 0 0.072685788075693453 -0.00051561264157731887 0 0.070715935587810946 -0.00045208716816913026 0 0.067286474373480357 -7.7028543304353175e-05 0 0.067420489286899893 -0.0015999957375271755 0 0.06552495808556065 -0.0010959331075416521 0 0.07499580374515237 -3.1491624563495159e-06 0 0.072685788075693453 -0.00051561264157731887 0 0.074990229691486415 1.875636514683398e-06 0 0.072685788075693453 -0.00051561264157731887 0 0.072593743364812488 -0.00064386986342896638 0 0.071079198707621222 -0.0015428823741509598 0 0.072685788075693453 -0.00051561264157731887 0 0.074990229691486415 1.875636514683398e-06 0 0.072593743364812488 -0.00064386986342896638 0 0.074997457640078313 -1.003960901029223e-06 0 0.073485770775921874 -0.00090774693537950223 0 0.074990229691486415 1.875636514683398e-06 0 0.072593743364812488 -0.00064386986342896638 0 0.070662441785420305 -0.00068226938896516313 0 0.072593743364812488 -0.00064386986342896638 0 0.071079198707621222 -0.0015428823741509598 0 0.070662441785420305 -0.00068226938896516313 0 0.071079198707621222 -0.0015428823741509598 0 0.069398036969794144 -0.0020042312487342376 0 0.069829320171745562 -0.0018490214290263576 0 0.068126507861249325 -0.0017240923328649461 0 0.067420489286899893 -0.0015999957375271755 0 0.072685788075693453 -0.00051561264157731887 0 0.071079198707621222 -0.0015428823741509598 0 0.070715935587810946 -0.00045208716816913026 0 0.067259117148029707 -0.0024810122082677064 0 0.069398036969794144 -0.0020042312487342376 0 0.066730781247910889 -0.0012671987081804936 0 0.071079198707621222 -0.0015428823741509598 0 0.067259117148029707 -0.0024810122082677064 0 0.069398036969794144 -0.0020042312487342376 0 0.069398036969794144 -0.0020042312487342376 0 0.068924811187895188 -0.0022804167110647066 0 0.069829320171745562 -0.0018490214290263576 0 0.069398036969794144 -0.0020042312487342376 0 0.068924811187895188 -0.0022804167110647066 0 0.069047993239426717 -0.001109827040513809 0 0.068924811187895188 -0.0022804167110647066 0 0.068905262918422278 -0.001948455646431419 0 0.069829320171745562 -0.0018490214290263576 0 0.072909065420596678 -0.0011917353638689033 0 0.073356463386681087 -0.00089764386487088221 0 0.068924811187895188 -0.0022804167110647066 0 0.068905262918422278 -0.001948455646431419 0 0.069049765210329558 -0.0021873796417058683 0 0.074995526615802166 -5.3275131229255924e-05 0 0.074984875595006689 -3.2272604765880114e-05 0 0.075004419870645114 -1.1266375455167534e-05 0 0.074995526615802166 -5.3275131229255924e-05 0 0.074984875595006689 -3.2272604765880114e-05 0 0.07492958752059678 -7.1949364952609079e-05 0 0.071079198707621222 -0.0015428823741509598 0 0.069829320171745562 -0.0018490214290263576 0 0.070662441785420305 -0.00068226938896516313 0 0.068905262918422278 -0.001948455646431419 0 0.069829320171745562 -0.0018490214290263576 0 0.070662441785420305 -0.00068226938896516313 0 0.072909065420596678 -0.0011917353638689033 0 0.073485770775921874 -0.00090774693537950223 0 0.075000006540713662 -7.5124006728583717e-10 0 0.075004419870645114 -1.1266375455167534e-05 0 0.075000002993005119 -5.3530226431897184e-09 0 0.075000002993005119 -5.3530226431897184e-09 0 0.074993185926649913 -9.4980687449406223e-06 0 0.074999965891480322 -2.4775959228525396e-09 0 0.075004419870645114 -1.1266375455167534e-05 0 0.075000002993005119 -5.3530226431897184e-09 0 0.074993185926649913 -9.4980687449406223e-06 0 0.074984875595006689 -3.2272604765880114e-05 0 0.075004419870645114 -1.1266375455167534e-05 0 0.074993185926649913 -9.4980687449406223e-06 0 0.074984875595006689 -3.2272604765880114e-05 0 0.074993185926649913 -9.4980687449406223e-06 0 0.074980262383680177 -1.7700657304445444e-05 0 0.074981888623864845 7.6435899568139457e-06 0 0.074979482120402161 4.1292562715476016e-06 0 0.074965943115537517 -8.2907986170766049e-07 0 0.074981888623864845 7.6435899568139457e-06 0 0.074999964013945708 7.3564412341937033e-09 0 0.074988850286072606 2.9054909991255269e-06 0 0.074993185926649913 -9.4980687449406223e-06 0 0.074980262383680177 -1.7700657304445444e-05 0 0.074999965891480322 -2.4775959228525396e-09 0 0.074675068150850302 -6.830428379750465e-05 0 0.074999351281270651 -7.4508295515695555e-08 0 0.074999986705683766 -4.42164291540051e-09 0 0.074999964013945708 7.3564412341937033e-09 0 0.074988850286072606 2.9054909991255269e-06 0 0.074999986705683766 -4.42164291540051e-09 0 0.074988344016965205 1.8644470134801153e-06 0 0.074988850286072606 2.9054909991255269e-06 0 0.074988344016965205 1.8644470134801153e-06 0 0.074979482120402161 4.1292562715476016e-06 0 0.074970436899234758 2.95206686159482e-06 0 0.074988344016965205 1.8644470134801153e-06 0 0.074988850286072606 2.9054909991255269e-06 0 0.074979482120402161 4.1292562715476016e-06 0 0.074981888623864845 7.6435899568139457e-06 0 0.074988850286072606 2.9054909991255269e-06 0 0.074979482120402161 4.1292562715476016e-06 0 0.074979482120402161 4.1292562715476016e-06 0 0.074970436899234758 2.95206686159482e-06 0 0.074965943115537517 -8.2907986170766049e-07 0 0.074961587131458632 3.6441415276986018e-06 0 0.074970436899234758 2.95206686159482e-06 0 0.074965943115537517 -8.2907986170766049e-07 0 0.074973951160881971 3.2610074305266578e-06 0 0.074961587131458632 3.6441415276986018e-06 0 0.074970436899234758 2.95206686159482e-06 0 0.074974877190747635 8.5613966283247863e-06 0 0.074973951160881971 3.2610074305266578e-06 0 0.074961587131458632 3.6441415276986018e-06 0 0.074767071656832482 9.0379269206141438e-05 0 0.074790406594528305 8.5656705735193722e-05 0 0.074881617956387356 -2.7898641027222175e-05 0 0.074941511090916096 -3.0152821393575514e-05 0 0.074902825259575825 -5.9679660640141878e-05 0 0.074881617956387356 -2.7898641027222175e-05 0 0.074961587131458632 3.6441415276986018e-06 0 0.074941511090916096 -3.0152821393575514e-05 0 0.074961587131458632 3.6441415276986018e-06 0 0.074941511090916096 -3.0152821393575514e-05 0 0.074965943115537517 -8.2907986170766049e-07 0 0.074984875595006689 -3.2272604765880114e-05 0 0.074980262383680177 -1.7700657304445444e-05 0 0.074974269078182915 -4.1967269003999265e-05 0 0.074675068150850302 -6.830428379750465e-05 0 0.07420923596967334 -0.00024499980484724276 0 0.074981888623864845 7.6435899568139457e-06 0 0.074965943115537517 -8.2907986170766049e-07 0 0.074984880952124328 -3.6642334254783126e-05 0 0.074395813030042723 -0.00011533701015067306 0 0.07420923596967334 -0.00024499980484724276 0 0.074941511090916096 -3.0152821393575514e-05 0 0.074965943115537517 -8.2907986170766049e-07 0 0.074984880952124328 -3.6642334254783126e-05 0 0.074995526615802166 -5.3275131229255924e-05 0 0.07492958752059678 -7.1949364952609079e-05 0 0.074931219814732414 -0.0001527686792015391 0 0.07420923596967334 -0.00024499980484724276 0 0.073356463386681087 -0.00089764386487088221 0 0.073791406808231888 -0.0010142536052668886 0 0.074086236553551954 -0.00072817386427048584 0 0.073771962063900812 -0.00065274916055683757 0 0.07420923596967334 -0.00024499980484724276 0 0.074375180142001521 -0.00025650556068264503 0 0.074941511090916096 -3.0152821393575514e-05 0 0.074924280064609258 -9.3561932345509791e-05 0 0.074902825259575825 -5.9679660640141878e-05 0 0.074941511090916096 -3.0152821393575514e-05 0 0.074984880952124328 -3.6642334254783126e-05 0 0.074924280064609258 -9.3561932345509791e-05 0 0.074924280064609258 -9.3561932345509791e-05 0 0.074873237589957439 -9.4406849758390529e-05 0 0.074902825259575825 -5.9679660640141878e-05 0 0.074088427056339015 -0.00049692172853384186 0 0.073771962063900812 -0.00065274916055683757 0 0.074110055684834308 -0.00016948859899820008 0 0.074390028522969401 -0.00043671136800325536 0 0.074086236553551954 -0.00072817386427048584 0 0.074088427056339015 -0.00049692172853384186 0 0.074801562621719955 -0.00015308605688829616 0 0.074924280064609258 -9.3561932345509791e-05 0 0.074873237589957439 -9.4406849758390529e-05 0 0.074505116839252566 -0.0002067243795123884 0 0.074375180142001521 -0.00025650556068264503 0 0.074086236553551954 -0.00072817386427048584 0 0.074088427056339015 -0.00049692172853384186 0 0.073771962063900812 -0.00065274916055683757 0 0.073356463386681087 -0.00089764386487088221 0 0.0737367434863275 -0.00045307160250138666 0 0.073356463386681087 -0.00089764386487088221 0 0.071999256589204197 -8.7216952303997513e-05 0 0.073741085747942622 -0.00068923774076509921 0 0.073710144422456714 -5.9057728837497212e-05 0 0.074110055684834308 -0.00016948859899820008 0 0.074390028522969401 -0.00043671136800325536 0 0.074088427056339015 -0.00049692172853384186 0 0.074110055684834308 -0.00016948859899820008 0 0.074390028522969401 -0.00043671136800325536 0 0.074385789192537535 -6.2098512116375173e-05 0 0.074110055684834308 -0.00016948859899820008 0 0.074385789192537535 -6.2098512116375173e-05 0 0.074359952069629656 0.00016307176889186119 0 0.074088840794326496 0.00010801856814260894 0 0.073710144422456714 -5.9057728837497212e-05 0 0.074110055684834308 -0.00016948859899820008 0 0.074088840794326496 0.00010801856814260894 0 0.074385789192537535 -6.2098512116375173e-05 0 0.074110055684834308 -0.00016948859899820008 0 0.074088840794326496 0.00010801856814260894 0 0.074359952069629656 0.00016307176889186119 0 0.074088840794326496 0.00010801856814260894 0 0.074133816459268032 0.00038610416245281521 0 0.074088840794326496 0.00010801856814260894 0 0.074133816459268032 0.00038610416245281521 0 0.073671314753967182 0.00056622402824928013 0 0.071070275907256952 0.0013962801353811453 0 0.071068103357718446 0.0016865083313051088 0 0.067905528689874817 0.0027017300419922559 0 0.068180698228327855 0.0022657418450647291 0 0.06808931497949855 0.0023145118841423245 0 0.071068103357718446 0.0016865083313051088 0 0.070974267490105991 0.0017152485002241808 0 0.068215776687150009 0.0021169179865233255 0 0.06820052267109375 0.0021742321437788928 0 0.068262068822770694 0.001910769646084353 0 0.071068103357718446 0.0016865083313051088 0 0.071057846176059813 0.0016940292425785619 0 0.073710144422456714 -5.9057728837497212e-05 0 0.074088840794326496 0.00010801856814260894 0 0.073671314753967182 0.00056622402824928013 0 0.071999256589204197 -8.7216952303997513e-05 0 0.071068103357718446 0.0016865083313051088 0 0.069109587623048016 -0.00069797164668746511 0 0.067710050746250042 0.0010235589677055862 0 0.067322613304769824 -0.00060307504351191652 0 0.069109587623048016 -0.00069797164668746511 0 0.068692833514387361 0.0017062965018494237 0 0.067710050746250042 0.0010235589677055862 0 0.067710050746250042 0.0010235589677055862 0 0.066970029013772178 0.0021663079291480516 0 0.067675755550901287 0.0019872383325329999 0 0.067710050746250042 0.0010235589677055862 0 0.068262068822770694 0.001910769646084353 0 0.067675755550901287 0.0019872383325329999 0 0.068692833514387361 0.0017062965018494237 0 0.067710050746250042 0.0010235589677055862 0 0.068262068822770694 0.001910769646084353 0 0.067710050746250042 0.0010235589677055862 0 0.066258938428993316 0.00070658775890693865 0 0.066970029013772178 0.0021663079291480516 0 0.067710050746250042 0.0010235589677055862 0 0.067322613304769824 -0.00060307504351191652 0 0.066258938428993316 0.00070658775890693865 0 0.067322613304769824 -0.00060307504351191652 0 0.068315357680016453 -0.0017176184346953027 0 0.066414155613527037 -0.0021918153808343291 0 0.069049765210329558 -0.0021873796417058683 0 0.069109587623048016 -0.00069797164668746511 0 0.068315357680016453 -0.0017176184346953027 0 0.069109587623048016 -0.00069797164668746511 0 0.067322613304769824 -0.00060307504351191652 0 0.068315357680016453 -0.0017176184346953027 0 0.068924811187895188 -0.0022804167110647066 0 0.069049765210329558 -0.0021873796417058683 0 0.068315357680016453 -0.0017176184346953027 0 0.067425611661841078 -0.0019060204271286125 0 0.066720370944511373 -0.0015788522815068644 0 0.068924811187895188 -0.0022804167110647066 0 0.068315357680016453 -0.0017176184346953027 0 0.066414155613527037 -0.0021918153808343291 0 0.069398036969794144 -0.0020042312487342376 0 0.069047993239426717 -0.001109827040513809 0 0.066730781247910889 -0.0012671987081804936 0 0.069047993239426717 -0.001109827040513809 0 0.066730781247910889 -0.0012671987081804936 0 0.065189396745583203 0.00030027267973642034 0 0.066720370944511373 -0.0015788522815068644 0 0.064982293902638807 -0.00078986238083025146 0 0.066414155613527037 -0.0021918153808343291 0 0.063930892730397718 -0.001422652794803018 0 0.065673576429738589 -0.00063496067461827916 0 0.067322613304769824 -0.00060307504351191652 0 0.066414155613527037 -0.0021918153808343291 0 0.065673576429738589 -0.00063496067461827916 0 0.067322613304769824 -0.00060307504351191652 0 0.065673576429738589 -0.00063496067461827916 0 0.066258938428993316 0.00070658775890693865 0 0.065673576429738589 -0.00063496067461827916 0 0.066258938428993316 0.00070658775890693865 0 0.064188342594873715 0.00055455866985886144 0 0.066258938428993316 0.00070658775890693865 0 0.065192888433372273 0.0018886799327300832 0 0.066970029013772178 0.0021663079291480516 0 0.066258938428993316 0.00070658775890693865 0 0.064188342594873715 0.00055455866985886144 0 0.065192888433372273 0.0018886799327300832 0 0.064188342594873715 0.00055455866985886144 0 0.062347999851049773 0.0027934495048635185 0 0.065192888433372273 0.0018886799327300832 0 0.063930892730397718 -0.001422652794803018 0 0.065673576429738589 -0.00063496067461827916 0 0.064188342594873715 0.00055455866985886144 0 0.064982293902638807 -0.00078986238083025146 0 0.063779029000509621 -0.00025234293080818727 0 0.063930892730397718 -0.001422652794803018 0 0.064188342594873715 0.00055455866985886144 0 0.061102720839821226 -0.00019135343513157854 0 0.064188342594873715 0.00055455866985886144 0 0.061102720839821226 -0.00019135343513157854 0 0.062347999851049773 0.0027934495048635185 0 0.056413112362692315 6.8629831361421804e-06 0 0.061102720839821226 -0.00019135343513157854 0 0.062347999851049773 0.0027934495048635185 0 0.056413112362692315 6.8629831361421804e-06 0 0.059516997888200814 -1.4678751559727137e-06 0 0.061102720839821226 -0.00019135343513157854 0 0.059516997888200814 -1.4678751559727137e-06 0 0.061102720839821226 -0.00019135343513157854 0 0.062617443010387575 -2.5979409104799048e-06 0 0.065189396745583203 0.00030027267973642034 0 0.062617443010387575 -2.5979409104799048e-06 0 0.06436124012031802 -0.0013445083875021902 0 0.065189396745583203 0.00030027267973642034 0 0.061102720839821226 -0.00019135343513157854 0 0.062617443010387575 -2.5979409104799048e-06 0 0.066730781247910889 -0.0012671987081804936 0 0.065189396745583203 0.00030027267973642034 0 0.06436124012031802 -0.0013445083875021902 0 0.067259117148029707 -0.0024810122082677064 0 0.066730781247910889 -0.0012671987081804936 0 0.06436124012031802 -0.0013445083875021902 0 0.062628409902771062 -7.1781702178828639e-07 0 0.06552495808556065 -0.0010959331075416521 0 0.048322130239073766 -6.9675758898003029e-07 0 0.047603999189673785 -0.00024328888441268063 0 0.045549508156330812 -0.00058640306489105216 0 0.047603999189673785 -0.00024328888441268063 0 0.045210309330731717 -0.00070314416022194048 0 0.045549508156330812 -0.00058640306489105216 0 0.048322130239073766 -6.9675758898003029e-07 0 0.047603999189673785 -0.00024328888441268063 0 0.052364493384107348 -1.6238132333503937e-06 0 0.056397480775515617 6.7196465822474029e-06 0 0.052364493384107348 -1.6238132333503937e-06 0 0.049254800171926919 0.0017218046765585127 0 0.056404187497829272 1.6638876980115835e-06 0 0.05567605473902916 0.00088306618443349566 0 0.047603999189673785 -0.00024328888441268063 0 0.052364493384107348 -1.6238132333503937e-06 0 0.049254800171926919 0.0017218046765585127 0 0.047603999189673785 -0.00024328888441268063 0 0.049254800171926919 0.0017218046765585127 0 0.045390654992622841 0.0012300220654303123 0 0.05567605473902916 0.00088306618443349566 0 0.055523922892340392 0.0013546479752600466 0 0.062347999851049773 0.0027934495048635185 0 0.065192888433372273 0.0018886799327300832 0 0.06542701286997421 0.0033149410085073173 0 0.065192888433372273 0.0018886799327300832 0 0.06542701286997421 0.0033149410085073173 0 0.066970029013772178 0.0021663079291480516 0 0.045390654992622841 0.0012300220654303123 0 0.045050543403772972 -0.00012092747998187798 0 0.043687857938168026 0.00032506713121601148 0 0.047603999189673785 -0.00024328888441268063 0 0.045390654992622841 0.0012300220654303123 0 0.045050543403772972 -0.00012092747998187798 0 0.047603999189673785 -0.00024328888441268063 0 0.045050543403772972 -0.00012092747998187798 0 0.045210309330731717 -0.00070314416022194048 0 0.045050543403772972 -0.00012092747998187798 0 0.045210309330731717 -0.00070314416022194048 0 0.043995951053624444 -0.00061241883975682223 0 0.045210309330731717 -0.00070314416022194048 0 0.043995951053624444 -0.00061241883975682223 0 0.043916196195048718 -0.0009670023352820543 0 0.043995951053624444 -0.00061241883975682223 0 0.043367539008242348 -0.00058886383917217784 0 0.04340005103381242 -0.00094333307572316122 0 0.043367539008242348 -0.00058886383917217784 0 0.043687857938168026 0.00032506713121601148 0 0.043146712216375886 -0.00015703858842787947 0 0.055490414998881736 0.0013075914668968405 0 0.055382543926081891 0.00096701260008948988 0 0.045050543403772972 -0.00012092747998187798 0 0.043995951053624444 -0.00061241883975682223 0 0.043687857938168026 0.00032506713121601148 0 0.043995951053624444 -0.00061241883975682223 0 0.043367539008242348 -0.00058886383917217784 0 0.043687857938168026 0.00032506713121601148 0 0.06542701286997421 0.0033149410085073173 0 0.067428397933961742 0.0031250849324856293 0 0.066970029013772178 0.0021663079291480516 0 0.055523922892340392 0.0013546479752600466 0 0.055490414998881736 0.0013075914668968405 0 0.066970029013772178 0.0021663079291480516 0 0.067675755550901287 0.0019872383325329999 0 0.067926794265633181 0.0024081517598445942 0 0.068070464155918747 0.0021870699744444789 0 0.067675755550901287 0.0019872383325329999 0 0.067926794265633181 0.0024081517598445942 0 0.068262068822770694 0.001910769646084353 0 0.068070464155918747 0.0021870699744444789 0 0.067675755550901287 0.0019872383325329999 0 0.06820052267109375 0.0021742321437788928 0 0.068262068822770694 0.001910769646084353 0 0.068070464155918747 0.0021870699744444789 0 0.068070464155918747 0.0021870699744444789 0 0.067926794265633181 0.0024081517598445942 0 0.068075527718504822 0.0022577906932209632 0 0.067428397933961742 0.0031250849324856293 0 0.067926794265633181 0.0024081517598445942 0 0.068012175534790081 0.0024701236813448805 0 0.067428397933961742 0.0031250849324856293 0 0.066970029013772178 0.0021663079291480516 0 0.067926794265633181 0.0024081517598445942 0 0.067428397933961742 0.0031250849324856293 0 0.068012175534790081 0.0024701236813448805 0 0.068023614137036656 0.0024039120840982516 0 0.068012175534790081 0.0024701236813448805 0 0.067958246195429228 0.0023691271926486162 0 0.068023614137036656 0.0024039120840982516 0 0.068012175534790081 0.0024701236813448805 0 0.06808931497949855 0.0023145118841423245 0 0.067958246195429228 0.0023691271926486162 0 0.067926794265633181 0.0024081517598445942 0 0.06808931497949855 0.0023145118841423245 0 0.068075527718504822 0.0022577906932209632 0 0.067926794265633181 0.0024081517598445942 0 0.068012175534790081 0.0024701236813448805 0 0.06808931497949855 0.0023145118841423245 0 0.06820052267109375 0.0021742321437788928 0 0.06808931497949855 0.0023145118841423245 0 0.068075527718504822 0.0022577906932209632 0 0.068180698228327855 0.0022657418450647291 0 0.06820052267109375 0.0021742321437788928 0 0.06808931497949855 0.0023145118841423245 0 0.06820052267109375 0.0021742321437788928 0 0.068070464155918747 0.0021870699744444789 0 0.068075527718504822 0.0022577906932209632 0 0.067905528689874817 0.0027017300419922559 0 0.06808931497949855 0.0023145118841423245 0 0.067739415273134068 0.0024781653672785561 0 0.06808931497949855 0.0023145118841423245 0 0.067958246195429228 0.0023691271926486162 0 0.067739415273134068 0.0024781653672785561 0 0.067958246195429228 0.0023691271926486162 0 0.068023614137036656 0.0024039120840982516 0 0.067723286334489444 0.002206666426601831 0 0.067958246195429228 0.0023691271926486162 0 0.067739415273134068 0.0024781653672785561 0 0.067723286334489444 0.002206666426601831 0 0.055382543926081891 0.00096701260008948988 0 0.055061339319762155 0.00044479122757292431 0 0.068023614137036656 0.0024039120840982516 0 0.067723286334489444 0.002206666426601831 0 0.067687968679891505 0.0018378477323700044 0 0.043367539008242348 -0.00058886383917217784 0 0.043146712216375886 -0.00015703858842787947 0 0.043152886249572378 -0.00090503326065462231 0 0.043146712216375886 -0.00015703858842787947 0 0.043152886249572378 -0.00090503326065462231 0 0.042577447629045577 -0.00036226407771203657 0 0.043152886249572378 -0.00090503326065462231 0 0.042577447629045577 -0.00036226407771203657 0 0.04255102891940462 -0.00098101140682060124 0 0.043152886249572378 -0.00090503326065462231 0 0.042708327565099249 -0.001618058525596718 0 0.04255102891940462 -0.00098101140682060124 0 0.043367539008242348 -0.00058886383917217784 0 0.043152886249572378 -0.00090503326065462231 0 0.04340005103381242 -0.00094333307572316122 0 0.043152886249572378 -0.00090503326065462231 0 0.043287190875574331 -0.00088034102828249785 0 0.04340005103381242 -0.00094333307572316122 0 0.043287190875574331 -0.00088034102828249785 0 0.043349375523095826 -0.00072072410280271085 0 0.043290068431738257 -0.00085999938568237207 0 0.043287190875574331 -0.00088034102828249785 0 0.043513382283359041 -0.00085485581037767714 0 0.043431019954861212 -0.00075030856415163848 0 0.043152886249572378 -0.00090503326065462231 0 0.043287190875574331 -0.00088034102828249785 0 0.043513382283359041 -0.00085485581037767714 0 0.037486395009850244 0.0004537637606140432 0 0.035277854883851517 -0.0007050230859044443 0 0.043513382283359041 -0.00085485581037767714 0 0.043558072438213961 -0.00067774176358310477 0 0.043431019954861212 -0.00075030856415163848 0 0.043558072438213961 -0.00067774176358310477 0 0.043431019954861212 -0.00075030856415163848 0 0.043468486873148623 -0.00061029989656985939 0 0.043558072438213961 -0.00067774176358310477 0 0.043468486873148623 -0.00061029989656985939 0 0.043587167173066418 -0.00051452581513032657 0 0.043468486873148623 -0.00061029989656985939 0 0.043587167173066418 -0.00051452581513032657 0 0.043485620282696827 -0.00038370965800081896 0 0.043587167173066418 -0.00051452581513032657 0 0.043485620282696827 -0.00038370965800081896 0 0.043661301748006566 -0.00027123418615580076 0 0.043365899382698636 -0.0002468877781636855 0 0.043365841771130828 -0.00052685204784514654 0 0.043188362047583216 -0.00037108191811792245 0 0.043485620282696827 -0.00038370965800081896 0 0.043365899382698636 -0.0002468877781636855 0 0.043444692909646643 -0.00010884586671180887 0 0.043485620282696827 -0.00038370965800081896 0 0.043365899382698636 -0.0002468877781636855 0 0.043365841771130828 -0.00052685204784514654 0 0.043468486873148623 -0.00061029989656985939 0 0.043485620282696827 -0.00038370965800081896 0 0.043365841771130828 -0.00052685204784514654 0 0.043365841771130828 -0.00052685204784514654 0 0.043349375523095826 -0.00072072410280271085 0 0.043265331972684402 -0.00068997601038382761 0 0.043468486873148623 -0.00061029989656985939 0 0.043365841771130828 -0.00052685204784514654 0 0.043349375523095826 -0.00072072410280271085 0 0.043287190875574331 -0.00088034102828249785 0 0.043431019954861212 -0.00075030856415163848 0 0.043349375523095826 -0.00072072410280271085 0 0.043431019954861212 -0.00075030856415163848 0 0.043468486873148623 -0.00061029989656985939 0 0.043349375523095826 -0.00072072410280271085 0 0.043349375523095826 -0.00072072410280271085 0 0.043265331972684402 -0.00068997601038382761 0 0.043290068431738257 -0.00085999938568237207 0 0.043265331972684402 -0.00068997601038382761 0 0.043188362047583216 -0.00037108191811792245 0 0.04310443290904966 -0.00084948251934165132 0 0.043265331972684402 -0.00068997601038382761 0 0.04310443290904966 -0.00084948251934165132 0 0.043290068431738257 -0.00085999938568237207 0 0.043365841771130828 -0.00052685204784514654 0 0.043265331972684402 -0.00068997601038382761 0 0.043188362047583216 -0.00037108191811792245 0 0.043365899382698636 -0.0002468877781636855 0 0.043188362047583216 -0.00037108191811792245 0 0.043251533886708542 -9.395386342959609e-05 0 0.043188362047583216 -0.00037108191811792245 0 0.04270267959465493 -0.00038747930973122779 0 0.043003626516247812 -4.1201117595073123e-06 0 0.043188362047583216 -0.00037108191811792245 0 0.04270267959465493 -0.00038747930973122779 0 0.04310443290904966 -0.00084948251934165132 0 0.04270267959465493 -0.00038747930973122779 0 0.04310443290904966 -0.00084948251934165132 0 0.04236878975185341 -0.00084257519912971221 0 0.04310443290904966 -0.00084948251934165132 0 0.04340005103381242 -0.00094333307572316122 0 0.043175489005625581 -0.00098927988821163773 0 0.04340005103381242 -0.00094333307572316122 0 0.043916196195048718 -0.0009670023352820543 0 0.043175489005625581 -0.00098927988821163773 0 0.043287190875574331 -0.00088034102828249785 0 0.043290068431738257 -0.00085999938568237207 0 0.04340005103381242 -0.00094333307572316122 0 0.04310443290904966 -0.00084948251934165132 0 0.043290068431738257 -0.00085999938568237207 0 0.04340005103381242 -0.00094333307572316122 0 0.043995951053624444 -0.00061241883975682223 0 0.04340005103381242 -0.00094333307572316122 0 0.043916196195048718 -0.0009670023352820543 0 0.045210309330731717 -0.00070314416022194048 0 0.043916196195048718 -0.0009670023352820543 0 0.043138641420372582 -0.00097394362317196749 0 0.043916196195048718 -0.0009670023352820543 0 0.043138641420372582 -0.00097394362317196749 0 0.043175489005625581 -0.00098927988821163773 0 0.04310443290904966 -0.00084948251934165132 0 0.043175489005625581 -0.00098927988821163773 0 0.04236878975185341 -0.00084257519912971221 0 0.043138641420372582 -0.00097394362317196749 0 0.043175489005625581 -0.00098927988821163773 0 0.04236878975185341 -0.00084257519912971221 0 0.04270267959465493 -0.00038747930973122779 0 0.04236878975185341 -0.00084257519912971221 0 0.041496114736404861 1.2136190045249139e-05 0 0.04236878975185341 -0.00084257519912971221 0 0.040786272608853813 -0.00064087615752138739 0 0.041496114736404861 1.2136190045249139e-05 0 0.043138641420372582 -0.00097394362317196749 0 0.04236878975185341 -0.00084257519912971221 0 0.040786272608853813 -0.00064087615752138739 0 0.043138641420372582 -0.00097394362317196749 0 0.040786272608853813 -0.00064087615752138739 0 0.041309909924192957 -0.00064471420430833393 0 0.040786272608853813 -0.00064087615752138739 0 0.041309909924192957 -0.00064471420430833393 0 0.038637112507860873 -0.00029121251630891565 0 0.040786272608853813 -0.00064087615752138739 0 0.038637112507860873 -0.00029121251630891565 0 0.038151871297513858 9.7904691963492056e-05 0 0.038637112507860873 -0.00029121251630891565 0 0.040241082690562112 -1.0376252509522782e-06 0 0.036199298160065875 2.4474220404443456e-07 0 0.041309909924192957 -0.00064471420430833393 0 0.038637112507860873 -0.00029121251630891565 0 0.040241082690562112 -1.0376252509522782e-06 0 0.041309909924192957 -0.00064471420430833393 0 0.040241082690562112 -1.0376252509522782e-06 0 0.04428136912080307 -1.3460537329257356e-06 0 0.043138641420372582 -0.00097394362317196749 0 0.041309909924192957 -0.00064471420430833393 0 0.04428136912080307 -1.3460537329257356e-06 0 0.043138641420372582 -0.00097394362317196749 0 0.04428136912080307 -1.3460537329257356e-06 0 0.045549508156330812 -0.00058640306489105216 0 0.045210309330731717 -0.00070314416022194048 0 0.043138641420372582 -0.00097394362317196749 0 0.045549508156330812 -0.00058640306489105216 0 0.048322130239073766 -6.9675758898003029e-07 0 0.04428136912080307 -1.3460537329257356e-06 0 0.045549508156330812 -0.00058640306489105216 0 0.064700998916108143 0.0023302458876148799 0 0.065392883187784273 0.0023646626078099482 0 0.064537965196630506 0.0033089634435614196 0 0.064700998916108143 0.0023302458876148799 0 0.064602444579453841 0.0021193235688596354 0 0.064436806072304689 0.0029335466843792516 0 0.056255077780379768 -0.0025755565461249683 0 0.062022527874442929 -0.0020717435959295219 0 0.056255077780379768 -0.0025755565461249683 0 0.057738960159653518 -0.0019697622184898628 0 0.064700998916108143 0.0023302458876148799 0 0.064602444579453841 0.0021193235688596354 0 0.065047910645088775 0.0022490036946885609 0 0.064511700070618502 0.0020692583889380185 0 0.065047910645088775 0.0022490036946885609 0 0.065042564236160644 0.0017688210614308726 0 0.066197999695973217 0.0018541784293470654 0 0.066180578613455054 0.0021257680119957196 0 0.066457787059624129 0.0020701149102073219 0 0.065392883187784273 0.0023646626078099482 0 0.065047910645088775 0.0022490036946885609 0 0.065451391757253383 0.0018372203000555584 0 0.064700998916108143 0.0023302458876148799 0 0.065392883187784273 0.0023646626078099482 0 0.065047910645088775 0.0022490036946885609 0 0.065042564236160644 0.0017688210614308726 0 0.065451391757253383 0.0018372203000555584 0 0.065514152489720007 0.0014722581774947326 0 0.065451391757253383 0.0018372203000555584 0 0.065514152489720007 0.0014722581774947326 0 0.066450432987737423 0.0012674572961453676 0 0.065392883187784273 0.0023646626078099482 0 0.065451391757253383 0.0018372203000555584 0 0.066450432987737423 0.0012674572961453676 0 0.065047910645088775 0.0022490036946885609 0 0.065042564236160644 0.0017688210614308726 0 0.065451391757253383 0.0018372203000555584 0 0.065514152489720007 0.0014722581774947326 0 0.064687925684319206 0.0011990505000459195 0 0.065469703315966424 0.0010113865884245562 0 0.065042564236160644 0.0017688210614308726 0 0.065514152489720007 0.0014722581774947326 0 0.064687925684319206 0.0011990505000459195 0 0.045361536243473603 -0.0096605213472372529 0 0.045441710293236022 -0.009497268189175798 0 0.045295642871246343 -0.0094365292174838009 0 0.064511700070618502 0.0020692583889380185 0 0.065042564236160644 0.0017688210614308726 0 0.064687925684319206 0.0011990505000459195 0 0.056255077780379768 -0.0025755565461249683 0 0.052541225837617722 -0.0044032626709025729 0 0.056255077780379768 -0.0025755565461249683 0 0.052038362780049342 -0.0057716023330731071 0 0.045361536243473603 -0.0096605213472372529 0 0.045441710293236022 -0.009497268189175798 0 0.045594204583740507 -0.0095954433254163765 0 0.045441710293236022 -0.009497268189175798 0 0.045594204583740507 -0.0095954433254163765 0 0.045522522619271033 -0.0093756440721935105 0 0.045594204583740507 -0.0095954433254163765 0 0.045678624409636402 -0.0094308030679184293 0 0.045522522619271033 -0.0093756440721935105 0 0.052038362780049342 -0.0057716023330731071 0 0.050520602485072119 -0.0074608846724706765 0 0.045594204583740507 -0.0095954433254163765 0 0.045867125576838259 -0.0095540707372978474 0 0.045678624409636402 -0.0094308030679184293 0 0.055684593436089939 -0.0064122064198354738 0 0.052930688956752764 -0.0073970185321211041 0 0.055304221978352337 -0.0046748928888409079 0 0.050520602485072119 -0.0074608846724706765 0 0.054961878363152306 -0.0059893250817207129 0 0.05215751699275667 -0.0084174148881960148 0 0.051651651696350637 -0.0083861562593474069 0 0.051988603634014328 -0.0088906972602305675 0 0.05215751699275667 -0.0084174148881960148 0 0.052053348799087053 -0.0078533354657581468 0 0.051651651696350637 -0.0083861562593474069 0 0.058425904891798934 -0.0054276939889335782 0 0.055684593436089939 -0.0064122064198354738 0 0.055304221978352337 -0.0046748928888409079 0 0.054961878363152306 -0.0059893250817207129 0 0.062022527874442929 -0.0020717435959295219 0 0.058425904891798934 -0.0054276939889335782 0 0.055304221978352337 -0.0046748928888409079 0 0.05766843911143054 -0.0019633985209043443 0 0.051651651696350637 -0.0083861562593474069 0 0.051606421406261559 -0.0088703100390479378 0 0.051275290082099405 -0.0088740576043974031 0 0.051606421406261559 -0.0088703100390479378 0 0.051356763784542216 -0.009211428850253325 0 0.051275290082099405 -0.0088740576043974031 0 0.064566817400271884 -0.0017167863510703515 0 0.062022527874442929 -0.0020717435959295219 0 0.051651651696350637 -0.0083861562593474069 0 0.051606421406261559 -0.0088703100390479378 0 0.051988603634014328 -0.0088906972602305675 0 0.051606421406261559 -0.0088703100390479378 0 0.051988603634014328 -0.0088906972602305675 0 0.051684948069534824 -0.0092143579323069966 0 0.052357506034412492 -0.0095154663907627557 0 0.051638871467027697 -0.0095368428024802648 0 0.051995108193214359 -0.0092618756725792971 0 0.052303388311722432 -0.0091518411439473688 0 0.051988603634014328 -0.0088906972602305675 0 0.051995108193214359 -0.0092618756725792971 0 0.051988603634014328 -0.0088906972602305675 0 0.051995108193214359 -0.0092618756725792971 0 0.051684948069534824 -0.0092143579323069966 0 0.051638871467027697 -0.0095368428024802648 0 0.051995108193214359 -0.0092618756725792971 0 0.051684948069534824 -0.0092143579323069966 0 0.063602156285415129 -0.0025655337511443985 0 0.063313934354104123 -0.0022269857126302633 0 0.062964410290497069 0.00027875732257143238 0 0.065360975462280521 -0.0015484025609923196 0 0.065320935342118289 -0.0015019034051064165 0 0.065419685664119653 -0.0018001331860780481 0 0.064566817400271884 -0.0017167863510703515 0 0.064545594459371317 -0.0015220879249291186 0 0.051606421406261559 -0.0088703100390479378 0 0.051356763784542216 -0.009211428850253325 0 0.051684948069534824 -0.0092143579323069966 0 0.051638871467027697 -0.0095368428024802648 0 0.051356763784542216 -0.009211428850253325 0 0.051684948069534824 -0.0092143579323069966 0 0.064566817400271884 -0.0017167863510703515 0 0.065977938559095992 -0.0018027204381612801 0 0.06646860074138751 -0.0038846920638230822 0 0.064761523948050251 -0.0018698085224870447 0 0.065058598988797331 -0.003209155727622778 0 0.065532623253110045 -0.0025061463995471583 0 0.064566817400271884 -0.0017167863510703515 0 0.064545594459371317 -0.0015220879249291186 0 0.065977938559095992 -0.0018027204381612801 0 0.066842033623959102 -0.00048925130321982307 0 0.066479940303660723 -0.00077640012428999811 0 0.06696656970931425 -0.000960008791558746 0 0.065856472283792031 0.0022911749677850296 0 0.066216104261547643 0.0022873008791696198 0 0.066118357252961349 0.002593721887014927 0 0.066646566489396958 -0.0013047401349643426 0 0.066479940303660723 -0.00077640012428999811 0 0.06696656970931425 -0.000960008791558746 0 0.067203954046741052 -0.00063906459838724184 0 0.066842033623959102 -0.00048925130321982307 0 0.06696656970931425 -0.000960008791558746 0 0.067203954046741052 -0.00063906459838724184 0 0.06696656970931425 -0.000960008791558746 0 0.067642842206006873 -0.00086905295395705239 0 0.06696656970931425 -0.000960008791558746 0 0.066947917408106378 -0.0016618231562063536 0 0.067642842206006873 -0.00086905295395705239 0 0.064317872404213924 -0.00064689063245854236 0 0.067235750990133236 8.9976746567620015e-05 0 0.066646566489396958 -0.0013047401349643426 0 0.06696656970931425 -0.000960008791558746 0 0.066947917408106378 -0.0016618231562063536 0 0.064545594459371317 -0.0015220879249291186 0 0.064317872404213924 -0.00064689063245854236 0 0.064545594459371317 -0.0015220879249291186 0 0.063227352136091389 -0.0012114896999503428 0 0.063133512552609405 0.00025970882544062773 0 0.063227352136091389 -0.0012114896999503428 0 0.064700998916108143 0.0023302458876148799 0 0.064488528960562841 0.0029924183220284241 0 0.064436806072304689 0.0029335466843792516 0 0.063313934354104123 -0.0022269857126302633 0 0.062631188767305501 -0.00010632589940567743 0 0.062964410290497069 0.00027875732257143238 0 0.064880720079754706 0.00092059061587857567 0 0.064317872404213924 -0.00064689063245854236 0 0.06395210210856514 -0.0017694895758873373 0 0.063212187166979031 0.00054093290877018014 0 0.062595172621598319 -0.00017124570623933163 0 0.064700998916108143 0.0023302458876148799 0 0.064425500186315154 0.0031783324165885318 0 0.064537965196630506 0.0033089634435614196 0 0.063227352136091389 -0.0012114896999503428 0 0.064317872404213924 -0.00064689063245854236 0 0.063227352136091389 -0.0012114896999503428 0 0.062022527874442929 -0.0020717435959295219 0 0.066216104261547643 0.0022873008791696198 0 0.066442916741487473 0.0024462099519166635 0 0.066457787059624129 0.0020701149102073219 0 0.065856472283792031 0.0022911749677850296 0 0.066180578613455054 0.0021257680119957196 0 0.066216104261547643 0.0022873008791696198 0 0.066197999695973217 0.0018541784293470654 0 0.065856472283792031 0.0022911749677850296 0 0.066180578613455054 0.0021257680119957196 0 0.066180578613455054 0.0021257680119957196 0 0.066216104261547643 0.0022873008791696198 0 0.066457787059624129 0.0020701149102073219 0 0.066405293482959482 0.0029012348767390368 0 0.066118357252961349 0.002593721887014927 0 0.066442916741487473 0.0024462099519166635 0 0.066216104261547643 0.0022873008791696198 0 0.066118357252961349 0.002593721887014927 0 0.066442916741487473 0.0024462099519166635 0 0.066405293482959482 0.0029012348767390368 0 0.066442916741487473 0.0024462099519166635 0 0.066760353925555599 0.0025614940694919271 0 0.066442916741487473 0.0024462099519166635 0 0.066760353925555599 0.0025614940694919271 0 0.066690320892752772 0.0022814372880180177 0 0.066760353925555599 0.0025614940694919271 0 0.067054771338515534 0.0023100405912829039 0 0.066690320892752772 0.0022814372880180177 0 0.066760353925555599 0.0025614940694919271 0 0.067054771338515534 0.0023100405912829039 0 0.067248609801943734 0.00262403517635889 0 0.067054771338515534 0.0023100405912829039 0 0.067266487286133408 0.0019884288339143252 0 0.066813920917594777 0.001992152539523655 0 0.067054771338515534 0.0023100405912829039 0 0.066690320892752772 0.0022814372880180177 0 0.066813920917594777 0.001992152539523655 0 0.066457787059624129 0.0020701149102073219 0 0.066690320892752772 0.0022814372880180177 0 0.066813920917594777 0.001992152539523655 0 0.066442916741487473 0.0024462099519166635 0 0.066457787059624129 0.0020701149102073219 0 0.066690320892752772 0.0022814372880180177 0 0.067739415273134068 0.0024781653672785561 0 0.067248609801943734 0.00262403517635889 0 0.067436542952665351 0.0023418035170777287 0 0.067054771338515534 0.0023100405912829039 0 0.067248609801943734 0.00262403517635889 0 0.067436542952665351 0.0023418035170777287 0 0.067054771338515534 0.0023100405912829039 0 0.067436542952665351 0.0023418035170777287 0 0.067266487286133408 0.0019884288339143252 0 0.067436542952665351 0.0023418035170777287 0 0.067723286334489444 0.002206666426601831 0 0.067266487286133408 0.0019884288339143252 0 0.067739415273134068 0.0024781653672785561 0 0.067436542952665351 0.0023418035170777287 0 0.067723286334489444 0.002206666426601831 0 0.067723286334489444 0.002206666426601831 0 0.067266487286133408 0.0019884288339143252 0 0.067687968679891505 0.0018378477323700044 0 0.041719355518662203 -0.00075516451118827369 0 0.042577447629045577 -0.00036226407771203657 0 0.042108990762799919 -0.00088508916576535319 0 0.054531480821007706 -0.00034776490871704484 0 0.055061339319762155 0.00044479122757292431 0 0.067266487286133408 0.0019884288339143252 0 0.067158441095910529 0.0014228789788593144 0 0.067687968679891505 0.0018378477323700044 0 0.042577447629045577 -0.00036226407771203657 0 0.04255102891940462 -0.00098101140682060124 0 0.042108990762799919 -0.00088508916576535319 0 0.066457787059624129 0.0020701149102073219 0 0.066541438381747794 0.00176523808461808 0 0.066813920917594777 0.001992152539523655 0 0.066197999695973217 0.0018541784293470654 0 0.066457787059624129 0.0020701149102073219 0 0.066541438381747794 0.00176523808461808 0 0.067266487286133408 0.0019884288339143252 0 0.066813920917594777 0.001992152539523655 0 0.066852284952913579 0.0016837216917741061 0 0.066541438381747794 0.00176523808461808 0 0.066813920917594777 0.001992152539523655 0 0.066852284952913579 0.0016837216917741061 0 0.067158441095910529 0.0014228789788593144 0 0.066852284952913579 0.0016837216917741061 0 0.066450432987737423 0.0012674572961453676 0 0.067266487286133408 0.0019884288339143252 0 0.067158441095910529 0.0014228789788593144 0 0.066852284952913579 0.0016837216917741061 0 0.066541438381747794 0.00176523808461808 0 0.066852284952913579 0.0016837216917741061 0 0.066450432987737423 0.0012674572961453676 0 0.064880720079754706 0.00092059061587857567 0 0.065378905413768063 0.00092547694863916391 0 0.065514152489720007 0.0014722581774947326 0 0.066450432987737423 0.0012674572961453676 0 0.065945901210062871 0.0011659883651957501 0 0.066197999695973217 0.0018541784293470654 0 0.066541438381747794 0.00176523808461808 0 0.066450432987737423 0.0012674572961453676 0 0.066450432987737423 0.0012674572961453676 0 0.06633467583408427 0.00091148678824410777 0 0.065945901210062871 0.0011659883651957501 0 0.06633467583408427 0.00091148678824410777 0 0.065945901210062871 0.0011659883651957501 0 0.065469703315966424 0.0010113865884245562 0 0.041719355518662203 -0.00075516451118827369 0 0.041694857089016053 -0.00095567798265303386 0 0.041687966320071351 -0.00093267904502497307 0 0.041694857089016053 -0.00095567798265303386 0 0.041697894872233174 -0.00092668672228790269 0 0.041687966320071351 -0.00093267904502497307 0 0.067158441095910529 0.0014228789788593144 0 0.066450432987737423 0.0012674572961453676 0 0.06633467583408427 0.00091148678824410777 0 0.041917041331145329 -0.0041006971642074605 0 0.041657982967967862 -0.0034026431810042852 0 0.054531480821007706 -0.00034776490871704484 0 0.053430233441869757 -0.0018452885128940168 0 0.038403004033911663 -0.0014390679591992424 0 0.040047099569140487 -0.0019275845572876639 0 0.041687966320071351 -0.00093267904502497307 0 0.040047099569140487 -0.0019275845572876639 0 0.041074854528062636 -0.0017552450383902288 0 0.041687966320071351 -0.00093267904502497307 0 0.040047099569140487 -0.0019275845572876639 0 0.041074854528062636 -0.0017552450383902288 0 0.041171945557776528 -0.0026733727107489764 0 0.041074854528062636 -0.0017552450383902288 0 0.041171945557776528 -0.0026733727107489764 0 0.041645205202418295 -0.0013818985002353513 0 0.040047099569140487 -0.0019275845572876639 0 0.041171945557776528 -0.0026733727107489764 0 0.040394246158140371 -0.0037932823060989511 0 0.040047099569140487 -0.0019275845572876639 0 0.038897268053673772 -0.0027897675321605048 0 0.040394246158140371 -0.0037932823060989511 0 0.038897268053673772 -0.0027897675321605048 0 0.037811194781018215 -0.0024367884382259213 0 0.037186303493004232 -0.0036202412412176888 0 0.038403004033911663 -0.0014390679591992424 0 0.037811194781018215 -0.0024367884382259213 0 0.038789543527928676 -0.0021479744688274456 0 0.040047099569140487 -0.0019275845572876639 0 0.038897268053673772 -0.0027897675321605048 0 0.038789543527928676 -0.0021479744688274456 0 0.038403004033911663 -0.0014390679591992424 0 0.040047099569140487 -0.0019275845572876639 0 0.038789543527928676 -0.0021479744688274456 0 0.038897268053673772 -0.0027897675321605048 0 0.037811194781018215 -0.0024367884382259213 0 0.038789543527928676 -0.0021479744688274456 0 0.04255102891940462 -0.00098101140682060124 0 0.04217482269095927 -0.0011761738621793856 0 0.042108990762799919 -0.00088508916576535319 0 0.04255102891940462 -0.00098101140682060124 0 0.04217482269095927 -0.0011761738621793856 0 0.042393185388011172 -0.0013714306222738417 0 0.041956432940103053 -0.0011508855989302051 0 0.042108990762799919 -0.00088508916576535319 0 0.041687966320071351 -0.00093267904502497307 0 0.041956432940103053 -0.0011508855989302051 0 0.041645205202418295 -0.0013818985002353513 0 0.042017500704053842 -0.0014599834844992983 0 0.04217482269095927 -0.0011761738621793856 0 0.041956432940103053 -0.0011508855989302051 0 0.042108990762799919 -0.00088508916576535319 0 0.04217482269095927 -0.0011761738621793856 0 0.041956432940103053 -0.0011508855989302051 0 0.042017500704053842 -0.0014599834844992983 0 0.041719355518662203 -0.00075516451118827369 0 0.042108990762799919 -0.00088508916576535319 0 0.041687966320071351 -0.00093267904502497307 0 0.041956432940103053 -0.0011508855989302051 0 0.041687966320071351 -0.00093267904502497307 0 0.041645205202418295 -0.0013818985002353513 0 0.041074854528062636 -0.0017552450383902288 0 0.041687966320071351 -0.00093267904502497307 0 0.041645205202418295 -0.0013818985002353513 0 0.041645205202418295 -0.0013818985002353513 0 0.042017500704053842 -0.0014599834844992983 0 0.042014016009141841 -0.0018429661699054655 0 0.041171945557776528 -0.0026733727107489764 0 0.041645205202418295 -0.0013818985002353513 0 0.042960267752603462 -0.0035839318443382515 0 0.041171945557776528 -0.0026733727107489764 0 0.042960267752603462 -0.0035839318443382515 0 0.040394246158140371 -0.0037932823060989511 0 0.029449490068286534 -0.0064654335346607788 0 0.026546516614370338 -0.0058756508231368994 0 0.042017500704053842 -0.0014599834844992983 0 0.042141312476246057 -0.0016698797534089272 0 0.042014016009141841 -0.0018429661699054655 0 0.027245978798311209 -0.0052533360690609002 0 0.026546516614370338 -0.0058756508231368994 0 0.042708327565099249 -0.001618058525596718 0 0.04255102891940462 -0.00098101140682060124 0 0.042393185388011172 -0.0013714306222738417 0 0.042708327565099249 -0.001618058525596718 0 0.042141312476246057 -0.0016698797534089272 0 0.042205186950653187 -0.0022875683300271335 0 0.042179715888231391 -0.0014341207371806779 0 0.042141312476246057 -0.0016698797534089272 0 0.042393185388011172 -0.0013714306222738417 0 0.04217482269095927 -0.0011761738621793856 0 0.042179715888231391 -0.0014341207371806779 0 0.042393185388011172 -0.0013714306222738417 0 0.04217482269095927 -0.0011761738621793856 0 0.042017500704053842 -0.0014599834844992983 0 0.042179715888231391 -0.0014341207371806779 0 0.042017500704053842 -0.0014599834844992983 0 0.042179715888231391 -0.0014341207371806779 0 0.042141312476246057 -0.0016698797534089272 0 0.042708327565099249 -0.001618058525596718 0 0.042141312476246057 -0.0016698797534089272 0 0.042393185388011172 -0.0013714306222738417 0 0.035277854883851517 -0.0007050230859044443 0 0.02583125503877956 -0.0072163502374840774 0 0.043513382283359041 -0.00085485581037767714 0 0.043558072438213961 -0.00067774176358310477 0 0.043777191145341267 -0.00062522416803734496 0 0.042141312476246057 -0.0016698797534089272 0 0.042205186950653187 -0.0022875683300271335 0 0.041969520319246209 -0.0018798003367744402 0 0.043558072438213961 -0.00067774176358310477 0 0.043587167173066418 -0.00051452581513032657 0 0.043777191145341267 -0.00062522416803734496 0 0.02583125503877956 -0.0072163502374840774 0 0.026546516614370338 -0.0058756508231368994 0 0.026546516614370338 -0.0058756508231368994 0 0.025338024586404891 -0.0092911562683018444 0 0.010355687853778427 -0.01449903805371079 0 0.010280395624811943 -0.014333806066497751 0 0.010058857446092192 -0.01466213134284282 0 0.042960267752603462 -0.0035839318443382515 0 0.040394246158140371 -0.0037932823060989511 0 0.041008702266052174 -0.0061941477348370008 0 0.02583125503877956 -0.0072163502374840774 0 0.015601799863534929 -0.015301667423438232 0 0.010355687853778427 -0.01449903805371079 0 0.010072475403768724 -0.014729897522255266 0 0.010058857446092192 -0.01466213134284282 0 0.0068494365103389642 -0.018739902176737027 0 0.008322517722583871 -0.016741854849042684 0 0.0069077828714548739 -0.01613021153272793 0 0.043587167173066418 -0.00051452581513032657 0 0.043777191145341267 -0.00062522416803734496 0 0.043661301748006566 -0.00027123418615580076 0 0.0068494365103389642 -0.018739902176737027 0 0.0069077828714548739 -0.01613021153272793 0 0.0054786484815592404 -0.01657809789949009 0 0.02583125503877956 -0.0072163502374840774 0 0.025215811044512284 -0.007575651897322639 0 0.038897268053673772 -0.0027897675321605048 0 0.038395715944264927 -0.0055325615565141638 0 0.040394246158140371 -0.0037932823060989511 0 0.038897268053673772 -0.0027897675321605048 0 0.038395715944264927 -0.0055325615565141638 0 0.037186303493004232 -0.0036202412412176888 0 0.038395715944264927 -0.0055325615565141638 0 0.040394246158140371 -0.0037932823060989511 0 0.041008702266052174 -0.0061941477348370008 0 0.025338024586404891 -0.0092911562683018444 0 0.025140840238085421 -0.010546121832839732 0 0.038395715944264927 -0.0055325615565141638 0 0.041008702266052174 -0.0061941477348370008 0 0.039053957629302562 -0.0087985497858452024 0 0.010072475403768724 -0.014729897522255266 0 0.010058857446092192 -0.01466213134284282 0 0.010189578619297155 -0.014762426855234849 0 0.038395715944264927 -0.0055325615565141638 0 0.036444874214624189 -0.0083083866298171438 0 0.039053957629302562 -0.0087985497858452024 0 0.040759210373613047 -0.0068915399559837231 0 0.035281612811300947 -0.0084570046085898458 0 0.044425547796426088 -0.0079911504176671724 0 0.044051927612574045 -0.0085035061228830259 0 0.043834538781314755 -0.0077047051618517326 0 0.038395715944264927 -0.0055325615565141638 0 0.035792736933096231 -0.0052188052484185522 0 0.036444874214624189 -0.0083083866298171438 0 0.044425547796426088 -0.0079911504176671724 0 0.04464634187023056 -0.0083847345848868469 0 0.044051927612574045 -0.0085035061228830259 0 0.044425547796426088 -0.0079911504176671724 0 0.04464634187023056 -0.0083847345848868469 0 0.044847956137196963 -0.0079131732270729845 0 0.04464634187023056 -0.0083847345848868469 0 0.044566930375368213 -0.0088274018248526154 0 0.044051927612574045 -0.0085035061228830259 0 0.044566930375368213 -0.0088274018248526154 0 0.044051927612574045 -0.0085035061228830259 0 0.044250246667070781 -0.0093302798218757484 0 0.04464634187023056 -0.0083847345848868469 0 0.044566930375368213 -0.0088274018248526154 0 0.044953293109142506 -0.00866122767525156 0 0.038395715944264927 -0.0055325615565141638 0 0.035792736933096231 -0.0052188052484185522 0 0.037186303493004232 -0.0036202412412176888 0 0.035792736933096231 -0.0052188052484185522 0 0.037186303493004232 -0.0036202412412176888 0 0.035125830319324335 -0.002126425272237391 0 0.040759210373613047 -0.0068915399559837231 0 0.046796674272354094 -0.0058331228715782614 0 0.041917041331145329 -0.0041006971642074605 0 0.046796674272354094 -0.0058331228715782614 0 0.037811194781018215 -0.0024367884382259213 0 0.037186303493004232 -0.0036202412412176888 0 0.035125830319324335 -0.002126425272237391 0 0.038403004033911663 -0.0014390679591992424 0 0.037811194781018215 -0.0024367884382259213 0 0.035125830319324335 -0.002126425272237391 0 0.041697894872233174 -0.00092668672228790269 0 0.041954611740692066 -0.00093327930375112253 0 0.041959377481447721 -0.00095672019769288798 0 0.044566930375368213 -0.0088274018248526154 0 0.044665655033694844 -0.0092503756728321649 0 0.044250246667070781 -0.0093302798218757484 0 0.044566930375368213 -0.0088274018248526154 0 0.044665655033694844 -0.0092503756728321649 0 0.044953702742978038 -0.0091925677453192477 0 0.046655152540226466 -0.0065711574145488503 0 0.048167991400618816 -0.0060703418496012981 0 0.045388878098371097 -0.0091343577898580046 0 0.04523867731229398 -0.0092013668410072299 0 0.045392953547658169 -0.0093151487340720051 0 0.046906928874143709 -0.0074337854106459184 0 0.048540384919808818 -0.0070997698304787367 0 0.048463764975600759 -0.0067532702986127739 0 0.046655152540226466 -0.0065711574145488503 0 0.046796674272354094 -0.0058331228715782614 0 0.046796674272354094 -0.0058331228715782614 0 0.048167991400618816 -0.0060703418496012981 0 0.048167991400618816 -0.0060703418496012981 0 0.052541225837617722 -0.0044032626709025729 0 0.04523867731229398 -0.0092013668410072299 0 0.045392953547658169 -0.0093151487340720051 0 0.045295642871246343 -0.0094365292174838009 0 0.064860301099236198 0.00024754563311771424 0 0.064687925684319206 0.0011990505000459195 0 0.065469703315966424 0.0010113865884245562 0 0.045441710293236022 -0.009497268189175798 0 0.045392953547658169 -0.0093151487340720051 0 0.045295642871246343 -0.0094365292174838009 0 0.06633467583408427 0.00091148678824410777 0 0.064860301099236198 0.00024754563311771424 0 0.065469703315966424 0.0010113865884245562 0 0.041694857089016053 -0.00095567798265303386 0 0.041697894872233174 -0.00092668672228790269 0 0.041959377481447721 -0.00095672019769288798 0 0.053430233441869757 -0.0018452885128940168 0 0.048167991400618816 -0.0060703418496012981 0 0.065514152489720007 0.0014722581774947326 0 0.065945901210062871 0.0011659883651957501 0 0.065469703315966424 0.0010113865884245562 0 0.045618583415921378 -0.0092407172377947013 0 0.045813144540352416 -0.0093042746182876255 0 0.045678624409636402 -0.0094308030679184293 0 0.045867125576838259 -0.0095540707372978474 0 0.045813144540352416 -0.0093042746182876255 0 0.045678624409636402 -0.0094308030679184293 0 0.045618583415921378 -0.0092407172377947013 0 0.045678624409636402 -0.0094308030679184293 0 0.045522522619271033 -0.0093756440721935105 0 0.045441710293236022 -0.009497268189175798 0 0.045392953547658169 -0.0093151487340720051 0 0.045522522619271033 -0.0093756440721935105 0 0.045388878098371097 -0.0091343577898580046 0 0.045392953547658169 -0.0093151487340720051 0 0.045482278392178936 -0.0092351645753845739 0 0.045392953547658169 -0.0093151487340720051 0 0.045522522619271033 -0.0093756440721935105 0 0.045482278392178936 -0.0092351645753845739 0 0.045618583415921378 -0.0092407172377947013 0 0.045522522619271033 -0.0093756440721935105 0 0.045482278392178936 -0.0092351645753845739 0 0.045618583415921378 -0.0092407172377947013 0 0.045482278392178936 -0.0092351645753845739 0 0.045489078598145077 -0.0091101324822726246 0 0.046655152540226466 -0.0065711574145488503 0 0.046116024350050223 -0.0069801625684974651 0 0.045388878098371097 -0.0091343577898580046 0 0.045482278392178936 -0.0092351645753845739 0 0.045489078598145077 -0.0091101324822726246 0 0.046116024350050223 -0.0069801625684974651 0 0.045741278189475827 -0.0073488290974373007 0 0.045618583415921378 -0.0092407172377947013 0 0.045489078598145077 -0.0091101324822726246 0 0.045718431869148972 -0.008996445181010039 0 0.045618583415921378 -0.0092407172377947013 0 0.045813144540352416 -0.0093042746182876255 0 0.045718431869148972 -0.008996445181010039 0 0.044953702742978038 -0.0091925677453192477 0 0.045718431869148972 -0.008996445181010039 0 0.045406656447103039 -0.008603764295518174 0 0.045718431869148972 -0.008996445181010039 0 0.045406656447103039 -0.008603764295518174 0 0.045760821622926724 -0.0084107058656928031 0 0.045406656447103039 -0.008603764295518174 0 0.045760821622926724 -0.0084107058656928031 0 0.045216406143058316 -0.0083078373434054206 0 0.04464634187023056 -0.0083847345848868469 0 0.044953293109142506 -0.00866122767525156 0 0.045216406143058316 -0.0083078373434054206 0 0.044953702742978038 -0.0091925677453192477 0 0.045406656447103039 -0.008603764295518174 0 0.044953293109142506 -0.00866122767525156 0 0.044566930375368213 -0.0088274018248526154 0 0.044953702742978038 -0.0091925677453192477 0 0.044953293109142506 -0.00866122767525156 0 0.045406656447103039 -0.008603764295518174 0 0.044953293109142506 -0.00866122767525156 0 0.045216406143058316 -0.0083078373434054206 0 0.04464634187023056 -0.0083847345848868469 0 0.045216406143058316 -0.0083078373434054206 0 0.044847956137196963 -0.0079131732270729845 0 0.045216406143058316 -0.0083078373434054206 0 0.044847956137196963 -0.0079131732270729845 0 0.045446935094956668 -0.0077827936605390268 0 0.046096442277180925 -0.0078949939690012988 0 0.045760821622926724 -0.0084107058656928031 0 0.045446935094956668 -0.0077827936605390268 0 0.045760821622926724 -0.0084107058656928031 0 0.045216406143058316 -0.0083078373434054206 0 0.045446935094956668 -0.0077827936605390268 0 0.046096442277180925 -0.0078949939690012988 0 0.045446935094956668 -0.0077827936605390268 0 0.045817744716539717 -0.0073663737584311779 0 0.045446935094956668 -0.0077827936605390268 0 0.045315553052524778 -0.0071150303235947574 0 0.045817744716539717 -0.0073663737584311779 0 0.045446935094956668 -0.0077827936605390268 0 0.044881863747179715 -0.0074530272839924989 0 0.045315553052524778 -0.0071150303235947574 0 0.044847956137196963 -0.0079131732270729845 0 0.045446935094956668 -0.0077827936605390268 0 0.044881863747179715 -0.0074530272839924989 0 0.044847956137196963 -0.0079131732270729845 0 0.044881863747179715 -0.0074530272839924989 0 0.044479688459866634 -0.0075762708202727243 0 0.044775940186303667 -0.0070035942016526522 0 0.045262538790739743 -0.0066771686033991742 0 0.04428739317127256 -0.0066125279598676255 0 0.044881863747179715 -0.0074530272839924989 0 0.044775940186303667 -0.0070035942016526522 0 0.045315553052524778 -0.0071150303235947574 0 0.044775940186303667 -0.0070035942016526522 0 0.045315553052524778 -0.0071150303235947574 0 0.045262538790739743 -0.0066771686033991742 0 0.045315553052524778 -0.0071150303235947574 0 0.045673440515067339 -0.0069886334855756719 0 0.045817744716539717 -0.0073663737584311779 0 0.045315553052524778 -0.0071150303235947574 0 0.045673440515067339 -0.0069886334855756719 0 0.045262538790739743 -0.0066771686033991742 0 0.043073862186038335 -0.0054079990832853952 0 0.040758922061044325 -0.0071681996591246733 0 0.041062019121553543 -0.0029976217353914719 0 0.041620233704826343 -0.0072339371846507888 0 0.043323801972814067 -0.0071057214400671908 0 0.045673440515067339 -0.0069886334855756719 0 0.045262538790739743 -0.0066771686033991742 0 0.045968552190887912 -0.0067126955289154031 0 0.043073862186038335 -0.0054079990832853952 0 0.040758922061044325 -0.0071681996591246733 0 0.045004608722134208 -0.0065069072303956437 0 0.040758922061044325 -0.0071681996591246733 0 0.045004608722134208 -0.0065069072303956437 0 0.045968552190887912 -0.0067126955289154031 0 0.043073862186038335 -0.0054079990832853952 0 0.041062019121553543 -0.0029976217353914719 0 0.046069817127273607 -0.0053036323496617153 0 0.036658628738428421 -0.010748589001850078 0 0.041447110281159882 -0.010088932854934963 0 0.041620233704826343 -0.0072339371846507888 0 0.037141218694859493 -0.0075985078990007367 0 0.040758922061044325 -0.0071681996591246733 0 0.036791640306690021 -0.0055061783616740072 0 0.035266758108204926 -0.0074553384613058335 0 0.040758922061044325 -0.0071681996591246733 0 0.036791640306690021 -0.0055061783616740072 0 0.03758852913773824 -0.0036913206111618231 0 0.040758922061044325 -0.0071681996591246733 0 0.03758852913773824 -0.0036913206111618231 0 0.041062019121553543 -0.0029976217353914719 0 0.036658628738428421 -0.010748589001850078 0 0.02631368459652221 -0.0093214924113634388 0 0.037482588825177993 -0.018845241863239288 0 0.035688614542252584 -0.01801159432562455 0 0.037235977839025665 -0.017695840501680764 0 0.03758852913773824 -0.0036913206111618231 0 0.041062019121553543 -0.0029976217353914719 0 0.035855396499361626 -0.00060965217871551225 0 0.037482588825177993 -0.018845241863239288 0 0.039265109349158521 -0.019657002412805939 0 0.038657829369737454 -0.018371618731443884 0 0.037482588825177993 -0.018845241863239288 0 0.037985091242604345 -0.01791240091156256 0 0.037235977839025665 -0.017695840501680764 0 0.037482588825177993 -0.018845241863239288 0 0.037985091242604345 -0.01791240091156256 0 0.038657829369737454 -0.018371618731443884 0 0.037985091242604345 -0.01791240091156256 0 0.038657829369737454 -0.018371618731443884 0 0.038639636573228359 -0.017662689018093525 0 0.012442038489229212 -0.0048339985296010288 0 0.013551097781990774 -0.005376901468444089 0 0.012830579356951663 -0.0057186624766751241 0 0.012442038489229212 -0.0048339985296010288 0 0.012830579356951663 -0.0057186624766751241 0 0.012167006953618447 -0.005799174345031498 0 0.012442038489229212 -0.0048339985296010288 0 0.013551097781990774 -0.005376901468444089 0 0.013587638310323212 -0.0042321902539532068 0 0.013551097781990774 -0.005376901468444089 0 0.013587638310323212 -0.0042321902539532068 0 0.014358230609710193 -0.0047958694212776919 0 0.013551097781990774 -0.005376901468444089 0 0.013367799686321817 -0.0062279021903132508 0 0.014726664937920837 -0.006456623257402763 0 0.013551097781990774 -0.005376901468444089 0 0.013367799686321817 -0.0062279021903132508 0 0.012830579356951663 -0.0057186624766751241 0 0.013367799686321817 -0.0062279021903132508 0 0.012830579356951663 -0.0057186624766751241 0 0.01265603275534106 -0.0064577340207798957 0 0.012830579356951663 -0.0057186624766751241 0 0.012223102011834451 -0.0061168211560998749 0 0.012167006953618447 -0.005799174345031498 0 0.01265603275534106 -0.0064577340207798957 0 0.012223102011834451 -0.0061168211560998749 0 0.012083763263462723 -0.0065394723627770985 0 0.012830579356951663 -0.0057186624766751241 0 0.01265603275534106 -0.0064577340207798957 0 0.012223102011834451 -0.0061168211560998749 0 0.025783494992038667 -0.0077347484028625962 0 0.025040895034761947 -0.0086289973406823133 0 0.012442038489229212 -0.0048339985296010288 0 0.012167006953618447 -0.005799174345031498 0 0.011182895177843665 -0.0065271280805651484 0 0.012223102011834451 -0.0061168211560998749 0 0.012167006953618447 -0.005799174345031498 0 0.011182895177843665 -0.0065271280805651484 0 0.012223102011834451 -0.0061168211560998749 0 0.011182895177843665 -0.0065271280805651484 0 0.012083763263462723 -0.0065394723627770985 0 0.02631368459652221 -0.0093214924113634388 0 0.027655014268082014 -0.0077532569581706852 0 0.035855396499361626 -0.00060965217871551225 0 0.035821211784461605 -0.002765854011179146 0 0.034111394501251432 -0.0029205086537040666 0 0.035779742112056603 -0.00071288050758953729 0 0.034111394501251432 -0.0029205086537040666 0 0.03524707473706238 -0.00046330165608144986 0 0.02631368459652221 -0.0093214924113634388 0 0.025040895034761947 -0.0086289973406823133 0 0.03758852913773824 -0.0036913206111618231 0 0.035855396499361626 -0.00060965217871551225 0 0.035821211784461605 -0.002765854011179146 0 0.035728539044507797 -0.0038396301390928103 0 0.034111394501251432 -0.0029205086537040666 0 0.034597334215910228 -0.0048904966630856509 0 0.035821211784461605 -0.002765854011179146 0 0.035728539044507797 -0.0038396301390928103 0 0.034111394501251432 -0.0029205086537040666 0 0.03758852913773824 -0.0036913206111618231 0 0.035821211784461605 -0.002765854011179146 0 0.035728539044507797 -0.0038396301390928103 0 0.03257856363673188 -0.0040206886534153788 0 0.034111394501251432 -0.0029205086537040666 0 0.03524707473706238 -0.00046330165608144986 0 0.03257856363673188 -0.0040206886534153788 0 0.034111394501251432 -0.0029205086537040666 0 0.034597334215910228 -0.0048904966630856509 0 0.03257856363673188 -0.0040206886534153788 0 0.034597334215910228 -0.0048904966630856509 0 0.03356467180693383 -0.0056181250220795256 0 0.034597334215910228 -0.0048904966630856509 0 0.03356467180693383 -0.0056181250220795256 0 0.035266758108204926 -0.0074553384613058335 0 0.03257856363673188 -0.0040206886534153788 0 0.03356467180693383 -0.0056181250220795256 0 0.032534582217547875 -0.006428897796220372 0 0.036791640306690021 -0.0055061783616740072 0 0.034597334215910228 -0.0048904966630856509 0 0.035266758108204926 -0.0074553384613058335 0 0.036791640306690021 -0.0055061783616740072 0 0.035728539044507797 -0.0038396301390928103 0 0.034597334215910228 -0.0048904966630856509 0 0.036791640306690021 -0.0055061783616740072 0 0.03758852913773824 -0.0036913206111618231 0 0.035728539044507797 -0.0038396301390928103 0 0.03356467180693383 -0.0056181250220795256 0 0.035266758108204926 -0.0074553384613058335 0 0.032534582217547875 -0.006428897796220372 0 0.037141218694859493 -0.0075985078990007367 0 0.02705399330917347 -0.0084001103693079979 0 0.035266758108204926 -0.0074553384613058335 0 0.032534582217547875 -0.006428897796220372 0 0.029821028062400355 -0.0076863409478735694 0 0.03257856363673188 -0.0040206886534153788 0 0.032534582217547875 -0.006428897796220372 0 0.029821028062400355 -0.0076863409478735694 0 0.025783494992038667 -0.0077347484028625962 0 0.02705399330917347 -0.0084001103693079979 0 0.013587638310323212 -0.0042321902539532068 0 0.01400778793623534 -0.0031275220068126574 0 0.014358230609710193 -0.0047958694212776919 0 0.012442038489229212 -0.0048339985296010288 0 0.013587638310323212 -0.0042321902539532068 0 0.013731985986714788 -0.0031387242338630954 0 0.013587638310323212 -0.0042321902539532068 0 0.013731985986714788 -0.0031387242338630954 0 0.01400778793623534 -0.0031275220068126574 0 0.02705399330917347 -0.0084001103693079979 0 0.025384367656933447 -0.0083983106833675283 0 0.022674683149246751 -0.014614820597232615 0 0.031834640658815805 -0.014209579701242666 0 0.02977178370367899 -0.005262717757558601 0 0.026888556734776727 -0.0088655429780916568 0 0.035281612811300947 -0.0084570046085898458 0 0.043062691835154501 -0.0066341236271311443 0 0.04295548472096742 -0.0067705167961017746 0 0.043980215293677141 -0.0071908783260047574 0 0.026888556734776727 -0.0088655429780916568 0 0.037277940111682804 -0.010482854731643822 0 0.043600718791003655 -0.0068764835470835461 0 0.044264058834729197 -0.007157844001333436 0 0.043834538781314755 -0.0077047051618517326 0 0.025384367656933447 -0.0083983106833675283 0 0.026888556734776727 -0.0088655429780916568 0 0.02705399330917347 -0.0084001103693079979 0 0.026888556734776727 -0.0088655429780916568 0 0.039799816206615511 -0.010699485974582527 0 0.037277940111682804 -0.010482854731643822 0 0.044775940186303667 -0.0070035942016526522 0 0.04428739317127256 -0.0066125279598676255 0 0.043980215293677141 -0.0071908783260047574 0 0.044881863747179715 -0.0074530272839924989 0 0.044775940186303667 -0.0070035942016526522 0 0.043980215293677141 -0.0071908783260047574 0 0.04428739317127256 -0.0066125279598676255 0 0.043062691835154501 -0.0066341236271311443 0 0.043980215293677141 -0.0071908783260047574 0 0.044881863747179715 -0.0074530272839924989 0 0.044264058834729197 -0.007157844001333436 0 0.044479688459866634 -0.0075762708202727243 0 0.044425547796426088 -0.0079911504176671724 0 0.044479688459866634 -0.0075762708202727243 0 0.043834538781314755 -0.0077047051618517326 0 0.044264058834729197 -0.007157844001333436 0 0.044479688459866634 -0.0075762708202727243 0 0.043834538781314755 -0.0077047051618517326 0 0.044425547796426088 -0.0079911504176671724 0 0.044847956137196963 -0.0079131732270729845 0 0.044479688459866634 -0.0075762708202727243 0 0.037098066998271166 -0.011394797857501972 0 0.036444874214624189 -0.0083083866298171438 0 0.039053957629302562 -0.0087985497858452024 0 0.015601799863534929 -0.015301667423438232 0 0.013725846749294586 -0.0161666004148034 0 0.010072475403768724 -0.014729897522255266 0 0.010189578619297155 -0.014762426855234849 0 0.0098879413998997547 -0.014535316014059298 0 0.010189578619297155 -0.014762426855234849 0 0.0098879413998997547 -0.014535316014059298 0 0.010481572537791313 -0.013953881624666608 0 0.0098879413998997547 -0.014535316014059298 0 0.0089866976682853334 -0.01371425152050304 0 0.008489246940047733 -0.014359604798564428 0 0.0098879413998997547 -0.014535316014059298 0 0.0089866976682853334 -0.01371425152050304 0 0.0096759409190025972 -0.013594961876877464 0 0.0089866976682853334 -0.01371425152050304 0 0.0096759409190025972 -0.013594961876877464 0 0.0087804411166714277 -0.012996985981551714 0 0.0096759409190025972 -0.013594961876877464 0 0.010481572537791313 -0.013953881624666608 0 0.010511823040815845 -0.013456501550146474 0 0.0098879413998997547 -0.014535316014059298 0 0.0096759409190025972 -0.013594961876877464 0 0.010481572537791313 -0.013953881624666608 0 0.011394288143409705 -0.013665329856329183 0 0.010189578619297155 -0.014762426855234849 0 0.010481572537791313 -0.013953881624666608 0 0.026888556734776727 -0.0088655429780916568 0 0.025140840238085421 -0.010546121832839732 0 0.010481572537791313 -0.013953881624666608 0 0.011085373161974558 -0.013495036343652079 0 0.010511823040815845 -0.013456501550146474 0 0.011394288143409705 -0.013665329856329183 0 0.010481572537791313 -0.013953881624666608 0 0.011085373161974558 -0.013495036343652079 0 0.026888556734776727 -0.0088655429780916568 0 0.023114029937714681 -0.0086275756036297852 0 0.005965000960355381 -0.015266681036255808 0 0.0069077828714548739 -0.01613021153272793 0 0.0054786484815592404 -0.01657809789949009 0 0.005965000960355381 -0.015266681036255808 0 0.0069077828714548739 -0.01613021153272793 0 0.0072176875063841321 -0.014682085955811545 0 0.008322517722583871 -0.016741854849042684 0 0.0098879413998997547 -0.014535316014059298 0 0.0081527454098111393 -0.015291636371103206 0 0.0069077828714548739 -0.01613021153272793 0 0.0081527454098111393 -0.015291636371103206 0 0.0072176875063841321 -0.014682085955811545 0 0.008322517722583871 -0.016741854849042684 0 0.0069077828714548739 -0.01613021153272793 0 0.0081527454098111393 -0.015291636371103206 0 0.0098879413998997547 -0.014535316014059298 0 0.0081527454098111393 -0.015291636371103206 0 0.008489246940047733 -0.014359604798564428 0 0.0089866976682853334 -0.01371425152050304 0 0.0079572679154110235 -0.01360425001098896 0 0.0087804411166714277 -0.012996985981551714 0 0.0089866976682853334 -0.01371425152050304 0 0.008489246940047733 -0.014359604798564428 0 0.0079572679154110235 -0.01360425001098896 0 0.0079572679154110235 -0.01360425001098896 0 0.0067820282477092228 -0.013894449140884467 0 0.0070347504913289404 -0.013134017718357791 0 0.0079572679154110235 -0.01360425001098896 0 0.0072176875063841321 -0.014682085955811545 0 0.0067820282477092228 -0.013894449140884467 0 0.008489246940047733 -0.014359604798564428 0 0.0079572679154110235 -0.01360425001098896 0 0.0072176875063841321 -0.014682085955811545 0 0.0081527454098111393 -0.015291636371103206 0 0.008489246940047733 -0.014359604798564428 0 0.0072176875063841321 -0.014682085955811545 0 0.0072176875063841321 -0.014682085955811545 0 0.0067820282477092228 -0.013894449140884467 0 0.0059708790999437834 -0.014276546990269793 0 0.0067820282477092228 -0.013894449140884467 0 0.0059708790999437834 -0.014276546990269793 0 0.0058538971379151856 -0.013210445886630246 0 0.0059708790999437834 -0.014276546990269793 0 0.0058538971379151856 -0.013210445886630246 0 0.0049096397698040837 -0.013762973613466432 0 0.005965000960355381 -0.015266681036255808 0 0.0059708790999437834 -0.014276546990269793 0 0.0054626419431570263 -0.014604829824268355 0 0.005965000960355381 -0.015266681036255808 0 0.0072176875063841321 -0.014682085955811545 0 0.0059708790999437834 -0.014276546990269793 0 0.0058538971379151856 -0.013210445886630246 0 0.0064694562572045616 -0.012161105749125576 0 0.0052796066169051902 -0.012067704275289155 0 0.0067820282477092228 -0.013894449140884467 0 0.0058538971379151856 -0.013210445886630246 0 0.0070347504913289404 -0.013134017718357791 0 0.0070347504913289404 -0.013134017718357791 0 0.0064694562572045616 -0.012161105749125576 0 0.0078719713249541749 -0.012586801945031648 0 0.0058538971379151856 -0.013210445886630246 0 0.0070347504913289404 -0.013134017718357791 0 0.0064694562572045616 -0.012161105749125576 0 0.0058126543506677461 -0.0090431570262137963 0 0.0093586598089905448 -0.0091105207322144371 0 0.0078719713249541749 -0.012586801945031648 0 0.0074523615479535977 -0.011317556085765448 0 0.0095379000762516163 -0.012239887024971386 0 0.0064694562572045616 -0.012161105749125576 0 0.0078719713249541749 -0.012586801945031648 0 0.0074523615479535977 -0.011317556085765448 0 0.0079572679154110235 -0.01360425001098896 0 0.0070347504913289404 -0.013134017718357791 0 0.0078719713249541749 -0.012586801945031648 0 0.0078719713249541749 -0.012586801945031648 0 0.0087804411166714277 -0.012996985981551714 0 0.0095379000762516163 -0.012239887024971386 0 0.0079572679154110235 -0.01360425001098896 0 0.0078719713249541749 -0.012586801945031648 0 0.0087804411166714277 -0.012996985981551714 0 -0.0005061890594778032 -0.0096461543574152594 0 0.00017484957763001953 -0.0094605260343705606 0 -0.00088431379572945169 -0.0090044091888910015 0 -0.0005061890594778032 -0.0096461543574152594 0 -0.00014591798222697149 -0.010140017736657384 0 -0.0009501635242742789 -0.010230652692777294 0 -0.0005061890594778032 -0.0096461543574152594 0 -0.00014591798222697149 -0.010140017736657384 0 0.00017484957763001953 -0.0094605260343705606 0 0.0064694562572045616 -0.012161105749125576 0 0.0052796066169051902 -0.012067704275289155 0 0.0052464877451960075 -0.01045976464589299 0 -0.00014591798222697149 -0.010140017736657384 0 0.00017484957763001953 -0.0094605260343705606 0 0.0012605582697081247 -0.0096871571276008935 0 0.0058126543506677461 -0.0090431570262137963 0 0.0044632388505621533 -0.0091785165345689632 0 0.0064694562572045616 -0.012161105749125576 0 0.0074523615479535977 -0.011317556085765448 0 0.0052464877451960075 -0.01045976464589299 0 0.023114029937714681 -0.0086275756036297852 0 0.0093586598089905448 -0.0091105207322144371 0 0.015722143164980155 -0.0064477058349476559 0 0.016679301585220119 -0.0068869534668630581 0 0.015671091108327175 -0.0071050199958738085 0 0.01126001541361 -0.013455851875082322 0 0.010511823040815845 -0.013456501550146474 0 0.0094182079206796554 -0.012474145053811867 0 0.025384367656933447 -0.0083983106833675283 0 0.017973976578578958 -0.007631392013356917 0 0.015538514267955076 -0.006456374054287806 0 0.015722143164980155 -0.0064477058349476559 0 0.015671091108327175 -0.0071050199958738085 0 0.025384367656933447 -0.0083983106833675283 0 0.023114029937714681 -0.0086275756036297852 0 0.023382470396598885 -0.0088032591414936873 0 0.022531634244061228 -0.0051076350682319246 0 0.029984297911568994 -0.00850997526742657 0 0.023114029937714681 -0.0086275756036297852 0 0.021650071755985666 -0.0088251955198744639 0 0.0096759409190025972 -0.013594961876877464 0 0.010511823040815845 -0.013456501550146474 0 0.0094182079206796554 -0.012474145053811867 0 0.0096759409190025972 -0.013594961876877464 0 0.0087804411166714277 -0.012996985981551714 0 0.0094182079206796554 -0.012474145053811867 0 0.0091440690974741411 -0.0094421043445687552 0 0.0093586598089905448 -0.0091105207322144371 0 -0.0005061890594778032 -0.0096461543574152594 0 -0.00088431379572945169 -0.0090044091888910015 0 -0.0009501635242742789 -0.010230652692777294 0 0.0093586598089905448 -0.0091105207322144371 0 0.01144418645443546 -0.0086270225098004621 0 -0.00088431379572945169 -0.0090044091888910015 0 -0.0009501635242742789 -0.010230652692777294 0 -0.0021524931095087503 -0.01029307928226241 0 0.016679301585220119 -0.0068869534668630581 0 0.015671091108327175 -0.0071050199958738085 0 0.015807477653929897 -0.0077546286995418129 0 0.017973976578578958 -0.007631392013356917 0 0.01144418645443546 -0.0086270225098004621 0 0.013551097781990774 -0.005376901468444089 0 0.014358230609710193 -0.0047958694212776919 0 0.014726664937920837 -0.006456623257402763 0 -0.0021524931095087503 -0.01029307928226241 0 -0.001340305584567268 -0.010952229741859927 0 -0.0016195884069178691 -0.011942532502789665 0 -0.0014827648995825804 -0.012582758536475343 0 -0.0013946188334443483 -0.012257723586122163 0 -0.0016195884069178691 -0.011942532502789665 0 0.01144418645443546 -0.0086270225098004621 0 0.0094527586065539931 -0.0091565142450980973 0 -0.0009501635242742789 -0.010230652692777294 0 -0.0021524931095087503 -0.01029307928226241 0 -0.001340305584567268 -0.010952229741859927 0 -0.00082762641574884066 -0.011243692893531039 0 -0.001340305584567268 -0.010952229741859927 0 -0.0016195884069178691 -0.011942532502789665 0 -0.00014591798222697149 -0.010140017736657384 0 -0.0009501635242742789 -0.010230652692777294 0 -0.00082762641574884066 -0.011243692893531039 0 -0.0009501635242742789 -0.010230652692777294 0 -0.00082762641574884066 -0.011243692893531039 0 -0.001340305584567268 -0.010952229741859927 0 -0.00082762641574884066 -0.011243692893531039 0 -0.00088446037458642839 -0.011967320895351741 0 -0.0015123267273413747 -0.012166101610649165 0 -0.00082762641574884066 -0.011243692893531039 0 -0.0016195884069178691 -0.011942532502789665 0 -0.0015123267273413747 -0.012166101610649165 0 -0.0016195884069178691 -0.011942532502789665 0 -0.0015123267273413747 -0.012166101610649165 0 -0.0013897696477274105 -0.012295654876546961 0 -0.0013946188334443483 -0.012257723586122163 0 -0.0016195884069178691 -0.011942532502789665 0 -0.0013897696477274105 -0.012295654876546961 0 -0.00014591798222697149 -0.010140017736657384 0 0.00015888968856232893 -0.010734190248803357 0 0.0012605582697081247 -0.0096871571276008935 0 0.00015888968856232893 -0.010734190248803357 0 0.00081003174186660418 -0.010991270431427742 0 0.0012605582697081247 -0.0096871571276008935 0 0.00081003174186660418 -0.010991270431427742 0 0.0012605582697081247 -0.0096871571276008935 0 0.0016115580822651135 -0.010714977020963771 0 -0.00014591798222697149 -0.010140017736657384 0 -0.00082762641574884066 -0.011243692893531039 0 0.00015888968856232893 -0.010734190248803357 0 -0.00082762641574884066 -0.011243692893531039 0 0.00015888968856232893 -0.010734190248803357 0 -0.00011327730716138436 -0.011508637269264347 0 -0.00082762641574884066 -0.011243692893531039 0 -0.00011327730716138436 -0.011508637269264347 0 -0.00088446037458642839 -0.011967320895351741 0 0.00015888968856232893 -0.010734190248803357 0 -0.00011327730716138436 -0.011508637269264347 0 0.00081003174186660418 -0.010991270431427742 0 -0.00011327730716138436 -0.011508637269264347 0 0.00071197130122241533 -0.011738655187019805 0 0.00081003174186660418 -0.010991270431427742 0 0.00071197130122241533 -0.011738655187019805 0 0.00081003174186660418 -0.010991270431427742 0 0.0013788194112187161 -0.011361103390041403 0 0.00065998323617192647 -0.012365373462365711 0 -0.00019184102720725551 -0.012461327278667668 0 0.0010080183466240383 -0.012991072708619324 0 -0.00011327730716138436 -0.011508637269264347 0 0.00071197130122241533 -0.011738655187019805 0 -0.00019184102720725551 -0.012461327278667668 0 0.00065998323617192647 -0.012365373462365711 0 0.0010080183466240383 -0.012991072708619324 0 0.0015788493286716398 -0.012138558673457525 0 0.00071197130122241533 -0.011738655187019805 0 0.00065998323617192647 -0.012365373462365711 0 0.0015788493286716398 -0.012138558673457525 0 0.00071197130122241533 -0.011738655187019805 0 0.00065998323617192647 -0.012365373462365711 0 -0.00019184102720725551 -0.012461327278667668 0 -0.00088446037458642839 -0.011967320895351741 0 -0.00019184102720725551 -0.012461327278667668 0 -0.0014431985708829519 -0.012421880520932394 0 -0.00011327730716138436 -0.011508637269264347 0 -0.00088446037458642839 -0.011967320895351741 0 -0.00019184102720725551 -0.012461327278667668 0 -0.0009144519288473978 -0.012781710642701827 0 0.00029561453447067608 -0.013407338121081148 0 -0.00061133235238043562 -0.013584831663184437 0 -0.00019184102720725551 -0.012461327278667668 0 -0.0009144519288473978 -0.012781710642701827 0 -0.0014431985708829519 -0.012421880520932394 0 -0.00019184102720725551 -0.012461327278667668 0 -0.0009144519288473978 -0.012781710642701827 0 0.00029561453447067608 -0.013407338121081148 0 -0.0009144519288473978 -0.012781710642701827 0 -0.0018919700940914393 -0.012728763219296795 0 -0.00061133235238043562 -0.013584831663184437 0 -0.00019184102720725551 -0.012461327278667668 0 0.00029561453447067608 -0.013407338121081148 0 0.0010080183466240383 -0.012991072708619324 0 0.00029561453447067608 -0.013407338121081148 0 0.0010080183466240383 -0.012991072708619324 0 0.0017708715845814445 -0.013603196196496041 0 -0.0014425681958631464 -0.012387917165661769 0 -0.0015123267273413747 -0.012166101610649165 0 -0.0013897696477274105 -0.012295654876546961 0 -0.0016141019166515469 -0.012369841056207243 0 -0.0014425681958631464 -0.012387917165661769 0 -0.0014738620663915596 -0.012385890321058612 0 -0.0016141019166515469 -0.012369841056207243 0 -0.0014425681958631464 -0.012387917165661769 0 -0.0015123267273413747 -0.012166101610649165 0 -0.00088446037458642839 -0.011967320895351741 0 -0.0015123267273413747 -0.012166101610649165 0 -0.0014431985708829519 -0.012421880520932394 0 -0.0016141019166515469 -0.012369841056207243 0 -0.0015123267273413747 -0.012166101610649165 0 -0.0014431985708829519 -0.012421880520932394 0 -0.0016141019166515469 -0.012369841056207243 0 -0.0014431985708829519 -0.012421880520932394 0 -0.0018849399329260881 -0.012437118966332707 0 -0.0014431985708829519 -0.012421880520932394 0 -0.0018919700940914393 -0.012728763219296795 0 -0.0018849399329260881 -0.012437118966332707 0 -0.0009144519288473978 -0.012781710642701827 0 -0.0014431985708829519 -0.012421880520932394 0 -0.0018919700940914393 -0.012728763219296795 0 -0.0018919700940914393 -0.012728763219296795 0 -0.0018849399329260881 -0.012437118966332707 0 -0.0023145969534997955 -0.012142532149627662 0 -0.0016141019166515469 -0.012369841056207243 0 -0.0018849399329260881 -0.012437118966332707 0 -0.0014738620663915596 -0.012385890321058612 0 -0.0018849399329260881 -0.012437118966332707 0 -0.0015233014486244851 -0.012098364562608528 0 -0.0021041971186021753 -0.011826729204405516 0 -0.0018849399329260881 -0.012437118966332707 0 -0.0014738620663915596 -0.012385890321058612 0 -0.0015233014486244851 -0.012098364562608528 0 -0.0015233014486244851 -0.012098364562608528 0 -0.00093841228350551151 -0.012303016415199479 0 -0.00095024457027198354 -0.011764982354861299 0 -0.00093841228350551151 -0.012303016415199479 0 -0.00037012888780115584 -0.012031361688227491 0 -0.00095024457027198354 -0.011764982354861299 0 -0.0014738620663915596 -0.012385890321058612 0 -0.0015233014486244851 -0.012098364562608528 0 -0.00093841228350551151 -0.012303016415199479 0 -0.0014738620663915596 -0.012385890321058612 0 -0.00093841228350551151 -0.012303016415199479 0 -0.001146992456860043 -0.012470828361918389 0 -0.0014425681958631464 -0.012387917165661769 0 -0.0014738620663915596 -0.012385890321058612 0 -0.001146992456860043 -0.012470828361918389 0 -0.001146992456860043 -0.012470828361918389 0 -0.00096961907718460193 -0.012514074146735138 0 -0.000719071717986856 -0.012521105307073538 0 -0.00093841228350551151 -0.012303016415199479 0 -0.001146992456860043 -0.012470828361918389 0 -0.000719071717986856 -0.012521105307073538 0 -0.001146992456860043 -0.012470828361918389 0 -0.00096961907718460193 -0.012514074146735138 0 -0.0013897696477274105 -0.012295654876546961 0 -0.0014425681958631464 -0.012387917165661769 0 -0.001146992456860043 -0.012470828361918389 0 -0.0013897696477274105 -0.012295654876546961 0 -0.00096961907718460193 -0.012514074146735138 0 -0.00038530216731736126 -0.01275389839814859 0 -0.000719071717986856 -0.012521105307073538 0 -0.00038530216731736126 -0.01275389839814859 0 -0.000719071717986856 -0.012521105307073538 0 -0.00019667255037260871 -0.012475070751716328 0 -0.00093841228350551151 -0.012303016415199479 0 -0.000719071717986856 -0.012521105307073538 0 -0.00019667255037260871 -0.012475070751716328 0 -0.00093841228350551151 -0.012303016415199479 0 -0.00019667255037260871 -0.012475070751716328 0 -0.00037012888780115584 -0.012031361688227491 0 -0.00019667255037260871 -0.012475070751716328 0 0.00034336891782829734 -0.012119026109327986 0 -0.00037012888780115584 -0.012031361688227491 0 -0.00038530216731736126 -0.01275389839814859 0 -0.00019667255037260871 -0.012475070751716328 0 0.00072354085176122693 -0.0124964803782286 0 -0.00048177885454023879 -0.018528225308288876 0 0.0010037568385594014 -0.015430713575536725 0 0.0018271591109250403 -0.016259047348357529 0 -0.00019667255037260871 -0.012475070751716328 0 0.00072354085176122693 -0.0124964803782286 0 0.00034336891782829734 -0.012119026109327986 0 0.0010037568385594014 -0.015430713575536725 0 0.0018271591109250403 -0.016259047348357529 0 0.0043615442783910613 -0.013874343344583356 0 0.0090872746260993523 -0.011151868290185964 0 0.0081541425870538167 -0.011334221411150236 0 0.0078155211778692044 -0.011923394148828932 0 0.0056733860342395269 -0.012807000615486789 0 0.0061105154924355025 -0.012549604519104498 0 0.0090872746260993523 -0.011151868290185964 0 0.0081541425870538167 -0.011334221411150236 0 0.0085813470283682119 -0.010646037807813907 0 0.0081541425870538167 -0.011334221411150236 0 0.0078895933468557077 -0.010672900864385139 0 0.0085813470283682119 -0.010646037807813907 0 0.023288174598684631 -0.012095955507969117 0 0.023800158019720689 -0.011934770321903834 0 0.0078895933468557077 -0.010672900864385139 0 0.0089056408585673433 -0.0099461897580621818 0 0.0092926302180630967 -0.0086975506233940639 0 0.038585591004069102 -0.014248201146231931 0 0.037143307574108712 -0.016134843203043744 0 0.038501242405783585 -0.015668994246467356 0 0.0078895933468557077 -0.010672900864385139 0 0.0085813470283682119 -0.010646037807813907 0 0.0089056408585673433 -0.0099461897580621818 0 0.0090872746260993523 -0.011151868290185964 0 0.0085813470283682119 -0.010646037807813907 0 0.0089056408585673433 -0.0099461897580621818 0 0.010585956112144955 -0.0099383269226936237 0 0.0090872746260993523 -0.011151868290185964 0 0.0089056408585673433 -0.0099461897580621818 0 0.010585956112144955 -0.0099383269226936237 0 0.0089056408585673433 -0.0099461897580621818 0 0.0095055395036001723 -0.0093947153595106223 0 0.0060126123122896773 -0.012024600530440757 0 0.003668694245066747 -0.013594277587800173 0 0.0060126123122896773 -0.012024600530440757 0 0.0056733860342395269 -0.012807000615486789 0 0.010585956112144955 -0.0099383269226936237 0 0.0099858823776183218 -0.0090073730995072748 0 0.010783617121474838 -0.0086468083635478123 0 0.010585956112144955 -0.0099383269226936237 0 0.0099858823776183218 -0.0090073730995072748 0 0.0095055395036001723 -0.0093947153595106223 0 0.0099858823776183218 -0.0090073730995072748 0 0.0095055395036001723 -0.0093947153595106223 0 0.0092926302180630967 -0.0086975506233940639 0 0.0089056408585673433 -0.0099461897580621818 0 0.0095055395036001723 -0.0093947153595106223 0 0.0092926302180630967 -0.0086975506233940639 0 0.0099858823776183218 -0.0090073730995072748 0 0.0092926302180630967 -0.0086975506233940639 0 0.0099195876301904542 -0.0083352932049376403 0 0.0099858823776183218 -0.0090073730995072748 0 0.0099195876301904542 -0.0083352932049376403 0 0.010783617121474838 -0.0086468083635478123 0 0.0099195876301904542 -0.0083352932049376403 0 0.01065873925432477 -0.0081742303141484618 0 0.010783617121474838 -0.0086468083635478123 0 0.037143307574108712 -0.016134843203043744 0 0.038501242405783585 -0.015668994246467356 0 0.037863298647859228 -0.016484661714347787 0 0.037143307574108712 -0.016134843203043744 0 0.037863298647859228 -0.016484661714347787 0 0.037197728695632835 -0.017010135738312841 0 0.038501242405783585 -0.015668994246467356 0 0.037863298647859228 -0.016484661714347787 0 0.038537154034399515 -0.016482735728836913 0 0.038004613977730299 -0.017055638257026599 0 0.03897157610336293 -0.017018868001200008 0 0.038639636573228359 -0.017662689018093525 0 0.038537154034399515 -0.016482735728836913 0 0.038004613977730299 -0.017055638257026599 0 0.03897157610336293 -0.017018868001200008 0 0.037863298647859228 -0.016484661714347787 0 0.038537154034399515 -0.016482735728836913 0 0.038004613977730299 -0.017055638257026599 0 0.037863298647859228 -0.016484661714347787 0 0.038004613977730299 -0.017055638257026599 0 0.037197728695632835 -0.017010135738312841 0 0.038004613977730299 -0.017055638257026599 0 0.037197728695632835 -0.017010135738312841 0 0.037235977839025665 -0.017695840501680764 0 0.038004613977730299 -0.017055638257026599 0 0.037985091242604345 -0.01791240091156256 0 0.037235977839025665 -0.017695840501680764 0 0.038004613977730299 -0.017055638257026599 0 0.037985091242604345 -0.01791240091156256 0 0.038639636573228359 -0.017662689018093525 0 0.035688614542252584 -0.01801159432562455 0 0.037197728695632835 -0.017010135738312841 0 0.037235977839025665 -0.017695840501680764 0 0.02631368459652221 -0.0093214924113634388 0 0.023800158019720689 -0.011934770321903834 0 0.035688614542252584 -0.01801159432562455 0 0.037143307574108712 -0.016134843203043744 0 0.037197728695632835 -0.017010135738312841 0 0.0099195876301904542 -0.0083352932049376403 0 0.011218753897821268 -0.0066210797634767699 0 0.010856580127843874 -0.0077055675852301759 0 0.011211002370054492 -0.0062876825890081905 0 0.0092926302180630967 -0.0086975506233940639 0 0.0099195876301904542 -0.0083352932049376403 0 0.020677234554164529 -0.01072747235722802 0 0.025040895034761947 -0.0086289973406823133 0 0.0099195876301904542 -0.0083352932049376403 0 0.01065873925432477 -0.0081742303141484618 0 0.010856580127843874 -0.0077055675852301759 0 0.011218753897821268 -0.0066210797634767699 0 0.011359083059487303 -0.0072735841138289988 0 0.010856580127843874 -0.0077055675852301759 0 0.011211002370054492 -0.0062876825890081905 0 0.0099195876301904542 -0.0083352932049376403 0 0.01145838094373563 -0.0064010517865692989 0 0.011218753897821268 -0.0066210797634767699 0 0.011359083059487303 -0.0072735841138289988 0 0.011649633078964777 -0.0070493161754135681 0 0.011082998085860486 -0.0080064223393436339 0 0.012015530405263538 -0.0075013109415709841 0 0.010783617121474838 -0.0086468083635478123 0 0.011359083059487303 -0.0072735841138289988 0 0.010856580127843874 -0.0077055675852301759 0 0.011363072961062452 -0.0076546605548650755 0 0.010856580127843874 -0.0077055675852301759 0 0.011363072961062452 -0.0076546605548650755 0 0.011082998085860486 -0.0080064223393436339 0 0.01065873925432477 -0.0081742303141484618 0 0.010856580127843874 -0.0077055675852301759 0 0.011082998085860486 -0.0080064223393436339 0 0.011363072961062452 -0.0076546605548650755 0 0.011082998085860486 -0.0080064223393436339 0 0.012015530405263538 -0.0075013109415709841 0 0.011363072961062452 -0.0076546605548650755 0 0.011612123187795607 -0.007437542122977721 0 0.012015530405263538 -0.0075013109415709841 0 0.011359083059487303 -0.0072735841138289988 0 0.011363072961062452 -0.0076546605548650755 0 0.011612123187795607 -0.007437542122977721 0 0.011612123187795607 -0.007437542122977721 0 0.012015530405263538 -0.0075013109415709841 0 0.011751695751378294 -0.0072370589972802542 0 0.011182895177843665 -0.0065271280805651484 0 0.012083763263462723 -0.0065394723627770985 0 0.012285261826045332 -0.0070551487048587172 0 0.011218753897821268 -0.0066210797634767699 0 0.011649633078964777 -0.0070493161754135681 0 0.012285261826045332 -0.0070551487048587172 0 0.011751695751378294 -0.0072370589972802542 0 0.011649633078964777 -0.0070493161754135681 0 0.012285261826045332 -0.0070551487048587172 0 0.012015530405263538 -0.0075013109415709841 0 0.011751695751378294 -0.0072370589972802542 0 0.012285261826045332 -0.0070551487048587172 0 0.025040895034761947 -0.0086289973406823133 0 0.022925512423910735 -0.0078619234557158468 0 0.011359083059487303 -0.0072735841138289988 0 0.011751695751378294 -0.0072370589972802542 0 0.011649633078964777 -0.0070493161754135681 0 0.011359083059487303 -0.0072735841138289988 0 0.011612123187795607 -0.007437542122977721 0 0.011751695751378294 -0.0072370589972802542 0 0.014726664937920837 -0.006456623257402763 0 0.013148311504279487 -0.0071256182417946132 0 0.012619617380876533 -0.008569219298811593 0 0.01265603275534106 -0.0064577340207798957 0 0.012083763263462723 -0.0065394723627770985 0 0.012285261826045332 -0.0070551487048587172 0 0.013367799686321817 -0.0062279021903132508 0 0.01265603275534106 -0.0064577340207798957 0 0.013148311504279487 -0.0071256182417946132 0 -0.0014827648995825804 -0.012582758536475343 0 -0.0013946188334443483 -0.012257723586122163 0 -0.001124757322261321 -0.012429681382002658 0 0.01265603275534106 -0.0064577340207798957 0 0.013148311504279487 -0.0071256182417946132 0 0.012285261826045332 -0.0070551487048587172 0 0.01144418645443546 -0.0086270225098004621 0 0.0074664524791137341 -0.010961579768490579 0 0.012015530405263538 -0.0075013109415709841 0 0.012285261826045332 -0.0070551487048587172 0 0.012515484901992615 -0.0075570530639887624 0 0.013148311504279487 -0.0071256182417946132 0 0.012285261826045332 -0.0070551487048587172 0 0.012515484901992615 -0.0075570530639887624 0 0.013367799686321817 -0.0062279021903132508 0 0.014726664937920837 -0.006456623257402763 0 0.013148311504279487 -0.0071256182417946132 0 0.013148311504279487 -0.0071256182417946132 0 0.012515484901992615 -0.0075570530639887624 0 0.012619617380876533 -0.008569219298811593 0 0.012015530405263538 -0.0075013109415709841 0 0.012515484901992615 -0.0075570530639887624 0 0.012619617380876533 -0.008569219298811593 0 -0.0013946188334443483 -0.012257723586122163 0 -0.001124757322261321 -0.012429681382002658 0 -0.0013897696477274105 -0.012295654876546961 0 -0.00096961907718460193 -0.012514074146735138 0 -0.001124757322261321 -0.012429681382002658 0 -0.0013897696477274105 -0.012295654876546961 0 0.010325154787024995 -0.010817539417810907 0 0.012015530405263538 -0.0075013109415709841 0 0.012619617380876533 -0.008569219298811593 0 0.0060126123122896773 -0.012024600530440757 0 0.0074664524791137341 -0.010961579768490579 0 -0.00096961907718460193 -0.012514074146735138 0 -0.00038530216731736126 -0.01275389839814859 0 -0.001124757322261321 -0.012429681382002658 0 0.0060126123122896773 -0.012024600530440757 0 0.0087243609306593747 -0.0087271768596285052 0 0.010585956112144955 -0.0099383269226936237 0 0.012015530405263538 -0.0075013109415709841 0 0.010783617121474838 -0.0086468083635478123 0 0.01065873925432477 -0.0081742303141484618 0 0.011082998085860486 -0.0080064223393436339 0 0.010783617121474838 -0.0086468083635478123 0 0.032158456297511885 2.2400411520971017e-06 0 0.030907156441005217 -0.00021905278618168913 0 0.028116106021137167 -2.7792318547526622e-06 0 0.029445083283208769 -0.00039596410134625464 0 0.030907156441005217 -0.00021905278618168913 0 0.028116106021137167 -2.7792318547526622e-06 0 0.029445083283208769 -0.00039596410134625464 0 0.029194015679762781 -0.00027793864050132497 0 0.027719271682572062 -0.00099585421097833095 0 0.029445083283208769 -0.00039596410134625464 0 0.029194015679762781 -0.00027793864050132497 0 0.030907156441005217 -0.00021905278618168913 0 0.03013602664946562 0.00080170281527940492 0 0.030907156441005217 -0.00021905278618168913 0 0.033906136195148456 0.0013392046511847067 0 0.029194015679762781 -0.00027793864050132497 0 0.03013602664946562 0.00080170281527940492 0 0.030907156441005217 -0.00021905278618168913 0 0.032158456297511885 2.2400411520971017e-06 0 0.030907156441005217 -0.00021905278618168913 0 0.033906136195148456 0.0013392046511847067 0 0.032158456297511885 2.2400411520971017e-06 0 0.035971099120396047 0.00040256411691260612 0 0.036199298160065875 2.4474220404443456e-07 0 0.032158456297511885 2.2400411520971017e-06 0 0.035971099120396047 0.00040256411691260612 0 0.033906136195148456 0.0013392046511847067 0 0.038637112507860873 -0.00029121251630891565 0 0.035971099120396047 0.00040256411691260612 0 0.036199298160065875 2.4474220404443456e-07 0 0.038637112507860873 -0.00029121251630891565 0 0.035971099120396047 0.00040256411691260612 0 0.038151871297513858 9.7904691963492056e-05 0 0.038151871297513858 9.7904691963492056e-05 0 0.033906136195148456 0.0013392046511847067 0 0.040349009324248633 0.0019736251284852538 0 0.03013602664946562 0.00080170281527940492 0 0.033906136195148456 0.0013392046511847067 0 0.027318784109269516 0.002856426250496976 0 0.035971099120396047 0.00040256411691260612 0 0.038151871297513858 9.7904691963492056e-05 0 0.033906136195148456 0.0013392046511847067 0 0.033634796299744682 0.00077659263149328767 0 0.033239860313972129 0.00058599637727374076 0 0.03013602664946562 0.00080170281527940492 0 0.027318784109269516 0.002856426250496976 0 0.024415706982359849 0.0012220835399844338 0 0.040786272608853813 -0.00064087615752138739 0 0.038151871297513858 9.7904691963492056e-05 0 0.040160705353656165 0.00022523196224042292 0 0.040349009324248633 0.0019736251284852538 0 0.040160705353656165 0.00022523196224042292 0 0.041496114736404861 1.2136190045249139e-05 0 0.040786272608853813 -0.00064087615752138739 0 0.040160705353656165 0.00022523196224042292 0 0.041496114736404861 1.2136190045249139e-05 0 0.038151871297513858 9.7904691963492056e-05 0 0.040349009324248633 0.0019736251284852538 0 0.040160705353656165 0.00022523196224042292 0 0.041496114736404861 1.2136190045249139e-05 0 0.042448011817123051 0.0011384774255930679 0 0.042587741570783273 0.00021638971354947712 0 0.04270267959465493 -0.00038747930973122779 0 0.041496114736404861 1.2136190045249139e-05 0 0.042587741570783273 0.00021638971354947712 0 0.033239860313972129 0.00058599637727374076 0 0.032297082735902642 -0.00035696896887516991 0 0.024415706982359849 0.0012220835399844338 0 0.020938682490990887 -0.00018442266553834165 0 0.021996412275463846 0.0032366704620515343 0 0.027318784109269516 0.002856426250496976 0 0.024415706982359849 0.0012220835399844338 0 0.021996412275463846 0.0032366704620515343 0 0.040349009324248633 0.0019736251284852538 0 0.041496114736404861 1.2136190045249139e-05 0 0.042448011817123051 0.0011384774255930679 0 0.023916573308417736 -0.0019994476424084091 0 0.024415706982359849 0.0012220835399844338 0 0.020938682490990887 -0.00018442266553834165 0 0.027693349716001646 -0.00032486381100010734 0 0.025846035469955231 -0.0012947628477279816 0 0.03013602664946562 0.00080170281527940492 0 0.023916573308417736 -0.0019994476424084091 0 0.024415706982359849 0.0012220835399844338 0 0.029194015679762781 -0.00027793864050132497 0 0.03013602664946562 0.00080170281527940492 0 0.026370618892911295 -0.00022854223377673295 0 0.029194015679762781 -0.00027793864050132497 0 0.026370618892911295 -0.00022854223377673295 0 0.027719271682572062 -0.00099585421097833095 0 0.026370618892911295 -0.00022854223377673295 0 0.026150610216810574 -0.00087962137432263444 0 0.026328249751132994 -0.00090646320273758934 0 0.026370618892911295 -0.00022854223377673295 0 0.026667299578976532 -0.00096870651546041898 0 0.026328249751132994 -0.00090646320273758934 0 0.026370618892911295 -0.00022854223377673295 0 0.027719271682572062 -0.00099585421097833095 0 0.026667299578976532 -0.00096870651546041898 0 0.023916573308417736 -0.0019994476424084091 0 0.018226336163907442 -0.0047935597597447057 0 0.020152644819205409 -0.0018741029150487723 0 0.025846035469955231 -0.0012947628477279816 0 0.025268117095289054 -0.0019463319532034402 0 0.026370618892911295 -0.00022854223377673295 0 0.025960274812286761 -0.00077220562173293801 0 0.026150610216810574 -0.00087962137432263444 0 0.018226336163907442 -0.0047935597597447057 0 0.017553001069013852 -0.00052799470404744106 0 0.020152644819205409 -0.0018741029150487723 0 0.023504291579175513 -0.0041587150081220858 0 0.023883909297713276 -0.0056204613308640456 0 0.025268117095289054 -0.0019463319532034402 0 0.029044814122540116 -0.0013380377275506782 0 0.042691479103411895 0.0010944179864511652 0 0.042829204088236587 0.0011639393632462184 0 0.042830030169860679 0.00058145743365174772 0 0.042829204088236587 0.0011639393632462184 0 0.042830030169860679 0.00058145743365174772 0 0.043212809538319755 0.00062583116711920734 0 0.025268117095289054 -0.0019463319532034402 0 0.023504291579175513 -0.0041587150081220858 0 0.042830030169860679 0.00058145743365174772 0 0.043146072732201494 0.00032903056726339296 0 0.043212809538319755 0.00062583116711920734 0 0.017553001069013852 -0.00052799470404744106 0 0.020152644819205409 -0.0018741029150487723 0 0.020938682490990887 -0.00018442266553834165 0 0.017553001069013852 -0.00052799470404744106 0 0.020938682490990887 -0.00018442266553834165 0 0.019301992666491657 0.0013691134651733512 0 0.023916573308417736 -0.0019994476424084091 0 0.020152644819205409 -0.0018741029150487723 0 0.020938682490990887 -0.00018442266553834165 0 0.020938682490990887 -0.00018442266553834165 0 0.019301992666491657 0.0013691134651733512 0 0.021996412275463846 0.0032366704620515343 0 0.042448011817123051 0.0011384774255930679 0 0.042910843659449201 0.00042460193131847181 0 0.04329358179075922 0.00045221183711799081 0 0.032297082735902642 -0.00035696896887516991 0 0.032673699760740034 -0.0026984136259826943 0 0.019301992666491657 0.0013691134651733512 0 0.021996412275463846 0.0032366704620515343 0 0.016900157869383956 0.003731189581083151 0 0.042448011817123051 0.0011384774255930679 0 0.042587741570783273 0.00021638971354947712 0 0.042910843659449201 0.00042460193131847181 0 0.042587741570783273 0.00021638971354947712 0 0.042910843659449201 0.00042460193131847181 0 0.043003626516247812 -4.1201117595073123e-06 0 0.04270267959465493 -0.00038747930973122779 0 0.042587741570783273 0.00021638971354947712 0 0.043003626516247812 -4.1201117595073123e-06 0 0.043188362047583216 -0.00037108191811792245 0 0.043003626516247812 -4.1201117595073123e-06 0 0.043251533886708542 -9.395386342959609e-05 0 0.043003626516247812 -4.1201117595073123e-06 0 0.043251533886708542 -9.395386342959609e-05 0 0.043268920202243259 0.0001819152454516555 0 0.042910843659449201 0.00042460193131847181 0 0.043268920202243259 0.0001819152454516555 0 0.04329358179075922 0.00045221183711799081 0 0.042910843659449201 0.00042460193131847181 0 0.043003626516247812 -4.1201117595073123e-06 0 0.043268920202243259 0.0001819152454516555 0 0.043251533886708542 -9.395386342959609e-05 0 0.043268920202243259 0.0001819152454516555 0 0.043316479873782066 -3.6525477946646297e-05 0 0.029044814122540116 -0.0013380377275506782 0 0.032673699760740034 -0.0026984136259826943 0 0.043268920202243259 0.0001819152454516555 0 0.043274257740495481 0.00012819293734704572 0 0.043227190028321344 0.00011322973398121993 0 0.042968615452772446 0.00011449652202259819 0 0.043146072732201494 0.00032903056726339296 0 0.043227190028321344 0.00011322973398121993 0 0.032673699760740034 -0.0026984136259826943 0 0.033884229853747304 -0.0027046504495447949 0 0.042830030169860679 0.00058145743365174772 0 0.042968615452772446 0.00011449652202259819 0 0.043146072732201494 0.00032903056726339296 0 0.017553001069013852 -0.00052799470404744106 0 0.019301992666491657 0.0013691134651733512 0 0.016900157869383956 0.003731189581083151 0 0.03282050331299733 -0.0026004053818514212 0 0.032673699760740034 -0.0026984136259826943 0 0.043146072732201494 0.00032903056726339296 0 0.043507748665380874 0.00013674709568687647 0 0.043212809538319755 0.00062583116711920734 0 0.043146072732201494 0.00032903056726339296 0 0.043227190028321344 0.00011322973398121993 0 0.043507748665380874 0.00013674709568687647 0 0.024477147144637969 -0.0067973150761925982 0 0.023883909297713276 -0.0056204613308640456 0 0.043227190028321344 0.00011322973398121993 0 0.043444692909646643 -0.00010884586671180887 0 0.043316479873782066 -3.6525477946646297e-05 0 0.043268920202243259 0.0001819152454516555 0 0.043227190028321344 0.00011322973398121993 0 0.043316479873782066 -3.6525477946646297e-05 0 0.043227190028321344 0.00011322973398121993 0 0.043444692909646643 -0.00010884586671180887 0 0.043507748665380874 0.00013674709568687647 0 0.043365899382698636 -0.0002468877781636855 0 0.043251533886708542 -9.395386342959609e-05 0 0.043316479873782066 -3.6525477946646297e-05 0 0.043365899382698636 -0.0002468877781636855 0 0.043444692909646643 -0.00010884586671180887 0 0.043316479873782066 -3.6525477946646297e-05 0 0.025215811044512284 -0.007575651897322639 0 0.024477147144637969 -0.0067973150761925982 0 0.043444692909646643 -0.00010884586671180887 0 0.043661301748006566 -0.00027123418615580076 0 0.043507748665380874 0.00013674709568687647 0 0.0054786484815592404 -0.01657809789949009 0 0.004984043005386257 -0.015078226756733499 0 0.0043639951096836535 -0.014537216246875071 0 0.043485620282696827 -0.00038370965800081896 0 0.043444692909646643 -0.00010884586671180887 0 0.043661301748006566 -0.00027123418615580076 0 0.005965000960355381 -0.015266681036255808 0 0.0054786484815592404 -0.01657809789949009 0 0.004984043005386257 -0.015078226756733499 0 0.004984043005386257 -0.015078226756733499 0 0.0054626419431570263 -0.014604829824268355 0 0.0049096397698040837 -0.013762973613466432 0 0.004984043005386257 -0.015078226756733499 0 0.0049096397698040837 -0.013762973613466432 0 0.0033161142020746567 -0.012499020045649449 0 0.004984043005386257 -0.015078226756733499 0 0.0043639951096836535 -0.014537216246875071 0 0.0041006312855670218 -0.01260481304096393 0 0.005965000960355381 -0.015266681036255808 0 0.004984043005386257 -0.015078226756733499 0 0.0054626419431570263 -0.014604829824268355 0 0.0090866754025197664 -0.01125142389793659 0 0.010255999624937588 -0.0093691049779406101 0 0.0059708790999437834 -0.014276546990269793 0 0.0054626419431570263 -0.014604829824268355 0 0.0049096397698040837 -0.013762973613466432 0 0.0058538971379151856 -0.013210445886630246 0 0.0049096397698040837 -0.013762973613466432 0 0.0046841254841837755 -0.012652144911389175 0 0.0058538971379151856 -0.013210445886630246 0 0.0046841254841837755 -0.012652144911389175 0 0.0052796066169051902 -0.012067704275289155 0 0.0046841254841837755 -0.012652144911389175 0 0.0052796066169051902 -0.012067704275289155 0 0.0040630421779111105 -0.011727623994699907 0 0.0046841254841837755 -0.012652144911389175 0 0.0033161142020746567 -0.012499020045649449 0 0.0040630421779111105 -0.011727623994699907 0 0.0049096397698040837 -0.013762973613466432 0 0.0046841254841837755 -0.012652144911389175 0 0.0033161142020746567 -0.012499020045649449 0 0.0043639951096836535 -0.014537216246875071 0 0.0034518816388997837 -0.012532388205401352 0 0.0041006312855670218 -0.01260481304096393 0 0.010255999624937588 -0.0093691049779406101 0 0.016146039341490292 -0.0055897354923413328 0 0.0033161142020746567 -0.012499020045649449 0 0.0025855223503943067 -0.010744804640166425 0 0.0040630421779111105 -0.011727623994699907 0 0.0024426416873424887 -0.010707029102437171 0 0.0041006312855670218 -0.01260481304096393 0 0.0031309649405749989 -0.010359093508718909 0 0.0025855223503943067 -0.010744804640166425 0 0.0037981233991084447 -0.01080674527597753 0 0.0040630421779111105 -0.011727623994699907 0 0.0033161142020746567 -0.012499020045649449 0 0.0025855223503943067 -0.010744804640166425 0 0.0019323377449844384 -0.0099006826745449018 0 0.0024426416873424887 -0.010707029102437171 0 0.0034518816388997837 -0.012532388205401352 0 0.0041006312855670218 -0.01260481304096393 0 0.0025855223503943067 -0.010744804640166425 0 0.0031077548042543206 -0.010503367216057557 0 0.0037981233991084447 -0.01080674527597753 0 0.0025855223503943067 -0.010744804640166425 0 0.0031077548042543206 -0.010503367216057557 0 0.002555413465126622 -0.0099958852386976861 0 0.0031077548042543206 -0.010503367216057557 0 0.0037981233991084447 -0.01080674527597753 0 0.0028525755605341881 -0.010004307054187126 0 0.0037981233991084447 -0.01080674527597753 0 0.0052464877451960075 -0.01045976464589299 0 0.0028525755605341881 -0.010004307054187126 0 0.0052796066169051902 -0.012067704275289155 0 0.0052464877451960075 -0.01045976464589299 0 0.0040630421779111105 -0.011727623994699907 0 0.0037981233991084447 -0.01080674527597753 0 0.0052464877451960075 -0.01045976464589299 0 0.0040630421779111105 -0.011727623994699907 0 0.0012605582697081247 -0.0096871571276008935 0 0.0021673403926887936 -0.010370554020641779 0 0.0016115580822651135 -0.010714977020963771 0 0.0044632388505621533 -0.0091785165345689632 0 0.0040793331716019133 -0.0092320563364168152 0 0.0012605582697081247 -0.0096871571276008935 0 0.0021673403926887936 -0.010370554020641779 0 0.0028525755605341881 -0.010004307054187126 0 0.0021673403926887936 -0.010370554020641779 0 0.0027913002215816021 -0.010189716314491013 0 0.0022090837131200341 -0.011229593325494832 0 0.0021673403926887936 -0.010370554020641779 0 0.0016115580822651135 -0.010714977020963771 0 0.0022090837131200341 -0.011229593325494832 0 0.0021673403926887936 -0.010370554020641779 0 0.0028525755605341881 -0.010004307054187126 0 0.0027913002215816021 -0.010189716314491013 0 0.0031976719369545235 -0.0099842355103200026 0 0.0027913002215816021 -0.010189716314491013 0 0.0032273134719868475 -0.01161650480671228 0 0.0031077548042543206 -0.010503367216057557 0 0.0028525755605341881 -0.010004307054187126 0 0.002555413465126622 -0.0099958852386976861 0 0.0028525755605341881 -0.010004307054187126 0 0.002555413465126622 -0.0099958852386976861 0 0.0027913002215816021 -0.010189716314491013 0 0.013625935354670642 -0.0055858555948487924 0 0.012844057253610836 -0.0059633482944854909 0 0.013203784841758024 -0.0061757693951186004 0 0.013625935354670642 -0.0055858555948487924 0 0.0025855223503943067 -0.010744804640166425 0 0.0019323377449844384 -0.0099006826745449018 0 0.0024195305185244734 -0.0096518607673423962 0 0.016146039341490292 -0.0055897354923413328 0 0.013625935354670642 -0.0055858555948487924 0 0.0027913002215816021 -0.010189716314491013 0 0.0032273134719868475 -0.01161650480671228 0 0.0022090837131200341 -0.011229593325494832 0 0.013625935354670642 -0.0055858555948487924 0 0.012338887566995008 -0.0060625048386662161 0 0.0032273134719868475 -0.01161650480671228 0 0.0022090837131200341 -0.011229593325494832 0 0.0025186479611407201 -0.012299231716465178 0 0.0016115580822651135 -0.010714977020963771 0 0.0022090837131200341 -0.011229593325494832 0 0.0013788194112187161 -0.011361103390041403 0 0.00081003174186660418 -0.010991270431427742 0 0.0016115580822651135 -0.010714977020963771 0 0.0013788194112187161 -0.011361103390041403 0 0.00071197130122241533 -0.011738655187019805 0 0.0013788194112187161 -0.011361103390041403 0 0.0015788493286716398 -0.012138558673457525 0 0.0022090837131200341 -0.011229593325494832 0 0.0013788194112187161 -0.011361103390041403 0 0.0015788493286716398 -0.012138558673457525 0 0.0022090837131200341 -0.011229593325494832 0 0.0015788493286716398 -0.012138558673457525 0 0.0025186479611407201 -0.012299231716465178 0 0.0015788493286716398 -0.012138558673457525 0 0.00183636644293002 -0.012874093787390685 0 0.0025186479611407201 -0.012299231716465178 0 0.0010080183466240383 -0.012991072708619324 0 0.0015788493286716398 -0.012138558673457525 0 0.00183636644293002 -0.012874093787390685 0 0.0010080183466240383 -0.012991072708619324 0 0.00183636644293002 -0.012874093787390685 0 0.0017708715845814445 -0.013603196196496041 0 0.00183636644293002 -0.012874093787390685 0 0.0017708715845814445 -0.013603196196496041 0 0.0025815862786632317 -0.012997826835227891 0 0.0026608718345921488 -0.013585108263310438 0 0.0025815862786632317 -0.012997826835227891 0 0.0033834548608102253 -0.013092585084871908 0 0.0026608718345921488 -0.013585108263310438 0 0.0033834548608102253 -0.013092585084871908 0 0.0034679734695161821 -0.013671607127372851 0 0.0017708715845814445 -0.013603196196496041 0 0.0026608718345921488 -0.013585108263310438 0 0.0025815862786632317 -0.012997826835227891 0 0.00183636644293002 -0.012874093787390685 0 0.0025815862786632317 -0.012997826835227891 0 0.0025186479611407201 -0.012299231716465178 0 0.0025815862786632317 -0.012997826835227891 0 0.0025186479611407201 -0.012299231716465178 0 0.0033710185749638022 -0.013113692621601185 0 0.0084253910382227053 -0.0061210903714612611 0 0.0096793260969374306 -0.0058233398893735248 0 0.0032273134719868475 -0.01161650480671228 0 0.0025186479611407201 -0.012299231716465178 0 0.0033710185749638022 -0.013113692621601185 0 0.012338887566995008 -0.0060625048386662161 0 0.0096793260969374306 -0.0058233398893735248 0 0.026362932282112988 -0.00054759317645124508 0 0.026251658840144219 -0.00049304394440334478 0 0.026258967190913987 -0.00037541922316328662 0 0.026362932282112988 -0.00054759317645124508 0 0.026258967190913987 -0.00037541922316328662 0 0.026309807391989546 -0.00026075316213109389 0 0.026251658840144219 -0.00049304394440334478 0 0.026201545355530157 -0.00044058425255304623 0 0.026258967190913987 -0.00037541922316328662 0 0.026201545355530157 -0.00044058425255304623 0 0.026062282075866194 -0.00062402396781969952 0 0.026189125176548464 -0.0005342226232960233 0 0.026251658840144219 -0.00049304394440334478 0 0.026201545355530157 -0.00044058425255304623 0 0.026189125176548464 -0.0005342226232960233 0 0.026201545355530157 -0.00044058425255304623 0 0.026258967190913987 -0.00037541922316328662 0 0.026177808545414714 -0.00031347426646176671 0 0.026258967190913987 -0.00037541922316328662 0 0.026309807391989546 -0.00026075316213109389 0 0.026217333234231737 -0.00025092658945366438 0 0.026258967190913987 -0.00037541922316328662 0 0.026217333234231737 -0.00025092658945366438 0 0.026177808545414714 -0.00031347426646176671 0 0.0096793260969374306 -0.0058233398893735248 0 0.013016379680387035 -0.0032973754501670087 0 0.00097170303789183537 0.0051029439874578078 0 -0.0009104718388571832 0.0038357212499933605 0 0.00021108222254709468 0.0025944169429034068 0 0.013016379680387035 -0.0032973754501670087 0 0.0077148553496372667 -0.0050225020479225625 0 0.0089862617449563125 -0.0041485459505305284 0 0.007967206663571683 -0.0039950360636593464 0 0.0088798136617724861 -0.0033976606175400974 0 0.0096793260969374306 -0.0058233398893735248 0 0.0077148553496372667 -0.0050225020479225625 0 0.026217333234231737 -0.00025092658945366438 0 0.026177808545414714 -0.00031347426646176671 0 0.026010058053724108 -0.00023369904181844438 0 0.013016379680387035 -0.0032973754501670087 0 0.015212336808960523 -0.00050954300383798722 0 0.00097170303789183537 0.0051029439874578078 0 0.0057694835679189668 0.0044810502140834466 0 0.0035264767601391701 0.0022488960776086346 0 0.013016379680387035 -0.0032973754501670087 0 0.020161058263010821 0.00015808185692266365 0 0.027331572151725061 0.00066059048078064724 0 0.026010058053724108 -0.00023369904181844438 0 0.025707790879135189 0.00096437945141848486 0 0.026201545355530157 -0.00044058425255304623 0 0.026177808545414714 -0.00031347426646176671 0 0.026062282075866194 -0.00062402396781969952 0 0.02497125599654984 -0.0012590250457992242 0 0.024866988974379198 -0.001553375413826876 0 0.026177808545414714 -0.00031347426646176671 0 0.026166404930982084 -0.00050185776761021506 0 0.026010058053724108 -0.00023369904181844438 0 0.026177808545414714 -0.00031347426646176671 0 0.026166404930982084 -0.00050185776761021506 0 0.026322426256787303 -0.00064243586033240559 0 0.026166404930982084 -0.00050185776761021506 0 0.026198056221755563 -0.00067079269606707759 0 0.026086376650387242 -0.00080335279056443403 0 0.026237534561299566 -0.00088741647260514873 0 0.026322426256787303 -0.00064243586033240559 0 0.026265947811257885 -0.00098581819512110749 0 0.026166404930982084 -0.00050185776761021506 0 0.026198056221755563 -0.00067079269606707759 0 0.026322426256787303 -0.00064243586033240559 0 0.024866988974379198 -0.001553375413826876 0 0.024543214779339219 -0.0025363257879495432 0 0.026207270085218039 -0.00079108006715319684 0 0.026194983780756805 -0.00092419345731280689 0 0.026086376650387242 -0.00080335279056443403 0 0.026198056221755563 -0.00067079269606707759 0 0.026207270085218039 -0.00079108006715319684 0 0.026086376650387242 -0.00080335279056443403 0 0.026207270085218039 -0.00079108006715319684 0 0.026237534561299566 -0.00088741647260514873 0 0.026194983780756805 -0.00092419345731280689 0 0.026207270085218039 -0.00079108006715319684 0 0.026237534561299566 -0.00088741647260514873 0 0.026322426256787303 -0.00064243586033240559 0 0.026198056221755563 -0.00067079269606707759 0 0.026207270085218039 -0.00079108006715319684 0 0.026322426256787303 -0.00064243586033240559 0 0.026189125176548464 -0.0005342226232960233 0 0.026254603473813299 -0.00060984637382233847 0 0.026234175838161712 -0.00074003984572921773 0 0.026389036168599937 -0.00093769951780035116 0 0.026362932282112988 -0.00054759317645124508 0 0.026234175838161712 -0.00074003984572921773 0 0.026062282075866194 -0.00062402396781969952 0 0.026189125176548464 -0.0005342226232960233 0 0.026440822649013155 -0.0010238519255555544 0 0.01919400149122466 -0.0041900742040248389 0 0.018489950210339657 -0.0045679528134618501 0 0.026062282075866194 -0.00062402396781969952 0 0.026440822649013155 -0.0010238519255555544 0 0.026108952109615134 -0.0012419425065352189 0 0.026251658840144219 -0.00049304394440334478 0 0.026189125176548464 -0.0005342226232960233 0 0.026254603473813299 -0.00060984637382233847 0 0.026362932282112988 -0.00054759317645124508 0 0.026251658840144219 -0.00049304394440334478 0 0.026254603473813299 -0.00060984637382233847 0 0.026362932282112988 -0.00054759317645124508 0 0.026254603473813299 -0.00060984637382233847 0 0.026234175838161712 -0.00074003984572921773 0 0.026440822649013155 -0.0010238519255555544 0 0.026108952109615134 -0.0012419425065352189 0 0.026414893991725245 -0.0014036115440093186 0 0.016146039341490292 -0.0055897354923413328 0 0.018489950210339657 -0.0045679528134618501 0 0.026316711408955293 -0.00097513157899724074 0 0.026389036168599937 -0.00093769951780035116 0 0.026234175838161712 -0.00074003984572921773 0 0.026716105988911852 -0.0015958476048671139 0 0.026440822649013155 -0.0010238519255555544 0 0.026414893991725245 -0.0014036115440093186 0 0.023504291579175513 -0.0041587150081220858 0 0.016146039341490292 -0.0055897354923413328 0 0.02639686087712469 -0.0017569814665820908 0 0.026716105988911852 -0.0015958476048671139 0 0.026414893991725245 -0.0014036115440093186 0 0.023504291579175513 -0.0041587150081220858 0 0.024543214779339219 -0.0025363257879495432 0 0.025268117095289054 -0.0019463319532034402 0 0.024543214779339219 -0.0025363257879495432 0 0.02639686087712469 -0.0017569814665820908 0 0.026108952109615134 -0.0012419425065352189 0 0.026414893991725245 -0.0014036115440093186 0 0.024222419101615052 -0.0057428783642368602 0 0.025535785383099495 -0.005079913149355437 0 0.023622947156748696 -0.0019674752891096713 0 0.025960274812286761 -0.00077220562173293801 0 0.026146832529925609 -0.00092138617606874937 0 0.026150610216810574 -0.00087962137432263444 0 0.026150610216810574 -0.00087962137432263444 0 0.026194983780756805 -0.00092419345731280689 0 0.026328249751132994 -0.00090646320273758934 0 0.026150610216810574 -0.00087962137432263444 0 0.026194983780756805 -0.00092419345731280689 0 0.026185427870282139 -0.00091517297090218277 0 0.026237534561299566 -0.00088741647260514873 0 0.026194983780756805 -0.00092419345731280689 0 0.026185427870282139 -0.00091517297090218277 0 0.026146832529925609 -0.00092138617606874937 0 0.026150610216810574 -0.00087962137432263444 0 0.026185427870282139 -0.00091517297090218277 0 0.026237534561299566 -0.00088741647260514873 0 0.026146832529925609 -0.00092138617606874937 0 0.026185427870282139 -0.00091517297090218277 0 0.024552102052386227 -0.00249946520808567 0 0.024543214779339219 -0.0025363257879495432 0 0.026282395810765514 -0.00095527562659872853 0 0.026054241764437103 -0.00095805587830322299 0 0.026086376650387242 -0.00080335279056443403 0 0.026194983780756805 -0.00092419345731280689 0 0.026282395810765514 -0.00095527562659872853 0 0.026328249751132994 -0.00090646320273758934 0 0.026194983780756805 -0.00092419345731280689 0 0.026282395810765514 -0.00095527562659872853 0 0.026086376650387242 -0.00080335279056443403 0 0.026667299578976532 -0.00096870651546041898 0 0.026282395810765514 -0.00095527562659872853 0 0.026328249751132994 -0.00090646320273758934 0 0.026667299578976532 -0.00096870651546041898 0 0.026282395810765514 -0.00095527562659872853 0 0.026054241764437103 -0.00095805587830322299 0 0.027719271682572062 -0.00099585421097833095 0 0.026667299578976532 -0.00096870651546041898 0 0.026054241764437103 -0.00095805587830322299 0 0.027719271682572062 -0.00099585421097833095 0 0.026054241764437103 -0.00095805587830322299 0 0.024687167398462273 -0.00095239045244465727 0 0.026054241764437103 -0.00095805587830322299 0 0.025695665982466601 -0.00054948199829738594 0 0.024728295197105551 -0.00042432059291120023 0 0.026054241764437103 -0.00095805587830322299 0 0.026086376650387242 -0.00080335279056443403 0 0.025695665982466601 -0.00054948199829738594 0 0.026166404930982084 -0.00050185776761021506 0 0.026086376650387242 -0.00080335279056443403 0 0.025695665982466601 -0.00054948199829738594 0 0.026166404930982084 -0.00050185776761021506 0 0.025695665982466601 -0.00054948199829738594 0 0.026010058053724108 -0.00023369904181844438 0 0.025695665982466601 -0.00054948199829738594 0 0.026010058053724108 -0.00023369904181844438 0 0.025118463388711466 0.00010127331977619388 0 0.026010058053724108 -0.00023369904181844438 0 0.025707790879135189 0.00096437945141848486 0 0.025118463388711466 0.00010127331977619388 0 0.015212336808960523 -0.00050954300383798722 0 0.01683157690583998 0.00027738878386702391 0 0.025707790879135189 0.00096437945141848486 0 0.025118463388711466 0.00010127331977619388 0 0.023367583564491742 0.0010712053589497594 0 0.024728295197105551 -0.00042432059291120023 0 0.025118463388711466 0.00010127331977619388 0 0.023367583564491742 0.0010712053589497594 0 0.025695665982466601 -0.00054948199829738594 0 0.024728295197105551 -0.00042432059291120023 0 0.025118463388711466 0.00010127331977619388 0 0.024728295197105551 -0.00042432059291120023 0 0.023376718673618069 -0.00032646365972856088 0 0.023367583564491742 0.0010712053589497594 0 0.021068387595654835 -2.0864537793889914e-06 0 0.023376718673618069 -0.00032646365972856088 0 0.023367583564491742 0.0010712053589497594 0 0.021068387595654835 -2.0864537793889914e-06 0 0.01807243927837969 5.5433787553907095e-06 0 0.023367583564491742 0.0010712053589497594 0 0.021068387595654835 -2.0864537793889914e-06 0 0.023376718673618069 -0.00032646365972856088 0 0.024071541520121642 -1.1786936941221733e-06 0 0.024077781862892882 -9.2589979095195521e-07 0 0.025691802101514272 -0.00072543800039090358 0 0.023376718673618069 -0.00032646365972856088 0 0.024071541520121642 -1.1786936941221733e-06 0 0.024687167398462273 -0.00095239045244465727 0 0.026054241764437103 -0.00095805587830322299 0 0.024728295197105551 -0.00042432059291120023 0 0.024687167398462273 -0.00095239045244465727 0 0.024728295197105551 -0.00042432059291120023 0 0.023376718673618069 -0.00032646365972856088 0 0.024687167398462273 -0.00095239045244465727 0 0.026075638482229588 -0.00077916769343572322 0 0.025691802101514272 -0.00072543800039090358 0 0.029445083283208769 -0.00039596410134625464 0 0.027719271682572062 -0.00099585421097833095 0 0.028773781207138062 -0.00029448831503005069 0 0.024080061968876496 2.7848515731402134e-06 0 0.028773781207138062 -0.00029448831503005069 0 0.028116106021137167 -2.7792318547526622e-06 0 0.029445083283208769 -0.00039596410134625464 0 0.028773781207138062 -0.00029448831503005069 0 0.028116106021137167 -2.7792318547526622e-06 0 0.010097463776609876 -0.00077542321285824071 0 0.010369546627495689 -2.4828727524312946e-06 0 0.011340352544751686 -0.00026928292064991001 0 0.010097463776609876 -0.00077542321285824071 0 0.0096288228130527991 -0.00045168762901003735 0 0.011340352544751686 -0.00026928292064991001 0 0.010097463776609876 -0.00077542321285824071 0 0.0092684737255550338 -0.00085875654550747525 0 0.0095100711978790414 -0.0013886099819448131 0 0.010097463776609876 -0.00077542321285824071 0 0.010369546627495689 -2.4828727524312946e-06 0 0.0092684737255550338 -0.00085875654550747525 0 0.0076810762519548279 -0.001040151957347998 0 0.0096288228130527991 -0.00045168762901003735 0 0.0057492625978336131 2.8058093328186347e-05 0 0.0042941002993792977 -0.002311286098197563 0 0.0095696620941316136 -0.0025902120650423991 0 0.0093774093447302025 -0.0019351863140683069 0 0.010097463776609876 -0.00077542321285824071 0 0.0095100711978790414 -0.0013886099819448131 0 0.0093167466788885867 -0.0011305713482202071 0 0.0095100711978790414 -0.0013886099819448131 0 0.0091839183841359081 -0.0015288196859246995 0 0.0093774093447302025 -0.0019351863140683069 0 0.0095100711978790414 -0.0013886099819448131 0 0.0091839183841359081 -0.0015288196859246995 0 0.0093167466788885867 -0.0011305713482202071 0 0.0091839183841359081 -0.0015288196859246995 0 0.0081546554758386899 -0.0015332638634599377 0 0.0093774093447302025 -0.0019351863140683069 0 0.0091839183841359081 -0.0015288196859246995 0 0.0081546554758386899 -0.0015332638634599377 0 0.0093167466788885867 -0.0011305713482202071 0 0.0081546554758386899 -0.0015332638634599377 0 0.0076810762519548279 -0.001040151957347998 0 0.0093167466788885867 -0.0011305713482202071 0 0.0076810762519548279 -0.001040151957347998 0 0.0093167466788885867 -0.0011305713482202071 0 0.0096288228130527991 -0.00045168762901003735 0 0.010097463776609876 -0.00077542321285824071 0 0.0093167466788885867 -0.0011305713482202071 0 0.0096288228130527991 -0.00045168762901003735 0 0.011938381322254296 -0.0011465530647286832 0 0.0077499915945806437 -0.0020072027460768267 0 0.012857214372371946 -0.002067818189154949 0 0.0091010607383885667 -0.0018151313386633478 0 0.0082882179056519272 -0.0039708279852462506 0 0.0096288228130527991 -0.00045168762901003735 0 0.011340352544751686 -0.00026928292064991001 0 0.010995480769506018 0.0012611785134046785 0 0.0096288228130527991 -0.00045168762901003735 0 0.010995480769506018 0.0012611785134046785 0 0.0057492625978336131 2.8058093328186347e-05 0 0.013612874980724167 3.7364153820011493e-08 0 0.011340352544751686 -0.00026928292064991001 0 0.010995480769506018 0.0012611785134046785 0 0.010369546627495689 -2.4828727524312946e-06 0 0.013612874980724167 3.7364153820011493e-08 0 0.011340352544751686 -0.00026928292064991001 0 0.016859730812756924 -5.2127348617094513e-06 0 0.013917409273244648 0.00033213286780270064 0 0.012857214372371946 -0.002067818189154949 0 0.013612874980724167 3.7364153820011493e-08 0 0.016848393982679791 3.2266961274684194e-06 0 0.010995480769506018 0.0012611785134046785 0 0.016846669594151674 1.4221841366760815e-07 0 0.011938381322254296 -0.0011465530647286832 0 0.016859730812756924 -5.2127348617094513e-06 0 0.01805634851479743 7.3459854525302043e-06 0 0.013917409273244648 0.00033213286780270064 0 0.01805634851479743 7.3459854525302043e-06 0 0.013917409273244648 0.00033213286780270064 0 0.011364846116565261 0.0034892028972062475 0 0.018062689576077928 7.2311573879600898e-07 0 0.01683157690583998 0.00027738878386702391 0 0.013917409273244648 0.00033213286780270064 0 0.011364846116565261 0.0034892028972062475 0 0.0090456599594445769 0.00040532154229714978 0 0.012857214372371946 -0.002067818189154949 0 0.0091010607383885667 -0.0018151313386633478 0 0.0090456599594445769 0.00040532154229714978 0 0.013917409273244648 0.00033213286780270064 0 0.012857214372371946 -0.002067818189154949 0 0.0090456599594445769 0.00040532154229714978 0 0.0091010607383885667 -0.0018151313386633478 0 0.0090456599594445769 0.00040532154229714978 0 0.0063939457421280134 -0.0015744596881276951 0 0.0057694835679189668 0.0044810502140834466 0 0.011364846116565261 0.0034892028972062475 0 0.0090456599594445769 0.00040532154229714978 0 0.0057694835679189668 0.0044810502140834466 0 0.0050071285880790061 0.00054695240788796599 0 0.0035264767601391701 0.0022488960776086346 0 0.0057694835679189668 0.0044810502140834466 0 0.0090456599594445769 0.00040532154229714978 0 0.0050071285880790061 0.00054695240788796599 0 0.0090456599594445769 0.00040532154229714978 0 0.0050071285880790061 0.00054695240788796599 0 0.0063939457421280134 -0.0015744596881276951 0 0.0050071285880790061 0.00054695240788796599 0 0.0041109380516021633 -0.0018011173039702458 0 0.0030237520348605513 -0.00068781687584269346 0 0.0050071285880790061 0.00054695240788796599 0 0.0063939457421280134 -0.0015744596881276951 0 0.0041109380516021633 -0.0018011173039702458 0 0.0063939457421280134 -0.0015744596881276951 0 0.0041109380516021633 -0.0018011173039702458 0 0.0052505765467258858 -0.0033076413882210656 0 0.0063939457421280134 -0.0015744596881276951 0 0.0052505765467258858 -0.0033076413882210656 0 0.0082882179056519272 -0.0039708279852462506 0 0.0041109380516021633 -0.0018011173039702458 0 0.0052505765467258858 -0.0033076413882210656 0 0.0031187741665849042 -0.0035848584913496695 0 0.0091010607383885667 -0.0018151313386633478 0 0.0063939457421280134 -0.0015744596881276951 0 0.0082882179056519272 -0.0039708279852462506 0 0.0042941002993792977 -0.002311286098197563 0 0.0037850491005029614 -0.0026225388280033931 0 0.0027225327789121819 -0.0020840784566080192 0 0.0039862791501209032 -0.00026351408129681456 0 0.0042218070922599212 1.3245504631274209e-05 0 0.0081546554758386899 -0.0015332638634599377 0 0.0042941002993792977 -0.002311286098197563 0 0.0093774093447302025 -0.0019351863140683069 0 0.0057492625978336131 2.8058093328186347e-05 0 0.0042941002993792977 -0.002311286098197563 0 0.0037850491005029614 -0.0026225388280033931 0 0.0076810762519548279 -0.001040151957347998 0 0.0057492625978336131 2.8058093328186347e-05 0 0.0042941002993792977 -0.002311286098197563 0 0.0081546554758386899 -0.0015332638634599377 0 0.0076810762519548279 -0.001040151957347998 0 0.0042941002993792977 -0.002311286098197563 0 0.0077499915945806437 -0.0020072027460768267 0 0.0040555342704870203 -0.0026151885866641518 0 0.0052505765467258858 -0.0033076413882210656 0 0.0082882179056519272 -0.0039708279852462506 0 0.0044667751497753658 -0.0054133104455369807 0 0.0052505765467258858 -0.0033076413882210656 0 0.0044667751497753658 -0.0054133104455369807 0 0.0031187741665849042 -0.0035848584913496695 0 0.0020341046482616472 -0.0049946953961367245 0 0.00084673107836402944 -0.0037240755953323883 0 0.0031187741665849042 -0.0035848584913496695 0 0.0044667751497753658 -0.0054133104455369807 0 0.0020341046482616472 -0.0049946953961367245 0 0.0031187741665849042 -0.0035848584913496695 0 0.00084673107836402944 -0.0037240755953323883 0 -0.0016748024886633691 -0.0036371003735436438 0 0.00033908352575270521 -0.0053417191322715114 0 0.0020341046482616472 -0.0049946953961367245 0 0.00084673107836402944 -0.0037240755953323883 0 0.00033908352575270521 -0.0053417191322715114 0 0.00084673107836402944 -0.0037240755953323883 0 -0.00051932341422354254 -0.0020587071326805119 0 -0.0016748024886633691 -0.0036371003735436438 0 0.00084673107836402944 -0.0037240755953323883 0 -0.00051932341422354254 -0.0020587071326805119 0 0.0017532722258630225 -0.0020097831905800658 0 -0.00051932341422354254 -0.0020587071326805119 0 0.0005062283575638409 -0.0012447692186115435 0 -0.00028438478310191512 -0.00049460045089426299 0 -0.00051932341422354254 -0.0020587071326805119 0 0.0017532722258630225 -0.0020097831905800658 0 0.0005062283575638409 -0.0012447692186115435 0 0.0017532722258630225 -0.0020097831905800658 0 0.0016346871388245169 -0.00072701770073164572 0 0.0005062283575638409 -0.0012447692186115435 0 0.00084673107836402944 -0.0037240755953323883 0 0.0017532722258630225 -0.0020097831905800658 0 0.0031187741665849042 -0.0035848584913496695 0 0.0041109380516021633 -0.0018011173039702458 0 0.0017532722258630225 -0.0020097831905800658 0 0.0031187741665849042 -0.0035848584913496695 0 0.0041109380516021633 -0.0018011173039702458 0 0.0017532722258630225 -0.0020097831905800658 0 0.0030237520348605513 -0.00068781687584269346 0 0.0030237520348605513 -0.00068781687584269346 0 0.0016346871388245169 -0.00072701770073164572 0 0.0026547737167332362 0.00057050911151127371 0 0.0017532722258630225 -0.0020097831905800658 0 0.0030237520348605513 -0.00068781687584269346 0 0.0016346871388245169 -0.00072701770073164572 0 0.0026547737167332362 0.00057050911151127371 0 0.0018626564061980354 0.0014922383703948592 0 0.0010096981398404125 0.00032979264433771386 0 0.0016346871388245169 -0.00072701770073164572 0 0.0026547737167332362 0.00057050911151127371 0 0.0010096981398404125 0.00032979264433771386 0 0.0050071285880790061 0.00054695240788796599 0 0.0030237520348605513 -0.00068781687584269346 0 0.0026547737167332362 0.00057050911151127371 0 0.0026547737167332362 0.00057050911151127371 0 0.0035264767601391701 0.0022488960776086346 0 0.0018626564061980354 0.0014922383703948592 0 0.00097170303789183537 0.0051029439874578078 0 0.0035264767601391701 0.0022488960776086346 0 0.0014133753424911031 0.0027050715785801359 0 0.0050071285880790061 0.00054695240788796599 0 0.0026547737167332362 0.00057050911151127371 0 0.0035264767601391701 0.0022488960776086346 0 0.0035264767601391701 0.0022488960776086346 0 0.0018626564061980354 0.0014922383703948592 0 0.0014133753424911031 0.0027050715785801359 0 0.0018626564061980354 0.0014922383703948592 0 0.0014133753424911031 0.0027050715785801359 0 0.00074213480324462249 0.0016426891969250742 0 -0.0009104718388571832 0.0038357212499933605 0 0.00021108222254709468 0.0025944169429034068 0 -0.00052193421098542005 0.0011730519529911368 0 0.0077148553496372667 -0.0050225020479225625 0 0.0042306226897240199 -0.0028375826661477576 0 0.00097170303789183537 0.0051029439874578078 0 0.0014133753424911031 0.0027050715785801359 0 0.00021108222254709468 0.0025944169429034068 0 0.00021108222254709468 0.0025944169429034068 0 0.00074213480324462249 0.0016426891969250742 0 -0.00052193421098542005 0.0011730519529911368 0 0.0014133753424911031 0.0027050715785801359 0 0.00021108222254709468 0.0025944169429034068 0 0.00074213480324462249 0.0016426891969250742 0 0.0018626564061980354 0.0014922383703948592 0 0.00074213480324462249 0.0016426891969250742 0 0.0010096981398404125 0.00032979264433771386 0 0.00074213480324462249 0.0016426891969250742 0 -0.00052193421098542005 0.0011730519529911368 0 0.00026507432787231395 0.00065917368531331867 0 -0.00052193421098542005 0.0011730519529911368 0 0.00026507432787231395 0.00065917368531331867 0 -0.00028438478310191512 -0.00049460045089426299 0 0.0042306226897240199 -0.0028375826661477576 0 0.0040028852917962298 -0.0023852262291448735 0 -0.00057122548799120882 0.00050551426148939056 0 -0.00028438478310191512 -0.00049460045089426299 0 -0.0015077166603387183 -0.00014735493993264003 0 0.00074213480324462249 0.0016426891969250742 0 0.00026507432787231395 0.00065917368531331867 0 0.0010096981398404125 0.00032979264433771386 0 0.00026507432787231395 0.00065917368531331867 0 0.0010096981398404125 0.00032979264433771386 0 -0.00028438478310191512 -0.00049460045089426299 0 0.0010096981398404125 0.00032979264433771386 0 0.0005062283575638409 -0.0012447692186115435 0 -0.00028438478310191512 -0.00049460045089426299 0 0.0016346871388245169 -0.00072701770073164572 0 0.0010096981398404125 0.00032979264433771386 0 0.0005062283575638409 -0.0012447692186115435 0 -0.00051932341422354254 -0.0020587071326805119 0 -0.00028438478310191512 -0.00049460045089426299 0 -0.002015135073801036 -0.0010398779935303036 0 -0.002015135073801036 -0.0010398779935303036 0 -0.0015077166603387183 -0.00014735493993264003 0 -0.0030366837988934389 0.0003476852175925736 0 -0.00028438478310191512 -0.00049460045089426299 0 -0.002015135073801036 -0.0010398779935303036 0 -0.0015077166603387183 -0.00014735493993264003 0 -0.00057122548799120882 0.00050551426148939056 0 -0.0015077166603387183 -0.00014735493993264003 0 -0.0030366837988934389 0.0003476852175925736 0 0.0077148553496372667 -0.0050225020479225625 0 0.0010467753049037381 -0.0048704817125983131 0 0.0042306226897240199 -0.0028375826661477576 0 0.0010467753049037381 -0.0048704817125983131 0 0.0059095544387562553 -0.003871283570386149 0 0.0060965868745996629 -0.0052286677067189509 0 0.004078071222070781 -0.0050599715944207261 0 0.0026608718345921488 -0.013585108263310438 0 0.0034679734695161821 -0.013671607127372851 0 0.002087868301868055 -0.014572016829532831 0 0.0017708715845814445 -0.013603196196496041 0 0.002087868301868055 -0.014572016829532831 0 0.00033371511627390538 -0.014418488072688434 0 0.0010467753049037381 -0.0048704817125983131 0 -0.0014109945599298374 -0.0066892281017532917 0 0.0017708715845814445 -0.013603196196496041 0 0.0026608718345921488 -0.013585108263310438 0 0.002087868301868055 -0.014572016829532831 0 0.0010467753049037381 -0.0048704817125983131 0 -0.0010753322515386651 -0.0044047538480287635 0 -0.0030366837988934389 0.0003476852175925736 0 -0.0035085946845061339 -0.0016891286187547905 0 -0.0046247021361764257 -0.0014858659854481279 0 -0.002015135073801036 -0.0010398779935303036 0 -0.0030366837988934389 0.0003476852175925736 0 -0.0035085946845061339 -0.0016891286187547905 0 -0.0035085946845061339 -0.0016891286187547905 0 -0.0023544980556509045 -0.0022550231024553082 0 -0.0035835068792146531 -0.0029170707852765234 0 -0.0035085946845061339 -0.0016891286187547905 0 -0.0035835068792146531 -0.0029170707852765234 0 -0.0043088098663368671 -0.0025563046251571978 0 -0.002015135073801036 -0.0010398779935303036 0 -0.0035085946845061339 -0.0016891286187547905 0 -0.0023544980556509045 -0.0022550231024553082 0 -0.00051932341422354254 -0.0020587071326805119 0 -0.0023544980556509045 -0.0022550231024553082 0 -0.0016748024886633691 -0.0036371003735436438 0 -0.00051932341422354254 -0.0020587071326805119 0 -0.002015135073801036 -0.0010398779935303036 0 -0.0023544980556509045 -0.0022550231024553082 0 -0.0016748024886633691 -0.0036371003735436438 0 -0.0035835068792146531 -0.0029170707852765234 0 -0.0039962420836631681 -0.0036896674613886818 0 -0.0023544980556509045 -0.0022550231024553082 0 -0.0016748024886633691 -0.0036371003735436438 0 -0.0035835068792146531 -0.0029170707852765234 0 -0.0035835068792146531 -0.0029170707852765234 0 -0.0043013179610258915 -0.0031684200563460306 0 -0.0039962420836631681 -0.0036896674613886818 0 -0.0035835068792146531 -0.0029170707852765234 0 -0.0043013179610258915 -0.0031684200563460306 0 -0.0043088098663368671 -0.0025563046251571978 0 -0.0043013179610258915 -0.0031684200563460306 0 -0.0046064632098909066 -0.0026627838072709204 0 -0.0047188517187516108 -0.0026215134142347774 0 -0.0043013179610258915 -0.0031684200563460306 0 -0.0039962420836631681 -0.0036896674613886818 0 -0.0046064632098909066 -0.0026627838072709204 0 -0.0039962420836631681 -0.0036896674613886818 0 -0.0048438459556309132 -0.0025783546758138941 0 -0.0052457289459627594 -0.0027124637150138628 0 -0.0016748024886633691 -0.0036371003735436438 0 -0.0039962420836631681 -0.0036896674613886818 0 -0.0012869356218829719 -0.0058470879401165141 0 -0.0019322960965877554 -0.0030622455412669305 0 -0.001472581976345276 -0.003019974998373432 0 -0.0048438459556309132 -0.0025783546758138941 0 -0.0052341023500011392 -0.0021509915963695684 0 -0.0052457289459627594 -0.0027124637150138628 0 -0.0039962420836631681 -0.0036896674613886818 0 -0.0048438459556309132 -0.0025783546758138941 0 -0.0046064632098909066 -0.0026627838072709204 0 -0.0048438459556309132 -0.0025783546758138941 0 -0.0051606360376992236 -0.0021113648812497981 0 -0.0046064632098909066 -0.0026627838072709204 0 -0.0048438459556309132 -0.0025783546758138941 0 -0.0051606360376992236 -0.0021113648812497981 0 -0.0052341023500011392 -0.0021509915963695684 0 -0.0051606360376992236 -0.0021113648812497981 0 -0.0046064632098909066 -0.0026627838072709204 0 -0.0051059556544017521 -0.0021554371805107197 0 -0.0046064632098909066 -0.0026627838072709204 0 -0.0051059556544017521 -0.0021554371805107197 0 -0.0047188517187516108 -0.0026215134142347774 0 -0.0051059556544017521 -0.0021554371805107197 0 -0.0055534818890330745 -0.0018424130337737015 0 -0.0050755717964834184 -0.0020454895165822901 0 -0.0055493338477386502 -0.0014507044656412796 0 -0.0055534818890330745 -0.0018424130337737015 0 -0.0050755717964834184 -0.0020454895165822901 0 -0.0051606360376992236 -0.0021113648812497981 0 -0.0055534818890330745 -0.0018424130337737015 0 -0.0053185037984842549 -0.0018116681339757587 0 -0.0051606360376992236 -0.0021113648812497981 0 -0.0051059556544017521 -0.0021554371805107197 0 -0.0055534818890330745 -0.0018424130337737015 0 -0.0055534818890330745 -0.0018424130337737015 0 -0.0053185037984842549 -0.0018116681339757587 0 -0.0052480279114114729 -0.0019164354881630746 0 -0.0061338660669075281 -0.0013595513438377468 0 -0.0055534818890330745 -0.0018424130337737015 0 -0.006530544843333398 -0.00144781959205114 0 -0.0055720862633372595 -0.0015521315316720215 0 -0.0056067446772683207 -0.0014686022661270066 0 -0.0056067446772683207 -0.0014686022661270066 0 -0.0053641720648464142 -0.0012547355307428109 0 -0.0053185037984842549 -0.0018116681339757587 0 -0.0052480279114114729 -0.0019164354881630746 0 -0.0048756946410407178 -0.0014354685409533141 0 -0.0052480279114114729 -0.0019164354881630746 0 -0.0048756946410407178 -0.0014354685409533141 0 -0.0043402284371618395 -0.0015401138313839845 0 -0.0053185037984842549 -0.0018116681339757587 0 -0.0048756946410407178 -0.0014354685409533141 0 -0.0051193950819329488 -0.00151007482570627 0 -0.0051193950819329488 -0.00151007482570627 0 -0.0052621166049568614 -0.001584410059927599 0 -0.0045517661381644205 -0.00069308383609867244 0 -0.0051193950819329488 -0.00151007482570627 0 -0.0053874873067680656 -0.0019011520513901772 0 -0.0052621166049568614 -0.001584410059927599 0 -0.0051606360376992236 -0.0021113648812497981 0 -0.0053185037984842549 -0.0018116681339757587 0 -0.0052341023500011392 -0.0021509915963695684 0 -0.0053185037984842549 -0.0018116681339757587 0 -0.0051193950819329488 -0.00151007482570627 0 -0.0053874873067680656 -0.0019011520513901772 0 -0.0053185037984842549 -0.0018116681339757587 0 -0.0052341023500011392 -0.0021509915963695684 0 -0.0053874873067680656 -0.0019011520513901772 0 -0.001472581976345276 -0.003019974998373432 0 -7.1047099898830161e-05 -0.0028143157675526694 0 -0.0053874873067680656 -0.0019011520513901772 0 -0.0052457289459627594 -0.0027124637150138628 0 -0.0055366449875397282 -0.001994961737691283 0 -0.0012869356218829719 -0.0058470879401165141 0 0.00033908352575270521 -0.0053417191322715114 0 0.001301902401138629 -0.0069802781167742174 0 -0.00026931963979056033 -0.0028931666730231884 0 -7.1047099898830161e-05 -0.0028143157675526694 0 -0.0052341023500011392 -0.0021509915963695684 0 -0.0053874873067680656 -0.0019011520513901772 0 -0.0052457289459627594 -0.0027124637150138628 0 -0.0016748024886633691 -0.0036371003735436438 0 -0.0012869356218829719 -0.0058470879401165141 0 0.00033908352575270521 -0.0053417191322715114 0 -7.1047099898830161e-05 -0.0028143157675526694 0 -0.00061632962140473668 -0.0017077552411397013 0 0.0040555342704870203 -0.0026151885866641518 0 -7.1047099898830161e-05 -0.0028143157675526694 0 0.0044667751497753658 -0.0054133104455369807 0 0.0020341046482616472 -0.0049946953961367245 0 0.001301902401138629 -0.0069802781167742174 0 0.0020341046482616472 -0.0049946953961367245 0 0.00033908352575270521 -0.0053417191322715114 0 0.001301902401138629 -0.0069802781167742174 0 0.0037850491005029614 -0.0026225388280033931 0 0.0055087181806925773 -0.0012909150830852337 0 0.0035834862750832109 -0.00063976293172429233 0 0.0037850491005029614 -0.0026225388280033931 0 0.0027225327789121819 -0.0020840784566080192 0 0.0035834862750832109 -0.00063976293172429233 0 0.0027225327789121819 -0.0020840784566080192 0 0.00056523455600140709 -0.001238535418278019 0 0.0035834862750832109 -0.00063976293172429233 0 0.0042941002993792977 -0.002311286098197563 0 0.0027225327789121819 -0.0020840784566080192 0 -0.00075057864219216371 -0.0027842955119211136 0 0.0027225327789121819 -0.0020840784566080192 0 0.00056523455600140709 -0.001238535418278019 0 8.3321577885395323e-05 -0.001867111731223806 0 -0.00061632962140473668 -0.0017077552411397013 0 -0.0012464176629985212 -0.0012614884823128952 0 0.00056523455600140709 -0.001238535418278019 0 0.0035834862750832109 -0.00063976293172429233 0 -0.0024707100906248909 -6.5240731074294288e-05 0 -0.0045517661381644205 -0.00069308383609867244 0 -0.0041265089872350299 -0.00099918942945231761 0 -0.0024707100906248909 -6.5240731074294288e-05 0 -0.0048756946410407178 -0.0014354685409533141 0 -0.0051193950819329488 -0.00151007482570627 0 -0.0045517661381644205 -0.00069308383609867244 0 -0.0048756946410407178 -0.0014354685409533141 0 -0.0045517661381644205 -0.00069308383609867244 0 -0.0041265089872350299 -0.00099918942945231761 0 -0.0048756946410407178 -0.0014354685409533141 0 -0.0043402284371618395 -0.0015401138313839845 0 -0.0041265089872350299 -0.00099918942945231761 0 -0.0066492176601085362 -0.0011284958057473182 0 -0.006530544843333398 -0.00144781959205114 0 -0.0065050120621467367 -0.00077471273817557513 0 -0.0065050120621467367 -0.00077471273817557513 0 -0.0043769121074721806 -0.00058783086439300857 0 -0.0052998580256619424 -0.00083428322980404321 0 -0.005988010361642559 -0.00098357160823564168 0 -0.0065050120621467367 -0.00077471273817557513 0 -0.0052998580256619424 -0.00083428322980404321 0 -0.0066492176601085362 -0.0011284958057473182 0 -0.005988010361642559 -0.00098357160823564168 0 -0.0065050120621467367 -0.00077471273817557513 0 -0.0053641720648464142 -0.0012547355307428109 0 -0.005040287502991978 -0.0011105184225288266 0 -0.0043402284371618395 -0.0015401138313839845 0 -0.0041265089872350299 -0.00099918942945231761 0 -0.0037006722312280305 -0.00059172086504431581 0 -0.0043402284371618395 -0.0015401138313839845 0 -0.0037006722312280305 -0.00059172086504431581 0 -0.0043769121074721806 -0.00058783086439300857 0 -0.0043769121074721806 -0.00058783086439300857 0 -0.0047246294711390966 -0.00073918316660053309 0 -0.002941862806442189 3.408664232434783e-05 0 -0.00019555961497768644 -0.00045060556090559749 0 0.0016842505371963867 -2.7233123703260226e-05 0 -0.0037006722312280305 -0.00059172086504431581 0 -0.0043769121074721806 -0.00058783086439300857 0 -0.002941862806442189 3.408664232434783e-05 0 -0.0043769121074721806 -0.00058783086439300857 0 -0.0052998580256619424 -0.00083428322980404321 0 -0.0047246294711390966 -0.00073918316660053309 0 -0.0055954159865769394 -0.00082644472745676449 0 -0.0052998580256619424 -0.00083428322980404321 0 -0.0047246294711390966 -0.00073918316660053309 0 -0.005988010361642559 -0.00098357160823564168 0 -0.0055954159865769394 -0.00082644472745676449 0 -0.0052998580256619424 -0.00083428322980404321 0 -0.0061341412205497044 -0.00068078393282554035 0 -0.0055954159865769394 -0.00082644472745676449 0 -0.0047246294711390966 -0.00073918316660053309 0 -0.0015818827486769479 -0.00085920091150028775 0 -0.00019555961497768644 -0.00045060556090559749 0 -0.0017230820340349026 1.1371292278440293e-06 0 0.0023994679476445572 -0.00013482358923333753 0 0.002704772449150968 -1.9169457295008781e-06 0 0.002704772449150968 -1.9169457295008781e-06 0 0.0035540438158907614 -0.00029412180235055768 0 0.0071239367930837549 2.415768094176234e-06 0 0.0023994679476445572 -0.00013482358923333753 0 0.0035540438158907614 -0.00029412180235055768 0 0.0041785810051728168 -0.00043556916785785323 0 0.0023994679476445572 -0.00013482358923333753 0 0.002704772449150968 -1.9169457295008781e-06 0 0.0035540438158907614 -0.00029412180235055768 0 0.0035540438158907614 -0.00029412180235055768 0 0.0041785810051728168 -0.00043556916785785323 0 0.0071239367930837549 2.415768094176234e-06 0 -0.0041265089872350299 -0.00099918942945231761 0 -0.0037006722312280305 -0.00059172086504431581 0 -0.0024707100906248909 -6.5240731074294288e-05 0 -0.0037006722312280305 -0.00059172086504431581 0 -0.0024707100906248909 -6.5240731074294288e-05 0 -0.002941862806442189 3.408664232434783e-05 0 0.00056523455600140709 -0.001238535418278019 0 -0.0024707100906248909 -6.5240731074294288e-05 0 -0.0012291942955912208 -0.0011520253190567087 0 -0.002941862806442189 3.408664232434783e-05 0 -0.0012291942955912208 -0.0011520253190567087 0 -0.0011571260783349907 -0.001618923764035662 0 -0.0024707100906248909 -6.5240731074294288e-05 0 -0.002941862806442189 3.408664232434783e-05 0 -0.0012291942955912208 -0.0011520253190567087 0 0.0027225327789121819 -0.0020840784566080192 0 8.3321577885395323e-05 -0.001867111731223806 0 -0.00075057864219216371 -0.0027842955119211136 0 -0.002941862806442189 3.408664232434783e-05 0 -0.0011571260783349907 -0.001618923764035662 0 -0.00075057864219216371 -0.0027842955119211136 0 0.0016842505371963867 -2.7233123703260226e-05 0 0.0042218070922599212 1.3245504631274209e-05 0 0.00056523455600140709 -0.001238535418278019 0 -0.0012291942955912208 -0.0011520253190567087 0 8.3321577885395323e-05 -0.001867111731223806 0 -0.0011571260783349907 -0.001618923764035662 0 8.3321577885395323e-05 -0.001867111731223806 0 -0.00075057864219216371 -0.0027842955119211136 0 -0.0012291942955912208 -0.0011520253190567087 0 -0.0011571260783349907 -0.001618923764035662 0 8.3321577885395323e-05 -0.001867111731223806 0 0.0042218070922599212 1.3245504631274209e-05 0 0.0042500013575888333 -2.2699986151349932e-05 0 0.0092684737255550338 -0.00085875654550747525 0 0.0095100711978790414 -0.0013886099819448131 0 0.0096649875407223799 -0.0014203178405761399 0 0.0095100711978790414 -0.0013886099819448131 0 0.0096649875407223799 -0.0014203178405761399 0 0.0093774093447302025 -0.0019351863140683069 0 0.010369546627495689 -2.4828727524312946e-06 0 0.0092684737255550338 -0.00085875654550747525 0 0.0071354769574221216 4.3515198923531871e-07 0 0.0042218070922599212 1.3245504631274209e-05 0 0.0071275848690820539 -1.0953034209376924e-06 0 0.0041785810051728168 -0.00043556916785785323 0 0.0038860818402472056 0.0019483160503675813 0 0.0071239367930837549 2.415768094176234e-06 0 0.0092684737255550338 -0.00085875654550747525 0 0.0096649875407223799 -0.0014203178405761399 0 0.0071354769574221216 4.3515198923531871e-07 0 -0.0008080039300460718 -0.0092643841163928611 0 -0.0017938402447468472 -0.0070024205338036424 0 -0.00019152199273027862 -0.0077268363464562829 0 -0.0008080039300460718 -0.0092643841163928611 0 0.00098548089261416808 -0.0092895012558366508 0 0.00026258073970780992 -0.010577472078834345 0 -0.0008080039300460718 -0.0092643841163928611 0 -0.00019152199273027862 -0.0077268363464562829 0 0.00098548089261416808 -0.0092895012558366508 0 -0.0008080039300460718 -0.0092643841163928611 0 -0.0021226510133226478 -0.0087955394797223953 0 -0.0017938402447468472 -0.0070024205338036424 0 -0.0008080039300460718 -0.0092643841163928611 0 -0.0021226510133226478 -0.0087955394797223953 0 -0.0017876640002629758 -0.010255417283913828 0 -0.0017938402447468472 -0.0070024205338036424 0 -0.00019152199273027862 -0.0077268363464562829 0 -0.00057960276969559808 -0.0058170074983999679 0 -0.00019152199273027862 -0.0077268363464562829 0 0.0014012419165150476 -0.0065242140450846673 0 -0.00057960276969559808 -0.0058170074983999679 0 0.0014012419165150476 -0.0065242140450846673 0 0.0011531636417236452 -0.0080163731383915016 0 0.002517006345034756 -0.0085287289238197006 0 -0.00019152199273027862 -0.0077268363464562829 0 0.0014012419165150476 -0.0065242140450846673 0 0.0011531636417236452 -0.0080163731383915016 0 0.0014012419165150476 -0.0065242140450846673 0 0.0032096716342123145 -0.0072573393178722283 0 0.002517006345034756 -0.0085287289238197006 0 0.0032096716342123145 -0.0072573393178722283 0 0.0038921444747018548 -0.0061837334440254009 0 0.0047717192215311205 -0.0073464004846333052 0 0.0014012419165150476 -0.0065242140450846673 0 0.0032096716342123145 -0.0072573393178722283 0 0.0026487643895064064 -0.0060482751196522487 0 0.0032096716342123145 -0.0072573393178722283 0 0.0038921444747018548 -0.0061837334440254009 0 0.0026487643895064064 -0.0060482751196522487 0 0.0032096716342123145 -0.0072573393178722283 0 0.0043107332756508673 -0.0086042742474056744 0 0.002517006345034756 -0.0085287289238197006 0 0.0032096716342123145 -0.0072573393178722283 0 0.0043107332756508673 -0.0086042742474056744 0 0.0047717192215311205 -0.0073464004846333052 0 0.0043107332756508673 -0.0086042742474056744 0 0.002517006345034756 -0.0085287289238197006 0 0.0041646677487323968 -0.0098644310324962486 0 0.002517006345034756 -0.0085287289238197006 0 0.0041646677487323968 -0.0098644310324962486 0 0.0027294636256434686 -0.010199294758949396 0 -0.00019152199273027862 -0.0077268363464562829 0 0.0011531636417236452 -0.0080163731383915016 0 0.00098548089261416808 -0.0092895012558366508 0 0.0011531636417236452 -0.0080163731383915016 0 0.002517006345034756 -0.0085287289238197006 0 0.00098548089261416808 -0.0092895012558366508 0 0.002517006345034756 -0.0085287289238197006 0 0.00098548089261416808 -0.0092895012558366508 0 0.0027294636256434686 -0.010199294758949396 0 0.00098548089261416808 -0.0092895012558366508 0 0.00144587928749533 -0.010751437161561092 0 0.00026258073970780992 -0.010577472078834345 0 0.00098548089261416808 -0.0092895012558366508 0 0.00144587928749533 -0.010751437161561092 0 0.0027294636256434686 -0.010199294758949396 0 0.00144587928749533 -0.010751437161561092 0 0.0026148799195008024 -0.011976373800203541 0 0.00089442133068015563 -0.011594173856165776 0 0.00144587928749533 -0.010751437161561092 0 0.00089442133068015563 -0.011594173856165776 0 0.00026258073970780992 -0.010577472078834345 0 0.0041646677487323968 -0.0098644310324962486 0 0.0041184623741372765 -0.010874454621505106 0 0.0027294636256434686 -0.010199294758949396 0 0.00144587928749533 -0.010751437161561092 0 0.0027294636256434686 -0.010199294758949396 0 0.0026148799195008024 -0.011976373800203541 0 0.0041184623741372765 -0.010874454621505106 0 0.0027294636256434686 -0.010199294758949396 0 0.0026148799195008024 -0.011976373800203541 0 0.0041184623741372765 -0.010874454621505106 0 0.0026148799195008024 -0.011976373800203541 0 0.0047858202575345793 -0.01197109038054023 0 0.0010037568385594014 -0.015430713575536725 0 0.0026148799195008024 -0.011976373800203541 0 0.0043615442783910613 -0.013874343344583356 0 0.0026148799195008024 -0.011976373800203541 0 0.0043615442783910613 -0.013874343344583356 0 0.0047858202575345793 -0.01197109038054023 0 0.003668694245066747 -0.013594277587800173 0 0.0034861039280479835 -0.013170460357581454 0 0.00072354085176122693 -0.0124964803782286 0 0.0026148799195008024 -0.011976373800203541 0 0.0011205488989591633 -0.012071019155946657 0 0.0026148799195008024 -0.011976373800203541 0 0.00089442133068015563 -0.011594173856165776 0 0.0011205488989591633 -0.012071019155946657 0 0.00089442133068015563 -0.011594173856165776 0 0.0011205488989591633 -0.012071019155946657 0 0.00034336891782829734 -0.012119026109327986 0 0.00072354085176122693 -0.0124964803782286 0 0.0011205488989591633 -0.012071019155946657 0 0.00034336891782829734 -0.012119026109327986 0 0.00034336891782829734 -0.012119026109327986 0 -0.00037012888780115584 -0.012031361688227491 0 -0.00012721707467626314 -0.011496839020491487 0 -0.00037012888780115584 -0.012031361688227491 0 -0.00012721707467626314 -0.011496839020491487 0 -0.00095024457027198354 -0.011764982354861299 0 -0.00012721707467626314 -0.011496839020491487 0 -0.00087331635176233569 -0.01081988265863568 0 -0.00095024457027198354 -0.011764982354861299 0 0.00089442133068015563 -0.011594173856165776 0 0.00034336891782829734 -0.012119026109327986 0 -0.00012721707467626314 -0.011496839020491487 0 0.00089442133068015563 -0.011594173856165776 0 -0.00012721707467626314 -0.011496839020491487 0 0.00026258073970780992 -0.010577472078834345 0 -0.0008080039300460718 -0.0092643841163928611 0 0.00026258073970780992 -0.010577472078834345 0 -0.00087331635176233569 -0.01081988265863568 0 -0.00012721707467626314 -0.011496839020491487 0 0.00026258073970780992 -0.010577472078834345 0 -0.00087331635176233569 -0.01081988265863568 0 -0.0008080039300460718 -0.0092643841163928611 0 -0.0017876640002629758 -0.010255417283913828 0 -0.00087331635176233569 -0.01081988265863568 0 -0.0017876640002629758 -0.010255417283913828 0 -0.00087331635176233569 -0.01081988265863568 0 -0.001592155527898357 -0.011346258440800477 0 -0.00087331635176233569 -0.01081988265863568 0 -0.001592155527898357 -0.011346258440800477 0 -0.00095024457027198354 -0.011764982354861299 0 -0.0015233014486244851 -0.012098364562608528 0 -0.001592155527898357 -0.011346258440800477 0 -0.00095024457027198354 -0.011764982354861299 0 -0.0015233014486244851 -0.012098364562608528 0 -0.001592155527898357 -0.011346258440800477 0 -0.0021041971186021753 -0.011826729204405516 0 -0.001592155527898357 -0.011346258440800477 0 -0.0021041971186021753 -0.011826729204405516 0 -0.0022242448290338483 -0.010933151154855469 0 -0.0021041971186021753 -0.011826729204405516 0 -0.0029018666363959281 -0.011049370281777948 0 -0.0022242448290338483 -0.010933151154855469 0 -0.0021041971186021753 -0.011826729204405516 0 -0.0025726910122605209 -0.011684541806152273 0 -0.0029018666363959281 -0.011049370281777948 0 -0.0021041971186021753 -0.011826729204405516 0 -0.0023145969534997955 -0.012142532149627662 0 -0.0025726910122605209 -0.011684541806152273 0 -0.0018849399329260881 -0.012437118966332707 0 -0.0021041971186021753 -0.011826729204405516 0 -0.0023145969534997955 -0.012142532149627662 0 -0.0018919700940914393 -0.012728763219296795 0 -0.0023145969534997955 -0.012142532149627662 0 -0.0031786854309231406 -0.011676282984811518 0 -0.0023145969534997955 -0.012142532149627662 0 -0.0031786854309231406 -0.011676282984811518 0 -0.0030400555810936912 -0.011682396695650429 0 -0.0023145969534997955 -0.012142532149627662 0 -0.0025726910122605209 -0.011684541806152273 0 -0.0030400555810936912 -0.011682396695650429 0 -0.0015663959356627588 -0.0092204599067899282 0 -0.0015667892037220844 -0.0080558342214052496 0 -0.0018919700940914393 -0.012728763219296795 0 -0.0017874012890010404 -0.014227315284631415 0 -0.00061133235238043562 -0.013584831663184437 0 -0.0015667892037220844 -0.0080558342214052496 0 -0.001578140755623972 -0.0080632535407976665 0 -0.0025726910122605209 -0.011684541806152273 0 -0.0030400555810936912 -0.011682396695650429 0 -0.0029018666363959281 -0.011049370281777948 0 -0.0033201277188121487 -0.011652927059364956 0 -0.0030400555810936912 -0.011682396695650429 0 -0.0029018666363959281 -0.011049370281777948 0 -0.0015667892037220844 -0.0080558342214052496 0 -0.0032370111601027307 -0.0057276429740050544 0 -0.0033201277188121487 -0.011652927059364956 0 -0.0029018666363959281 -0.011049370281777948 0 -0.0044294155497089744 -0.0093914699111753257 0 -0.0029018666363959281 -0.011049370281777948 0 -0.00291191391048851 -0.0098229525925409202 0 -0.0044294155497089744 -0.0093914699111753257 0 -0.0053911838542225156 -0.0010228773318665808 0 -0.0049985210433576887 -0.0014240150004937219 0 -0.0053647980312630994 -0.0018039468046811649 0 -0.0021226510133226478 -0.0087955394797223953 0 -0.0017876640002629758 -0.010255417283913828 0 -0.00291191391048851 -0.0098229525925409202 0 -0.0017876640002629758 -0.010255417283913828 0 -0.001592155527898357 -0.011346258440800477 0 -0.0022242448290338483 -0.010933151154855469 0 -0.0017876640002629758 -0.010255417283913828 0 -0.00291191391048851 -0.0098229525925409202 0 -0.0022242448290338483 -0.010933151154855469 0 -0.0029018666363959281 -0.011049370281777948 0 -0.00291191391048851 -0.0098229525925409202 0 -0.0022242448290338483 -0.010933151154855469 0 0.00029561453447067608 -0.013407338121081148 0 0.0017708715845814445 -0.013603196196496041 0 0.00033371511627390538 -0.014418488072688434 0 -0.0017874012890010404 -0.014227315284631415 0 0.00033371511627390538 -0.014418488072688434 0 -0.00061133235238043562 -0.013584831663184437 0 -0.0015667892037220844 -0.0080558342214052496 0 -0.0014109945599298374 -0.0066892281017532917 0 -0.0053911838542225156 -0.0010228773318665808 0 -0.0046634039459983708 -0.0010970079058882512 0 -0.0049985210433576887 -0.0014240150004937219 0 0.00029561453447067608 -0.013407338121081148 0 0.00033371511627390538 -0.014418488072688434 0 -0.00061133235238043562 -0.013584831663184437 0 -0.004055733196438269 -0.001155635510130914 0 -0.0046634039459983708 -0.0010970079058882512 0 -0.0046247021361764257 -0.0014858659854481279 0 -0.0046634039459983708 -0.0010970079058882512 0 -0.0049985210433576887 -0.0014240150004937219 0 -0.0046247021361764257 -0.0014858659854481279 0 -0.0035085946845061339 -0.0016891286187547905 0 -0.0046247021361764257 -0.0014858659854481279 0 -0.0043088098663368671 -0.0025563046251571978 0 -0.0046247021361764257 -0.0014858659854481279 0 -0.0048694021739804708 -0.0021849529742246129 0 -0.0043088098663368671 -0.0025563046251571978 0 -0.0049985210433576887 -0.0014240150004937219 0 -0.0046247021361764257 -0.0014858659854481279 0 -0.0048694021739804708 -0.0021849529742246129 0 -0.0048694021739804708 -0.0021849529742246129 0 -0.0053647980312630994 -0.0018039468046811649 0 -0.0051033818423441638 -0.0025931981517517506 0 -0.0049985210433576887 -0.0014240150004937219 0 -0.0048694021739804708 -0.0021849529742246129 0 -0.0053647980312630994 -0.0018039468046811649 0 -0.0048694021739804708 -0.0021849529742246129 0 -0.0051033818423441638 -0.0025931981517517506 0 -0.0046648417591700578 -0.0029000355873341896 0 -0.0048694021739804708 -0.0021849529742246129 0 -0.0043088098663368671 -0.0025563046251571978 0 -0.0046648417591700578 -0.0029000355873341896 0 -0.0043013179610258915 -0.0031684200563460306 0 -0.0043088098663368671 -0.0025563046251571978 0 -0.0046648417591700578 -0.0029000355873341896 0 -0.0021226510133226478 -0.0087955394797223953 0 -0.00291191391048851 -0.0098229525925409202 0 -0.0033316204395411552 -0.0078541833333407949 0 -0.0044294155497089744 -0.0093914699111753257 0 -0.005083655729433794 -0.0067712788801789509 0 -0.0033316204395411552 -0.0078541833333407949 0 -0.0032370111601027307 -0.0057276429740050544 0 -0.0040754966545349597 -0.004552582963876381 0 -0.00291191391048851 -0.0098229525925409202 0 -0.0044294155497089744 -0.0093914699111753257 0 -0.0033316204395411552 -0.0078541833333407949 0 -0.005083655729433794 -0.0067712788801789509 0 -0.0033316204395411552 -0.0078541833333407949 0 -0.0035702944542632402 -0.0051171723974068276 0 -0.0017938402447468472 -0.0070024205338036424 0 -0.0033316204395411552 -0.0078541833333407949 0 -0.0035702944542632402 -0.0051171723974068276 0 -0.0021226510133226478 -0.0087955394797223953 0 -0.0017938402447468472 -0.0070024205338036424 0 -0.0033316204395411552 -0.0078541833333407949 0 -0.0040754966545349597 -0.004552582963876381 0 -0.0044321722849279674 -0.0036473928321655823 0 -0.005083655729433794 -0.0067712788801789509 0 -0.0035702944542632402 -0.0051171723974068276 0 -0.0052134918700533529 -0.0041835621423375585 0 -0.0035702944542632402 -0.0051171723974068276 0 -0.0041938905919321262 -0.0032268572618897652 0 -0.0052134918700533529 -0.0041835621423375585 0 -0.0041938905919321262 -0.0032268572618897652 0 -0.0052134918700533529 -0.0041835621423375585 0 -0.0047328556754666247 -0.0022550823373201343 0 -0.0044321722849279674 -0.0036473928321655823 0 -0.004521059955285605 -0.0031737917070449994 0 -0.0035702944542632402 -0.0051171723974068276 0 -0.0041938905919321262 -0.0032268572618897652 0 -0.0032304002068516678 -0.0033019849875689849 0 -0.0035702944542632402 -0.0051171723974068276 0 -0.0032304002068516678 -0.0033019849875689849 0 -0.0021055605697407344 -0.0045612154164914043 0 -0.0043013179610258915 -0.0031684200563460306 0 -0.0046648417591700578 -0.0029000355873341896 0 -0.0047188517187516108 -0.0026215134142347774 0 -0.0051033818423441638 -0.0025931981517517506 0 -0.0047175277951323749 -0.0027652685180716906 0 -0.0046648417591700578 -0.0029000355873341896 0 -0.0047175277951323749 -0.0027652685180716906 0 -0.0047766342405365985 -0.0025475095954367363 0 -0.0047328556754666247 -0.0022550823373201343 0 -0.0047175277951323749 -0.0027652685180716906 0 -0.0046648417591700578 -0.0029000355873341896 0 -0.0047766342405365985 -0.0025475095954367363 0 -0.0046648417591700578 -0.0029000355873341896 0 -0.0047766342405365985 -0.0025475095954367363 0 -0.0047188517187516108 -0.0026215134142347774 0 -0.0051059556544017521 -0.0021554371805107197 0 -0.0047188517187516108 -0.0026215134142347774 0 -0.0050755717964834184 -0.0020454895165822901 0 -0.0047766342405365985 -0.0025475095954367363 0 -0.0047188517187516108 -0.0026215134142347774 0 -0.0050755717964834184 -0.0020454895165822901 0 -0.0047766342405365985 -0.0025475095954367363 0 -0.0050755717964834184 -0.0020454895165822901 0 -0.0047328556754666247 -0.0022550823373201343 0 -0.0051906664121348645 -0.0014154631979638747 0 -0.0050755717964834184 -0.0020454895165822901 0 -0.0047328556754666247 -0.0022550823373201343 0 -0.0043001002594807601 -0.0012897056126526531 0 -0.0051906664121348645 -0.0014154631979638747 0 -0.0047328556754666247 -0.0022550823373201343 0 -0.0051906664121348645 -0.0014154631979638747 0 -0.0055493338477386502 -0.0014507044656412796 0 -0.0050755717964834184 -0.0020454895165822901 0 -0.0032304002068516678 -0.0033019849875689849 0 -0.0038243211596122985 -0.0021216503237867219 0 -0.0024081183863301609 -0.0024937890676533267 0 -0.0041938905919321262 -0.0032268572618897652 0 -0.0032304002068516678 -0.0033019849875689849 0 -0.0038243211596122985 -0.0021216503237867219 0 -0.0038243211596122985 -0.0021216503237867219 0 -0.0030268219852183794 -0.0013180134049408201 0 -0.0024081183863301609 -0.0024937890676533267 0 -0.0041938905919321262 -0.0032268572618897652 0 -0.0038243211596122985 -0.0021216503237867219 0 -0.0047328556754666247 -0.0022550823373201343 0 -0.0043001002594807601 -0.0012897056126526531 0 -0.0038243211596122985 -0.0021216503237867219 0 -0.0047328556754666247 -0.0022550823373201343 0 -0.0043001002594807601 -0.0012897056126526531 0 -0.0038243211596122985 -0.0021216503237867219 0 -0.0030268219852183794 -0.0013180134049408201 0 -0.0030096409506238327 -0.00077396998924970678 0 -0.0030268219852183794 -0.0013180134049408201 0 -0.002557033840726218 -0.00070572392698958005 0 -0.0030268219852183794 -0.0013180134049408201 0 -0.002557033840726218 -0.00070572392698958005 0 -0.001963647634560708 -0.0012601157909846571 0 -0.002557033840726218 -0.00070572392698958005 0 -0.001899345619519081 -0.00025666541043714076 0 -0.001963647634560708 -0.0012601157909846571 0 -0.0024889442406501754 -0.00040465522844737551 0 -0.002557033840726218 -0.00070572392698958005 0 -0.001899345619519081 -0.00025666541043714076 0 -0.001899345619519081 -0.00025666541043714076 0 -0.001963647634560708 -0.0012601157909846571 0 -0.0010506493011136328 -0.00090839303207314163 0 -0.001963647634560708 -0.0012601157909846571 0 -0.0011388733833905731 -0.0022608757392508644 0 -0.0024081183863301609 -0.0024937890676533267 0 -0.001963647634560708 -0.0012601157909846571 0 -0.0011388733833905731 -0.0022608757392508644 0 -0.0010506493011136328 -0.00090839303207314163 0 -0.0030268219852183794 -0.0013180134049408201 0 -0.001963647634560708 -0.0012601157909846571 0 -0.0024081183863301609 -0.0024937890676533267 0 -0.0032304002068516678 -0.0033019849875689849 0 -0.0024081183863301609 -0.0024937890676533267 0 -0.0021055605697407344 -0.0045612154164914043 0 -0.0024081183863301609 -0.0024937890676533267 0 -0.00097251577665849822 -0.0038552747606988855 0 -0.0021055605697407344 -0.0045612154164914043 0 -0.0011388733833905731 -0.0022608757392508644 0 -0.0024081183863301609 -0.0024937890676533267 0 -0.00097251577665849822 -0.0038552747606988855 0 -0.0011388733833905731 -0.0022608757392508644 0 -0.00097251577665849822 -0.0038552747606988855 0 -7.7273550062928397e-05 -0.0032548884286086196 0 -0.00097251577665849822 -0.0038552747606988855 0 0.00045434183252279564 -0.0049051234808812289 0 -7.7273550062928397e-05 -0.0032548884286086196 0 -0.00097251577665849822 -0.0038552747606988855 0 -0.00057960276969559808 -0.0058170074983999679 0 0.00045434183252279564 -0.0049051234808812289 0 -0.00097251577665849822 -0.0038552747606988855 0 -0.00057960276969559808 -0.0058170074983999679 0 -0.0021055605697407344 -0.0045612154164914043 0 -0.0017938402447468472 -0.0070024205338036424 0 -0.00057960276969559808 -0.0058170074983999679 0 -0.0021055605697407344 -0.0045612154164914043 0 -0.0017938402447468472 -0.0070024205338036424 0 -0.0035702944542632402 -0.0051171723974068276 0 -0.0021055605697407344 -0.0045612154164914043 0 0.0030945874297048826 -0.0051035014260771691 0 0.0023492061494300507 -0.003904406128766164 0 0.0037002786805322312 -0.0040021966137856841 0 0.0030945874297048826 -0.0051035014260771691 0 0.0018026183094076067 -0.0050831087944963544 0 0.0023492061494300507 -0.003904406128766164 0 0.0030945874297048826 -0.0051035014260771691 0 0.0037002786805322312 -0.0040021966137856841 0 0.004575181197305953 -0.0049894806345188239 0 0.0030945874297048826 -0.0051035014260771691 0 0.0038921444747018548 -0.0061837334440254009 0 0.004575181197305953 -0.0049894806345188239 0 0.0030945874297048826 -0.0051035014260771691 0 0.0026487643895064064 -0.0060482751196522487 0 0.0018026183094076067 -0.0050831087944963544 0 0.0030945874297048826 -0.0051035014260771691 0 0.0038921444747018548 -0.0061837334440254009 0 0.0026487643895064064 -0.0060482751196522487 0 0.0014012419165150476 -0.0065242140450846673 0 0.0026487643895064064 -0.0060482751196522487 0 0.0018026183094076067 -0.0050831087944963544 0 0.0014012419165150476 -0.0065242140450846673 0 -0.00057960276969559808 -0.0058170074983999679 0 0.00045434183252279564 -0.0049051234808812289 0 0.0014012419165150476 -0.0065242140450846673 0 0.00045434183252279564 -0.0049051234808812289 0 0.0018026183094076067 -0.0050831087944963544 0 0.0018026183094076067 -0.0050831087944963544 0 0.0010272287094481515 -0.003953946782431007 0 0.0023492061494300507 -0.003904406128766164 0 0.00045434183252279564 -0.0049051234808812289 0 0.0018026183094076067 -0.0050831087944963544 0 0.0010272287094481515 -0.003953946782431007 0 0.0010272287094481515 -0.003953946782431007 0 0.0017379000000019697 -0.0022697436501548916 0 0.0023492061494300507 -0.003904406128766164 0 0.00045434183252279564 -0.0049051234808812289 0 0.0010272287094481515 -0.003953946782431007 0 -7.7273550062928397e-05 -0.0032548884286086196 0 0.0010272287094481515 -0.003953946782431007 0 -7.7273550062928397e-05 -0.0032548884286086196 0 0.00017552235596617614 -0.002119044091751491 0 -0.0011388733833905731 -0.0022608757392508644 0 -7.7273550062928397e-05 -0.0032548884286086196 0 0.00017552235596617614 -0.002119044091751491 0 0.0010272287094481515 -0.003953946782431007 0 0.0017379000000019697 -0.0022697436501548916 0 0.00017552235596617614 -0.002119044091751491 0 0.0028757098145101652 -0.0029162245147561013 0 0.0017379000000019697 -0.0022697436501548916 0 0.0023492061494300507 -0.003904406128766164 0 0.0028757098145101652 -0.0029162245147561013 0 0.0017379000000019697 -0.0022697436501548916 0 0.0039244351823639213 -0.0018433890500414284 0 0.0028757098145101652 -0.0029162245147561013 0 0.0023492061494300507 -0.003904406128766164 0 0.0037002786805322312 -0.0040021966137856841 0 0.0037002786805322312 -0.0040021966137856841 0 0.0039244351823639213 -0.0018433890500414284 0 0.0052040534974882695 -0.0035115390251232769 0 0.0028757098145101652 -0.0029162245147561013 0 0.0037002786805322312 -0.0040021966137856841 0 0.0039244351823639213 -0.0018433890500414284 0 0.0017379000000019697 -0.0022697436501548916 0 0.0021127184331054091 -0.00061605204625274183 0 0.00029335918358308681 -0.00077783982210236221 0 0.0017379000000019697 -0.0022697436501548916 0 0.0039244351823639213 -0.0018433890500414284 0 0.0021127184331054091 -0.00061605204625274183 0 0.0039244351823639213 -0.0018433890500414284 0 0.0021127184331054091 -0.00061605204625274183 0 0.003754343208064836 0.000551192251824737 0 -0.0011388733833905731 -0.0022608757392508644 0 0.00017552235596617614 -0.002119044091751491 0 -0.0010506493011136328 -0.00090839303207314163 0 0.0017379000000019697 -0.0022697436501548916 0 0.00017552235596617614 -0.002119044091751491 0 0.00029335918358308681 -0.00077783982210236221 0 0.00029335918358308681 -0.00077783982210236221 0 -0.0010506493011136328 -0.00090839303207314163 0 -0.0010163602821946273 0.00038352705443911011 0 0.00017552235596617614 -0.002119044091751491 0 0.00029335918358308681 -0.00077783982210236221 0 -0.0010506493011136328 -0.00090839303207314163 0 0.00082977258142409994 0.0056860377241129897 0 -0.0010163602821946273 0.00038352705443911011 0 0.0014134833598275134 0.0020745042797980515 0 -0.001899345619519081 -0.00025666541043714076 0 -0.0010506493011136328 -0.00090839303207314163 0 -0.0010163602821946273 0.00038352705443911011 0 0.00029335918358308681 -0.00077783982210236221 0 -0.0010163602821946273 0.00038352705443911011 0 0.0014134833598275134 0.0020745042797980515 0 -0.0024031124890563859 -1.4874230647273687e-05 0 -0.001899345619519081 -0.00025666541043714076 0 -0.0010163602821946273 0.00038352705443911011 0 0.003754343208064836 0.000551192251824737 0 0.0014134833598275134 0.0020745042797980515 0 0.0039953793236536953 0.0026374537564917019 0 0.0021127184331054091 -0.00061605204625274183 0 0.00029335918358308681 -0.00077783982210236221 0 0.0014134833598275134 0.0020745042797980515 0 0.0021127184331054091 -0.00061605204625274183 0 0.003754343208064836 0.000551192251824737 0 0.0014134833598275134 0.0020745042797980515 0 0.0031056533959137314 0.0038899867163953426 0 0.0014134833598275134 0.0020745042797980515 0 0.0039953793236536953 0.0026374537564917019 0 0.0031056533959137314 0.0038899867163953426 0 0.0043911430909949747 0.0044658135295571662 0 0.0039953793236536953 0.0026374537564917019 0 0.0039953793236536953 0.0026374537564917019 0 0.0054758353371597316 0.0034224517934138897 0 0.0058073581090471518 0.0017117460254233163 0 0.0043911430909949747 0.0044658135295571662 0 0.0039953793236536953 0.0026374537564917019 0 0.0054758353371597316 0.0034224517934138897 0 0.003754343208064836 0.000551192251824737 0 0.0039953793236536953 0.0026374537564917019 0 0.0058073581090471518 0.0017117460254233163 0 0.0058073581090471518 0.0017117460254233163 0 0.0084648729591734733 0.0021948607265007566 0 0.0069394363109333418 0.00021485408093347509 0 0.0054758353371597316 0.0034224517934138897 0 0.0058073581090471518 0.0017117460254233163 0 0.0072686041385707639 0.0037877061341697648 0 0.0099292324399862554 0.0045199771662484825 0 0.0084648729591734733 0.0021948607265007566 0 0.011910789648860777 0.0025922511961795525 0 0.0099292324399862554 0.0045199771662484825 0 0.0072686041385707639 0.0037877061341697648 0 0.0084648729591734733 0.0021948607265007566 0 0.0084648729591734733 0.0021948607265007566 0 0.0094979697833484783 0.0002596168512373696 0 0.011910789648860777 0.0025922511961795525 0 0.0058073581090471518 0.0017117460254233163 0 0.0072686041385707639 0.0037877061341697648 0 0.0084648729591734733 0.0021948607265007566 0 0.0084648729591734733 0.0021948607265007566 0 0.0094979697833484783 0.0002596168512373696 0 0.0069394363109333418 0.00021485408093347509 0 0.0094979697833484783 0.0002596168512373696 0 0.0079375132637909077 -0.0010824095713754436 0 0.0090795652336945094 -0.002307105572526958 0 0.0094979697833484783 0.0002596168512373696 0 0.0079375132637909077 -0.0010824095713754436 0 0.0069394363109333418 0.00021485408093347509 0 0.0079375132637909077 -0.0010824095713754436 0 0.0069394363109333418 0.00021485408093347509 0 0.005931026741060998 -0.0018356034284154137 0 0.0052092406890274223 -0.00027506479035955389 0 0.0069394363109333418 0.00021485408093347509 0 0.005931026741060998 -0.0018356034284154137 0 0.0039244351823639213 -0.0018433890500414284 0 0.0052092406890274223 -0.00027506479035955389 0 0.005931026741060998 -0.0018356034284154137 0 0.0039244351823639213 -0.0018433890500414284 0 0.003754343208064836 0.000551192251824737 0 0.0052092406890274223 -0.00027506479035955389 0 0.003754343208064836 0.000551192251824737 0 0.0058073581090471518 0.0017117460254233163 0 0.0052092406890274223 -0.00027506479035955389 0 0.0058073581090471518 0.0017117460254233163 0 0.0052092406890274223 -0.00027506479035955389 0 0.0069394363109333418 0.00021485408093347509 0 0.015439938274938943 0.0054873316386581357 0 0.015202803399777656 0.0027988712842530587 0 0.011910789648860777 0.0025922511961795525 0 0.015202803399777656 0.0027988712842530587 0 0.011910789648860777 0.0025922511961795525 0 0.013549089174328578 0.0011187034308951429 0 0.0094979697833484783 0.0002596168512373696 0 0.011910789648860777 0.0025922511961795525 0 0.012026144386853711 -0.00076773690056059624 0 0.011910789648860777 0.0025922511961795525 0 0.012026144386853711 -0.00076773690056059624 0 0.013549089174328578 0.0011187034308951429 0 0.0094979697833484783 0.0002596168512373696 0 0.012026144386853711 -0.00076773690056059624 0 0.0090795652336945094 -0.002307105572526958 0 0.012026144386853711 -0.00076773690056059624 0 0.013549089174328578 0.0011187034308951429 0 0.015116015177739644 -0.00013228874305685833 0 0.015202803399777656 0.0027988712842530587 0 0.013549089174328578 0.0011187034308951429 0 0.015116015177739644 -0.00013228874305685833 0 0.015202803399777656 0.0027988712842530587 0 0.015116015177739644 -0.00013228874305685833 0 0.017562629104350892 0.0019853704146429807 0 0.015116015177739644 -0.00013228874305685833 0 0.014171292561413723 -0.0030851970794766831 0 0.0181571598341508 -0.0012055927305475713 0 0.012026144386853711 -0.00076773690056059624 0 0.015116015177739644 -0.00013228874305685833 0 0.014171292561413723 -0.0030851970794766831 0 0.014171292561413723 -0.0030851970794766831 0 0.010744248119207291 -0.0032295568635540826 0 0.011660660531347169 -0.0053417908065682921 0 0.012026144386853711 -0.00076773690056059624 0 0.014171292561413723 -0.0030851970794766831 0 0.010744248119207291 -0.0032295568635540826 0 0.012026144386853711 -0.00076773690056059624 0 0.010744248119207291 -0.0032295568635540826 0 0.0090795652336945094 -0.002307105572526958 0 0.010744248119207291 -0.0032295568635540826 0 0.011660660531347169 -0.0053417908065682921 0 0.0096131775884982611 -0.0049408119867371649 0 0.0098998293749504064 -0.0063759140428136414 0 0.011660660531347169 -0.0053417908065682921 0 0.0096131775884982611 -0.0049408119867371649 0 0.0098998293749504064 -0.0063759140428136414 0 0.011660660531347169 -0.0053417908065682921 0 0.012218597195905538 -0.0072721345111031559 0 0.011660660531347169 -0.0053417908065682921 0 0.014028396774152598 -0.0054757022792469344 0 0.012218597195905538 -0.0072721345111031559 0 0.014171292561413723 -0.0030851970794766831 0 0.014028396774152598 -0.0054757022792469344 0 0.017599734975570661 -0.0047501270119050081 0 0.014171292561413723 -0.0030851970794766831 0 0.011660660531347169 -0.0053417908065682921 0 0.014028396774152598 -0.0054757022792469344 0 0.0068194647131745193 -0.0030994961820632991 0 0.0052040534974882695 -0.0035115390251232769 0 0.0062544992990442687 -0.004897399433674357 0 0.0068194647131745193 -0.0030994961820632991 0 0.0079715703274997086 -0.0038777115908011014 0 0.0062544992990442687 -0.004897399433674357 0 0.0039244351823639213 -0.0018433890500414284 0 0.0052040534974882695 -0.0035115390251232769 0 0.005931026741060998 -0.0018356034284154137 0 0.0068194647131745193 -0.0030994961820632991 0 0.0052040534974882695 -0.0035115390251232769 0 0.005931026741060998 -0.0018356034284154137 0 0.0079375132637909077 -0.0010824095713754436 0 0.0068194647131745193 -0.0030994961820632991 0 0.005931026741060998 -0.0018356034284154137 0 0.0079375132637909077 -0.0010824095713754436 0 0.0068194647131745193 -0.0030994961820632991 0 0.0090795652336945094 -0.002307105572526958 0 0.010744248119207291 -0.0032295568635540826 0 0.0090795652336945094 -0.002307105572526958 0 0.0079715703274997086 -0.0038777115908011014 0 0.0068194647131745193 -0.0030994961820632991 0 0.0090795652336945094 -0.002307105572526958 0 0.0079715703274997086 -0.0038777115908011014 0 0.0079715703274997086 -0.0038777115908011014 0 0.0078585876577306531 -0.0058279443854273826 0 0.0062544992990442687 -0.004897399433674357 0 0.0079715703274997086 -0.0038777115908011014 0 0.0096131775884982611 -0.0049408119867371649 0 0.0078585876577306531 -0.0058279443854273826 0 0.010744248119207291 -0.0032295568635540826 0 0.0079715703274997086 -0.0038777115908011014 0 0.0096131775884982611 -0.0049408119867371649 0 0.0098998293749504064 -0.0063759140428136414 0 0.0078585876577306531 -0.0058279443854273826 0 0.0086305766143365565 -0.0068610786489983625 0 0.0098998293749504064 -0.0063759140428136414 0 0.0096131775884982611 -0.0049408119867371649 0 0.0078585876577306531 -0.0058279443854273826 0 0.0078585876577306531 -0.0058279443854273826 0 0.0065866295093978547 -0.0063124174910153541 0 0.0062544992990442687 -0.004897399433674357 0 0.0065866295093978547 -0.0063124174910153541 0 0.0062544992990442687 -0.004897399433674357 0 0.0053297020356967767 -0.0061690840628705092 0 0.0037002786805322312 -0.0040021966137856841 0 0.0052040534974882695 -0.0035115390251232769 0 0.004575181197305953 -0.0049894806345188239 0 0.0052040534974882695 -0.0035115390251232769 0 0.0062544992990442687 -0.004897399433674357 0 0.004575181197305953 -0.0049894806345188239 0 0.0038921444747018548 -0.0061837334440254009 0 0.004575181197305953 -0.0049894806345188239 0 0.0053297020356967767 -0.0061690840628705092 0 0.0062544992990442687 -0.004897399433674357 0 0.004575181197305953 -0.0049894806345188239 0 0.0053297020356967767 -0.0061690840628705092 0 0.0038921444747018548 -0.0061837334440254009 0 0.0053297020356967767 -0.0061690840628705092 0 0.0047717192215311205 -0.0073464004846333052 0 0.0053297020356967767 -0.0061690840628705092 0 0.0047717192215311205 -0.0073464004846333052 0 0.0062025859699479493 -0.0073819040696320752 0 0.0065866295093978547 -0.0063124174910153541 0 0.0053297020356967767 -0.0061690840628705092 0 0.0062025859699479493 -0.0073819040696320752 0 0.0065866295093978547 -0.0063124174910153541 0 0.0062025859699479493 -0.0073819040696320752 0 0.007495982119114444 -0.0070439485634689637 0 0.0062025859699479493 -0.0073819040696320752 0 0.0057417433964389265 -0.0084350905546711763 0 0.0073612598199540163 -0.0084153397533965196 0 0.0043107332756508673 -0.0086042742474056744 0 0.0047717192215311205 -0.0073464004846333052 0 0.0057417433964389265 -0.0084350905546711763 0 0.0047717192215311205 -0.0073464004846333052 0 0.0062025859699479493 -0.0073819040696320752 0 0.0057417433964389265 -0.0084350905546711763 0 0.0043107332756508673 -0.0086042742474056744 0 0.0041646677487323968 -0.0098644310324962486 0 0.0054543341368281668 -0.0094569057445046296 0 0.0043107332756508673 -0.0086042742474056744 0 0.0057417433964389265 -0.0084350905546711763 0 0.0054543341368281668 -0.0094569057445046296 0 0.0057417433964389265 -0.0084350905546711763 0 0.0054543341368281668 -0.0094569057445046296 0 0.0066320297158923534 -0.0092605634718285895 0 0.0057417433964389265 -0.0084350905546711763 0 0.0066320297158923534 -0.0092605634718285895 0 0.0073612598199540163 -0.0084153397533965196 0 0.0054543341368281668 -0.0094569057445046296 0 0.0064462420191426896 -0.010089045826932057 0 0.0054371539132910384 -0.010442173054831583 0 0.0054543341368281668 -0.0094569057445046296 0 0.0066320297158923534 -0.0092605634718285895 0 0.0064462420191426896 -0.010089045826932057 0 0.0066320297158923534 -0.0092605634718285895 0 0.0064462420191426896 -0.010089045826932057 0 0.0074226984550853532 -0.010280541634834385 0 0.0064462420191426896 -0.010089045826932057 0 0.0074226984550853532 -0.010280541634834385 0 0.0065020302375693381 -0.010917944802593189 0 0.0064462420191426896 -0.010089045826932057 0 0.0054371539132910384 -0.010442173054831583 0 0.0065020302375693381 -0.010917944802593189 0 0.0041646677487323968 -0.0098644310324962486 0 0.0054543341368281668 -0.0094569057445046296 0 0.0054371539132910384 -0.010442173054831583 0 0.0085802170850655998 -0.009928263739916128 0 0.0086646104708188558 -0.010677486111023538 0 0.0074226984550853532 -0.010280541634834385 0 0.0085802170850655998 -0.009928263739916128 0 0.0086646104708188558 -0.010677486111023538 0 0.0096049552928199142 -0.010093298533974962 0 0.0086646104708188558 -0.010677486111023538 0 0.0096049552928199142 -0.010093298533974962 0 0.0095778079340994617 -0.010722442891730325 0 0.0086646104708188558 -0.010677486111023538 0 0.0095778079340994617 -0.010722442891730325 0 0.0091185014180607971 -0.011266182500318819 0 0.0086646104708188558 -0.010677486111023538 0 0.0074226984550853532 -0.010280541634834385 0 0.0073520762499690298 -0.011541697408722983 0 0.0085802170850655998 -0.009928263739916128 0 0.0074226984550853532 -0.010280541634834385 0 0.0079678617621836371 -0.0093605001082572286 0 0.0066320297158923534 -0.0092605634718285895 0 0.0079678617621836371 -0.0093605001082572286 0 0.0073612598199540163 -0.0084153397533965196 0 0.0066320297158923534 -0.0092605634718285895 0 0.0074226984550853532 -0.010280541634834385 0 0.0079678617621836371 -0.0093605001082572286 0 0.0079678617621836371 -0.0093605001082572286 0 0.0084887187560895531 -0.0086533138412484972 0 0.0073612598199540163 -0.0084153397533965196 0 0.0079678617621836371 -0.0093605001082572286 0 0.0093011218740584687 -0.0092109991122069721 0 0.0084887187560895531 -0.0086533138412484972 0 0.0085802170850655998 -0.009928263739916128 0 0.0079678617621836371 -0.0093605001082572286 0 0.0093011218740584687 -0.0092109991122069721 0 0.0085802170850655998 -0.009928263739916128 0 0.0093011218740584687 -0.0092109991122069721 0 0.0096049552928199142 -0.010093298533974962 0 0.0093011218740584687 -0.0092109991122069721 0 0.0084887187560895531 -0.0086533138412484972 0 0.0098097717712234758 -0.0080903998218194856 0 0.0084378246777610539 -0.0078155499423833118 0 0.0086305766143365565 -0.0068610786489983625 0 0.0098097717712234758 -0.0080903998218194856 0 0.0084887187560895531 -0.0086533138412484972 0 0.0084378246777610539 -0.0078155499423833118 0 0.0098097717712234758 -0.0080903998218194856 0 0.0062025859699479493 -0.0073819040696320752 0 0.0073612598199540163 -0.0084153397533965196 0 0.007495982119114444 -0.0070439485634689637 0 0.0084378246777610539 -0.0078155499423833118 0 0.0073612598199540163 -0.0084153397533965196 0 0.007495982119114444 -0.0070439485634689637 0 0.0084887187560895531 -0.0086533138412484972 0 0.0084378246777610539 -0.0078155499423833118 0 0.0073612598199540163 -0.0084153397533965196 0 0.0078585876577306531 -0.0058279443854273826 0 0.0065866295093978547 -0.0063124174910153541 0 0.007495982119114444 -0.0070439485634689637 0 0.0078585876577306531 -0.0058279443854273826 0 0.007495982119114444 -0.0070439485634689637 0 0.0086305766143365565 -0.0068610786489983625 0 0.0084378246777610539 -0.0078155499423833118 0 0.007495982119114444 -0.0070439485634689637 0 0.0086305766143365565 -0.0068610786489983625 0 0.0098998293749504064 -0.0063759140428136414 0 0.0086305766143365565 -0.0068610786489983625 0 0.0098097717712234758 -0.0080903998218194856 0 0.0098998293749504064 -0.0063759140428136414 0 0.012218597195905538 -0.0072721345111031559 0 0.0098097717712234758 -0.0080903998218194856 0 0.012218597195905538 -0.0072721345111031559 0 0.0098097717712234758 -0.0080903998218194856 0 0.011399643176428579 -0.0090002379039505528 0 0.012218597195905538 -0.0072721345111031559 0 0.013923892443492533 -0.0095009423117811687 0 0.011399643176428579 -0.0090002379039505528 0 0.014028396774152598 -0.0054757022792469344 0 0.012218597195905538 -0.0072721345111031559 0 0.0150296232022658 -0.0070484136236250265 0 0.012218597195905538 -0.0072721345111031559 0 0.0150296232022658 -0.0070484136236250265 0 0.013923892443492533 -0.0095009423117811687 0 0.013923892443492533 -0.0095009423117811687 0 0.014053845902399916 -0.011890328635321523 0 0.017769186714337293 -0.011608384624202219 0 0.013923892443492533 -0.0095009423117811687 0 0.011136003787699465 -0.010473706217702869 0 0.014053845902399916 -0.011890328635321523 0 0.011136003787699465 -0.010473706217702869 0 0.010105975943934942 -0.011973970336375747 0 0.014053845902399916 -0.011890328635321523 0 0.0093011218740584687 -0.0092109991122069721 0 0.0098097717712234758 -0.0080903998218194856 0 0.010305284509433145 -0.0095372029817990603 0 0.010305284509433145 -0.0095372029817990603 0 0.011399643176428579 -0.0090002379039505528 0 0.011136003787699465 -0.010473706217702869 0 0.0098097717712234758 -0.0080903998218194856 0 0.010305284509433145 -0.0095372029817990603 0 0.011399643176428579 -0.0090002379039505528 0 0.0093011218740584687 -0.0092109991122069721 0 0.010305284509433145 -0.0095372029817990603 0 0.0096049552928199142 -0.010093298533974962 0 0.013923892443492533 -0.0095009423117811687 0 0.011399643176428579 -0.0090002379039505528 0 0.011136003787699465 -0.010473706217702869 0 0.010305284509433145 -0.0095372029817990603 0 0.011136003787699465 -0.010473706217702869 0 0.0096049552928199142 -0.010093298533974962 0 0.011136003787699465 -0.010473706217702869 0 0.0096049552928199142 -0.010093298533974962 0 0.0095778079340994617 -0.010722442891730325 0 0.011136003787699465 -0.010473706217702869 0 0.0095778079340994617 -0.010722442891730325 0 0.010198959292542206 -0.011047486878991158 0 0.011136003787699465 -0.010473706217702869 0 0.010198959292542206 -0.011047486878991158 0 0.010105975943934942 -0.011973970336375747 0 0.0095778079340994617 -0.010722442891730325 0 0.0099125477195508658 -0.011410366736552036 0 0.0091185014180607971 -0.011266182500318819 0 0.0095778079340994617 -0.010722442891730325 0 0.010198959292542206 -0.011047486878991158 0 0.0099125477195508658 -0.011410366736552036 0 0.0099125477195508658 -0.011410366736552036 0 0.010105975943934942 -0.011973970336375747 0 0.0091185014180607971 -0.011266182500318819 0 0.010198959292542206 -0.011047486878991158 0 0.0099125477195508658 -0.011410366736552036 0 0.010105975943934942 -0.011973970336375747 0 0.023577833684246759 -0.0093791675602061513 0 0.028074577468200499 -0.011310410748304914 0 0.041522883205846323 -0.01036508220948225 0 0.042541476217874678 -0.011111534704381452 0 0.043381446733123386 -0.010193489040349469 0 0.041522883205846323 -0.01036508220948225 0 0.041787569647320819 -0.011358865020986424 0 0.04119518978507368 -0.011844615673212726 0 0.041522883205846323 -0.01036508220948225 0 0.042541476217874678 -0.011111534704381452 0 0.041787569647320819 -0.011358865020986424 0 0.043381446733123386 -0.010193489040349469 0 0.043640299641655167 -0.011734614492135113 0 0.044734856798676621 -0.011340562825679324 0 0.042541476217874678 -0.011111534704381452 0 0.043381446733123386 -0.010193489040349469 0 0.043640299641655167 -0.011734614492135113 0 0.043640299641655167 -0.011734614492135113 0 0.043306558231548567 -0.012626804074721309 0 0.042200791700843079 -0.012125057193770241 0 0.042541476217874678 -0.011111534704381452 0 0.043640299641655167 -0.011734614492135113 0 0.042200791700843079 -0.012125057193770241 0 0.043640299641655167 -0.011734614492135113 0 0.043306558231548567 -0.012626804074721309 0 0.04461154190531131 -0.012578490422063781 0 0.041787569647320819 -0.011358865020986424 0 0.042200791700843079 -0.012125057193770241 0 0.04119518978507368 -0.011844615673212726 0 0.042541476217874678 -0.011111534704381452 0 0.041787569647320819 -0.011358865020986424 0 0.042200791700843079 -0.012125057193770241 0 0.042200791700843079 -0.012125057193770241 0 0.04119518978507368 -0.011844615673212726 0 0.04104135688723972 -0.013067757533607694 0 0.04119518978507368 -0.011844615673212726 0 0.040047484124912602 -0.012320997398894655 0 0.04104135688723972 -0.013067757533607694 0 0.041522883205846323 -0.01036508220948225 0 0.04119518978507368 -0.011844615673212726 0 0.040047484124912602 -0.012320997398894655 0 0.0078155211778692044 -0.011923394148828932 0 0.0070459936031253695 -0.011979185508223571 0 0.0069885315722342583 -0.011871865691862715 0 0.0081541425870538167 -0.011334221411150236 0 0.0078155211778692044 -0.011923394148828932 0 0.0070459936031253695 -0.011979185508223571 0 0.0043615442783910613 -0.013874343344583356 0 0.0069885315722342583 -0.011871865691862715 0 0.0047858202575345793 -0.01197109038054023 0 0.0061105154924355025 -0.012549604519104498 0 0.0064684379937998259 -0.012235399900746471 0 0.0041184623741372765 -0.010874454621505106 0 0.0047858202575345793 -0.01197109038054023 0 0.0056658114799295351 -0.011243920953830533 0 0.0069885315722342583 -0.011871865691862715 0 0.0047858202575345793 -0.01197109038054023 0 0.0056658114799295351 -0.011243920953830533 0 0.0041184623741372765 -0.010874454621505106 0 0.0056658114799295351 -0.011243920953830533 0 0.0054371539132910384 -0.010442173054831583 0 0.0041646677487323968 -0.0098644310324962486 0 0.0041184623741372765 -0.010874454621505106 0 0.0054371539132910384 -0.010442173054831583 0 0.0069885315722342583 -0.011871865691862715 0 0.0056658114799295351 -0.011243920953830533 0 0.0065020302375693381 -0.010917944802593189 0 0.0056658114799295351 -0.011243920953830533 0 0.0054371539132910384 -0.010442173054831583 0 0.0065020302375693381 -0.010917944802593189 0 0.0069885315722342583 -0.011871865691862715 0 0.0065020302375693381 -0.010917944802593189 0 0.0073520762499690298 -0.011541697408722983 0 0.0074226984550853532 -0.010280541634834385 0 0.0065020302375693381 -0.010917944802593189 0 0.0073520762499690298 -0.011541697408722983 0 0.023577833684246759 -0.0093791675602061513 0 0.023300762735101843 -0.011341402032359244 0 0.007841541124390285 -0.011582701084306762 0 0.0070459936031253695 -0.011979185508223571 0 0.0069885315722342583 -0.011871865691862715 0 0.007841541124390285 -0.011582701084306762 0 0.0069885315722342583 -0.011871865691862715 0 0.0073520762499690298 -0.011541697408722983 0 0.0086646104708188558 -0.010677486111023538 0 0.0073520762499690298 -0.011541697408722983 0 0.0091185014180607971 -0.011266182500318819 0 0.010105975943934942 -0.011973970336375747 0 0.0073520762499690298 -0.011541697408722983 0 0.0091185014180607971 -0.011266182500318819 0 0.023577833684246759 -0.0093791675602061513 0 0.019606808130236558 -0.009801513292939287 0 0.041087430930015781 -0.014272930801504156 0 0.04314802867777847 -0.015107550043869494 0 0.039681245978709839 -0.016155429112922514 0 0.041087430930015781 -0.014272930801504156 0 0.04314802867777847 -0.015107550043869494 0 0.042596731448053621 -0.013071585224369018 0 0.04314802867777847 -0.015107550043869494 0 0.039681245978709839 -0.016155429112922514 0 0.042775284990927545 -0.01772806242917805 0 0.039681245978709839 -0.016155429112922514 0 0.037653533695873015 -0.016155619780605437 0 0.03635989824205077 -0.018312747848764854 0 0.037653533695873015 -0.016155619780605437 0 0.036089586514303579 -0.016296938970025862 0 0.03635989824205077 -0.018312747848764854 0 0.036089586514303579 -0.016296938970025862 0 0.038482299841461662 -0.013825096960446863 0 0.035540168081083803 -0.013451353259319371 0 0.037653533695873015 -0.016155619780605437 0 0.036089586514303579 -0.016296938970025862 0 0.038482299841461662 -0.013825096960446863 0 0.039681245978709839 -0.016155429112922514 0 0.037653533695873015 -0.016155619780605437 0 0.038482299841461662 -0.013825096960446863 0 0.041087430930015781 -0.014272930801504156 0 0.039681245978709839 -0.016155429112922514 0 0.038482299841461662 -0.013825096960446863 0 0.038482299841461662 -0.013825096960446863 0 0.041438679014161102 -0.012363546667411457 0 0.03970348255582308 -0.010085251431222712 0 0.038482299841461662 -0.013825096960446863 0 0.037155025887979407 -0.011440246910668224 0 0.03970348255582308 -0.010085251431222712 0 0.038482299841461662 -0.013825096960446863 0 0.037155025887979407 -0.011440246910668224 0 0.035540168081083803 -0.013451353259319371 0 0.042603475751091691 -0.010927428471110627 0 0.041438679014161102 -0.012363546667411457 0 0.03970348255582308 -0.010085251431222712 0 0.042603475751091691 -0.010927428471110627 0 0.041438679014161102 -0.012363546667411457 0 0.043024990434137864 -0.011754292247657882 0 0.041087430930015781 -0.014272930801504156 0 0.041438679014161102 -0.012363546667411457 0 0.042596731448053621 -0.013071585224369018 0 0.041087430930015781 -0.014272930801504156 0 0.038482299841461662 -0.013825096960446863 0 0.041438679014161102 -0.012363546667411457 0 0.04314802867777847 -0.015107550043869494 0 0.042596731448053621 -0.013071585224369018 0 0.043870602378391133 -0.011954612239579578 0 0.041438679014161102 -0.012363546667411457 0 0.042596731448053621 -0.013071585224369018 0 0.043024990434137864 -0.011754292247657882 0 0.042596731448053621 -0.013071585224369018 0 0.043870602378391133 -0.011954612239579578 0 0.043024990434137864 -0.011754292247657882 0 0.043870602378391133 -0.011954612239579578 0 0.043024990434137864 -0.011754292247657882 0 0.043887225262990728 -0.010533724479367314 0 0.042603475751091691 -0.010927428471110627 0 0.043024990434137864 -0.011754292247657882 0 0.043887225262990728 -0.010533724479367314 0 0.042603475751091691 -0.010927428471110627 0 0.043887225262990728 -0.010533724479367314 0 0.04335827261768567 -0.0094154376281995016 0 0.044151236975087084 -0.01315593424827451 0 0.044972934574651388 -0.011985515350177717 0 0.044497753440541632 -0.010659391213295696 0 0.044964219706754995 -0.010989441687444992 0 0.044974773637899867 -0.0095504245706246292 0 0.04314802867777847 -0.015107550043869494 0 0.045520058921018396 -0.012425508408667038 0 0.045510415947414111 -0.012713673150764727 0 0.04314802867777847 -0.015107550043869494 0 0.044964219706754995 -0.010989441687444992 0 0.046548297166618617 -0.0100878288805761 0 0.04314802867777847 -0.015107550043869494 0 0.043870602378391133 -0.011954612239579578 0 0.044964219706754995 -0.010989441687444992 0 0.043870602378391133 -0.011954612239579578 0 0.044497753440541632 -0.010659391213295696 0 0.044964219706754995 -0.010989441687444992 0 0.043870602378391133 -0.011954612239579578 0 0.043887225262990728 -0.010533724479367314 0 0.044497753440541632 -0.010659391213295696 0 0.044964219706754995 -0.010989441687444992 0 0.046548297166618617 -0.0100878288805761 0 0.045704168278603428 -0.0098178182283286501 0 0.043640299641655167 -0.011734614492135113 0 0.04461154190531131 -0.012578490422063781 0 0.044698943076346552 -0.012066543414416526 0 0.045510415947414111 -0.012713673150764727 0 0.04461154190531131 -0.012578490422063781 0 0.044698943076346552 -0.012066543414416526 0 0.045520058921018396 -0.012425508408667038 0 0.045510415947414111 -0.012713673150764727 0 0.04461154190531131 -0.012578490422063781 0 0.045510415947414111 -0.012713673150764727 0 0.044698943076346552 -0.012066543414416526 0 0.044734856798676621 -0.011340562825679324 0 0.043640299641655167 -0.011734614492135113 0 0.044698943076346552 -0.012066543414416526 0 0.044734856798676621 -0.011340562825679324 0 0.043381446733123386 -0.010193489040349469 0 0.044734856798676621 -0.011340562825679324 0 0.045355061705684437 -0.0099633255072502855 0 0.034828075175925628 -0.013622601083856836 0 0.031198200658839267 -0.013457888535827489 0 0.028074577468200499 -0.011310410748304914 0 0.031198200658839267 -0.013457888535827489 0 0.045510415947414111 -0.012713673150764727 0 0.044734856798676621 -0.011340562825679324 0 0.045355061705684437 -0.0099633255072502855 0 0.04314802867777847 -0.015107550043869494 0 0.046292129529317085 -0.016845445640219933 0 0.042775284990927545 -0.01772806242917805 0 0.04314802867777847 -0.015107550043869494 0 0.045510415947414111 -0.012713673150764727 0 0.046292129529317085 -0.016845445640219933 0 0.026104362848886006 -0.016273099035435567 0 0.020544436425174326 -0.021656909551868834 0 0.028114391557983252 -0.020970439628208399 0 0.026104362848886006 -0.016273099035435567 0 0.020544436425174326 -0.021656909551868834 0 0.019964635908146351 -0.014404445373721696 0 0.031198200658839267 -0.013457888535827489 0 0.033714725735102431 -0.01534298686954722 0 0.013923892443492533 -0.0095009423117811687 0 0.017769186714337293 -0.011608384624202219 0 0.017523536473447399 -0.0080805424506452065 0 0.031198200658839267 -0.013457888535827489 0 0.02581060429835258 -0.010385706511637765 0 0.0150296232022658 -0.0070484136236250265 0 0.017523536473447399 -0.0080805424506452065 0 0.017599734975570661 -0.0047501270119050081 0 0.0150296232022658 -0.0070484136236250265 0 0.013923892443492533 -0.0095009423117811687 0 0.017523536473447399 -0.0080805424506452065 0 0.026104362848886006 -0.016273099035435567 0 0.019964635908146351 -0.014404445373721696 0 0.023471581122876686 -0.011601262583549196 0 0.019964635908146351 -0.014404445373721696 0 0.023471581122876686 -0.011601262583549196 0 0.019205444590175366 -0.0076245911175550594 0 0.026104362848886006 -0.016273099035435567 0 0.023471581122876686 -0.011601262583549196 0 0.027295439793537137 -0.012047691457230291 0 0.027295439793537137 -0.012047691457230291 0 0.031386593121860505 -0.013467812203603081 0 0.030050543800466664 -0.015321629025978062 0 0.027295439793537137 -0.012047691457230291 0 0.031386593121860505 -0.013467812203603081 0 0.028617661539655555 -0.0095442400199118177 0 0.031386593121860505 -0.013467812203603081 0 0.030050543800466664 -0.015321629025978062 0 0.033127685266151945 -0.016768368031963962 0 0.026104362848886006 -0.016273099035435567 0 0.027295439793537137 -0.012047691457230291 0 0.030050543800466664 -0.015321629025978062 0 0.039681245978709839 -0.016155429112922514 0 0.042775284990927545 -0.01772806242917805 0 0.03635989824205077 -0.018312747848764854 0 0.026104362848886006 -0.016273099035435567 0 0.030880748430205433 -0.017861446896504957 0 0.028114391557983252 -0.020970439628208399 0 0.033714725735102431 -0.01534298686954722 0 0.034488463913721477 -0.015847073838543172 0 0.026104362848886006 -0.016273099035435567 0 0.030050543800466664 -0.015321629025978062 0 0.030880748430205433 -0.017861446896504957 0 0.030880748430205433 -0.017861446896504957 0 0.028114391557983252 -0.020970439628208399 0 0.03635989824205077 -0.018312747848764854 0 0.030050543800466664 -0.015321629025978062 0 0.030880748430205433 -0.017861446896504957 0 0.033127685266151945 -0.016768368031963962 0 0.036089586514303579 -0.016296938970025862 0 0.03635989824205077 -0.018312747848764854 0 0.036473564762377682 -0.018153480705910285 0 0.030880748430205433 -0.017861446896504957 0 0.03635989824205077 -0.018312747848764854 0 0.033127685266151945 -0.016768368031963962 0 0.03635989824205077 -0.018312747848764854 0 0.033127685266151945 -0.016768368031963962 0 0.036473564762377682 -0.018153480705910285 0 -0.0014015513975241022 0.00725528466679642 0 -0.0020337780325007312 0.010215069390906906 0 -0.0034103046347919641 0.011652917223375055 0 0.018326503615728178 -0.0027811327380389719 0 0.014883562574312359 0.001279540255978169 0 0.031386593121860505 -0.013467812203603081 0 0.036473564762377682 -0.018153480705910285 0 0.03198443478403 -0.0095820740531569575 0 -0.0014015513975241022 0.00725528466679642 0 -0.0012426605194329997 0.0097060424899054788 0 -0.0020337780325007312 0.010215069390906906 0 0.031386593121860505 -0.013467812203603081 0 0.033127685266151945 -0.016768368031963962 0 0.036473564762377682 -0.018153480705910285 0 -0.0012426605194329997 0.0097060424899054788 0 -0.0020337780325007312 0.010215069390906906 0 -0.0020640036029432435 0.012259371958187817 0 -0.0020640036029432435 0.012259371958187817 0 -0.0034103046347919641 0.011652917223375055 0 -0.0045600498412513785 0.016434117548463006 0 -0.0040567724828826247 0.013889073146122264 0 -0.0032279033823930871 0.015141126716521824 0 -0.0013629467268316004 0.013807310114965622 0 -0.0020337780325007312 0.010215069390906906 0 -0.0020640036029432435 0.012259371958187817 0 -0.0034103046347919641 0.011652917223375055 0 0.031386593121860505 -0.013467812203603081 0 0.03198443478403 -0.0095820740531569575 0 0.028617661539655555 -0.0095442400199118177 0 0.027295439793537137 -0.012047691457230291 0 0.028617661539655555 -0.0095442400199118177 0 0.024919016191404537 -0.0078190088365449016 0 0.027733359682873802 -0.0061265074303281635 0 0.024919016191404537 -0.0078190088365449016 0 0.025189943105215187 -0.0049703116388648376 0 0.028617661539655555 -0.0095442400199118177 0 0.027733359682873802 -0.0061265074303281635 0 0.024919016191404537 -0.0078190088365449016 0 0.03198443478403 -0.0095820740531569575 0 0.028617661539655555 -0.0095442400199118177 0 0.027733359682873802 -0.0061265074303281635 0 0.03198443478403 -0.0095820740531569575 0 0.027733359682873802 -0.0061265074303281635 0 0.026105560458550725 -0.0020790860565625788 0 -0.0034103046347919641 0.011652917223375055 0 -0.0045600498412513785 0.016434117548463006 0 -0.0048882516980443633 0.01664732768193734 0 -0.0040567724828826247 0.013889073146122264 0 -0.0045600498412513785 0.016434117548463006 0 -0.0041423965105141141 0.015968054684530331 0 -0.0024862297782246349 0.012488227703639995 0 -0.00372713724359594 0.01407065940006863 0 0.014883562574312359 0.001279540255978169 0 0.011422518369449762 0.0063601309608986795 0 0.027733359682873802 -0.0061265074303281635 0 0.025901206069000128 -0.004077361028115691 0 0.026105560458550725 -0.0020790860565625788 0 0.027733359682873802 -0.0061265074303281635 0 0.025901206069000128 -0.004077361028115691 0 0.025189943105215187 -0.0049703116388648376 0 0.025901206069000128 -0.004077361028115691 0 0.026105560458550725 -0.0020790860565625788 0 0.024623150261490551 -0.0031619970994273129 0 -0.0045600498412513785 0.016434117548463006 0 -0.004301219700000105 0.016630937009595458 0 -0.0045399339776296312 0.016772062733304494 0 -0.0045600498412513785 0.016434117548463006 0 -0.0048882516980443633 0.01664732768193734 0 -0.0045399339776296312 0.016772062733304494 0 -0.0045600498412513785 0.016434117548463006 0 -0.004301219700000105 0.016630937009595458 0 -0.0041423965105141141 0.015968054684530331 0 -0.004301219700000105 0.016630937009595458 0 -0.0041423965105141141 0.015968054684530331 0 -0.0039621883719303599 0.016752377891500188 0 -0.0040567724828826247 0.013889073146122264 0 -0.0041423965105141141 0.015968054684530331 0 -0.0038425184206963632 0.015801030063837575 0 -0.0041423965105141141 0.015968054684530331 0 -0.0038425184206963632 0.015801030063837575 0 -0.0039621883719303599 0.016752377891500188 0 -0.0033039818968347871 0.016886865737284162 0 -0.0038425184206963632 0.015801030063837575 0 -0.0039621883719303599 0.016752377891500188 0 -0.0033039818968347871 0.016886865737284162 0 -0.0032279033823930871 0.015141126716521824 0 -0.0038425184206963632 0.015801030063837575 0 -0.0040567724828826247 0.013889073146122264 0 -0.0032279033823930871 0.015141126716521824 0 -0.0038425184206963632 0.015801030063837575 0 0.02581060429835258 -0.010385706511637765 0 0.023060475417471006 -0.00656543272338957 0 0.014028396774152598 -0.0054757022792469344 0 0.0150296232022658 -0.0070484136236250265 0 0.017599734975570661 -0.0047501270119050081 0 0.023471581122876686 -0.011601262583549196 0 0.019205444590175366 -0.0076245911175550594 0 0.024919016191404537 -0.0078190088365449016 0 0.019205444590175366 -0.0076245911175550594 0 0.024919016191404537 -0.0078190088365449016 0 0.022114511224420014 -0.0042491659218296526 0 0.023471581122876686 -0.011601262583549196 0 0.027295439793537137 -0.012047691457230291 0 0.024919016191404537 -0.0078190088365449016 0 0.025189943105215187 -0.0049703116388648376 0 0.024623150261490551 -0.0031619970994273129 0 0.022114511224420014 -0.0042491659218296526 0 0.024919016191404537 -0.0078190088365449016 0 0.025189943105215187 -0.0049703116388648376 0 0.022114511224420014 -0.0042491659218296526 0 0.025901206069000128 -0.004077361028115691 0 0.025189943105215187 -0.0049703116388648376 0 0.024623150261490551 -0.0031619970994273129 0 0.026105560458550725 -0.0020790860565625788 0 0.024345413731250976 -0.0021074519209736109 0 0.022813577729877153 -0.00057292054180699747 0 0.024623150261490551 -0.0031619970994273129 0 0.023196036454582927 -0.0023162248864625414 0 0.022114511224420014 -0.0042491659218296526 0 0.026105560458550725 -0.0020790860565625788 0 0.024623150261490551 -0.0031619970994273129 0 0.024345413731250976 -0.0021074519209736109 0 0.024623150261490551 -0.0031619970994273129 0 0.024345413731250976 -0.0021074519209736109 0 0.023196036454582927 -0.0023162248864625414 0 0.024345413731250976 -0.0021074519209736109 0 0.023196036454582927 -0.0023162248864625414 0 0.022813577729877153 -0.00057292054180699747 0 0.02096029782917215 -0.0016259639878978829 0 0.022114511224420014 -0.0042491659218296526 0 0.0181571598341508 -0.0012055927305475713 0 0.023196036454582927 -0.0023162248864625414 0 0.02096029782917215 -0.0016259639878978829 0 0.022114511224420014 -0.0042491659218296526 0 0.019205444590175366 -0.0076245911175550594 0 0.022114511224420014 -0.0042491659218296526 0 0.0181571598341508 -0.0012055927305475713 0 0.014171292561413723 -0.0030851970794766831 0 0.017599734975570661 -0.0047501270119050081 0 0.0181571598341508 -0.0012055927305475713 0 0.023060475417471006 -0.00656543272338957 0 0.022182874147127798 -0.0044741541209539805 0 0.015116015177739644 -0.00013228874305685833 0 0.017562629104350892 0.0019853704146429807 0 0.0181571598341508 -0.0012055927305475713 0 0.02096029782917215 -0.0016259639878978829 0 0.0181571598341508 -0.0012055927305475713 0 0.019442594344115011 0.00086082070419880462 0 0.017562629104350892 0.0019853704146429807 0 0.019442594344115011 0.00086082070419880462 0 0.020293285968872695 0.0029292094508023094 0 0.017562629104350892 0.0019853704146429807 0 0.0181571598341508 -0.0012055927305475713 0 0.019442594344115011 0.00086082070419880462 0 -0.0048882516980443633 0.01664732768193734 0 -0.0043011644383740529 0.017407434056270144 0 -0.004471763054856524 0.01702070507863488 0 0.026105560458550725 -0.0020790860565625788 0 0.022813577729877153 -0.00057292054180699747 0 0.020886815998500185 0.0037317976418003223 0 0.021099735017457707 0.0013323733876382049 0 0.022813577729877153 -0.00057292054180699747 0 0.020886815998500185 0.0037317976418003223 0 0.011422518369449762 0.0063601309608986795 0 0.0083073740276324703 0.011240655843767057 0 0.019442594344115011 0.00086082070419880462 0 0.021099735017457707 0.0013323733876382049 0 0.020293285968872695 0.0029292094508023094 0 0.019442594344115011 0.00086082070419880462 0 0.021099735017457707 0.0013323733876382049 0 0.021225833156084856 -0.00010955522512789399 0 0.02096029782917215 -0.0016259639878978829 0 0.019442594344115011 0.00086082070419880462 0 0.021225833156084856 -0.00010955522512789399 0 0.021099735017457707 0.0013323733876382049 0 0.021225833156084856 -0.00010955522512789399 0 0.022813577729877153 -0.00057292054180699747 0 0.023196036454582927 -0.0023162248864625414 0 0.02096029782917215 -0.0016259639878978829 0 0.022813577729877153 -0.00057292054180699747 0 0.02096029782917215 -0.0016259639878978829 0 0.021225833156084856 -0.00010955522512789399 0 0.022813577729877153 -0.00057292054180699747 0 -0.0043011644383740529 0.017407434056270144 0 -0.0042465772214289451 0.01722244840170576 0 -0.004471763054856524 0.01702070507863488 0 -0.0043011644383740529 0.017407434056270144 0 -0.0042465772214289451 0.01722244840170576 0 -0.0039457158120209251 0.017396485825698148 0 0.021099735017457707 0.0013323733876382049 0 0.020886815998500185 0.0037317976418003223 0 0.020293285968872695 0.0029292094508023094 0 0.020625693660583488 0.0033637456282907098 0 0.020293285968872695 0.0029292094508023094 0 0.01844421289627796 0.0043836276865852038 0 0.0083073740276324703 0.011240655843767057 0 0.008392205286939217 0.011221261491839314 0 0.0091941486594309535 0.01054755038949246 0 0.0083073740276324703 0.011240655843767057 0 0.018198020241096 0.0064845289494722706 0 0.020625693660583488 0.0033637456282907098 0 0.01844421289627796 0.0043836276865852038 0 0.017562629104350892 0.0019853704146429807 0 0.020293285968872695 0.0029292094508023094 0 0.01844421289627796 0.0043836276865852038 0 0.015439938274938943 0.0054873316386581357 0 0.015202803399777656 0.0027988712842530587 0 0.01844421289627796 0.0043836276865852038 0 0.015202803399777656 0.0027988712842530587 0 0.017562629104350892 0.0019853704146429807 0 0.01844421289627796 0.0043836276865852038 0 -0.0039152251506224776 0.017153427235265899 0 -0.0035959022586586286 0.01735724672924311 0 -0.0038765517909672832 0.017378144601990313 0 -0.0033039818968347871 0.016886865737284162 0 -0.0035959022586586286 0.01735724672924311 0 -0.0039621883719303599 0.016752377891500188 0 -0.0039152251506224776 0.017153427235265899 0 -0.0035959022586586286 0.01735724672924311 0 -0.0039621883719303599 0.016752377891500188 0 -0.004301219700000105 0.016630937009595458 0 -0.0039621883719303599 0.016752377891500188 0 -0.0042431853708303673 0.017017362023200516 0 -0.0039152251506224776 0.017153427235265899 0 -0.0039621883719303599 0.016752377891500188 0 -0.0042431853708303673 0.017017362023200516 0 -0.004301219700000105 0.016630937009595458 0 -0.0042431853708303673 0.017017362023200516 0 -0.0045399339776296312 0.016772062733304494 0 -0.0048882516980443633 0.01664732768193734 0 -0.0045399339776296312 0.016772062733304494 0 -0.004471763054856524 0.01702070507863488 0 -0.0042431853708303673 0.017017362023200516 0 -0.0045399339776296312 0.016772062733304494 0 -0.004471763054856524 0.01702070507863488 0 -0.0042431853708303673 0.017017362023200516 0 -0.0042465772214289451 0.01722244840170576 0 -0.0038765517909672832 0.017378144601990313 0 -0.0042431853708303673 0.017017362023200516 0 -0.0042465772214289451 0.01722244840170576 0 -0.004471763054856524 0.01702070507863488 0 -0.0039152251506224776 0.017153427235265899 0 -0.0042431853708303673 0.017017362023200516 0 -0.0038765517909672832 0.017378144601990313 0 -0.0033594428548900414 0.017481348247216477 0 -0.0038765517909672832 0.017378144601990313 0 -0.0039457158120209251 0.017396485825698148 0 -0.0033594428548900414 0.017481348247216477 0 -0.0043011644383740529 0.017407434056270144 0 -0.0039457158120209251 0.017396485825698148 0 -0.0033594428548900414 0.017481348247216477 0 -0.0038765517909672832 0.017378144601990313 0 -0.0034806413288285178 0.017542682070014044 0 -0.0042465772214289451 0.01722244840170576 0 -0.0038765517909672832 0.017378144601990313 0 -0.0039457158120209251 0.017396485825698148 0 -0.0035959022586586286 0.01735724672924311 0 -0.0038765517909672832 0.017378144601990313 0 -0.0034806413288285178 0.017542682070014044 0 -0.0035959022586586286 0.01735724672924311 0 -0.0034806413288285178 0.017542682070014044 0 -0.0036819132383566341 0.017866364808764357 0 -0.0035959022586586286 0.01735724672924311 0 -0.0036819132383566341 0.017866364808764357 0 -0.0036732359149942639 0.017468367666332134 0 -0.0033039818968347871 0.016886865737284162 0 -0.0035959022586586286 0.01735724672924311 0 -0.0036732359149942639 0.017468367666332134 0 -0.0036732359149942639 0.017468367666332134 0 -0.0034566678457137595 0.018327325093602808 0 -0.0027685120385799486 0.017614018629736956 0 -0.0039378526034996725 0.018134418441529909 0 -0.0036819132383566341 0.017866364808764357 0 -0.0034566678457137595 0.018327325093602808 0 -0.0036819132383566341 0.017866364808764357 0 -0.0036732359149942639 0.017468367666332134 0 -0.0034566678457137595 0.018327325093602808 0 -0.0034566678457137595 0.018327325093602808 0 -0.0033397424956583353 0.018628467671623152 0 -0.0014468471496778457 0.019773680378242793 0 -0.0039378526034996725 0.018134418441529909 0 -0.0034566678457137595 0.018327325093602808 0 -0.0033397424956583353 0.018628467671623152 0 -0.0033397424956583353 0.018628467671623152 0 -0.0036762106490836792 0.018668944856059664 0 -0.0014468471496778457 0.019773680378242793 0 -0.003892862818264827 0.018353320709599285 0 -0.0033397424956583353 0.018628467671623152 0 -0.0036762106490836792 0.018668944856059664 0 -0.00036941141598135395 0.021652640483191741 0 -0.00068147350048215337 0.02113885250801267 0 0.0014209296318306054 0.026148633184603545 0 -0.0014468471496778457 0.019773680378242793 0 0.0034844773645636884 0.021652609811997299 0 -0.0014468471496778457 0.019773680378242793 0 0.0034844773645636884 0.021652609811997299 0 0.0028749150318408494 0.017137124171421318 0 -0.0014468471496778457 0.019773680378242793 0 -0.0027685120385799486 0.017614018629736956 0 0.0028749150318408494 0.017137124171421318 0 -0.0034566678457137595 0.018327325093602808 0 -0.0014468471496778457 0.019773680378242793 0 -0.0027685120385799486 0.017614018629736956 0 -0.0027685120385799486 0.017614018629736956 0 -0.00062600092100053607 0.013735648907893673 0 -0.0038307679545660014 0.016570392858082657 0 0.0039944732248392914 0.013758504190904892 0 0.00018213216693454225 0.015262750842657519 0 -0.0027685120385799486 0.017614018629736956 0 -0.00062600092100053607 0.013735648907893673 0 0.0028749150318408494 0.017137124171421318 0 0.0071298046879920097 0.013663417053803185 0 0.011783672639894056 0.011726902119963292 0 0.0086731141942920521 0.009338733749808167 0 0.0071298046879920097 0.013663417053803185 0 0.0020127521270883945 0.015587892804224068 0 0.0042826028657853184 0.0099846520748224851 0 0.0010895915930748605 0.012187573285941295 0 -0.0013629467268316004 0.013807310114965622 0 0.0020127521270883945 0.015587892804224068 0 0.0010895915930748605 0.012187573285941295 0 0.0020127521270883945 0.015587892804224068 0 0.0042826028657853184 0.0099846520748224851 0 -0.0040567724828826247 0.013889073146122264 0 -0.0013629467268316004 0.013807310114965622 0 -0.00059786598880550031 0.0093235050866705155 0 0.0010895915930748605 0.012187573285941295 0 -0.0013629467268316004 0.013807310114965622 0 -0.00059786598880550031 0.0093235050866705155 0 -0.0033039818968347871 0.016886865737284162 0 -0.0032279033823930871 0.015141126716521824 0 -0.0013629467268316004 0.013807310114965622 0 -0.0033039818968347871 0.016886865737284162 0 -0.0013629467268316004 0.013807310114965622 0 0.0020127521270883945 0.015587892804224068 0 -0.0033039818968347871 0.016886865737284162 0 -0.0036732359149942639 0.017468367666332134 0 -0.0038307679545660014 0.016570392858082657 0 -0.0014727373443905961 0.015902597816194085 0 0.00018213216693454225 0.015262750842657519 0 -0.0036732359149942639 0.017468367666332134 0 -0.0027685120385799486 0.017614018629736956 0 -0.0038307679545660014 0.016570392858082657 0 0.022916062193621356 0.018214523454995846 0 0.018723918676989644 0.023855309707414629 0 0.018375196653838657 0.016084609280398812 0 0.018116452044098938 0.026914246340812624 0 0.021023732910672086 0.026395306966923118 0 0.018723918676989644 0.023855309707414629 0 0.018723918676989644 0.023855309707414629 0 0.013796535817433358 0.020729349515048571 0 0.011761881847290365 0.027371252385705595 0 0.012969237148403374 0.022069893380303782 0 0.0091800126123242846 0.022538537571074324 0 0.018116452044098938 0.026914246340812624 0 0.018723918676989644 0.023855309707414629 0 0.013790491179876024 0.02634781143687033 0 0.018723918676989644 0.023855309707414629 0 0.013796535817433358 0.020729349515048571 0 0.018375196653838657 0.016084609280398812 0 0.013796535817433358 0.020729349515048571 0 0.0082379339045101155 0.021122784933044265 0 0.011480553786987133 0.015919081690334517 0 0.013796535817433358 0.020729349515048571 0 0.0082379339045101155 0.021122784933044265 0 0.011761881847290365 0.027371252385705595 0 0.0082379339045101155 0.021122784933044265 0 0.011761881847290365 0.027371252385705595 0 0.0058981981518070083 0.025479237149541086 0 0.0041211452414110011 0.031105633686568022 0 0.0014209296318306054 0.026148633184603545 0 0.0058981981518070083 0.025479237149541086 0 0.0014209296318306054 0.026148633184603545 0 0.0058981981518070083 0.025479237149541086 0 0.0034844773645636884 0.021652609811997299 0 0.0082379339045101155 0.021122784933044265 0 0.0034844773645636884 0.021652609811997299 0 0.0028749150318408494 0.017137124171421318 0 0.0082379339045101155 0.021122784933044265 0 0.0058981981518070083 0.025479237149541086 0 0.0034844773645636884 0.021652609811997299 0 0.0028749150318408494 0.017137124171421318 0 0.0068001368295606789 0.011074615502252673 0 0.011480553786987133 0.015919081690334517 0 0.0039944732248392914 0.013758504190904892 0 0.0086492390268726807 0.012099568006833894 0 -0.00062600092100053607 0.013735648907893673 0 0.0028749150318408494 0.017137124171421318 0 0.0068001368295606789 0.011074615502252673 0 0.0086492390268726807 0.012099568006833894 0 0.011474436394920974 0.011206211696883085 0 0.0068001368295606789 0.011074615502252673 0 0.011480553786987133 0.015919081690334517 0 0.015687772375689614 0.010104720610366068 0 0.0082379339045101155 0.021122784933044265 0 0.0028749150318408494 0.017137124171421318 0 0.011480553786987133 0.015919081690334517 0 0.013796535817433358 0.020729349515048571 0 0.011480553786987133 0.015919081690334517 0 0.018375196653838657 0.016084609280398812 0 0.011480553786987133 0.015919081690334517 0 0.018375196653838657 0.016084609280398812 0 0.015687772375689614 0.010104720610366068 0 0.023685900069803454 0.013965377988501934 0 0.018375196653838657 0.016084609280398812 0 0.021113936912816246 0.010495201069060539 0 0.018375196653838657 0.016084609280398812 0 0.021113936912816246 0.010495201069060539 0 0.015687772375689614 0.010104720610366068 0 0.019586505113779778 0.0064797715333899638 0 0.015687772375689614 0.010104720610366068 0 0.015918167280749709 0.0044202489867840606 0 0.023155240635358385 0.0072805721081127331 0 0.019586505113779778 0.0064797715333899638 0 0.021113936912816246 0.010495201069060539 0 0.023155240635358385 0.0072805721081127331 0 0.02259882319607413 0.0043099944885667627 0 0.019586505113779778 0.0064797715333899638 0 0.019586505113779778 0.0064797715333899638 0 0.021113936912816246 0.010495201069060539 0 0.015687772375689614 0.010104720610366068 0 0.015687772375689614 0.010104720610366068 0 0.013000174376314025 0.0076985341684913857 0 0.015918167280749709 0.0044202489867840606 0 0.013000174376314025 0.0076985341684913857 0 0.012677490528413179 0.004197735900121017 0 0.015918167280749709 0.0044202489867840606 0 0.011783672639894056 0.011726902119963292 0 0.015687772375689614 0.010104720610366068 0 0.013000174376314025 0.0076985341684913857 0 0.011783672639894056 0.011726902119963292 0 0.013000174376314025 0.0076985341684913857 0 0.0086731141942920521 0.009338733749808167 0 0.013000174376314025 0.0076985341684913857 0 0.0099654204585514911 0.0055640625968720551 0 0.0086731141942920521 0.009338733749808167 0 0.013000174376314025 0.0076985341684913857 0 0.0099654204585514911 0.0055640625968720551 0 0.012677490528413179 0.004197735900121017 0 0.0099654204585514911 0.0055640625968720551 0 0.010456606335996968 0.0022169007630979736 0 0.012677490528413179 0.004197735900121017 0 0.010456606335996968 0.0022169007630979736 0 0.0081880906743281006 0.0007042554379709144 0 0.0107097478423041 -0.0012110657117088677 0 0.010456606335996968 0.0022169007630979736 0 0.014115219234902464 0.00095511735899535483 0 0.0107097478423041 -0.0012110657117088677 0 0.014115219234902464 0.00095511735899535483 0 0.013471088969012283 -0.0018721778291149566 0 0.0107097478423041 -0.0012110657117088677 0 0.014115219234902464 0.00095511735899535483 0 0.017282418016926218 -0.0019157084736916908 0 0.013471088969012283 -0.0018721778291149566 0 0.010456606335996968 0.0022169007630979736 0 0.014115219234902464 0.00095511735899535483 0 0.012677490528413179 0.004197735900121017 0 0.014115219234902464 0.00095511735899535483 0 0.012677490528413179 0.004197735900121017 0 0.015918167280749709 0.0044202489867840606 0 0.014115219234902464 0.00095511735899535483 0 0.015918167280749709 0.0044202489867840606 0 0.019414831069417736 0.0017489055933257046 0 0.019586505113779778 0.0064797715333899638 0 0.015918167280749709 0.0044202489867840606 0 0.019414831069417736 0.0017489055933257046 0 0.014115219234902464 0.00095511735899535483 0 0.019414831069417736 0.0017489055933257046 0 0.017282418016926218 -0.0019157084736916908 0 0.023545405995263329 0.00081256254517528953 0 0.022398128881424294 -0.0030403238499040327 0 0.019414831069417736 0.0017489055933257046 0 0.02259882319607413 0.0043099944885667627 0 0.019586505113779778 0.0064797715333899638 0 0.019414831069417736 0.0017489055933257046 0 0.023545405995263329 0.00081256254517528953 0 0.02259882319607413 0.0043099944885667627 0 0.019414831069417736 0.0017489055933257046 0 0.0034820457987987281 0.0052643555510329372 0 0.00085427232683316285 0.0060319981785990941 0 0.00070297762025303603 0.0086063614565575677 0 0.0034820457987987281 0.0052643555510329372 0 -0.00059786598880550031 0.0093235050866705155 0 0.0042826028657853184 0.0099846520748224851 0 0.0016035127605045023 0.0077019975042588364 0 1.207771354863088e-06 0.0095138362177133191 0 -0.0014015513975241022 0.00725528466679642 0 0.00085427232683316285 0.0060319981785990941 0 0.00049262520770689412 0.0051566628592439401 0 -0.0014015513975241022 0.00725528466679642 0 -0.00010359387997997017 0.0075814863061248088 0 -0.00059223694668046351 0.0084348454083648505 0 -0.0014015513975241022 0.00725528466679642 0 0.00085427232683316285 0.0060319981785990941 0 -0.00010359387997997017 0.0075814863061248088 0 0.00085427232683316285 0.0060319981785990941 0 -0.00010359387997997017 0.0075814863061248088 0 0.00070297762025303603 0.0086063614565575677 0 -0.0012426605194329997 0.0097060424899054788 0 -0.0020640036029432435 0.012259371958187817 0 0.00070297762025303603 0.0086063614565575677 0 -0.0024862297782246349 0.012488227703639995 0 1.207771354863088e-06 0.0095138362177133191 0 -0.0012426605194329997 0.0097060424899054788 0 0.00070297762025303603 0.0086063614565575677 0 -0.00059223694668046351 0.0084348454083648505 0 -0.00010359387997997017 0.0075814863061248088 0 0.00070297762025303603 0.0086063614565575677 0 -0.00059223694668046351 0.0084348454083648505 0 -0.0014015513975241022 0.00725528466679642 0 -0.0012426605194329997 0.0097060424899054788 0 -0.00059223694668046351 0.0084348454083648505 0 0.0010895915930748605 0.012187573285941295 0 -0.00059786598880550031 0.0093235050866705155 0 0.0042826028657853184 0.0099846520748224851 0 0.0071298046879920097 0.013663417053803185 0 0.0042826028657853184 0.0099846520748224851 0 0.0086731141942920521 0.009338733749808167 0 0.0042826028657853184 0.0099846520748224851 0 0.0086731141942920521 0.009338733749808167 0 0.0064908910509959908 0.0059714339493840453 0 0.0099654204585514911 0.0055640625968720551 0 0.0086731141942920521 0.009338733749808167 0 0.0064908910509959908 0.0059714339493840453 0 0.0034820457987987281 0.0052643555510329372 0 0.0042826028657853184 0.0099846520748224851 0 0.0064908910509959908 0.0059714339493840453 0 0.0034820457987987281 0.0052643555510329372 0 0.0064908910509959908 0.0059714339493840453 0 0.0044287087957236917 0.003115871496835797 0 0.0064908910509959908 0.0059714339493840453 0 0.0044287087957236917 0.003115871496835797 0 0.0075150302504573864 0.0029482423566633167 0 0.0044287087957236917 0.003115871496835797 0 0.0075150302504573864 0.0029482423566633167 0 0.0060508398090443781 0.0011085801852382161 0 0.0099654204585514911 0.0055640625968720551 0 0.0064908910509959908 0.0059714339493840453 0 0.0075150302504573864 0.0029482423566633167 0 0.0099654204585514911 0.0055640625968720551 0 0.010456606335996968 0.0022169007630979736 0 0.0075150302504573864 0.0029482423566633167 0 0.0081880906743281006 0.0007042554379709144 0 0.0063661775952945409 -0.0012801928795487625 0 0.0107097478423041 -0.0012110657117088677 0 0.010456606335996968 0.0022169007630979736 0 0.0075150302504573864 0.0029482423566633167 0 0.0081880906743281006 0.0007042554379709144 0 0.0075150302504573864 0.0029482423566633167 0 0.0081880906743281006 0.0007042554379709144 0 0.0060508398090443781 0.0011085801852382161 0 0.0081880906743281006 0.0007042554379709144 0 0.0060508398090443781 0.0011085801852382161 0 0.0063661775952945409 -0.0012801928795487625 0 0.0044287087957236917 0.003115871496835797 0 0.0060508398090443781 0.0011085801852382161 0 0.0039548585419596294 0.00055004337590946388 0 0.012208919931306584 0.00015294237114614364 0 0.020705195179211097 -0.0040191735120773163 0 0.0060508398090443781 0.0011085801852382161 0 0.0039548585419596294 0.00055004337590946388 0 0.0063661775952945409 -0.0012801928795487625 0 0.033467370828462385 -0.015128092569921854 0 0.032964731332826361 -0.011414972555605191 0 0.029645617815442938 -0.0089067920321746798 0 0.021594800001083009 -0.0036986903881805022 0 0.028868800868183737 -0.004721767331462047 0 0.0044287087957236917 0.003115871496835797 0 0.0039548585419596294 0.00055004337590946388 0 0.0017742538246625702 0.0022245986063429068 0 0.0017742538246625702 0.0022245986063429068 0 0.00051063055730316844 0.0030956275929521124 0 0.0034244184130010941 -0.002209741638353622 0 0.004806873902758765 0.00018947782151431221 0 0.0017742538246625702 0.0022245986063429068 0 0.0034244184130010941 -0.002209741638353622 0 0.012208919931306584 0.00015294237114614364 0 0.0095945457724024349 0.0014356279404859318 0 0.0034820457987987281 0.0052643555510329372 0 0.00085427232683316285 0.0060319981785990941 0 0.0020747157525614216 0.0042313448134060402 0 0.0044287087957236917 0.003115871496835797 0 0.0017742538246625702 0.0022245986063429068 0 0.0020747157525614216 0.0042313448134060402 0 0.0017742538246625702 0.0022245986063429068 0 0.0020747157525614216 0.0042313448134060402 0 0.00051063055730316844 0.0030956275929521124 0 0.00085427232683316285 0.0060319981785990941 0 0.0020747157525614216 0.0042313448134060402 0 0.00049262520770689412 0.0051566628592439401 0 0.0034820457987987281 0.0052643555510329372 0 0.0044287087957236917 0.003115871496835797 0 0.0020747157525614216 0.0042313448134060402 0 0.018326503615728178 -0.0027811327380389719 0 0.021594800001083009 -0.0036986903881805022 0 0.036089586514303579 -0.016296938970025862 0 0.036473564762377682 -0.018153480705910285 0 0.033467370828462385 -0.015128092569921854 0 -0.0014015513975241022 0.00725528466679642 0 0.00049262520770689412 0.0051566628592439401 0 0.00051063055730316844 0.0030956275929521124 0 0.0020747157525614216 0.0042313448134060402 0 0.00049262520770689412 0.0051566628592439401 0 0.00051063055730316844 0.0030956275929521124 0 0.036089586514303579 -0.016296938970025862 0 0.033467370828462385 -0.015128092569921854 0 0.035540168081083803 -0.013451353259319371 0 0.033467370828462385 -0.015128092569921854 0 0.035540168081083803 -0.013451353259319371 0 0.032964731332826361 -0.011414972555605191 0 0.037155025887979407 -0.011440246910668224 0 0.035574677407792292 -0.011153380829476506 0 0.036651893614613872 -0.0082607248116374783 0 0.032964731332826361 -0.011414972555605191 0 0.035574677407792292 -0.011153380829476506 0 0.036651893614613872 -0.0082607248116374783 0 0.037155025887979407 -0.011440246910668224 0 0.035540168081083803 -0.013451353259319371 0 0.035574677407792292 -0.011153380829476506 0 0.035540168081083803 -0.013451353259319371 0 0.032964731332826361 -0.011414972555605191 0 0.035574677407792292 -0.011153380829476506 0 0.032964731332826361 -0.011414972555605191 0 0.029645617815442938 -0.0089067920321746798 0 0.036651893614613872 -0.0082607248116374783 0 0.028868800868183737 -0.004721767331462047 0 0.039051790943503237 -0.0059991140372743753 0 0.045767282987175043 -0.0076426337701792323 0 0.045953924166222605 -0.0073465902265167013 0 0.04547331591054745 -0.0074162057148010399 0 0.045526666518332821 -0.0077403736590144585 0 0.045767282987175043 -0.0076426337701792323 0 0.04547331591054745 -0.0074162057148010399 0 0.045767282987175043 -0.0076426337701792323 0 0.045634310933936835 -0.0077141435232395521 0 0.045728546489065325 -0.0076965471441297435 0 0.045526666518332821 -0.0077403736590144585 0 0.045634310933936835 -0.0077141435232395521 0 0.045552676776053555 -0.0077532707208433759 0 0.045526666518332821 -0.0077403736590144585 0 0.045767282987175043 -0.0076426337701792323 0 0.045634310933936835 -0.0077141435232395521 0 0.045767282987175043 -0.0076426337701792323 0 0.046528405529969119 -0.0075576184772466262 0 0.045891302008142468 -0.0077563292345447657 0 0.0474613429319806 -0.0080909395303381502 0 0.047607289470266483 -0.008233885712859457 0 0.045767282987175043 -0.0076426337701792323 0 0.045953924166222605 -0.0073465902265167013 0 0.046528405529969119 -0.0075576184772466262 0 0.045953924166222605 -0.0073465902265167013 0 0.046009710006344816 -0.0068829073955018437 0 0.04547331591054745 -0.0074162057148010399 0 0.045953924166222605 -0.0073465902265167013 0 0.046009710006344816 -0.0068829073955018437 0 0.046528405529969119 -0.0075576184772466262 0 0.045169079998745122 -0.0045210057174226428 0 0.048103862610603502 -0.0043139721004262646 0 0.048461854290932929 -0.0064587629777536027 0 0.004806873902758765 0.00018947782151431221 0 0.0034244184130010941 -0.002209741638353622 0 0.0079286704627839228 -0.0019444160666311047 0 0.028868800868183737 -0.004721767331462047 0 0.020705195179211097 -0.0040191735120773163 0 0.020705195179211097 -0.0040191735120773163 0 0.014475093450492194 -0.0037981098088888704 0 0.006000346021877238 -0.00157432051781262 0 0.0107097478423041 -0.0012110657117088677 0 0.010755123399317942 -0.0049545843836402217 0 0.048103862610603502 -0.0043139721004262646 0 0.048461854290932929 -0.0064587629777536027 0 0.051484359259360388 -0.0069856217771764786 0 0.020705195179211097 -0.0040191735120773163 0 0.029208001231613056 -0.0067493642308285038 0 0.048461854290932929 -0.0064587629777536027 0 0.050024744895329515 -0.0082592542553858121 0 0.051484359259360388 -0.0069856217771764786 0 0.048461854290932929 -0.0064587629777536027 0 0.047297937077569185 -0.0081338689413254193 0 0.050024744895329515 -0.0082592542553858121 0 0.028868800868183737 -0.004721767331462047 0 0.035987123579626433 -0.0095964769309137572 0 0.046009710006344816 -0.0068829073955018437 0 0.046528405529969119 -0.0075576184772466262 0 0.047297937077569185 -0.0081338689413254193 0 0.046528405529969119 -0.0075576184772466262 0 0.047297937077569185 -0.0081338689413254193 0 0.046060168469900471 -0.0089579951999366886 0 0.045169079998745122 -0.0045210057174226428 0 0.048461854290932929 -0.0064587629777536027 0 0.047297937077569185 -0.0081338689413254193 0 0.047297937077569185 -0.0081338689413254193 0 0.046972112534896644 -0.0096223018276569323 0 0.046060168469900471 -0.0089579951999366886 0 0.047297937077569185 -0.0081338689413254193 0 0.046972112534896644 -0.0096223018276569323 0 0.04852912554525405 -0.0092337395811308738 0 0.046972112534896644 -0.0096223018276569323 0 0.04852912554525405 -0.0092337395811308738 0 0.04753390799429609 -0.010716938251058161 0 0.047297937077569185 -0.0081338689413254193 0 0.050024744895329515 -0.0082592542553858121 0 0.04852912554525405 -0.0092337395811308738 0 0.04852912554525405 -0.0092337395811308738 0 0.049870324905282683 -0.010217378600996131 0 0.04753390799429609 -0.010716938251058161 0 0.050024744895329515 -0.0082592542553858121 0 0.04852912554525405 -0.0092337395811308738 0 0.049870324905282683 -0.010217378600996131 0 0.050024744895329515 -0.0082592542553858121 0 0.049870324905282683 -0.010217378600996131 0 0.051795586082789093 -0.008999367441757165 0 0.049961166226285963 -0.0080911138794941793 0 0.048837272464307753 -0.0082219693958725196 0 0.052468009644259815 -0.0090950801385179282 0 0.052513107233287476 -0.0088271300306679585 0 0.05297450501378325 -0.0088464146252579777 0 0.052513107233287476 -0.0088271300306679585 0 0.05297450501378325 -0.0088464146252579777 0 0.052782661337727972 -0.0086323812028146658 0 0.049961166226285963 -0.0080911138794941793 0 0.050143376765680349 -0.0077139682239333093 0 0.052468009644259815 -0.0090950801385179282 0 0.052513107233287476 -0.0088271300306679585 0 0.052079855242775752 -0.0089813412958352767 0 0.049379924778407712 -0.0080687560059714766 0 0.049404880748092184 -0.0079651911354186571 0 0.049059253736775922 -0.0080498010525059446 0 0.048837272464307753 -0.0082219693958725196 0 0.048342304866197144 -0.0079191569157452176 0 0.046972112534896644 -0.0096223018276569323 0 0.04753390799429609 -0.010716938251058161 0 0.045473004532593612 -0.011180901423195673 0 0.049753353824879235 -0.0078832553812536142 0 0.049379924778407712 -0.0080687560059714766 0 0.049404880748092184 -0.0079651911354186571 0 0.050143376765680349 -0.0077139682239333093 0 0.049241158846013718 -0.0074267099447183965 0 0.049379924778407712 -0.0080687560059714766 0 0.049059253736775922 -0.0080498010525059446 0 0.04900953958163818 -0.0082561456814586581 0 0.045596792472106053 -0.0075135170290566581 0 0.045699917524103878 -0.0074658256765419073 0 0.045703750968343303 -0.0076311163833671551 0 0.048342304866197144 -0.0079191569157452176 0 0.049241158846013718 -0.0074267099447183965 0 0.045596792472106053 -0.0075135170290566581 0 0.045769999159625666 -0.0070870416062118234 0 0.045699917524103878 -0.0074658256765419073 0 0.048229989517245477 -0.0063501981733471999 0 0.047783235266569551 -0.0064517314211747414 0 0.048180055171100022 -0.0065574529282283007 0 0.048342304866197144 -0.0079191569157452176 0 0.047417088763711687 -0.0075583999064205067 0 0.045769999159625666 -0.0070870416062118234 0 0.045699917524103878 -0.0074658256765419073 0 0.045921156048918145 -0.0074248720881948775 0 0.045699917524103878 -0.0074658256765419073 0 0.045686293872977679 -0.0076410259900421438 0 0.045703750968343303 -0.0076311163833671551 0 0.045686293872977679 -0.0076410259900421438 0 0.045728546489065325 -0.0076965471441297435 0 0.045703750968343303 -0.0076311163833671551 0 0.045699917524103878 -0.0074658256765419073 0 0.045686293872977679 -0.0076410259900421438 0 0.045921156048918145 -0.0074248720881948775 0 0.045634310933936835 -0.0077141435232395521 0 0.045686293872977679 -0.0076410259900421438 0 0.045552676776053555 -0.0077532707208433759 0 0.045634310933936835 -0.0077141435232395521 0 0.045686293872977679 -0.0076410259900421438 0 0.045728546489065325 -0.0076965471441297435 0 0.048342304866197144 -0.0079191569157452176 0 0.047607289470266483 -0.008233885712859457 0 0.046972112534896644 -0.0096223018276569323 0 0.045473004532593612 -0.011180901423195673 0 0.046060168469900471 -0.0089579951999366886 0 0.045767282987175043 -0.0076426337701792323 0 0.045728546489065325 -0.0076965471441297435 0 0.045891302008142468 -0.0077563292345447657 0 0.045728546489065325 -0.0076965471441297435 0 0.045891302008142468 -0.0077563292345447657 0 0.045703750968343303 -0.0076311163833671551 0 0.045596792472106053 -0.0075135170290566581 0 0.045891302008142468 -0.0077563292345447657 0 0.045703750968343303 -0.0076311163833671551 0 0.022398128881424294 -0.0030403238499040327 0 0.022076823384848468 -0.0072424866234264808 0 0.018442351219089045 -0.0059816793318218948 0 0.022398128881424294 -0.0030403238499040327 0 0.017282418016926218 -0.0019157084736916908 0 0.018442351219089045 -0.0059816793318218948 0 0.022398128881424294 -0.0030403238499040327 0 0.019414831069417736 0.0017489055933257046 0 0.017282418016926218 -0.0019157084736916908 0 0.017282418016926218 -0.0019157084736916908 0 0.018442351219089045 -0.0059816793318218948 0 0.014572092379311969 -0.0046274551321734527 0 0.018442351219089045 -0.0059816793318218948 0 0.014572092379311969 -0.0046274551321734527 0 0.0156038999142221 -0.0084877905534164969 0 0.014572092379311969 -0.0046274551321734527 0 0.010755123399317942 -0.0049545843836402217 0 0.0156038999142221 -0.0084877905534164969 0 0.051484359259360388 -0.0069856217771764786 0 0.051754726534971984 -0.0081174965536686908 0 0.052530447939342542 -0.008814361337539987 0 0.029208001231613056 -0.0067493642308285038 0 0.033726159864751915 -0.0082421408153680303 0 0.014572092379311969 -0.0046274551321734527 0 0.013471088969012283 -0.0018721778291149566 0 0.010755123399317942 -0.0049545843836402217 0 0.017282418016926218 -0.0019157084736916908 0 0.014572092379311969 -0.0046274551321734527 0 0.013471088969012283 -0.0018721778291149566 0 0.013471088969012283 -0.0018721778291149566 0 0.0107097478423041 -0.0012110657117088677 0 0.010755123399317942 -0.0049545843836402217 0 0.050024744895329515 -0.0082592542553858121 0 0.051484359259360388 -0.0069856217771764786 0 0.051754726534971984 -0.0081174965536686908 0 0.050024744895329515 -0.0082592542553858121 0 0.051754726534971984 -0.0081174965536686908 0 0.051795586082789093 -0.008999367441757165 0 0.051754726534971984 -0.0081174965536686908 0 0.051795586082789093 -0.008999367441757165 0 0.052124714703282657 -0.0087599847153395742 0 0.051795586082789093 -0.008999367441757165 0 0.052079855242775752 -0.0089813412958352767 0 0.052124714703282657 -0.0087599847153395742 0 0.049961166226285963 -0.0080911138794941793 0 0.050257528850249901 -0.008086099781734999 0 0.052468009644259815 -0.0090950801385179282 0 0.051795586082789093 -0.008999367441757165 0 0.052079855242775752 -0.0089813412958352767 0 0.052079855242775752 -0.0089813412958352767 0 0.052140693982871154 -0.0088700459281730541 0 0.052124714703282657 -0.0087599847153395742 0 0.052513107233287476 -0.0088271300306679585 0 0.052079855242775752 -0.0089813412958352767 0 0.052140693982871154 -0.0088700459281730541 0 0.052513107233287476 -0.0088271300306679585 0 0.052140693982871154 -0.0088700459281730541 0 0.052409493236728458 -0.0086781751192692332 0 0.053899524335692423 -0.0078555510135617287 0 0.054451968398241291 -0.0073238069674858774 0 0.052140693982871154 -0.0088700459281730541 0 0.052124714703282657 -0.0087599847153395742 0 0.051959713694088916 -0.0088067571048468275 0 0.051754726534971984 -0.0081174965536686908 0 0.052530447939342542 -0.008814361337539987 0 0.052124714703282657 -0.0087599847153395742 0 0.052530447939342542 -0.008814361337539987 0 0.052124714703282657 -0.0087599847153395742 0 0.052531731644056445 -0.008685367794647722 0 0.033726159864751915 -0.0082421408153680303 0 0.037315561884699651 -0.0090319760133609744 0 0.018442351219089045 -0.0059816793318218948 0 0.0156038999142221 -0.0084877905534164969 0 0.020637869751942286 -0.012012780661522485 0 0.052530447939342542 -0.008814361337539987 0 0.052175973106583985 -0.0087800100755986293 0 0.052531731644056445 -0.008685367794647722 0 0.024167101531426823 -0.0095633569967203871 0 0.022076823384848468 -0.0072424866234264808 0 0.020637869751942286 -0.012012780661522485 0 0.022076823384848468 -0.0072424866234264808 0 0.018442351219089045 -0.0059816793318218948 0 0.020637869751942286 -0.012012780661522485 0 0.052037572667561996 -0.0081271903866081303 0 0.052240351729915049 -0.0081880669305327055 0 0.052194050492307603 -0.0079312377848968184 0 0.052240351729915049 -0.0081880669305327055 0 0.052305281832431542 -0.0080178548959660232 0 0.052194050492307603 -0.0079312377848968184 0 0.052037572667561996 -0.0081271903866081303 0 0.052240351729915049 -0.0081880669305327055 0 0.052182974058037436 -0.0084416326429254829 0 0.051925800772632015 -0.0084038600596188229 0 0.052037572667561996 -0.0081271903866081303 0 0.052182974058037436 -0.0084416326429254829 0 0.051925800772632015 -0.0084038600596188229 0 0.052175973106583985 -0.0087800100755986293 0 0.052182974058037436 -0.0084416326429254829 0 0.052175973106583985 -0.0087800100755986293 0 0.052182974058037436 -0.0084416326429254829 0 0.052531731644056445 -0.008685367794647722 0 0.052240351729915049 -0.0081880669305327055 0 0.052182974058037436 -0.0084416326429254829 0 0.052531731644056445 -0.008685367794647722 0 0.056198566326262883 -0.0045906797199298877 0 0.054451968398241291 -0.0073238069674858774 0 0.052240351729915049 -0.0081880669305327055 0 0.052456995390176994 -0.0081046173888831025 0 0.052531731644056445 -0.008685367794647722 0 0.051460585667510245 -0.0079435658658999087 0 0.051763760661667275 -0.0081616354969615452 0 0.051959713694088916 -0.0088067571048468275 0 0.052240351729915049 -0.0081880669305327055 0 0.052456995390176994 -0.0081046173888831025 0 0.052305281832431542 -0.0080178548959660232 0 0.051460585667510245 -0.0079435658658999087 0 0.051580415387782186 -0.0079133478269149352 0 0.051636613340801829 -0.0079946840856887393 0 0.051460585667510245 -0.0079435658658999087 0 0.051580415387782186 -0.0079133478269149352 0 0.051653375022570246 -0.0077363945299969636 0 0.051580415387782186 -0.0079133478269149352 0 0.051723742543145046 -0.0079388692273459696 0 0.051653375022570246 -0.0077363945299969636 0 0.051580415387782186 -0.0079133478269149352 0 0.051723742543145046 -0.0079388692273459696 0 0.051636613340801829 -0.0079946840856887393 0 0.051460585667510245 -0.0079435658658999087 0 0.051636613340801829 -0.0079946840856887393 0 0.051763760661667275 -0.0081616354969615452 0 0.051723742543145046 -0.0079388692273459696 0 0.051636613340801829 -0.0079946840856887393 0 0.051763760661667275 -0.0081616354969615452 0 0.051881468245225652 -0.0080224005820700994 0 0.051884383445369865 -0.0078157188238736734 0 0.052214342766833795 -0.0078751156525510291 0 0.051723742543145046 -0.0079388692273459696 0 0.051881468245225652 -0.0080224005820700994 0 0.051763760661667275 -0.0081616354969615452 0 0.051723742543145046 -0.0079388692273459696 0 0.051881468245225652 -0.0080224005820700994 0 0.051884383445369865 -0.0078157188238736734 0 0.051723742543145046 -0.0079388692273459696 0 0.051884383445369865 -0.0078157188238736734 0 0.051653375022570246 -0.0077363945299969636 0 0.052214342766833795 -0.0078751156525510291 0 0.052076006039217991 -0.0081703747238791018 0 0.052411068391929369 -0.0081895171751680367 0 0.051881468245225652 -0.0080224005820700994 0 0.052214342766833795 -0.0078751156525510291 0 0.052076006039217991 -0.0081703747238791018 0 0.052076006039217991 -0.0081703747238791018 0 0.05215126360520797 -0.0085891722181772063 0 0.052411068391929369 -0.0081895171751680367 0 0.051881468245225652 -0.0080224005820700994 0 0.052076006039217991 -0.0081703747238791018 0 0.051763760661667275 -0.0081616354969615452 0 0.052076006039217991 -0.0081703747238791018 0 0.051763760661667275 -0.0081616354969615452 0 0.05215126360520797 -0.0085891722181772063 0 0.052140693982871154 -0.0088700459281730541 0 0.051959713694088916 -0.0088067571048468275 0 0.05215126360520797 -0.0085891722181772063 0 0.051763760661667275 -0.0081616354969615452 0 0.051959713694088916 -0.0088067571048468275 0 0.05215126360520797 -0.0085891722181772063 0 0.05215126360520797 -0.0085891722181772063 0 0.052485106633497675 -0.0084478521775308568 0 0.052411068391929369 -0.0081895171751680367 0 0.05215126360520797 -0.0085891722181772063 0 0.052409493236728458 -0.0086781751192692332 0 0.052485106633497675 -0.0084478521775308568 0 0.052140693982871154 -0.0088700459281730541 0 0.05215126360520797 -0.0085891722181772063 0 0.052409493236728458 -0.0086781751192692332 0 0.052409493236728458 -0.0086781751192692332 0 0.052485106633497675 -0.0084478521775308568 0 0.052782661337727972 -0.0086323812028146658 0 0.053148477400281398 -0.0078812912132701501 0 0.053466413498440828 -0.0073855423825119971 0 0.052485106633497675 -0.0084478521775308568 0 0.052780537044319384 -0.0079278407856800751 0 0.053496058632502515 -0.0075488597686822791 0 0.052485106633497675 -0.0084478521775308568 0 0.052411068391929369 -0.0081895171751680367 0 0.052780537044319384 -0.0079278407856800751 0 0.052214342766833795 -0.0078751156525510291 0 0.052411068391929369 -0.0081895171751680367 0 0.052780537044319384 -0.0079278407856800751 0 0.052780537044319384 -0.0079278407856800751 0 0.053382355615509212 -0.0071675819091059304 0 0.053496058632502515 -0.0075488597686822791 0 0.052780537044319384 -0.0079278407856800751 0 0.052473788303398432 -0.0074505187207036874 0 0.05303779180162746 -0.0069844739809346102 0 0.053391208449224674 -0.0073503020962411977 0 0.053576902904491519 -0.0068802290398039178 0 0.052214342766833795 -0.0078751156525510291 0 0.052780537044319384 -0.0079278407856800751 0 0.052473788303398432 -0.0074505187207036874 0 0.052473788303398432 -0.0074505187207036874 0 0.05303779180162746 -0.0069844739809346102 0 0.05235400502950327 -0.0069760928833932792 0 0.053284709294235018 -0.0060021880100726158 0 0.05303779180162746 -0.0069844739809346102 0 0.052660201405109103 -0.006444492534203922 0 0.05303779180162746 -0.0069844739809346102 0 0.052660201405109103 -0.006444492534203922 0 0.05235400502950327 -0.0069760928833932792 0 0.052660201405109103 -0.006444492534203922 0 0.05235400502950327 -0.0069760928833932792 0 0.051905372897929548 -0.006521299379804538 0 0.05235400502950327 -0.0069760928833932792 0 0.051905372897929548 -0.006521299379804538 0 0.05180198419132729 -0.0071454463210484879 0 0.05180198419132729 -0.0071454463210484879 0 0.052009068696967121 -0.0074831681727898156 0 0.05157021015012403 -0.0074969764003859768 0 0.052473788303398432 -0.0074505187207036874 0 0.05235400502950327 -0.0069760928833932792 0 0.052009068696967121 -0.0074831681727898156 0 0.05235400502950327 -0.0069760928833932792 0 0.05180198419132729 -0.0071454463210484879 0 0.052009068696967121 -0.0074831681727898156 0 0.051884383445369865 -0.0078157188238736734 0 0.052214342766833795 -0.0078751156525510291 0 0.052009068696967121 -0.0074831681727898156 0 0.052214342766833795 -0.0078751156525510291 0 0.052473788303398432 -0.0074505187207036874 0 0.052009068696967121 -0.0074831681727898156 0 0.051884383445369865 -0.0078157188238736734 0 0.052009068696967121 -0.0074831681727898156 0 0.051653375022570246 -0.0077363945299969636 0 0.052009068696967121 -0.0074831681727898156 0 0.05157021015012403 -0.0074969764003859768 0 0.051653375022570246 -0.0077363945299969636 0 0.056281747012427268 -0.003716068218510483 0 0.056449598274965131 -0.0041799005440589744 0 0.056545892924066851 -0.0040919094342230762 0 0.056198566326262883 -0.0045906797199298877 0 0.05711174209104615 -0.0025335450164566467 0 0.051460585667510245 -0.0079435658658999087 0 0.05157021015012403 -0.0074969764003859768 0 0.051178197464128036 -0.0072392907475742601 0 0.051460585667510245 -0.0079435658658999087 0 0.05157021015012403 -0.0074969764003859768 0 0.051653375022570246 -0.0077363945299969636 0 0.056198566326262883 -0.0045906797199298877 0 0.056826327314623538 -0.0033244034950905164 0 0.052456995390176994 -0.0081046173888831025 0 0.052305281832431542 -0.0080178548959660232 0 0.052305368878064952 -0.0078321612892279201 0 0.05711174209104615 -0.0025335450164566467 0 0.056826327314623538 -0.0033244034950905164 0 0.05180198419132729 -0.0071454463210484879 0 0.05157021015012403 -0.0074969764003859768 0 0.051178197464128036 -0.0072392907475742601 0 0.062800337614469265 0.0045837090607508237 0 0.0619903739533465 0.0069171706759076825 0 0.061685715125338582 0.0052854645007716968 0 0.060297826782857819 0.0054257359882824959 0 0.0619903739533465 0.0069171706759076825 0 0.061685715125338582 0.0052854645007716968 0 0.051905372897929548 -0.006521299379804538 0 0.05180198419132729 -0.0071454463210484879 0 0.051178197464128036 -0.0072392907475742601 0 0.056674678701345987 -0.0017388316554382941 0 0.05711174209104615 -0.0025335450164566467 0 0.062800337614469265 0.0045837090607508237 0 0.06220017919324107 0.0062614509752216821 0 0.06309231917832657 0.0055636094624913722 0 0.057578924746816647 0.0011795793745798934 0 0.05711174209104615 -0.0025335450164566467 0 0.057750070666830598 -0.001348110871040861 0 0.056826327314623538 -0.0033244034950905164 0 0.063839358672359889 0.0045963808448159548 0 0.063320660134462387 0.0046240422349459135 0 0.06309231917832657 0.0055636094624913722 0 0.058850071849302556 0.00033109459891281597 0 0.057750070666830598 -0.001348110871040861 0 0.051922576178861056 -0.0077570940151457848 0 0.052148808316684801 -0.0074932726177984708 0 0.052146629168674637 -0.0077141446512985958 0 0.051922576178861056 -0.0077570940151457848 0 0.052146629168674637 -0.0077141446512985958 0 0.052194050492307603 -0.0079312377848968184 0 0.051922576178861056 -0.0077570940151457848 0 0.052037572667561996 -0.0081271903866081303 0 0.052194050492307603 -0.0079312377848968184 0 0.052146629168674637 -0.0077141446512985958 0 0.052347318581313106 -0.0077964479832896743 0 0.052194050492307603 -0.0079312377848968184 0 0.06220017919324107 0.0062614509752216821 0 0.06309231917832657 0.0055636094624913722 0 0.062433242277809969 0.0064729382390654152 0 0.052148808316684801 -0.0074932726177984708 0 0.052146629168674637 -0.0077141446512985958 0 0.052347318581313106 -0.0077964479832896743 0 0.052305281832431542 -0.0080178548959660232 0 0.052305368878064952 -0.0078321612892279201 0 0.052194050492307603 -0.0079312377848968184 0 0.056826327314623538 -0.0033244034950905164 0 0.056363192156264397 -0.0037581023686689826 0 0.053139257338917903 -0.0084743744399273721 0 0.053300100334614811 -0.008354593641823763 0 0.053170250181973931 -0.0082180925268952078 0 0.050869173334821376 -0.0073960630989215312 0 0.049241158846013718 -0.0074267099447183965 0 0.053139257338917903 -0.0084743744399273721 0 0.052967421071571139 -0.0084394842725068874 0 0.053170250181973931 -0.0082180925268952078 0 0.053139257338917903 -0.0084743744399273721 0 0.053300100334614811 -0.008354593641823763 0 0.053220456452232598 -0.0087043180852780129 0 0.048299971866779486 -0.0068237803609942542 0 0.048150079742563856 -0.0067775888224193507 0 0.048189176556048798 -0.0065821144410759171 0 0.048299971866779486 -0.0068237803609942542 0 0.048150079742563856 -0.0067775888224193507 0 0.04820696479898777 -0.0068639511952177396 0 0.047783235266569551 -0.0064517314211747414 0 0.047762695469786787 -0.0067624075379491512 0 0.048180055171100022 -0.0065574529282283007 0 0.048299971866779486 -0.0068237803609942542 0 0.048189176556048798 -0.0065821144410759171 0 0.048414585737252908 -0.0064693015738132202 0 0.048573377915263269 -0.0073127994718976711 0 0.049241158846013718 -0.0074267099447183965 0 0.053139257338917903 -0.0084743744399273721 0 0.053220456452232598 -0.0087043180852780129 0 0.053026034822957917 -0.0086343379643794172 0 0.05297450501378325 -0.0088464146252579777 0 0.053220456452232598 -0.0087043180852780129 0 0.053026034822957917 -0.0086343379643794172 0 0.053026034822957917 -0.0086343379643794172 0 0.052782661337727972 -0.0086323812028146658 0 0.052967421071571139 -0.0084394842725068874 0 0.05297450501378325 -0.0088464146252579777 0 0.053026034822957917 -0.0086343379643794172 0 0.052782661337727972 -0.0086323812028146658 0 0.052485106633497675 -0.0084478521775308568 0 0.052782661337727972 -0.0086323812028146658 0 0.053198822254691504 -0.0080239292011198334 0 0.052513107233287476 -0.0088271300306679585 0 0.052409493236728458 -0.0086781751192692332 0 0.052782661337727972 -0.0086323812028146658 0 0.053012780587810296 -0.0080011477719913616 0 0.053147700607285298 -0.0077528077543996031 0 0.052485106633497675 -0.0084478521775308568 0 0.053198822254691504 -0.0080239292011198334 0 0.053152140626671236 -0.0073406522183991803 0 0.052782661337727972 -0.0086323812028146658 0 0.053198822254691504 -0.0080239292011198334 0 0.053968165077351048 -0.0080703836291478592 0 0.053139257338917903 -0.0084743744399273721 0 0.053026034822957917 -0.0086343379643794172 0 0.052967421071571139 -0.0084394842725068874 0 0.053198822254691504 -0.0080239292011198334 0 0.053968165077351048 -0.0080703836291478592 0 0.053749974891853805 -0.0075219761462225155 0 0.053147700607285298 -0.0077528077543996031 0 0.053201702031836565 -0.0072377793355950463 0 0.053749974891853805 -0.0075219761462225155 0 0.054087651569448891 -0.0070052027529811205 0 0.05486090027347286 -0.0072883698110233043 0 0.053968165077351048 -0.0080703836291478592 0 0.053749974891853805 -0.0075219761462225155 0 0.05486090027347286 -0.0072883698110233043 0 0.053749974891853805 -0.0075219761462225155 0 0.053152140626671236 -0.0073406522183991803 0 0.054087651569448891 -0.0070052027529811205 0 0.053198822254691504 -0.0080239292011198334 0 0.053749974891853805 -0.0075219761462225155 0 0.053152140626671236 -0.0073406522183991803 0 0.054269711879608114 -0.0066492237310050934 0 0.053826236361754605 -0.0064286225174745252 0 0.053382355615509212 -0.0071675819091059304 0 0.053984166026999188 -0.0066165243553841374 0 0.053466413498440828 -0.0073855423825119971 0 0.054063347963684186 -0.006296460644390176 0 0.053152140626671236 -0.0073406522183991803 0 0.054087651569448891 -0.0070052027529811205 0 0.054269711879608114 -0.0066492237310050934 0 0.053382355615509212 -0.0071675819091059304 0 0.053496058632502515 -0.0075488597686822791 0 0.054050346999159636 -0.0057285585531252669 0 0.053576902904491519 -0.0068802290398039178 0 0.054063347963684186 -0.006296460644390176 0 0.054087651569448891 -0.0070052027529811205 0 0.054351440829913743 -0.0065395594619318213 0 0.054087651569448891 -0.0070052027529811205 0 0.05473018966659831 -0.0066599409096401337 0 0.05486090027347286 -0.0072883698110233043 0 0.054087651569448891 -0.0070052027529811205 0 0.054351440829913743 -0.0065395594619318213 0 0.05473018966659831 -0.0066599409096401337 0 0.054567632357981281 -0.0063178456982666562 0 0.054351440829913743 -0.0065395594619318213 0 0.05473018966659831 -0.0066599409096401337 0 0.053201702031836565 -0.0072377793355950463 0 0.052661065867271692 -0.006735090277843931 0 0.05473018966659831 -0.0066599409096401337 0 0.05486090027347286 -0.0072883698110233043 0 0.055432275506989065 -0.0065951225673723914 0 0.054906882240466047 -0.0061704573928726605 0 0.05473018966659831 -0.0066599409096401337 0 0.055432275506989065 -0.0065951225673723914 0 0.053300100334614811 -0.008354593641823763 0 0.053170250181973931 -0.0082180925268952078 0 0.053381456377766943 -0.0079952646104294017 0 0.048299971866779486 -0.0068237803609942542 0 0.048288752184781618 -0.006823097941399188 0 0.04820696479898777 -0.0068639511952177396 0 0.050869173334821376 -0.0073960630989215312 0 0.052661065867271692 -0.006735090277843931 0 0.048288752184781618 -0.006823097941399188 0 0.048396176022558322 -0.0068287078851121032 0 0.048785898202001077 -0.0067523782177396005 0 0.048396176022558322 -0.0068287078851121032 0 0.048785898202001077 -0.0067523782177396005 0 0.048336755433819795 -0.0067197797526627285 0 0.048757107817292394 -0.0066339664887353784 0 0.048785898202001077 -0.0067523782177396005 0 0.048336755433819795 -0.0067197797526627285 0 0.048396176022558322 -0.0068287078851121032 0 0.0480177302783351 -0.0068010230223687447 0 0.048336755433819795 -0.0067197797526627285 0 0.048288752184781618 -0.006823097941399188 0 0.048396176022558322 -0.0068287078851121032 0 0.04820696479898777 -0.0068639511952177396 0 0.048396176022558322 -0.0068287078851121032 0 0.0480177302783351 -0.0068010230223687447 0 0.04820696479898777 -0.0068639511952177396 0 0.048573377915263269 -0.0073127994718976711 0 0.048355370995412962 -0.0072876395454459135 0 0.0480177302783351 -0.0068010230223687447 0 0.04820696479898777 -0.0068639511952177396 0 0.047763084652573506 -0.0067773367306701174 0 0.048150079742563856 -0.0067775888224193507 0 0.048189176556048798 -0.0065821144410759171 0 0.047763084652573506 -0.0067773367306701174 0 0.048150079742563856 -0.0067775888224193507 0 0.04820696479898777 -0.0068639511952177396 0 0.047763084652573506 -0.0067773367306701174 0 0.0480177302783351 -0.0068010230223687447 0 0.047763084652573506 -0.0067773367306701174 0 0.047603724942957372 -0.0067423046854033445 0 0.047763084652573506 -0.0067773367306701174 0 0.047603724942957372 -0.0067423046854033445 0 0.047063768939250704 -0.0066967540578796048 0 0.047603724942957372 -0.0067423046854033445 0 0.047063768939250704 -0.0066967540578796048 0 0.047321727813841689 -0.0067349289142993709 0 0.047783235266569551 -0.0064517314211747414 0 0.047063768939250704 -0.0066967540578796048 0 0.047583775383967304 -0.0067326163778026801 0 0.047762695469786787 -0.0067624075379491512 0 0.047763084652573506 -0.0067773367306701174 0 0.047583775383967304 -0.0067326163778026801 0 0.047763084652573506 -0.0067773367306701174 0 0.047063768939250704 -0.0066967540578796048 0 0.047583775383967304 -0.0067326163778026801 0 0.047417088763711687 -0.0075583999064205067 0 0.047271713742261287 -0.007418525625767552 0 0.047783235266569551 -0.0064517314211747414 0 0.047762695469786787 -0.0067624075379491512 0 0.047583775383967304 -0.0067326163778026801 0 0.047428068345497197 -0.0067436235218418655 0 0.047321727813841689 -0.0067349289142993709 0 0.047249960906116696 -0.006877258719246538 0 0.047428068345497197 -0.0067436235218418655 0 0.047321727813841689 -0.0067349289142993709 0 0.047928182052475843 -0.0068190362300817823 0 0.047603724942957372 -0.0067423046854033445 0 0.047321727813841689 -0.0067349289142993709 0 0.047928182052475843 -0.0068190362300817823 0 0.0480177302783351 -0.0068010230223687447 0 0.047603724942957372 -0.0067423046854033445 0 0.047928182052475843 -0.0068190362300817823 0 0.047428068345497197 -0.0067436235218418655 0 0.047928182052475843 -0.0068190362300817823 0 0.047495567761263825 -0.0068373836829132093 0 0.047992762486023348 -0.0070885585993399527 0 0.047923669740968212 -0.0072439406249881141 0 0.047928182052475843 -0.0068190362300817823 0 0.047673161815799996 -0.0074188598830280264 0 0.047495567761263825 -0.0068373836829132093 0 0.047928182052475843 -0.0068190362300817823 0 0.048336755433819795 -0.0067197797526627285 0 0.04828274178260987 -0.0065538062176572218 0 0.0480177302783351 -0.0068010230223687447 0 0.047928182052475843 -0.0068190362300817823 0 0.048336755433819795 -0.0067197797526627285 0 0.048757107817292394 -0.0066339664887353784 0 0.048336755433819795 -0.0067197797526627285 0 0.04828274178260987 -0.0065538062176572218 0 0.047728269760460088 -0.0076745525258265813 0 0.047923669740968212 -0.0072439406249881141 0 0.047338664489140918 -0.0080479378610311559 0 0.047673161815799996 -0.0074188598830280264 0 0.047033074507804098 -0.0074884699551676596 0 0.047033074507804098 -0.0074884699551676596 0 0.047289753672133908 -0.0070708910283662435 0 0.046944012927582643 -0.0069057886835985011 0 0.047673161815799996 -0.0074188598830280264 0 0.047289753672133908 -0.0070708910283662435 0 0.047495567761263825 -0.0068373836829132093 0 0.047673161815799996 -0.0074188598830280264 0 0.047033074507804098 -0.0074884699551676596 0 0.047289753672133908 -0.0070708910283662435 0 0.046096442277180925 -0.0078949939690012988 0 0.046401756403083687 -0.0073422130102243311 0 0.045817744716539717 -0.0073663737584311779 0 0.046710394639907116 -0.0080504487377298633 0 0.047033074507804098 -0.0074884699551676596 0 0.046561619163868882 -0.0076918720294668523 0 0.046096442277180925 -0.0078949939690012988 0 0.046561619163868882 -0.0076918720294668523 0 0.046401756403083687 -0.0073422130102243311 0 0.047033074507804098 -0.0074884699551676596 0 0.046561619163868882 -0.0076918720294668523 0 0.046401756403083687 -0.0073422130102243311 0 0.047033074507804098 -0.0074884699551676596 0 0.046401756403083687 -0.0073422130102243311 0 0.046944012927582643 -0.0069057886835985011 0 0.046401756403083687 -0.0073422130102243311 0 0.046277250946215327 -0.0069216241545952207 0 0.046944012927582643 -0.0069057886835985011 0 0.046401756403083687 -0.0073422130102243311 0 0.046047051737331049 -0.0070842030935117538 0 0.045817744716539717 -0.0073663737584311779 0 0.046277250946215327 -0.0069216241545952207 0 0.046047051737331049 -0.0070842030935117538 0 0.045968552190887912 -0.0067126955289154031 0 0.046401756403083687 -0.0073422130102243311 0 0.046277250946215327 -0.0069216241545952207 0 0.046047051737331049 -0.0070842030935117538 0 0.045673440515067339 -0.0069886334855756719 0 0.046047051737331049 -0.0070842030935117538 0 0.045968552190887912 -0.0067126955289154031 0 0.045673440515067339 -0.0069886334855756719 0 0.046047051737331049 -0.0070842030935117538 0 0.045817744716539717 -0.0073663737584311779 0 0.043073862186038335 -0.0054079990832853952 0 0.046069817127273607 -0.0053036323496617153 0 0.045004608722134208 -0.0065069072303956437 0 0.041447110281159882 -0.010088932854934963 0 0.041692613779828351 -0.0098154975669623064 0 0.045991030300028192 -0.0061917080753111069 0 0.045004608722134208 -0.0065069072303956437 0 0.045968552190887912 -0.0067126955289154031 0 0.046277250946215327 -0.0069216241545952207 0 0.045991030300028192 -0.0061917080753111069 0 0.045968552190887912 -0.0067126955289154031 0 0.046944012927582643 -0.0069057886835985011 0 0.047052434177707783 -0.0068259578898524857 0 0.047216248653951631 -0.0067943588597905126 0 0.041447110281159882 -0.010088932854934963 0 0.043368828962798124 -0.010004529345977696 0 0.046277250946215327 -0.0069216241545952207 0 0.045991030300028192 -0.0061917080753111069 0 0.046944012927582643 -0.0069057886835985011 0 0.04692241453131249 -0.0068622324917889102 0 0.046944012927582643 -0.0069057886835985011 0 0.047052434177707783 -0.0068259578898524857 0 0.041447110281159882 -0.010088932854934963 0 0.04298376670746934 -0.011320196886541175 0 0.04692241453131249 -0.0068622324917889102 0 0.047052434177707783 -0.0068259578898524857 0 0.047158293101015838 -0.0067376715818333833 0 0.047052434177707783 -0.0068259578898524857 0 0.047216248653951631 -0.0067943588597905126 0 0.047158293101015838 -0.0067376715818333833 0 0.039265109349158521 -0.019657002412805939 0 0.038657829369737454 -0.018371618731443884 0 0.039485622794816981 -0.017891165823300973 0 0.039265109349158521 -0.019657002412805939 0 0.039485622794816981 -0.017891165823300973 0 0.040769171509521224 -0.017936861329419337 0 0.038657829369737454 -0.018371618731443884 0 0.038639636573228359 -0.017662689018093525 0 0.039485622794816981 -0.017891165823300973 0 0.047495567761263825 -0.0068373836829132093 0 0.04729238267101861 -0.006843832329678075 0 0.047372295990236769 -0.0067701974150264129 0 0.047289753672133908 -0.0070708910283662435 0 0.047495567761263825 -0.0068373836829132093 0 0.04729238267101861 -0.006843832329678075 0 0.047289753672133908 -0.0070708910283662435 0 0.046944012927582643 -0.0069057886835985011 0 0.04729238267101861 -0.006843832329678075 0 0.046944012927582643 -0.0069057886835985011 0 0.04729238267101861 -0.006843832329678075 0 0.047216248653951631 -0.0067943588597905126 0 0.047216248653951631 -0.0067943588597905126 0 0.047372295990236769 -0.0067701974150264129 0 0.047371701485969073 -0.0067765478476093472 0 0.04729238267101861 -0.006843832329678075 0 0.047216248653951631 -0.0067943588597905126 0 0.047372295990236769 -0.0067701974150264129 0 0.047216248653951631 -0.0067943588597905126 0 0.047371701485969073 -0.0067765478476093472 0 0.047158293101015838 -0.0067376715818333833 0 0.047428068345497197 -0.0067436235218418655 0 0.047372295990236769 -0.0067701974150264129 0 0.04737992544350135 -0.0068238066135419004 0 0.047428068345497197 -0.0067436235218418655 0 0.047495567761263825 -0.0068373836829132093 0 0.047372295990236769 -0.0067701974150264129 0 0.047372295990236769 -0.0067701974150264129 0 0.04737992544350135 -0.0068238066135419004 0 0.047371701485969073 -0.0067765478476093472 0 0.04737992544350135 -0.0068238066135419004 0 0.047371701485969073 -0.0067765478476093472 0 0.047406144676967146 -0.0071058766023809946 0 0.047152315966745489 -0.0069967112356215267 0 0.04691021618837634 -0.0072096763381308297 0 0.047371701485969073 -0.0067765478476093472 0 0.04747852945439935 -0.0069028163712367306 0 0.047158293101015838 -0.0067376715818333833 0 0.044288333134338574 -0.011341492381682264 0 0.04298376670746934 -0.011320196886541175 0 0.042314608706114976 -0.016234415294927862 0 0.040769171509521224 -0.017936861329419337 0 0.041003548123897247 -0.016474830977682483 0 0.042314608706114976 -0.016234415294927862 0 0.041409625713446654 -0.015416305758988041 0 0.042326533812553059 -0.014792540992416628 0 0.042314608706114976 -0.016234415294927862 0 0.041409625713446654 -0.015416305758988041 0 0.041003548123897247 -0.016474830977682483 0 0.047371701485969073 -0.0067765478476093472 0 0.04747852945439935 -0.0069028163712367306 0 0.047200757561902763 -0.0069631913361689335 0 0.04747852945439935 -0.0069028163712367306 0 0.047200757561902763 -0.0069631913361689335 0 0.047363326643824866 -0.0078143641113515589 0 0.03897157610336293 -0.017018868001200008 0 0.038639636573228359 -0.017662689018093525 0 0.039485622794816981 -0.017891165823300973 0 0.03897157610336293 -0.017018868001200008 0 0.040083623780897998 -0.016889624544753346 0 0.039346425195719396 -0.01618405734804795 0 0.03897157610336293 -0.017018868001200008 0 0.039485622794816981 -0.017891165823300973 0 0.040083623780897998 -0.016889624544753346 0 0.040083623780897998 -0.016889624544753346 0 0.040769171509521224 -0.017936861329419337 0 0.041003548123897247 -0.016474830977682483 0 0.039485622794816981 -0.017891165823300973 0 0.040083623780897998 -0.016889624544753346 0 0.040769171509521224 -0.017936861329419337 0 0.041409625713446654 -0.015416305758988041 0 0.040443076448097783 -0.015883383767540608 0 0.040588809508436602 -0.014926005331306905 0 0.041409625713446654 -0.015416305758988041 0 0.041003548123897247 -0.016474830977682483 0 0.040443076448097783 -0.015883383767540608 0 0.040083623780897998 -0.016889624544753346 0 0.040443076448097783 -0.015883383767540608 0 0.039346425195719396 -0.01618405734804795 0 0.040083623780897998 -0.016889624544753346 0 0.041003548123897247 -0.016474830977682483 0 0.040443076448097783 -0.015883383767540608 0 0.040443076448097783 -0.015883383767540608 0 0.039346425195719396 -0.01618405734804795 0 0.039605109510632987 -0.015079236504351459 0 0.038501242405783585 -0.015668994246467356 0 0.039346425195719396 -0.01618405734804795 0 0.039605109510632987 -0.015079236504351459 0 0.038537154034399515 -0.016482735728836913 0 0.03897157610336293 -0.017018868001200008 0 0.039346425195719396 -0.01618405734804795 0 0.038501242405783585 -0.015668994246467356 0 0.038537154034399515 -0.016482735728836913 0 0.039346425195719396 -0.01618405734804795 0 0.038585591004069102 -0.014248201146231931 0 0.038501242405783585 -0.015668994246467356 0 0.039605109510632987 -0.015079236504351459 0 0.038585591004069102 -0.014248201146231931 0 0.039605109510632987 -0.015079236504351459 0 0.040188519378665813 -0.013993020997079161 0 0.039605109510632987 -0.015079236504351459 0 0.040588809508436602 -0.014926005331306905 0 0.040188519378665813 -0.013993020997079161 0 0.040443076448097783 -0.015883383767540608 0 0.039605109510632987 -0.015079236504351459 0 0.040588809508436602 -0.014926005331306905 0 0.041409625713446654 -0.015416305758988041 0 0.040588809508436602 -0.014926005331306905 0 0.041302878542172114 -0.014251262283059361 0 0.040588809508436602 -0.014926005331306905 0 0.040188519378665813 -0.013993020997079161 0 0.041302878542172114 -0.014251262283059361 0 0.040047484124912602 -0.012320997398894655 0 0.04104135688723972 -0.013067757533607694 0 0.040188519378665813 -0.013993020997079161 0 0.04104135688723972 -0.013067757533607694 0 0.040188519378665813 -0.013993020997079161 0 0.041302878542172114 -0.014251262283059361 0 0.023288174598684631 -0.012095955507969117 0 0.023300762735101843 -0.011341402032359244 0 0.038585591004069102 -0.014248201146231931 0 0.040047484124912602 -0.012320997398894655 0 0.040188519378665813 -0.013993020997079161 0 0.0081541425870538167 -0.011334221411150236 0 0.0078895933468557077 -0.010672900864385139 0 0.0070459936031253695 -0.011979185508223571 0 0.044288333134338574 -0.011341492381682264 0 0.045058826682876668 -0.011339151723315075 0 0.042314608706114976 -0.016234415294927862 0 0.04394066898679215 -0.014503316376514697 0 0.042326533812553059 -0.014792540992416628 0 0.04394066898679215 -0.014503316376514697 0 0.042326533812553059 -0.014792540992416628 0 0.042623189043170355 -0.013552372150483358 0 0.041409625713446654 -0.015416305758988041 0 0.042326533812553059 -0.014792540992416628 0 0.041302878542172114 -0.014251262283059361 0 0.042326533812553059 -0.014792540992416628 0 0.041302878542172114 -0.014251262283059361 0 0.042623189043170355 -0.013552372150483358 0 0.042200791700843079 -0.012125057193770241 0 0.04104135688723972 -0.013067757533607694 0 0.042623189043170355 -0.013552372150483358 0 0.04104135688723972 -0.013067757533607694 0 0.041302878542172114 -0.014251262283059361 0 0.042623189043170355 -0.013552372150483358 0 0.04394066898679215 -0.014503316376514697 0 0.042623189043170355 -0.013552372150483358 0 0.044047260704406059 -0.013234702147428 0 0.043306558231548567 -0.012626804074721309 0 0.042200791700843079 -0.012125057193770241 0 0.042623189043170355 -0.013552372150483358 0 0.043306558231548567 -0.012626804074721309 0 0.042623189043170355 -0.013552372150483358 0 0.044047260704406059 -0.013234702147428 0 0.043306558231548567 -0.012626804074721309 0 0.04461154190531131 -0.012578490422063781 0 0.044047260704406059 -0.013234702147428 0 0.044972934574651388 -0.011985515350177717 0 0.045058826682876668 -0.011339151723315075 0 0.045520058921018396 -0.012425508408667038 0 0.04461154190531131 -0.012578490422063781 0 0.044047260704406059 -0.013234702147428 0 0.045520058921018396 -0.012425508408667038 0 0.04394066898679215 -0.014503316376514697 0 0.044047260704406059 -0.013234702147428 0 0.046548297166618617 -0.0100878288805761 0 0.047363326643824866 -0.0078143641113515589 0 0.046043673234248891 -0.0088703199866847736 0 0.047363326643824866 -0.0078143641113515589 0 0.046056785802106322 -0.0077618344808401546 0 0.046043673234248891 -0.0088703199866847736 0 0.04691021618837634 -0.0072096763381308297 0 0.04609399888158848 -0.0078686747952183955 0 0.047200757561902763 -0.0069631913361689335 0 0.047363326643824866 -0.0078143641113515589 0 0.046056785802106322 -0.0077618344808401546 0 0.046962124575405037 -0.0077052644242857323 0 0.044254210591929334 -0.0086532117830560185 0 0.045570572343947777 -0.0077755667401993959 0 0.046962124575405037 -0.0077052644242857323 0 0.045570572343947777 -0.0077755667401993959 0 0.04638339877628167 -0.0073036286333229934 0 0.046962124575405037 -0.0077052644242857323 0 0.044254210591929334 -0.0086532117830560185 0 0.04335827261768567 -0.0094154376281995016 0 0.04609399888158848 -0.0078686747952183955 0 0.045195040613360785 -0.0085747388171646365 0 0.046056785802106322 -0.0077618344808401546 0 0.046043673234248891 -0.0088703199866847736 0 0.044974773637899867 -0.0095504245706246292 0 0.046056785802106322 -0.0077618344808401546 0 0.044974773637899867 -0.0095504245706246292 0 0.04335827261768567 -0.0094154376281995016 0 0.046043673234248891 -0.0088703199866847736 0 0.045704168278603428 -0.0098178182283286501 0 0.044974773637899867 -0.0095504245706246292 0 0.046548297166618617 -0.0100878288805761 0 0.046043673234248891 -0.0088703199866847736 0 0.045704168278603428 -0.0098178182283286501 0 0.044964219706754995 -0.010989441687444992 0 0.045704168278603428 -0.0098178182283286501 0 0.044974773637899867 -0.0095504245706246292 0 0.043887225262990728 -0.010533724479367314 0 0.044497753440541632 -0.010659391213295696 0 0.044974773637899867 -0.0095504245706246292 0 0.044254210591929334 -0.0086532117830560185 0 0.04335827261768567 -0.0094154376281995016 0 0.03970348255582308 -0.010085251431222712 0 0.043887225262990728 -0.010533724479367314 0 0.044974773637899867 -0.0095504245706246292 0 0.04335827261768567 -0.0094154376281995016 0 0.042603475751091691 -0.010927428471110627 0 0.04335827261768567 -0.0094154376281995016 0 0.03970348255582308 -0.010085251431222712 0 0.041715569787762197 -0.0064579891419190415 0 0.039051790943503237 -0.0059991140372743753 0 0.044254210591929334 -0.0086532117830560185 0 0.04547331591054745 -0.0074162057148010399 0 0.0451649823501842 -0.0079943638102779463 0 0.044254210591929334 -0.0086532117830560185 0 0.036651893614613872 -0.0082607248116374783 0 0.03970348255582308 -0.010085251431222712 0 0.037155025887979407 -0.011440246910668224 0 0.036651893614613872 -0.0082607248116374783 0 0.03970348255582308 -0.010085251431222712 0 0.0451649823501842 -0.0079943638102779463 0 0.045552676776053555 -0.0077532707208433759 0 0.045866768389250044 -0.0075510432962551752 0 0.045526666518332821 -0.0077403736590144585 0 0.04547331591054745 -0.0074162057148010399 0 0.0451649823501842 -0.0079943638102779463 0 0.045526666518332821 -0.0077403736590144585 0 0.0451649823501842 -0.0079943638102779463 0 0.045552676776053555 -0.0077532707208433759 0 0.044254210591929334 -0.0086532117830560185 0 0.0451649823501842 -0.0079943638102779463 0 0.045570572343947777 -0.0077755667401993959 0 0.0451649823501842 -0.0079943638102779463 0 0.045570572343947777 -0.0077755667401993959 0 0.045866768389250044 -0.0075510432962551752 0 0.045866768389250044 -0.0075510432962551752 0 0.045921156048918145 -0.0074248720881948775 0 0.046593935020951133 -0.0070975378632006456 0 0.045570572343947777 -0.0077755667401993959 0 0.045866768389250044 -0.0075510432962551752 0 0.04638339877628167 -0.0073036286333229934 0 0.045866768389250044 -0.0075510432962551752 0 0.046593935020951133 -0.0070975378632006456 0 0.04638339877628167 -0.0073036286333229934 0 0.045686293872977679 -0.0076410259900421438 0 0.045552676776053555 -0.0077532707208433759 0 0.04574360023174287 -0.0075901899890331434 0 0.045552676776053555 -0.0077532707208433759 0 0.045866768389250044 -0.0075510432962551752 0 0.04574360023174287 -0.0075901899890331434 0 0.045866768389250044 -0.0075510432962551752 0 0.04574360023174287 -0.0075901899890331434 0 0.045921156048918145 -0.0074248720881948775 0 0.045686293872977679 -0.0076410259900421438 0 0.04574360023174287 -0.0075901899890331434 0 0.045921156048918145 -0.0074248720881948775 0 0.045769999159625666 -0.0070870416062118234 0 0.047063768939250704 -0.0066967540578796048 0 0.045921156048918145 -0.0074248720881948775 0 0.047063768939250704 -0.0066967540578796048 0 0.045921156048918145 -0.0074248720881948775 0 0.046593935020951133 -0.0070975378632006456 0 0.047063768939250704 -0.0066967540578796048 0 0.047321727813841689 -0.0067349289142993709 0 0.046593935020951133 -0.0070975378632006456 0 0.047321727813841689 -0.0067349289142993709 0 0.046907249343087612 -0.0070105309919161014 0 0.047249960906116696 -0.006877258719246538 0 0.047321727813841689 -0.0067349289142993709 0 0.046593935020951133 -0.0070975378632006456 0 0.046907249343087612 -0.0070105309919161014 0 0.046907249343087612 -0.0070105309919161014 0 0.047249960906116696 -0.006877258719246538 0 0.047014968225970316 -0.0071530716394454692 0 0.04737992544350135 -0.0068238066135419004 0 0.047406144676967146 -0.0071058766023809946 0 0.047249960906116696 -0.006877258719246538 0 0.047428068345497197 -0.0067436235218418655 0 0.04737992544350135 -0.0068238066135419004 0 0.047249960906116696 -0.006877258719246538 0 0.047406144676967146 -0.0071058766023809946 0 0.046962124575405037 -0.0077052644242857323 0 0.047014968225970316 -0.0071530716394454692 0 0.047406144676967146 -0.0071058766023809946 0 0.047249960906116696 -0.006877258719246538 0 0.047014968225970316 -0.0071530716394454692 0 0.046962124575405037 -0.0077052644242857323 0 0.04638339877628167 -0.0073036286333229934 0 0.047014968225970316 -0.0071530716394454692 0 0.046907249343087612 -0.0070105309919161014 0 0.04638339877628167 -0.0073036286333229934 0 0.047014968225970316 -0.0071530716394454692 0 0.046593935020951133 -0.0070975378632006456 0 0.046907249343087612 -0.0070105309919161014 0 0.04638339877628167 -0.0073036286333229934 0 
</DataArray>
</PointData>
<CellData Scalars="region_id,cross_section_updated," Vectors="" Tensors="stress,">
<DataArray type="Float64" Name="region_id" format="ascii">
5 5 5 5 5 6 5 5 5 5 5 5 5 6 5 5 5 5 6 5 5 6 5 5 5 5 6 5 5 5 5 6 5 5 5 5 5 5 5 5 5 5 5 5 5 6 5 5 6 5 5 5 5 5 6 5 5 5 5 5 5 5 6 5 5 5 5 6 5 5 5 5 5 5 5 5 5 6 5 5 6 5 5 6 5 5 5 5 6 5 5 5 5 5 5 5 6 6 6 5 5 6 5 5 5 5 5 6 5 5 5 5 5 5 5 5 5 5 5 5 5 6 5 5 5 6 5 5 5 5 5 5 6 5 5 5 5 5 5 5 5 5 5 5 5 5 5 5 5 5 5 5 5 5 5 5 5 5 6 5 5 5 6 5 5 6 5 5 5 5 5 5 5 5 5 5 5 6 5 5 5 5 5 5 5 5 6 5 5 5 5 5 5 5 5 6 5 5 5 5 5 5 5 5 5 6 5 5 5 5 5 5 5 5 5 5 5 5 5 5 5 5 5 5 5 5 5 5 5 6 5 5 5 6 5 6 5 6 5 5 6 5 5 5 6 5 6 5 6 5 6 6 5 6 5 5 6 5 6 5 5 5 6 5 6 6 5 5 6 5 5 5 6 5 6 6 6 5 6 5 5 5 6 5 6 6 6 5 5 6 6 5 5 5 5 6 5 6 5 5 6 5 5 5 6 5 6 6 6 5 5 5 6 5 6 6 6 6 5 5 5 6 6 5 5 6 6 6 5 6 5 5 5 5 6 5 5 5 5 5 5 5 6 5 5 5 5 5 5 6 6 5 5 5 6 5 5 5 6 5 6 5 6 6 5 5 5 5 6 5 5 6 5 5 5 5 6 5 6 5 5 5 5 5 6 6 5 5 5 5 5 5 5 5 6 5 5 5 6 5 5 6 5 6 5 5 5 5 5 5 5 5 5 5 5 6 5 6 5 6 5 5 5 6 5 6 5 6 5 5 5 5 5 5 6 5 6 5 5 5 6 5 5 5 6 5 6 6 5 5 5 5 6 5 5 5 5 6 6 5 5 6 5 6 5 6 6 5 5 5 6 5 5 5 5 6 5 5 5 5 5 5 5 5 5 5 5 6 5 5 5 5 6 5 5 5 6 5 6 6 6 5 5 5 6 6 5 6 5 5 6 5 5 5 5 6 5 5 5 5 5 5 5 5 5 5 5 6 6 5 5 6 5 5 5 6 5 5 5 5 5 5 6 5 5 5 6 5 5 5 6 5 5 5 5 5 5 5 5 5 5 5 6 5 5 5 6 5 5 5 5 5 5 5 6 5 5 5 5 5 6 5 5 5 5 5 5 5 5 5 5 5 5 5 5 5 5 5 5 5 6 5 5 5 5 6 5 5 6 5 5 5 5 5 5 5 6 5 5 5 5 5 5 5 5 6 5 6 5 5 6 5 5 5 6 5 5 6 5 5 5 6 5 6 5 5 6 5 6 5 5 5 5 5 5 5 5 5 5 5 5 5 5 5 5 5 5 5 5 5 5 6 5 6 5 6 5 5 5 5 5 5 5 5 5 5 5 5 5 5 5 6 5 5 5 5 5 5 5 5 5 6 5 5 5 5 5 5 5 5 5 5 5 5 5 5 5 5 5 5 5 5 5 5 5 5 5 5 5 5 5 6 5 5 6 5 5 5 6 6 5 6 5 5 5 5 5 6 5 5 5 5 5 6 5 5 5 5 5 5 5 5 5 5 5 5 5 5 5 5 5 5 5 5 5 5 5 5 5 5 5 5 5 5 5 5 5 5 5 5 5 5 5 5 5 5 5 5 5 5 5 5 5 6 5 5 5 5 5 5 5 5 5 5 5 5 5 5 5 6 5 5 5 5 6 5 5 5 5 5 5 5 5 5 5 5 5 5 5 5 5 5 5 5 5 5 5 5 5 5 5 5 6 5 5 6 5 6 6 6 6 5 5 6 5 5 5 5 5 5 5 5 5 5 5 5 5 5 5 5 5 6 5 5 6 5 6 5 5 5 5 6 5 6 5 5 5 5 6 5 5 5 6 5 5 5 5 5 6 5 6 5 5 6 6 5 6 5 5 5 5 5 5 5 5 5 5 5 6 5 5 5 6 5 5 5 6 5 5 6 6 6 5 5 5 5 5 5 5 5 5 5 5 6 5 5 5 5 5 5 5 5 6 6 6 5 5 5 5 5 5 5 5 6 6 5 5 5 6 5 5 6 5 5 5 5 5 5 5 5 5 5 5 6 5 5 5 5 5 5 5 5 6 5 5 5 5 5 5 5 5 5 5 6 5 6 6 6 5 5 5 5 5 5 5 6 6 5 6 5 5 5 5 5 6 5 6 6 5 5 5 6 5 6 5 5 5 5 6 5 5 5 5 5 5 5 5 5 5 5 5 5 5 5 5 5 6 5 5 5 6 5 5 5 5 5 6 5 5 5 5 5 5 6 5 6 5 5 5 5 5 5 5 5 6 5 5 5 6 5 5 5 5 5 5 5 5 5 5 5 5 5 5 5 5 5 5 5 5 5 5 5 5 5 6 6 6 5 5 5 5 6 5 5 5 5 6 5 5 5 5 5 5 5 6 5 5 5 5 5 5 5 5 6 5 5 5 5 5 5 5 5 5 5 5 5 6 5 5 5 5 5 5 6 5 5 5 5 5 5 5 5 6 5 5 5 6 5 5 5 5 5 5 5 5 5 5 5 5 6 5 5 5 5 5 5 5 5 5 5 5 5 5 5 5 5 5 5 5 5 5 5 5 5 5 5 5 5 5 5 5 5 5 5 5 5 5 5 5 5 5 5 5 5 5 5 5 6 5 5 5 5 5 5 5 5 5 5 5 5 5 5 5 5 5 5 5 5 5 5 5 5 6 5 5 5 5 5 5 5 5 5 5 6 5 5 6 5 5 5 5 5 5 5 5 5 6 5 6 5 5 5 5 6 5 5 6 5 6 5 5 5 5 5 6 5 5 5 5 5 5 5 5 6 5 5 5 5 5 5 5 5 5 5 5 5 5 5 6 5 6 6 5 5 5 5 5 6 5 5 5 5 5 5 5 5 5 5 5 5 5 5 5 6 5 5 5 5 5 5 5 5 5 5 5 5 5 5 5 5 6 5 5 5 5 5 6 6 5 5 6 5 5 5 5 5 5 5 5 5 5 6 5 5 5 5 5 5 5 5 5 6 5 6 5 5 5 5 5 6 5 5 5 5 6 5 5 5 6 5 5 5 6 5 5 6 5 5 5 5 5 5 5 5 5 5 5 5 5 5 5 5 6 5 5 5 5 5 5 5 6 5 5 5 5 5 5 5 5 5 5 5 5 5 5 5 5 5 5 5 5 5 5 5 5 5 5 5 6 5 5 5 5 6 5 5 5 6 5 5 5 5 5 5 5 5 5 6 5 6 5 5 5 5 5 5 5 5 5 5 5 5 5 5 5 5 5 5 6 6 5 5 5 6 5 5 6 5 5 6 5 5 5 6 5 5 6 5 5 5 5 5 5 5 5 5 5 5 5 5 5 5 5 5 5 5 5 6 5 6 5 5 5 5 5 5 5 5 5 5 5 6 5 6 5 5 5 6 5 5 5 5 5 6 5 5 5 5 5 5 6 5 5 5 5 5 5 5 5 5 5 5 6 5 5 5 5 5 5 5 5 6 5 5 5 6 5 5 6 5 5 5 5 5 6 5 5 5 5 5 5 5 5 5 6 5 5 6 5 6 5 6 6 6 5 6 5 5 5 5 5 5 6 5 5 5 5 5 5 6 5 5 5 5 5 5 5 6 5 5 5 5 6 5 5 5 5 5 6 5 6 5 5 5 5 5 5 5 5 5 5 6 5 5 5 5 5 5 5 6 5 5 5 5 5 5 5 6 5 6 5 5 5 5 5 5 5 5 6 5 5 5 6 6 5 5 5 5 5 6 6 5 6 5 5 6 5 5 6 5 5 5 5 5 5 5 5 6 5 5 5 5 5 6 5 5 5 5 6 5 5 6 5 5 5 5 5 5 5 5 5 5 5 5 5 5 5 5 5 5 5 5 5 5 5 5 5 5 5 5 5 5 5 5 5 5 5 5 5 5 5 5 5 6 5 5 6 5 5 5 5 5 6 5 5 5 5 6 5 5 5 5 5 5 5 5 5 5 5 5 5 5 5 5 5 5 5 5 5 5 5 5 6 5 5 5 6 5 5 5 5 5 5 6 5 5 5 5 5 5 5 5 5 5 5 6 5 6 6 5 5 6 5 5 5 5 5 5 5 5 5 5 5 6 5 5 6 5 5 5 5 5 5 5 5 5 5 5 5 5 5 5 6 5 5 5 5 5 5 5 6 5 6 5 5 5 5 6 5 6 5 5 5 5 5 5 5 5 5 6 5 5 5 5 5 5 5 5 5 5 5 5 5 5 5 5 5 6 5 5 5 5 5 5 5 5 5 5 5 5 5 5 5 5 5 5 5 5 5 5 5 5 5 6 6 5 5 5 5 5 5 5 5 5 5 5 6 5 5 5 5 6 5 5 5 5 6 5 5 5 5 5 5 5 5 6 5 5 5 5 5 5 5 5 5 6 5 5 5 5 5 5 5 5 5 5 5 5 5 5 5 5 5 5 5 5 6 5 5 5 5 5 5 5 5 5 5 5 5 5 5 6 5 6 5 5 5 5 5 5 5 5 6 5 5 6 5 5 5 5 5 5 5 5 5 5 5 5 5 5 5 5 5 5 5 5 5 5 5 5 5 5 5 5 5 5 5 5 5 5 5 5 6 5 5 6 5 5 5 5 6 5 6 5 5 6 5 6 5 5 5 5 5 6 5 5 5 5 5 5 5 5 5 5 5 5 6 5 5 5 6 5 5 5 5 5 5 5 5 5 6 5 5 5 5 6 6 5 5 5 5 5 5 5 5 6 5 5 5 5 5 6 5 5 5 6 5 5 5 6 5 5 5 5 6 5 5 5 5 5 5 5 5 5 5 5 5 5 5 6 5 5 5 5 5 5 6 5 6 6 5 6 5 6 5 5 5 5 6 5 5 5 5 6 5 5 5 5 5 5 5 5 5 6 5 5 5 5 5 5 5 5 5 5 5 5 5 5 6 5 5 5 6 5 5 5 6 5 6 5 5 5 5 5 5 5 5 5 5 5 5 5 5 5 5 6 5 5 5 5 5 5 6 5 5 5 5 5 5 5 5 5 5 5 5 5 5 5 5 5 5 6 5 5 5 5 5 5 5 5 5 5 5 5 5 5 5 5 5 5 5 5 5 5 5 5 5 5 5 5 5 5 5 5 5 5 6 5 5 5 5 6 5 5 5 5 5 5 5 6 5 5 5 5 5 5 5 5 5 6 5 5 6 5 5 5 5 5 6 5 5 5 6 5 5 6 5 5 5 5 5 5 5 5 5 5 5 5 5 5 5 5 5 5 5 5 6 5 5 5 5 5 5 5 5 5 5 6 6 5 6 5 5 5 5 5 6 5 5 5 5 6 5 5 5 5 5 6 5 6 5 5 6 5 5 5 5 5 5 5 5 6 5 5 5 5 5 5 6 5 5 5 5 5 5 6 5 5 5 5 6 5 5 6 5 6 5 5 6 5 5 5 5 5 5 6 5 5 5 5 6 5 5 5 5 5 5 5 5 6 6 5 5 5 5 5 5 5 5 6 5 5 5 5 5 5 6 5 5 5 5 5 5 5 6 5 5 5 6 5 5 5 5 5 5 5 5 5 5 5 5 6 5 5 5 5 6 5 5 6 5 5 5 5 6 5 5 5 6 6 5 5 5 6 5 5 5 6 5 5 5 5 5 5 5 5 5 6 5 5 5 6 5 5 5 5 5 5 5 5 5 5 5 5 6 5 6 5 5 6 5 5 6 5 5 5 5 5 5 5 6 5 5 5 5 5 6 5 6 5 5 5 6 6 5 6 6 5 6 5 5 5 5 5 5 6 5 6 5 5 5 5 5 5 5 5 5 5 5 5 5 6 5 5 6 5 6 5 5 6 5 5 5 6 6 5 5 6 5 5 5 5 5 5 5 5 5 5 5 5 5 5 5 5 5 5 5 5 5 5 5 6 6 5 6 5 6 5 5 6 6 5 5 6 5 5 6 5 5 6 5 6 5 5 5 5 6 5 5 5 5 6 5 6 6 5 6 5 5 6 6 5 5 5 6 5 5 5 5 6 6 5 5 5 5 5 6 5 5 5 5 5 5 5 5 5 5 5 6 5 6 5 6 5 5 6 5 6 5 5 5 5 5 5 5 5 6 5 5 6 5 5 5 5 6 5 5 5 5 5 5 5 5 5 5 5 5 6 5 5 5 5 5 5 5 5 5 5 5 6 5 5 5 5 5 5 6 5 6 5 5 6 5 5 5 5 5 5 5 5 5 5 5 5 5 5 5 5 5 6 6 5 5 5 6 5 5 6 5 5 5 5 5 5 5 5 5 5 5 5 5 5 5 5 5 5 5 5 5 5 5 5 5 6 6 5 5 5 5 5 5 5 5 5 5 5 6 5 5 5 5 5 5 5 5 5 5 5 5 5 5 5 5 5 5 5 5 5 5 5 5 5 5 5 5 5 5 5 5 5 6 5 5 5 5 5 6 5 5 6 5 5 6 6 5 5 5 5 5 5 5 5 5 5 5 5 5 6 5 5 6 5 5 5 5 5 5 6 5 5 6 5 5 5 5 5 5 5 5 5 5 5 5 5 6 5 5 5 5 5 5 5 6 5 5 5 5 5 5 5 5 5 5 5 5 6 5 5 6 5 5 5 5 5 5 5 5 5 5 5 5 5 5 5 5 5 5 5 5 6 5 5 6 5 6 5 5 5 6 5 5 6 5 6 5 5 5 6 5 5 5 5 6 5 5 5 5 5 5 5 6 5 5 5 6 5 5 5 5 5 5 5 5 5 5 5 5 6 5 5 5 5 5 5 5 5 6 5 5 5 5 5 5 5 5 5 5 5 6 5 5 5 5 5 5 5 5 5 5 5 5 5 5 5 5 5 5 5 6 6 5 5 5 6 5 5 5 5 5 5 5 5 5 5 5 5 6 5 5 5 5 5 5 5 5 5 6 5 5 5 5 5 5 5 5 5 5 5 5 5 5 5 5 6 5 6 5 5 5 5 5 6 5 5 5 5 6 5 5 5 6 5 5 5 6 5 5 5 5 5 5 5 5 5 6 5 5 5 6 5 5 6 5 5 5 5 5 5 6 5 5 5 5 5 5 5 5 6 5 5 5 6 5 5 5 5 5 5 5 5 5 5 5 5 5 5 5 5 5 5 5 5 5 5 5 5 5 5 5 6 5 5 5 5 5 5 5 6 5 5 5 5 5 5 5 5 5 5 5 5 5 5 5 5 5 5 5 5 5 5 5 5 5 6 5 6 5 5 5 5 5 5 6 5 5 5 6 5 5 6 5 5 5 5 5 5 5 5 5 5 5 5 6 5 5 5 5 5 6 5 5 5 5 5 5 5 5 5 5 5 5 5 6 5 5 5 6 5 5 5 5 5 5 5 5 5 5 5 5 6 6 5 5 5 5 6 5 5 5 5 5 5 5 5 5 6 6 5 5 5 5 5 6 5 5 5 5 5 6 5 5 5 5 5 6 5 6 5 5 5 5 6 5 6 5 6 6 5 5 5 5 5 5 5 6 6 5 5 5 5 5 5 6 6 6 5 6 6 5 5 5 6 5 5 5 5 5 6 6 6 5 6 5 5 5 6 5 6 6 5 5 5 5 5 5 5 6 6 5 5 6 6 6 5 5 5 5 5 5 5 5 5 5 5 5 5 5 5 5 5 5 5 5 5 5 5 5 5 5 5 5 5 5 5 5 5 5 5 5 5 5 5 5 6 5 5 5 5 5 5 5 5 5 5 6 5 5 5 5 5 5 6 5 5 6 5 5 5 5 5 5 5 5 5 5 5 5 5 6 5 6 5 5 5 5 6 5 5 5 6 5 5 6 5 5 5 6 5 5 6 5 5 5 5 5 6 5 5 5 5 5 5 5 6 5 5 5 5 5 5 5 6 5 5 6 5 5 5 5 6 5 6 5 5 5 5 5 6 5 5 5 5 6 5 5 5 5 5 5 6 6 5 5 5 5 5 6 5 5 6 5 5 5 5 5 5 5 5 5 5 6 5 5 5 5 5 5 5 5 5 5 5 5 5 5 5 5 5 5 6 5 5 5 5 5 5 6 5 5 5 5 5 5 5 6 6 5 5 5 5 6 5 5 5 5 5 5 5 6 5 5 6 5 6 6 6 5 5 5 5 5 5 6 5 5 5 5 5 6 5 5 5 5 6 5 5 5 6 5 5 5 6 5 5 5 5 5 5 5 5 5 5 5 5 5 5 5 5 5 5 5 5 5 5 5 5 5 6 5 5 5 5 5 5 5 6 5 6 5 5 5 5 5 5 6 5 5 6 5 5 5 6 5 5 6 5 5 5 5 5 6 5 5 5 6 6 5 5 5 5 5 5 5 5 5 5 5 5 6 5 5 5 5 5 5 5 5 5 6 5 5 5 5 5 6 6 5 5 5 5 5 5 5 5 5 6 5 5 5 5 5 5 5 5 6 5 5 5 5 5 5 5 5 5 5 5 5 5 5 5 5 5 5 6 5 5 5 5 6 5 6 5 6 5 5 5 5 5 5 5 5 5 5 5 5 5 5 5 5 5 6 5 5 5 5 5 6 5 5 5 6 6 5 5 5 5 5 6 5 5 5 5 6 5 5 5 5 5 5 5 5 6 5 5 5 5 5 5 5 6 5 5 5 5 5 5 5 5 5 6 5 5 5 5 5 5 5 5 5 5 5 5 5 5 5 5 5 5 6 5 5 5 5 5 5 5 5 5 5 5 5 5 6 5 5 5 5 5 5 6 5 5 6 5 5 6 5 5 5 5 5 5 5 5 5 5 5 5 5 5 5 5 5 5 5 5 5 5 5 5 5 5 6 5 6 5 6 6 5 5 5 6 5 5 5 5 5 5 5 5 5 6 6 5 6 5 5 5 5 5 5 5 5 5 5 5 5 5 5 6 5 6 6 5 6 5 5 5 5 5 5 5 5 5 6 6 5 5 5 5 5 5 5 5 5 5 5 5 5 5 5 5 5 5 5 5 5 5 6 5 5 5 5 5 6 5 5 5 5 5 6 5 5 5 6 5 5 5 5 5 5 5 5 5 6 5 5 5 5 6 5 5 5 5 5 5 6 5 5 5 5 5 5 5 6 5 5 5 5 6 5 5 5 5 5 5 5 5 5 5 6 5 5 5 5 6 5 5 5 6 5 5 5 5 5 6 5 5 5 5 5 5 5 5 5 5 5 5 5 5 6 6 5 5 6 5 5 5 5 5 5 5 6 5 5 5 5 5 5 6 5 5 5 5 5 5 5 5 5 5 5 5 5 5 5 5 5 5 5 5 5 5 5 6 5 5 5 5 5 5 5 5 6 5 5 5 5 6 5 5 5 5 5 6 5 6 5 6 5 5 5 5 5 5 5 6 5 5 5 6 5 5 5 5 5 6 5 5 5 5 5 6 5 6 5 5 6 5 6 5 5 5 5 5 6 5 5 5 6 5 5 5 5 5 5 5 5 5 5 6 5 5 5 5 5 5 5 5 5 5 5 5 5 5 5 5 5 5 5 5 5 5 6 5 5 5 5 5 5 5 5 5 5 5 5 5 5 5 5 5 5 6 5 5 5 6 5 5 5 5 5 5 6 5 5 5 6 6 5 6 5 6 6 5 6 5 5 6 5 5 6 6 5 5 5 5 5 5 5 5 6 5 6 5 5 5 5 5 5 5 5 5 5 5 5 5 5 5 5 5 5 5 5 5 5 6 5 5 5 5 5 5 5 5 6 5 5 6 5 5 6 6 5 5 6 5 5 5 5 5 5 5 5 5 5 5 5 5 5 5 5 5 5 5 5 5 5 5 5 5 5 5 5 5 5 5 5 5 5 5 5 5 5 5 6 5 6 5 5 5 5 5 5 5 5 5 5 5 5 5 5 5 5 5 5 5 5 5 5 5 5 5 5 5 5 5 5 5 5 5 5 5 5 5 5 5 5 6 5 5 6 5 5 5 5 5 6 5 6 5 5 6 5 5 5 5 5 5 6 5 5 5 5 5 5 5 5 5 5 5 6 5 5 6 6 5 6 5 5 6 5 5 5 5 6 5 5 5 5 5 5 5 5 5 6 5 6 5 5 5 5 5 5 5 6 5 6 5 5 5 5 5 5 5 5 5 6 5 6 5 5 5 5 5 5 5 5 5 5 6 5 5 5 6 5 5 6 5 5 6 5 5 5 5 6 5 5 5 6 5 5 5 5 5 5 5 5 5 5 5 5 5 5 6 5 5 5 5 5 5 6 5 6 5 6 5 5 5 6 5 5 5 5 5 5 5 5 6 5 5 5 5 5 6 5 5 6 5 5 5 5 5 5 5 5 5 6 5 5 5 6 5 5 5 5 5 5 6 5 5 5 5 5 5 5 5 5 5 5 5 5 5 5 5 5 5 5 5 5 5 5 5 5 5 5 5 5 5 5 6 5 5 5 5 5 6 5 5 6 6 5 5 5 5 6 5 5 5 5 5 6 5 5 5 5 5 5 5 5 5 5 5 5 5 5 5 5 6 5 5 5 5 5 5 5 5 6 6 5 5 5 5 5 5 6 5 5 5 5 6 5 5 5 5 5 5 5 5 5 5 5 5 5 5 5 5 5 5 5 5 5 5 5 5 6 5 5 6 5 5 5 5 5 5 5 5 5 5 5 5 5 5 5 5 5 5 5 5 5 5 5 5 5 5 5 6 5 6 5 5 5 5 5 6 5 5 5 5 5 5 5 5 5 5 5 5 5 5 5 5 5 5 5 5 6 6 5 6 5 5 5 5 5 5 5 5 5 5 5 5 5 5 5 5 6 5 5 5 6 5 5 5 5 5 5 5 5 5 5 5 5 5 6 5 5 5 5 5 5 5 5 5 5 5 5 5 5 5 5 5 5 5 5 5 5 6 5 5 5 5 5 5 5 5 5 5 5 5 5 6 5 6 5 5 6 6 5 5 5 5 5 5 5 5 5 5 5 5 5 5 5 5 5 5 5 5 6 5 5 6 5 5 5 6 5 5 5 5 5 5 6 5 5 5 6 5 5 5 5 5 5 5 5 6 5 5 6 5 5 6 5 6 5 5 5 5 6 6 5 5 6 6 5 5 6 5 5 5 5 6 5 5 6 6 5 6 5 5 5 5 5 5 5 5 5 5 5 5 5 5 5 5 5 5 5 5 6 5 5 5 5 6 5 5 5 5 6 6 5 5 5 5 5 5 5 5 5 5 5 5 6 5 5 5 6 5 5 5 5 5 5 5 6 5 5 5 6 5 5 6 6 5 5 5 6 5 5 5 6 5 5 5 5 5 5 5 5 5 5 5 5 5 5 5 5 5 5 6 5 5 5 5 5 5 5 5 5 5 5 5 5 5 5 5 5 5 6 6 5 5 5 5 5 6 6 5 6 5 5 5 5 5 5 5 5 5 6 5 5 5 6 5 5 5 5 5 5 5 5 5 5 5 5 5 5 6 5 5 5 5 5 5 5 6 5 5 6 5 5 5 5 5 5 6 5 5 5 5 6 5 5 5 5 5 5 6 5 5 5 5 5 5 5 5 6 6 5 5 5 6 6 5 5 5 5 5 6 5 5 5 5 5 5 6 5 5 5 5 6 5 5 5 5 5 6 5 5 5 5 6 5 5 5 5 5 5 5 5 5 5 5 5 5 5 5 5 5 5 5 5 5 5 5 5 5 6 5 5 5 5 6 5 6 5 6 5 5 6 5 5 6 5 5 6 5 5 5 5 5 5 6 5 5 6 5 6 6 6 5 5 6 5 6 6 5 5 5 6 5 6 5 5 5 5 5 5 6 5 5 5 6 5 5 5 5 5 5 5 6 5 5 5 6 5 6 6 5 5 5 5 5 5 5 6 5 5 5 5 5 5 5 5 6 6 5 5 5 5 6 5 5 6 5 5 5 6 5 5 5 6 6 5 5 5 5 6 5 5 5 5 5 6 6 5 5 5 5 5 5 5 5 5 5 5 5 5 5 5 5 5 5 5 5 5 5 5 5 5 5 5 5 5 5 5 6 5 5 5 6 5 5 5 5 5 5 5 5 5 5 5 5 5 5 5 6 5 6 6 5 5 6 5 5 5 5 5 5 5 5 5 5 5 5 5 5 5 5 5 5 5 5 5 5 5 6 5 5 6 6 5 5 5 5 5 5 5 6 5 5 5 6 5 5 5 5 6 6 5 5 5 5 5 5 5 6 5 5 5 5 6 5 5 5 5 6 5 5 5 5 5 5 5 5 5 5 5 5 5 5 5 5 5 5 5 6 5 5 5 5 5 5 5 5 5 5 5 5 5 5 5 5 6 5 5 5 6 5 5 5 5 5 5 5 5 5 6 5 5 5 5 5 5 5 5 5 5 5 5 5 5 5 5 5 5 5 5 5 6 5 5 5 5 5 5 5 5 5 5 5 5 5 5 5 5 5 6 5 5 5 5 5 6 5 5 5 5 5 5 5 5 5 5 5 5 5 5 5 5 5 5 5 5 5 5 5 5 5 5 5 6 5 5 6 5 5 5 6 5 5 5 5 5 5 5 5 5 5 5 5 5 5 5 6 5 6 5 5 5 5 5 5 5 5 5 6 5 5 5 5 5 5 5 5 5 6 6 5 5 5 5 5 5 5 5 5 5 5 5 5 5 5 5 5 5 5 5 5 5 5 5 5 5 5 5 5 5 5 5 5 5 5 5 5 5 5 5 5 5 5 5 5 5 5 5 5 5 5 5 5 5 5 5 5 5 5 5 5 5 5 5 5 5 5 5 5 5 5 6 5 5 5 5 5 5 6 5 5 5 5 5 5 5 5 5 6 5 6 5 5 5 5 5 5 5 5 5 5 5 5 5 5 5 5 5 5 5 5 5 5 5 5 5 5 5 5 5 5 5 5 5 5 6 5 5 5 6 6 5 5 5 5 5 5 5 5 5 5 5 5 5 5 5 5 5 5 5 5 5 5 6 6 5 5 5 5 5 5 5 5 6 5 5 5 5 5 5 6 5 5 5 5 5 6 5 5 5 5 6 5 5 5 6 5 5 5 6 5 5 6 5 5 5 5 5 5 5 5 5 5 5 5 5 6 5 5 5 5 5 5 5 5 6 5 5 5 5 5 5 5 5 5 5 5 6 5 5 5 6 5 5 5 5 6 5 5 5 5 5 5 5 5 6 5 6 5 5 6 5 5 5 5 5 6 5 5 5 5 5 5 5 5 5 5 5 5 6 5 5 5 5 5 5 5 5 5 6 5 5 5 5 5 5 6 5 5 5 5 5 5 5 6 5 5 5 5 5 6 5 5 5 5 5 5 5 5 5 5 5 5 5 5 5 5 5 5 5 5 5 5 5 5 5 5 5 5 5 5 5 5 5 5 5 5 5 5 5 5 5 5 5 5 5 5 5 6 5 6 5 5 5 5 5 5 5 5 5 5 5 5 5 5 6 5 5 5 5 5 5 5 5 5 5 5 5 5 5 5 6 5 5 6 5 6 5 5 5 5 5 6 5 5 5 5 5 5 5 5 5 5 5 5 5 5 5 5 5 5 5 5 6 5 5 5 5 5 5 5 5 5 5 5 6 5 6 5 5 6 5 6 5 5 5 5 5 5 5 6 5 6 5 5 5 5 6 5 5 5 5 6 6 5 5 6 5 5 5 5 5 5 5 5 5 5 5 5 5 5 5 5 6 5 5 5 5 5 5 5 5 5 5 5 5 5 5 6 5 6 5 5 5 5 5 5 5 6 5 6 5 5 5 5 5 5 5 5 5 6 6 5 5 5 6 5 5 5 5 6 5 6 5 5 6 5 6 6 6 5 5 6 5 5 5 6 6 6 5 5 5 5 5 5 5 5 5 5 5 6 5 5 5 5 5 5 6 5 5 5 6 5 5 5 5 5 5 5 5 6 5 5 5 6 5 5 5 5 5 5 5 5 5 5 5 5 5 5 5 5 5 5 5 5 5 5 5 5 5 5 5 5 5 5 5 5 5 5 5 5 5 5 5 5 5 5 5 5 5 5 5 5 5 5 5 5 5 5 5 5 5 5 5 5 6 5 5 5 5 5 6 5 5 5 5 6 5 5 5 6 5 5 5 5 5 5 5 5 5 5 5 5 5 5 5 5 5 5 5 5 5 5 5 5 5 5 5 5 5 5 5 5 5 5 5 5 5 5 5 5 6 5 5 6 5 5 5 5 5 5 5 6 5 5 5 5 5 5 5 5 5 5 5 6 5 5 6 5 6 5 5 5 6 5 5 5 5 5 5 5 5 6 5 5 5 5 6 5 5 5 5 6 5 6 5 5 5 5 5 5 5 5 5 5 5 5 6 5 6 5 5 5 5 5 5 5 5 5 5 5 5 5 6 5 5 5 5 5 5 5 5 5 6 5 5 5 6 5 5 5 5 5 5 5 5 5 5 5 5 5 5 5 5 5 5 5 5 5 5 5 5 5 5 5 5 5 5 5 5 5 5 5 6 5 5 6 5 5 5 5 6 5 5 5 5 5 5 5 5 5 5 5 5 5 5 5 6 5 5 5 5 5 5 5 5 5 6 5 6 5 5 5 5 5 5 5 6 5 5 5 5 5 5 5 5 5 5 5 5 5 5 6 5 5 5 5 5 5 5 5 5 5 5 6 5 5 5 5 5 5 5 5 5 5 5 5 5 5 5 5 5 5 5 5 5 5 5 6 5 6 5 5 5 5 5 5 6 5 6 5 5 5 6 5 5 5 6 5 5 5 6 5 5 6 5 5 5 5 5 5 5 6 5 5 5 5 5 5 5 6 5 5 5 5 5 5 5 5 5 5 5 5 5 6 5 5 5 5 5 5 5 5 6 5 5 5 5 5 5 5 5 5 5 5 5 5 5 5 5 5 5 5 5 6 5 5 5 5 5 5 5 5 5 5 5 5 5 5 5 5 5 5 5 5 5 5 5 5 5 5 5 5 5 5 5 5 5 5 5 5 5 5 5 5 5 5 5 5 5 5 5 5 5 5 6 5 6 5 5 5 6 5 5 6 6 5 6 5 5 5 5 5 5 5 5 5 5 5 5 5 5 5 5 5 5 5 5 5 5 5 5 5 5 5 5 5 5 5 5 5 5 5 6 5 5 5 5 6 5 5 6 5 5 5 6 5 5 5 5 6 5 6 6 5 5 5 5 6 5 5 5 6 5 5 5 6 5 5 5 5 5 5 6 5 5 5 5 5 5 5 5 5 5 5 5 5 5 5 5 5 5 5 5 6 5 5 5 5 5 5 5 5 5 5 5 5 5 5 5 5 5 5 6 5 5 6 5 5 6 5 5 5 5 5 5 5 5 5 5 5 6 5 5 5 5 6 5 5 5 5 6 5 5 5 6 5 5 5 5 5 5 5 5 5 5 5 5 5 5 5 5 5 5 5 5 5 5 5 5 5 6 5 5 5 5 5 5 5 5 6 5 5 5 6 5 5 5 5 5 5 5 5 5 5 5 5 5 5 5 5 5 5 5 5 5 5 5 5 6 5 5 5 6 5 5 5 5 5 5 5 5 6 5 5 6 5 5 5 5 6 5 5 5 5 5 5 5 6 5 6 5 5 6 5 5 6 6 5 5 5 5 5 5 5 5 5 5 5 5 5 5 5 5 5 5 5 5 5 6 5 5 5 5 6 5 5 5 5 5 5 5 5 5 5 5 5 5 6 5 5 6 5 5 5 5 5 5 5 5 5 5 5 5 5 5 5 5 5 5 5 5 5 5 5 5 5 5 5 5 5 5 5 5 5 5 5 5 5 5 5 5 5 5 5 5 5 5 5 5 5 5 5 5 5 5 5 5 5 5 5 5 5 5 5 5 5 5 5 5 5 5 5 5 5 5 5 5 5 5 5 5 5 5 5 5 5 5 5 5 5 5 5 5 5 5 5 5 5 5 5 5 5 5 5 5 5 5 5 5 5 5 5 5 5 5 5 5 5 5 5 5 5 5 5 5 5 5 5 5 6 5 5 5 5 5 5 5 6 5 5 5 5 5 5 5 5 5 6 5 6 5 5 5 6 5 5 6 5 5 5 5 5 5 5 5 5 5 5 5 5 5 5 5 5 5 5 5 5 5 5 5 5 5 5 5 5 5 5 5 5 5 5 5 5 6 5 5 6 6 5 5 6 5 5 6 5 5 5 6 5 5 5 5 5 5 5 5 5 6 5 5 5 5 5 5 6 5 5 5 5 5 5 5 5 5 5 5 5 5 5 5 5 5 5 5 5 5 5 5 5 5 5 5 5 5 5 5 6 5 5 5 5 5 5 5 5 5 5 5 5 5 5 5 5 5 5 5 5 5 5 5 5 5 5 5 5 5 5 5 5 5 5 5 5 5 5 5 5 5 5 5 5 5 5 6 5 6 5 5 5 5 6 5 5 5 5 6 5 5 5 5 6 5 5 5 5 5 5 5 5 6 5 5 6 5 6 5 5 5 5 6 5 5 6 6 5 5 5 5 5 5 6 5 5 5 5 5 5 5 5 5 5 6 6 5 5 5 5 5 6 5 5 6 5 5 5 5 6 5 5 6 5 5 5 5 5 5 5 5 5 5 5 5 5 5 5 5 5 5 5 5 5 5 5 5 5 5 5 5 5 6 5 6 5 5 5 5 5 5 5 5 5 5 5 5 5 6 5 5 5 5 6 6 5 5 5 5 5 5 5 5 5 5 5 5 5 5 5 5 5 5 5 5 5 5 5 5 5 5 5 5 5 5 5 5 5 5 5 5 5 5 5 5 5 5 6 5 5 5 6 5 5 5 5 5 5 5 5 5 5 5 5 5 5 5 5 5 5 5 5 6 5 5 6 5 5 5 5 5 5 5 5 5 6 5 5 5 5 5 6 5 5 5 5 5 6 5 6 5 5 5 5 5 5 5 5 5 5 5 5 5 6 5 5 5 6 6 5 5 5 5 5 5 5 5 6 5 5 6 5 5 6 6 5 5 5 5 5 6 5 5 5 5 5 5 5 6 5 5 6 6 5 5 5 5 5 5 6 6 5 5 5 6 5 5 5 5 5 5 5 6 5 5 5 5 5 5 5 5 5 5 5 5 5 5 5 5 5 5 5 5 5 5 5 5 5 5 6 5 5 5 5 5 5 5 6 5 5 5 5 5 5 5 5 5 5 5 6 5 5 5 5 5 5 5 5 6 5 5 5 5 5 5 5 5 5 5 5 5 5 5 5 5 6 5 5 5 6 5 5 5 5 5 6 5 5 5 5 5 5 5 5 5 5 5 5 5 5 6 5 5 5 5 6 5 5 6 5 5 5 5 5 6 5 5 5 5 5 5 5 5 5 5 5 5 5 5 6 5 6 5 5 5 6 5 6 5 6 5 5 5 5 5 5 6 6 5 5 5 5 5 5 6 5 6 5 5 5 5 5 5 5 5 5 5 5 5 5 5 5 5 5 6 5 5 5 6 6 5 5 5 5 5 6 5 5 6 6 5 5 5 5 5 5 5 5 5 5 5 5 5 5 5 5 5 5 5 5 5 5 5 5 5 5 5 5 5 5 5 5 5 5 5 5 5 5 5 5 5 5 5 5 6 5 5 6 6 6 5 5 5 5 5 5 6 5 5 5 5 5 5 5 5 5 6 5 5 5 6 5 5 5 5 5 5 5 5 5 5 5 5 5 5 5 5 5 5 5 5 6 5 5 5 5 6 5 5 5 5 5 5 5 5 5 5 5 5 5 5 5 5 5 5 5 5 5 5 5 5 5 5 5 5 5 5 5 5 5 5 6 5 6 5 5 5 5 5 5 5 5 6 5 5 5 6 5 6 5 5 5 5 5 5 5 5 6 5 5 5 5 6 5 5 5 5 6 5 5 5 5 5 5 5 6 5 5 5 5 6 5 5 5 5 5 5 5 5 5 5 5 5 5 5 5 5 5 5 5 5 5 5 5 5 5 5 5 5 5 5 5 5 5 5 5 5 5 5 5 5 5 5 5 5 5 5 6 5 5 5 5 6 6 5 5 6 6 5 5 5 5 5 5 5 5 5 5 5 5 5 5 5 5 5 5 5 6 5 5 5 6 6 5 5 5 5 5 5 5 5 5 5 5 5 5 5 5 5 5 5 5 5 5 5 5 5 5 5 5 6 5 5 5 5 5 5 5 6 5 5 5 5 5 5 5 5 5 5 5 5 5 5 5 6 5 5 5 5 5 5 5 5 6 5 6 6 5 5 5 5 5 5 5 5 5 5 5 5 6 5 5 5 5 5 5 5 5 5 5 5 5 5 5 5 5 5 5 6 5 5 5 6 5 5 5 5 5 5 5 5 6 5 5 5 5 5 5 5 5 5 5 5 5 5 5 5 6 5 5 5 6 5 5 5 5 5 5 5 5 5 5 5 5 5 5 5 5 5 5 5 5 5 5 5 5 5 5 5 5 5 5 5 5 5 6 5 6 5 5 5 5 5 5 5 5 6 5 5 5 5 5 5 5 5 5 6 5 5 6 5 5 5 5 5 6 5 5 5 5 6 5 5 5 5 6 5 5 5 6 5 6 5 5 6 5 5 5 5 5 5 5 5 5 5 5 5 5 5 6 5 5 6 5 6 5 5 5 6 5 5 6 5 5 5 5 6 5 6 5 5 5 5 5 5 6 5 6 5 5 5 5 5 6 5 5 5 5 6 5 5 5 5 5 5 6 5 5 5 5 5 5 5 5 5 5 5 5 5 5 5 5 5 5 5 5 5 5 5 5 5 5 5 5 5 5 5 5 5 6 6 5 5 5 5 5 5 5 5 5 5 6 5 5 6 6 5 6 5 5 5 5 5 5 5 6 5 5 5 5 5 5 5 5 5 5 5 5 6 5 5 5 5 6 5 5 5 5 5 5 5 5 5 5 5 5 6 5 5 5 5 5 5 5 5 5 5 5 5 5 5 5 5 5 6 5 5 5 5 5 6 5 5 5 6 5 5 5 5 5 5 6 5 6 5 5 5 6 5 5 5 5 5 5 5 5 5 6 5 5 6 5 5 5 5 5 5 5 6 5 5 5 5 5 5 5 5 5 5 5 5 5 6 5 5 6 5 5 5 5 5 5 6 5 5 5 5 5 5 6 5 5 5 5 5 5 5 6 5 5 5 5 5 5 5 5 5 5 5 5 5 5 5 5 5 5 5 5 5 5 6 5 5 5 5 5 5 5 5 5 5 6 5 5 5 5 6 6 5 5 5 5 6 5 5 5 5 5 5 5 5 5 6 5 5 5 5 5 5 5 5 5 5 5 6 5 5 5 6 5 5 5 6 5 5 5 5 5 5 5 5 5 5 5 5 6 5 5 5 5 5 6 5 5 6 5 5 5 5 5 5 5 5 5 5 5 5 5 5 6 5 5 5 5 5 5 5 6 5 5 5 6 5 5 5 5 5 6 5 5 5 5 5 5 5 5 5 6 5 5 5 5 5 5 5 5 6 5 5 5 5 5 6 5 5 5 5 5 5 5 6 5 5 5 5 5 5 5 5 5 5 5 5 5 5 5 5 5 5 5 5 5 5 5 5 5 5 5 5 5 5 5 5 5 5 5 5 5 5 5 5 5 5 5 5 5 5 5 5 6 5 5 5 5 5 5 5 6 5 5 5 5 5 5 5 5 5 5 5 5 5 5 5 5 5 5 5 5 5 5 6 6 5 5 6 6 5 5 5 5 5 5 5 6 5 5 5 5 5 5 5 5 5 5 5 5 5 5 6 5 5 5 5 5 5 5 5 6 5 5 6 5 5 5 6 5 5 5 5 5 5 5 5 5 5 5 5 5 5 5 5 5 5 5 5 5 5 5 5 5 5 5 5 6 5 5 5 5 5 5 5 5 6 5 5 5 5 5 5 6 6 5 5 5 5 6 5 5 6 5 5 6 5 5 5 5 5 5 6 5 5 5 5 5 5 5 5 6 5 5 5 5 5 5 5 5 5 5 5 6 5 5 6 5 5 5 5 5 5 5 6 5 5 5 6 5 6 5 6 5 5 5 5 5 5 5 5 5 5 5 5 5 5 5 5 5 6 5 6 5 5 5 5 5 5 5 5 5 5 6 5 5 5 5 5 5 5 6 5 5 5 6 5 6 6 5 5 6 5 5 5 5 6 5 5 5 6 5 5 5 6 5 6 6 5 5 5 5 5 5 6 5 5 5 5 5 5 5 5 6 6 6 5 6 5 5 6 6 5 5 6 5 5 5 5 5 5 5 5 5 5 5 6 5 5 5 5 5 5 5 5 5 5 5 5 5 6 6 5 5 5 5 6 5 5 5 6 5 5 5 5 5 6 6 5 5 5 6 5 5 5 5 5 5 5 5 5 5 5 5 5 5 5 6 5 5 5 6 5 5 5 6 5 5 5 5 5 5 6 5 5 5 5 5 6 5 5 5 5 5 5 5 5 6 5 5 5 5 5 5 5 5 5 6 5 5 5 5 6 5 6 5 5 6 5 6 5 5 5 5 5 5 6 5 6 6 5 5 5 5 5 5 5 5 6 5 6 5 6 5 6 5 5 5 5 5 5 5 5 5 5 5 6 5 5 5 6 5 5 5 5 5 5 5 5 6 5 5 5 5 5 5 5 5 5 6 5 5 5 5 6 5 5 6 5 5 5 5 5 5 5 5 5 6 5 5 5 6 5 5 5 5 5 5 5 5 5 5 5 5 5 5 5 5 5 5 5 6 5 5 5 5 5 5 5 5 5 5 6 5 5 5 5 5 5 5 5 5 5 5 5 5 5 5 5 5 5 5 5 5 5 5 5 5 5 5 5 5 5 5 5 5 5 5 5 5 5 5 5 5 5 5 5 5 6 6 5 5 5 5 5 5 5 5 5 5 5 5 5 6 6 5 5 5 6 5 5 6 5 5 5 6 5 5 5 6 5 5 5 5 5 5 5 5 6 5 5 6 5 6 6 5 5 5 5 5 5 6 5 6 6 6 5 5 6 5 5 6 6 5 5 5 5 5 5 5 5 5 5 5 5 5 5 5 5 5 5 5 5 5 6 5 5 5 5 5 5 5 5 5 6 5 5 5 5 5 5 5 6 6 5 5 5 5 5 5 5 5 5 5 5 5 5 5 5 5 5 5 5 5 5 5 5 6 5 6 5 5 5 5 5 5 5 6 5 5 5 6 6 5 5 6 5 5 5 5 6 5 5 5 6 5 5 5 6 5 5 5 5 5 5 5 5 5 6 6 5 5 5 5 5 6 5 5 6 6 6 5 5 5 5 5 6 5 5 5 5 5 5 5 5 5 6 5 6 5 5 5 5 5 5 5 5 5 5 5 5 5 5 5 5 5 5 5 5 5 5 5 5 6 5 5 5 5 6 6 5 5 5 6 5 5 5 5 5 5 5 5 5 5 5 5 5 5 5 5 6 5 5 5 6 5 5 6 5 5 5 5 5 5 5 5 5 5 5 5 5 6 5 5 6 5 5 5 6 5 6 5 6 5 6 6 6 5 5 5 5 5 5 5 5 6 5 5 5 5 5 5 5 5 6 5 5 6 5 5 5 5 5 5 5 5 5 5 5 5 5 5 5 5 5 5 5 5 5 6 5 5 5 5 5 5 5 5 5 5 6 5 6 5 5 6 5 6 5 6 5 5 6 5 6 5 5 6 5 5 5 6 5 5 5 5 5 5 5 5 5 5 5 5 5 5 5 5 5 5 5 5 5 5 5 5 5 5 5 5 5 5 5 5 5 5 5 5 5 5 5 5 5 5 5 5 5 5 5 5 5 5 5 5 5 5 5 5 5 5 5 5 5 6 5 5 6 5 5 5 5 5 5 6 6 5 5 5 5 5 5 5 5 5 5 5 5 5 5 5 5 5 5 6 5 5 5 6 5 5 5 5 5 5 5 5 5 5 5 5 5 5 5 5 6 5 5 5 5 5 5 5 6 5 5 5 5 5 5 5 5 6 5 6 5 5 5 5 5 5 5 5 5 5 5 5 5 5 5 5 6 5 5 5 5 5 5 5 6 5 5 5 5 6 5 5 5 5 5 5 5 6 5 5 6 6 5 5 6 5 5 5 5 5 5 6 5 5 5 5 5 5 5 5 5 6 5 5 6 5 5 6 5 5 6 5 5 5 5 5 6 5 5 5 5 5 5 5 5 6 5 5 5 5 5 5 5 6 5 5 5 5 5 5 5 5 5 5 5 5 6 5 5 5 5 5 5 5 6 6 5 6 5 6 5 5 5 5 5 5 5 5 5 5 5 5 5 5 5 6 5 6 5 5 5 5 5 5 5 5 6 5 6 5 6 5 6 5 6 5 5 6 5 5 5 5 5 6 5 5 5 5 5 5 5 5 6 5 5 5 5 5 6 5 5 6 5 6 6 5 5 5 5 5 5 5 5 6 5 5 5 5 5 5 5 5 5 5 5 5 5 6 5 5 5 5 5 5 5 6 5 5 5 6 5 5 5 5 5 5 5 5 5 5 5 5 5 5 5 5 5 6 5 5 5 5 5 5 5 6 5 5 6 5 5 5 5 5 5 5 5 5 5 5 5 5 5 5 6 5 5 5 5 6 5 5 5 5 5 5 5 5 5 5 5 5 5 5 5 5 5 5 5 5 5 5 5 5 5 6 5 5 5 5 5 5 6 5 5 5 5 5 5 5 5 5 6 6 5 5 5 6 5 6 5 5 5 5 5 5 5 5 5 5 5 5 5 5 5 6 5 5 5 5 5 5 5 5 5 5 5 5 6 6 5 5 5 5 5 5 5 5 6 5 5 6 5 5 6 6 5 5 5 5 5 5 5 6 5 5 5 5 5 5 5 5 5 6 5 5 5 6 5 5 5 5 5 6 5 5 5 5 5 5 5 5 5 5 5 5 6 5 5 5 6 5 5 5 6 5 5 5 5 5 5 5 5 5 5 5 5 5 5 5 5 5 5 5 5 5 5 5 5 5 5 5 5 5 5 5 5 6 5 5 5 5 5 5 5 5 5 5 5 5 5 5 5 5 5 5 5 5 5 5 5 5 6 5 6 5 5 6 5 5 5 5 5 5 5 5 5 6 5 5 5 5 5 5 5 5 5 5 5 5 5 5 6 5 5 5 5 6 5 5 5 6 5 5 5 5 5 5 5 5 5 5 5 5 5 5 5 5 5 5 5 5 5 5 5 5 5 5 5 5 5 5 5 5 5 5 5 5 5 5 5 5 5 5 5 5 5 5 5 5 5 5 5 5 5 5 5 5 5 5 5 5 5 5 5 5 5 5 5 5 5 5 5 5 5 5 5 5 5 5 5 5 5 5 5 5 5 5 5 5 5 5 5 5 5 5 5 5 5 5 5 5 5 5 5 5 5 5 5 5 5 5 5 5 5 5 5 5 5 5 5 5 5 5 5 5 5 5 5 5 5 5 5 5 5 5 5 5 5 5 5 5 5 5 5 5 5 5 5 5 5 5 5 5 5 5 5 5 5 5 5 5 5 5 5 5 5 5 5 5 5 5 5 5 5 5 5 5 5 5 5 5 5 5 5 5 5 5 5 5 5 6 5 5 5 5 5 5 5 5 5 5 5 5 5 5 5 5 6 5 5 5 5 5 5 5 5 6 5 5 5 5 6 5 5 5 5 5 5 5 5 5 5 5 5 5 5 5 5 5 5 5 5 5 5 6 5 5 5 5 5 5 5 5 5 5 5 5 5 6 6 5 5 5 5 5 6 5 6 5 5 5 5 5 5 5 5 5 5 5 6 5 5 5 5 5 5 5 6 5 5 5 5 5 5 5 5 5 5 5 5 5 5 5 6 6 5 5 5 5 5 5 5 5 5 5 5 5 6 5 5 5 5 5 5 5 5 5 5 5 5 5 5 5 5 6 5 5 5 5 5 5 5 6 5 5 5 5 5 5 5 5 5 5 6 6 5 5 5 5 5 5 5 5 5 5 5 5 5 5 5 5 5 5 5 5 5 5 5 5 5 5 5 5 5 5 6 5 5 5 5 5 6 5 5 5 5 5 5 5 5 5 5 6 5 5 5 5 6 5 5 5 5 5 5 5 5 5 5 6 5 6 5 5 5 5 5 5 5 5 5 5 5 5 5 5 5 5 5 5 5 5 5 5 5 5 5 5 5 5 5 5 5 6 5 5 5 5 5 6 5 5 5 5 5 5 5 5 5 5 5 5 5 5 5 5 5 5 6 5 5 6 5 5 5 6 5 5 5 5 5 6 5 5 5 5 5 5 5 5 5 5 6 5 5 5 5 5 5 6 5 5 5 5 5 6 6 5 5 6 5 5 6 5 5 5 5 5 5 5 5 5 5 6 5 5 6 5 5 6 5 5 6 5 5 6 5 5 6 5 5 5 5 5 5 6 5 5 5 5 5 5 5 5 5 5 5 6 5 5 5 5 5 5 5 6 5 5 5 5 6 5 5 5 6 5 5 5 5 5 5 5 5 5 5 5 6 5 5 5 5 5 5 5 5 5 5 5 5 5 5 5 5 5 5 5 5 5 5 5 5 6 5 5 5 5 5 6 5 5 5 5 5 5 5 5 5 5 5 5 5 5 6 5 5 6 5 6 5 5 5 5 6 5 6 6 5 6 5 5 5 5 5 5 5 6 5 6 5 5 5 5 5 5 6 5 5 5 5 5 5 6 5 5 5 5 6 5 5 5 5 5 6 5 5 6 5 5 5 5 6 5 5 5 5 6 5 5 5 5 5 5 6 5 5 5 5 5 5 5 5 5 6 5 5 5 5 5 5 6 5 5 5 5 6 5 5 5 5 5 5 5 5 5 5 5 5 5 5 5 5 6 5 5 5 6 5 5 6 5 5 5 5 5 5 5 5 5 5 5 5 5 5 5 5 6 5 6 5 5 5 5 5 5 5 5 5 5 5 5 5 5 5 5 5 5 5 5 5 5 5 5 5 5 6 5 5 6 5 5 5 5 5 5 5 5 5 5 6 5 5 5 5 6 5 5 5 5 6 5 5 5 5 5 5 5 5 5 6 5 5 5 5 5 5 5 5 5 5 5 5 5 5 5 5 5 5 5 5 5 5 5 5 5 5 5 5 
</DataArray>
<DataArray type="Float64" Name="stress" NumberOfComponents="9" format="ascii">
2505170036.7483368 -251544694.03815073 0 -251544694.03815073 -406360.92740128434 0 0 0 0 4229156124.0151825 -489491283.75541943 0 -489491283.75541943 -161940053.02072513 0 0 0 0 4718677792.9572296 -745354404.09813035 0 -745354404.09813035 -384401634.46597338 0 0 0 0 4010595641.8742599 -905421132.61127865 0 -905421132.61127865 138680938.85750178 0 0 0 0 3233019169.6377258 -1331357786.8857603 0 -1331357786.8857603 129038411.21386787 0 0 0 0 3075320.5238544792 -8153.0998975243419 0 -8153.0998975243419 26071.473052573172 0 0 0 0 53179606.484939575 212555115.57295853 0 212555115.57295853 397770928.86040652 0 0 0 0 1063414137.5702209 373690640.76065975 0 373690640.76065975 176299287.75001067 0 0 0 0 2839732174.189827 -199122003.15031114 0 -199122003.15031114 -37990221.402026653 0 0 0 0 2157277271.6975021 -1196009185.2032697 0 -1196009185.2032697 625777328.22295737 0 0 0 0 226973909.78086853 -112606391.65096831 0 -112606391.65096831 389877875.14423513 0 0 0 0 1071972726.0855408 -712860919.51696992 0 -712860919.51696992 229592378.72408897 0 0 0 0 5253251.4747009277 -747547.81617164763 0 -747547.81617164763 -1574.7110027934582 0 0 0 0 2956312.9938811064 1092930.9028133154 0 1092930.9028133154 442722.3519999836 0 0 0 0 5846702.3876152039 -1917769.2075588214 0 -1917769.2075588214 -2375196.9867479075 0 0 0 0 3156774.1548156738 -2676679.0832940647 0 -2676679.0832940647 -3335.8219777100508 0 0 0 0 5446189.9131011963 -1015726.6624924826 0 -1015726.6624924826 -853275.86703805369 0 0 0 0 7751608.8591156006 -37638.807296448853 0 -37638.807296448853 -1116279.3506742353 0 0 0 0 4513721.5764922574 1322611.4354144931 0 1322611.4354144931 -175352.12347166752 0 0 0 0 5941880.0716705322 -1322169.1870860429 0 -1322169.1870860429 -577638.32880841498 0 0 0 0 4987272.9724578857 -441390.16386630782 0 -441390.16386630782 -1386103.3668306337 0 0 0 0 5212364.6686486453 -614516.77546843886 0 -614516.77546843886 -394829.84383288218 0 0 0 0 -22491673.77633667 25708766.107129157 0 25708766.107129157 -20358808.850305319 0 0 0 0 -52344291.224151611 25308219.828613043 0 25308219.828613043 14703152.596210241 0 0 0 0 -19775267.729492188 6350836.3442704678 0 6350836.3442704678 -4996135.6984202862 0 0 0 0 7615379.7358856201 10980881.703754306 0 10980881.703754306 41052248.06240356 0 0 0 0 6263177.5790478662 253605.57937948406 0 253605.57937948406 958811.45328908274 0 0 0 0 -42332706.939605713 33400063.554866791 0 33400063.554866791 33693726.820026129 0 0 0 0 4806005.5708007812 -11357755.920592546 0 -11357755.920592546 4366838.1767449379 0 0 0 0 -27070704.777900696 -8844808.4924841523 0 -8844808.4924841523 27739688.540123463 0 0 0 0 6500519.2613525391 -16275073.679875255 0 -16275073.679875255 -30783635.94904989 0 0 0 0 7262512.0382380038 305266.19959762692 0 305266.19959762692 -189765.68731473718 0 0 0 0 264132147.75865936 -181226472.27574074 0 -181226472.27574074 129579714.36916864 0 0 0 0 -139676071.04971313 -60734927.507218063 0 -60734927.507218063 218656083.26423013 0 0 0 0 -57335545.33416748 39061456.398023337 0 39061456.398023337 63302945.207112908 0 0 0 0 141424206.41439819 -140544588.31163907 0 -140544588.31163907 54408518.46157214 0 0 0 0 4543314.2692614198 -6931636.7051471705 0 -6931636.7051471705 238718114.79568946 0 0 0 0 21316714.219234467 279672973.81731147 0 279672973.81731147 256509886.62098399 0 0 0 0 -90513066.360046387 219193096.85450214 0 219193096.85450214 38048114.052531317 0 0 0 0 -113051323.82598877 51193581.77722609 0 51193581.77722609 69041230.445825458 0 0 0 0 4775225.805041194 47931044.998847321 0 47931044.998847321 30847802.985533357 0 0 0 0 -170317745.3493042 60997290.147400498 0 60997290.147400498 182885149.9612903 0 0 0 0 -145506750.46658325 5549324.7725040913 0 5549324.7725040913 24916462.574220896 0 0 0 0 -186346169.80960846 126054943.4242862 0 126054943.4242862 34638060.639908433 0 0 0 0 8079042.6716003418 80157814.61617364 0 80157814.61617364 -102953427.25072676 0 0 0 0 1517040.5342673417 551258.33170671761 0 551258.33170671761 49743.591115882118 0 0 0 0 -183061885.30755615 215093929.82058066 0 215093929.82058066 -170702214.34214681 0 0 0 0 68613497.028114319 1345328.1865327703 0 1345328.1865327703 -39363459.44012627 0 0 0 0 1548118.9804169834 258694.15315074474 0 258694.15315074474 -402696.07469733222 0 0 0 0 -427340612.79754639 142173428.2980133 0 142173428.2980133 5928608.4796732664 0 0 0 0 -112268113.93759155 19590498.031801939 0 19590498.031801939 -156258170.23921764 0 0 0 0 -418839727.89160156 137024075.80420184 0 137024075.80420184 -29024571.495402992 0 0 0 0 -89966733.177429199 211942110.4022361 0 211942110.4022361 -148702585.7229239 0 0 0 0 -39945088.08782959 73484756.4376899 0 73484756.4376899 15051449.313967317 0 0 0 0 2799505.0348318834 5679978.2146292254 0 5679978.2146292254 2275381.7549445126 0 0 0 0 -30562804.745697021 69372164.744248897 0 69372164.744248897 -8643652.1329288483 0 0 0 0 93283491.675628662 105741366.33866978 0 105741366.33866978 -52647974.357463121 0 0 0 0 99804509.508896828 47372884.222693577 0 47372884.222693577 -293044978.77921939 0 0 0 0 -63293893.678424835 173491315.21708474 0 173491315.21708474 -79660153.147436261 0 0 0 0 7508053.5508728027 213417814.74721098 0 213417814.74721098 -57766715.349680126 0 0 0 0 58014529.165298462 37788141.418999545 0 37788141.418999545 -2000563.0422641039 0 0 0 0 -5350221.3498535156 -26850442.912757754 0 -26850442.912757754 5807985.7474060059 0 0 0 0 5701045.6578484327 -463580.85274771601 0 -463580.85274771601 2708661.6963894349 0 0 0 0 47249256.723144531 15079218.359229982 0 15079218.359229982 6707794.276581645 0 0 0 0 47440222.907554626 17562080.154421836 0 17562080.154421836 -7046638.4040454626 0 0 0 0 7817617.0759887695 32278755.327957004 0 32278755.327957004 -3567427.1376353502 0 0 0 0 16150744.399383545 6274338.8362437487 0 6274338.8362437487 13123158.059837818 0 0 0 0 8901884.9421359897 -3305748.840365842 0 -3305748.840365842 -2598367.7930008825 0 0 0 0 27098905.234771729 7329866.767670095 0 7329866.767670095 -10216135.9584907 0 0 0 0 11695170.496520996 18406656.657220066 0 18406656.657220066 2290784.2285359502 0 0 0 0 35463158.489028931 23085554.946168184 0 23085554.946168184 11363174.269346118 0 0 0 0 50218364.519104004 24265581.400011063 0 24265581.400011063 10574154.929436982 0 0 0 0 50053472.55683136 -8473961.3571243435 0 -8473961.3571243435 10970493.008280754 0 0 0 0 58531870.318817139 17705663.655183554 0 17705663.655183554 5033217.3194791079 0 0 0 0 50296704.840438843 -20519238.088479698 0 -20519238.088479698 -2129571.4070663452 0 0 0 0 68865484.638557434 6801557.9917421937 0 6801557.9917421937 -4297431.7106928825 0 0 0 0 17452268.698242188 16849203.746000051 0 16849203.746000051 28640578.854275823 0 0 0 0 13925057.595624268 -1825822.8946482092 0 -1825822.8946482092 -2359399.7389565092 0 0 0 0 8812068.2744979858 824719.66941326857 0 824719.66941326857 1443620.4940378666 0 0 0 0 9244812.1455764771 1574713.5951055288 0 1574713.5951055288 1200073.1256551743 0 0 0 0 6788516.5301708877 371813.43724816572 0 371813.43724816572 4946291.1469813222 0 0 0 0 31171840.926269531 2418033.8315201998 0 2418033.8315201998 -17539438.256963253 0 0 0 0 26729779.870241165 5185266.4613862187 0 5185266.4613862187 -3078930.7437448502 0 0 0 0 16219366.728390262 -4205226.8504891656 0 -4205226.8504891656 -635786.15817740012 0 0 0 0 23643345.308364868 -19575977.260134459 0 -19575977.260134459 1838587.9638545513 0 0 0 0 13362767.741424561 2472602.5065481663 0 2472602.5065481663 1225212.5572462082 0 0 0 0 9853869.1959228516 50759587.493724465 0 50759587.493724465 -15105689.389273942 0 0 0 0 40690220.670669556 9263712.4382546842 0 9263712.4382546842 -22069293.681092501 0 0 0 0 7779864.9380342681 5974874.4777011126 0 5974874.4777011126 1184541.1293876669 0 0 0 0 20596012.254852295 7814492.1182576716 0 7814492.1182576716 -3879098.410195291 0 0 0 0 26889130.27394104 13077288.543157637 0 13077288.543157637 -35208798.399137616 0 0 0 0 40621217.508346558 -5214495.0594833493 0 -5214495.0594833493 -12229423.985058069 0 0 0 0 61309134.006576538 -42288430.600996673 0 -42288430.600996673 -54296360.259151459 0 0 0 0 53852288.639755249 -57098282.845637739 0 -57098282.845637739 30640147.855567098 0 0 0 0 2197414329.1451111 -1454459931.130275 0 -1454459931.130275 827397385.12740326 0 0 0 0 41346125.750694275 11200616.247180998 0 11200616.247180998 -58621087.312960625 0 0 0 0 17470788.997422755 3356947.7143736184 0 3356947.7143736184 -1679315.7803395423 0 0 0 0 448330.71034632251 -179569.43343552947 0 -179569.43343552947 7375.881543713389 0 0 0 0 630261.67884791642 -8899247.0911426395 0 -8899247.0911426395 -4518152.3273083381 0 0 0 0 43749645.33921814 -27782132.034830391 0 -27782132.034830391 -17795923.578591466 0 0 0 0 31730076.425933838 -6357348.0051885843 0 -6357348.0051885843 -5863273.3809060454 0 0 0 0 1356042.1242712997 -9193592.9327913523 0 -9193592.9327913523 -1933916.002886785 0 0 0 0 28304688.738494873 -31952201.721607566 0 -31952201.721607566 -7026988.2264159918 0 0 0 0 21393233.794158936 -56021192.359779708 0 -56021192.359779708 107952.61329283565 0 0 0 0 18336353.179916382 -44090171.718086578 0 -44090171.718086578 198875317.44109482 0 0 0 0 15696554.195571899 -43134335.087044597 0 -43134335.087044597 59677868.196556091 0 0 0 0 40449835.643005371 -53646253.827961445 0 -53646253.827961445 -33499348.216557026 0 0 0 0 7635531.7488786206 -22925.367687761784 0 -22925.367687761784 -13189.552399137814 0 0 0 0 1401647231.9330902 1624891128.9033272 0 1624891128.9033272 1683433062.4948351 0 0 0 0 4717759784.3746033 -3537139485.6158862 0 -3537139485.6158862 2329387567.8520679 0 0 0 0 2233408371.7882996 -1470599870.8850043 0 -1470599870.8850043 610511632.69623005 0 0 0 0 3139451090.282196 -2055515535.947731 0 -2055515535.947731 526713966.78286362 0 0 0 0 4727811136.9725838 -1811301683.6099153 0 -1811301683.6099153 -203919405.27548993 0 0 0 0 2184444521.9984589 -1048542023.449427 0 -1048542023.449427 208904025.75215718 0 0 0 0 2397819012.3163147 -1642939379.5126376 0 -1642939379.5126376 377024746.0378288 0 0 0 0 2584068083.6466007 -662534917.23346484 0 -662534917.23346484 -55778486.174913935 0 0 0 0 702623057.44055176 -156990391.84605289 0 -156990391.84605289 -52434493.49811466 0 0 0 0 252256397.30002785 -387263062.77148926 0 -387263062.77148926 -114841047.58201647 0 0 0 0 324312462.50839233 375210695.42049915 0 375210695.42049915 -130292464.78623021 0 0 0 0 -59606293.031616211 212238941.70740986 0 212238941.70740986 -570007293.52448177 0 0 0 0 822208135.81689453 155216456.85052979 0 155216456.85052979 -741170741.50838685 0 0 0 0 3242975.3595096916 -3375594.2704002112 0 -3375594.2704002112 -1970163.7950889014 0 0 0 0 265174145.81668091 -695405793.88874698 0 -695405793.88874698 402358139.55834311 0 0 0 0 533851032.70507812 -226163323.76152229 0 -226163323.76152229 -76550236.259825706 0 0 0 0 2079587647.0040741 -1218544100.4597855 0 -1218544100.4597855 -66691723.676538229 0 0 0 0 9035129.3165767416 3536812.8693932369 0 3536812.8693932369 -2263985.5722893192 0 0 0 0 -389869596.08213425 -231504299.2824046 0 -231504299.2824046 550027103.83587646 0 0 0 0 -9049732.6785583496 46234947.404684514 0 46234947.404684514 -26219957.560780585 0 0 0 0 26550931.679476738 29788591.773069784 0 29788591.773069784 -21520448.804757178 0 0 0 0 26506372.967346191 31855879.812199771 0 31855879.812199771 -85249730.58143279 0 0 0 0 25330469.106124878 101081205.88734281 0 101081205.88734281 -6961715.4470381737 0 0 0 0 -17232621.129234314 46241885.421507001 0 46241885.421507001 -25219554.657650232 0 0 0 0 2709259.1981718689 564004.21634422988 0 564004.21634422988 -512837.74817590683 0 0 0 0 -200768105.11143494 72863228.021298379 0 72863228.021298379 69287712.766234875 0 0 0 0 200433521.28047752 349132770.79374212 0 349132770.79374212 422557584.04818201 0 0 0 0 356500018.95869446 177716518.77880985 0 177716518.77880985 32703496.15393433 0 0 0 0 416352295.92000198 566506682.11653697 0 566506682.11653697 157383210.23098838 0 0 0 0 169971243.65167236 73360172.018436342 0 73360172.018436342 289202.22540836525 0 0 0 0 -21042402.90007019 176661450.26963943 0 176661450.26963943 68123717.8707553 0 0 0 0 75117948.7762146 50284919.339631483 0 50284919.339631483 6207010.9124981463 0 0 0 0 120482753.29777527 39207813.115333155 0 39207813.115333155 31704707.01936239 0 0 0 0 73310930.785339355 71635164.460021213 0 71635164.460021213 80274546.87142393 0 0 0 0 170944049.2609024 24551309.350464281 0 24551309.350464281 -33169.848532399832 0 0 0 0 170505468.1607666 47463329.314965025 0 47463329.314965025 84774597.037953466 0 0 0 0 218528071.87335205 -48461205.615254536 0 -48461205.615254536 80645432.220926344 0 0 0 0 335596408.27877808 -35002920.969329365 0 -35002920.969329365 19807089.674529523 0 0 0 0 133384141.98193359 77163171.095284298 0 77163171.095284298 134779525.24826357 0 0 0 0 105496983.73506165 -747773.92490515113 0 -747773.92490515113 18315721.15567562 0 0 0 0 103122541.28336334 -43407638.266444862 0 -43407638.266444862 -102418467.1184535 0 0 0 0 78456279.168945312 7890403.0587653518 0 7890403.0587653518 -61824792.304363549 0 0 0 0 165954938.07588196 4305930.2940779328 0 4305930.2940779328 -67569571.869426608 0 0 0 0 73741798.152328491 48324950.554832309 0 48324950.554832309 -46392989.756999969 0 0 0 0 94404473.178375244 86681229.590599805 0 86681229.590599805 16753055.298426077 0 0 0 0 51451670.827972412 66470726.048051327 0 66470726.048051327 -57116167.962595552 0 0 0 0 53076763.001051903 -20707085.773985557 0 -20707085.773985557 -92428764.712583184 0 0 0 0 46672272.900787354 -32481.69856774807 0 -32481.69856774807 -113319728.56006813 0 0 0 0 45185656.993164062 -11407861.582077742 0 -11407861.582077742 -56220823.789295614 0 0 0 0 3114843.5596618652 -45174006.170218945 0 -45174006.170218945 -78935620.732016385 0 0 0 0 1569271.0561989099 799793.1769246012 0 799793.1769246012 383007.87051850941 0 0 0 0 20403739.728088379 31749480.092752814 0 31749480.092752814 205725.63337597623 0 0 0 0 -56338504.287124634 -125738673.77227786 0 -125738673.77227786 -77102263.693253756 0 0 0 0 1216195.6008377075 14906680.240107827 0 14906680.240107827 -10853453.558952749 0 0 0 0 2992199.2716419101 1201658.9931533448 0 1201658.9931533448 333207.88688468677 0 0 0 0 3665469.9281845093 9417230.699226141 0 9417230.699226141 -3068557.0888581276 0 0 0 0 13097194.975402832 23225209.432068467 0 23225209.432068467 -23602165.227760315 0 0 0 0 2934476.3429482318 1095572.4601414427 0 1095572.4601414427 -1629714.3693490208 0 0 0 0 -89315023.88482666 -73210159.001182795 0 -73210159.001182795 -3250210.0386006832 0 0 0 0 9013681.4389190674 7176153.0203344226 0 7176153.0203344226 -15084914.45599556 0 0 0 0 8495920.1095123291 9906548.57356143 0 9906548.57356143 -29481015.993151665 0 0 0 0 37959809.052032471 -18699041.446552277 0 -18699041.446552277 -32798706.326552391 0 0 0 0 30388216.780822754 888065.71993684769 0 888065.71993684769 -83316418.898227215 0 0 0 0 96631043.976135254 -143710662.54448947 0 -143710662.54448947 -128884298.58746856 0 0 0 0 -63655963.353790283 -133887550.20613372 0 -133887550.20613372 -78808186.391412497 0 0 0 0 35915581.058410645 -72484374.585734904 0 -72484374.585734904 -79681950.405417025 0 0 0 0 68374105.413024902 -108036842.97774506 0 -108036842.97774506 -105091309.98657829 0 0 0 0 179336266.90829468 -9334736.3849309534 0 -9334736.3849309534 -93414353.201235875 0 0 0 0 4660874.7289428711 -99747293.536741033 0 -99747293.536741033 350959605.46050513 0 0 0 0 518477.47115105391 -228044.9384058211 0 -228044.9384058211 -74062.083020830658 0 0 0 0 74272404.33392334 48308897.969814613 0 48308897.969814613 -10932789.262585051 0 0 0 0 -36651329.702697754 251462730.12928209 0 251462730.12928209 82450605.810048968 0 0 0 0 23159591.191070557 -4236436.269322739 0 -4236436.269322739 32724.969774051639 0 0 0 0 98504712.095657349 13470243.436125617 0 13470243.436125617 -2261319.2331988029 0 0 0 0 163943235.55276489 54655103.481909178 0 54655103.481909178 -25920038.984451406 0 0 0 0 -19460165.551330566 10983159.467783313 0 10983159.467783313 9214990.657075312 0 0 0 0 -19692267.200730443 -20667326.523065645 0 -20667326.523065645 -4314532.8391612954 0 0 0 0 7416059.5066833496 2153530.3768533845 0 2153530.3768533845 3210490.055869882 0 0 0 0 1955261.999006629 -476739.43600318581 0 -476739.43600318581 -226846.075953347 0 0 0 0 3566139.8610534668 -4990035.0423438475 0 -4990035.0423438475 -26460828.377915297 0 0 0 0 -12727263.86567688 -126607787.47280301 0 -126607787.47280301 110857114.17125717 0 0 0 0 63460355.003173828 -226956197.56690168 0 -226956197.56690168 -374257372.39831585 0 0 0 0 47958627.608917236 -168911511.74647653 0 -168911511.74647653 -38787752.109854735 0 0 0 0 2446036.3788452148 -2661078.2225704417 0 -2661078.2225704417 -4328313.1475211903 0 0 0 0 -3792342.2880096436 -7046729.5761208925 0 -7046729.5761208925 -4354.7919783701709 0 0 0 0 1916645.532333374 -5461612.6433426961 0 -5461612.6433426961 -5005951.8260747548 0 0 0 0 4086969.3291931152 -2484971.1295882659 0 -2484971.1295882659 -5241143.2972907163 0 0 0 0 3637000.4496466219 -378613.02341445908 0 -378613.02341445908 -267804.11135453981 0 0 0 0 -24151787.127418518 -67945187.109370977 0 -67945187.109370977 39478326.4094522 0 0 0 0 182928037.60491943 40251840.470948339 0 40251840.470948339 -64719893.345085025 0 0 0 0 141492074.8039856 -35171963.333005667 0 -35171963.333005667 5015809.5104081631 0 0 0 0 -18268520.669616699 -23836288.096553802 0 -23836288.096553802 28725194.321180582 0 0 0 0 -8516193.5088500977 -48033442.91717875 0 -48033442.91717875 -4651544.430355072 0 0 0 0 24122342.135498047 -27657859.939858198 0 -27657859.939858198 6296646.4289805889 0 0 0 0 8372397.4573669434 -9603927.7380464077 0 -9603927.7380464077 -11813585.219833851 0 0 0 0 155580384.91537476 71662388.584537983 0 71662388.584537983 33525298.76687336 0 0 0 0 2980550.9858093262 1010405.1077365875 0 1010405.1077365875 24448136.161270916 0 0 0 0 548967.84223309159 303674.07281320915 0 303674.07281320915 487682.7065810163 0 0 0 0 46513700.632049561 27157068.705519438 0 27157068.705519438 39467468.779779673 0 0 0 0 13508649.080108643 -1964910.8743622303 0 -1964910.8743622303 -788243.09660673141 0 0 0 0 48388773.351982117 2412484.1621362567 0 2412484.1621362567 5617484.0597190857 0 0 0 0 32109805.177612305 36560277.157315731 0 36560277.157315731 -10095407.199845314 0 0 0 0 29294749.716094971 29215966.413928986 0 29215966.413928986 2137353.6966276169 0 0 0 0 44925940.709197998 34754773.588369131 0 34754773.588369131 -355374.85465431213 0 0 0 0 65944727.003356934 19829025.091412783 0 19829025.091412783 -12024416.258221626 0 0 0 0 42818610.654418945 -9013054.2096209526 0 -9013054.2096209526 -8582840.4758374691 0 0 0 0 23884752.464767456 -44162091.706959665 0 -44162091.706959665 13871943.198936939 0 0 0 0 111863445.60437012 7663068.6285266876 0 7663068.6285266876 -4563846.6408156157 0 0 0 0 19775010.920684814 2238024.1355260611 0 2238024.1355260611 -5014420.7569723129 0 0 0 0 25485333.119842529 -2783773.0437831879 0 -2783773.0437831879 -13131036.778495789 0 0 0 0 27843731.92376709 9638589.397310257 0 9638589.397310257 -1495880.8537158966 0 0 0 0 22611425.542160034 15490109.594408274 0 15490109.594408274 1371083.7098484039 0 0 0 0 45554639.938110352 14027766.475289822 0 14027766.475289822 -10767696.238375187 0 0 0 0 33838237.475158691 13335293.347048283 0 13335293.347048283 -2716054.2849969864 0 0 0 0 35867745.674087524 9696243.1576182842 0 9696243.1576182842 3660108.0946826935 0 0 0 0 32056188.557678223 9836811.7620654106 0 9836811.7620654106 -9519868.4989049435 0 0 0 0 22630973.179779053 956507.83043622971 0 956507.83043622971 -7236695.5933713913 0 0 0 0 21876981.916549683 597139.76217889786 0 597139.76217889786 -7294710.2370605469 0 0 0 0 25209464.874237061 10978280.297299385 0 10978280.297299385 11819335.795343399 0 0 0 0 47597840.996826172 13098540.996511459 0 13098540.996511459 -2810014.7715016603 0 0 0 0 40180659.878372192 -1722537.3306028843 0 -1722537.3306028843 435722.77367019653 0 0 0 0 -633992.32202780247 1686133.8742307499 0 1686133.8742307499 632234.11083718634 0 0 0 0 22136849.915649414 -2599435.4744009972 0 -2599435.4744009972 -2526365.1591324806 0 0 0 0 9648756.6251525879 18624298.951488256 0 18624298.951488256 8613845.0442485809 0 0 0 0 6873878.771270752 -11634067.813011169 0 -11634067.813011169 -5850024.3233077526 0 0 0 0 7162511.803010568 -692292.73024832457 0 -692292.73024832457 4379857.5630264338 0 0 0 0 12394660.477645874 1040828.8921847343 0 1040828.8921847343 -774039.22050237656 0 0 0 0 85662.446048185229 431006.96559578553 0 431006.96559578553 1003799.9285209634 0 0 0 0 33443707.945343018 33220354.264238954 0 33220354.264238954 36978232.225979358 0 0 0 0 7795312.1970182508 2833698.045384042 0 2833698.045384042 3271715.3235353688 0 0 0 0 17130464.850082397 11307682.955660105 0 11307682.955660105 10980214.595014095 0 0 0 0 19107229.715332031 13049707.621468544 0 13049707.621468544 10823270.165943444 0 0 0 0 13135620.59677358 -546419.36154939781 0 -546419.36154939781 1400622.4078212758 0 0 0 0 19722726.508728027 10265873.592940569 0 10265873.592940569 1199660.0109381676 0 0 0 0 9133066.5665740967 1387853.7054519653 0 1387853.7054519653 -330439.88510894775 0 0 0 0 7480395.3957672119 914290.44092655182 0 914290.44092655182 1466197.9791431427 0 0 0 0 10930796.089576628 -616761.04832514375 0 -616761.04832514375 1130595.4845309211 0 0 0 0 -413979.13317871094 2687904.2948760986 0 2687904.2948760986 -1488582.480689168 0 0 0 0 2651356.1216311157 2160507.9836408217 0 2160507.9836408217 6801938.1225732435 0 0 0 0 1476289.2431640625 201157.36534881592 0 201157.36534881592 -379764.88964533806 0 0 0 0 4167063.8088335097 691207.73565499275 0 691207.73565499275 5994149.243555814 0 0 0 0 10278446.635864258 369967.50528335571 0 369967.50528335571 177003.99459838867 0 0 0 0 8382201.5484296009 3860105.2835052907 0 3860105.2835052907 4678203.2384295464 0 0 0 0 10708037.08638981 1157902.8960015895 0 1157902.8960015895 904895.56866516301 0 0 0 0 8349862.1594161987 890904.41580915451 0 890904.41580915451 -611314.5719294548 0 0 0 0 4596344.7518863976 1883896.2281226912 0 1883896.2281226912 3712797.3071261533 0 0 0 0 6267348.438873291 1156596.624178648 0 1156596.624178648 1891165.52546978 0 0 0 0 6678524.0171813965 1641091.4737658501 0 1641091.4737658501 2302246.33667472 0 0 0 0 7795924.8618649542 -400379.73653200408 0 -400379.73653200408 5907144.8925071321 0 0 0 0 6717446.7253875732 1391723.4999051094 0 1391723.4999051094 1742122.1146097183 0 0 0 0 4197016.2897803783 -1143947.1142431702 0 -1143947.1142431702 4111188.032895844 0 0 0 0 5776881.7658081055 -4454.1500825881958 0 -4454.1500825881958 1300894.5284156799 0 0 0 0 1659396.2964477539 -347798.13261413574 0 -347798.13261413574 3103559.8722392917 0 0 0 0 2816845.1212692261 244971.89021778107 0 244971.89021778107 3245895.8580589294 0 0 0 0 9727591.8893925697 4185160.6289033964 0 4185160.6289033964 4561376.8644035365 0 0 0 0 4118133.3560066223 358569.84135091305 0 358569.84135091305 1362573.6811981201 0 0 0 0 9741285.4624280445 3326348.6866956502 0 3326348.6866956502 2648643.3904615743 0 0 0 0 3492146.9111758322 738270.87669409625 0 738270.87669409625 2660673.6050185561 0 0 0 0 4725238.6705780029 1126662.8431458473 0 1126662.8431458473 1595000.4056515694 0 0 0 0 5205823.3952941895 768180.370677948 0 768180.370677948 469369.77333068848 0 0 0 0 3551892.1794505268 148729.81689068954 0 148729.81689068954 722046.82220781874 0 0 0 0 5349413.3832015991 1180656.4162023067 0 1180656.4162023067 641778.00618553162 0 0 0 0 3529603.4775390625 705991.47841644287 0 705991.47841644287 709041.13121414185 0 0 0 0 4167860.5472106934 1369835.461827755 0 1369835.461827755 477864.47245854139 0 0 0 0 8836429.4221488945 2635724.8747821897 0 2635724.8747821897 1391010.7959981868 0 0 0 0 4267641.852722168 472081.7996764183 0 472081.7996764183 810960.41417884827 0 0 0 0 9823470.8159334287 2729512.3263679594 0 2729512.3263679594 1133575.8625377379 0 0 0 0 6024217.1850327626 3104978.6883161813 0 3104978.6883161813 1189763.6744238664 0 0 0 0 7329069.842396304 2395937.5596662834 0 2395937.5596662834 171861.62626433047 0 0 0 0 1268120.7473144531 1076865.1031732559 0 1076865.1031732559 -45623.143676280975 0 0 0 0 1689279.8217788339 1570714.1237908816 0 1570714.1237908816 1843333.7695635916 0 0 0 0 25508189.748687744 10461734.081623793 0 10461734.081623793 11973391.306707621 0 0 0 0 3374116.7342910767 1160203.2524956465 0 1160203.2524956465 -5139.3447375297546 0 0 0 0 3249906.9151916504 455167.82265734673 0 455167.82265734673 83281.503765583038 0 0 0 0 2112423.5897634998 647848.00854039937 0 647848.00854039937 110307.90891672904 0 0 0 0 11141348.814880371 5915977.3931007385 0 5915977.3931007385 3253945.75685215 0 0 0 0 7740283.8253714629 3499007.1732934341 0 3499007.1732934341 604014.25957217906 0 0 0 0 7829179.9551032782 1452824.8972293921 0 1452824.8972293921 405856.92338559363 0 0 0 0 5245322.5729082525 2531571.37276645 0 2531571.37276645 1168756.8231128033 0 0 0 0 24239849.451629639 3515717.8100618124 0 3515717.8100618124 -2965984.34389624 0 0 0 0 20606757.061950684 14906514.744061291 0 14906514.744061291 6716987.7063884735 0 0 0 0 8539285.9240383506 2655560.3868427984 0 2655560.3868427984 -599878.4002629735 0 0 0 0 9515694.731301859 3763936.2890218878 0 3763936.2890218878 -247692.59935409849 0 0 0 0 17709524.581558228 -8963468.0461566448 0 -8963468.0461566448 -54570694.691646814 0 0 0 0 4421582.7160949707 2345426.5982580185 0 2345426.5982580185 -503332.04864263535 0 0 0 0 11801406.753555298 2633146.5334644914 0 2633146.5334644914 2255645.3482800722 0 0 0 0 5589565.8948059082 42517655.62776643 0 42517655.62776643 -57406708.858967543 0 0 0 0 12764596.858125761 4385674.3587954817 0 4385674.3587954817 453057.60473585653 0 0 0 0 6712424.6873168945 7102015.0617303848 0 7102015.0617303848 202622.12488174438 0 0 0 0 2533984.0074320342 1697438.7229133174 0 1697438.7229133174 -430660.12028181762 0 0 0 0 18378144.636909485 -9502579.0501298644 0 -9502579.0501298644 -35091733.609923244 0 0 0 0 5926034.9554443359 6637140.3046545982 0 6637140.3046545982 1829750.0652284622 0 0 0 0 8066015.7341739889 2975799.2207685038 0 2975799.2207685038 1400028.9136156207 0 0 0 0 5559522.9461708069 7058909.5683461428 0 7058909.5683461428 2802783.5955924988 0 0 0 0 6161422.8173217773 4395844.1980266571 0 4395844.1980266571 1990735.0730323792 0 0 0 0 4926007.4170684814 2837889.8529906273 0 2837889.8529906273 -25150.303043365479 0 0 0 0 5581589.052790463 3244391.0553486533 0 3244391.0553486533 1184459.5216871528 0 0 0 0 4849964.4060058594 1632337.6673755646 0 1632337.6673755646 927141.57219552994 0 0 0 0 8669869.0131163076 4434785.8138833195 0 4434785.8138833195 2374434.032451205 0 0 0 0 6299581.9771883115 3249300.0979385003 0 3249300.0979385003 1793031.3445901773 0 0 0 0 8809275.5222583488 4450324.9310377836 0 4450324.9310377836 1207060.8736898135 0 0 0 0 3332797.7231445312 1338154.5981664658 0 1338154.5981664658 -437811.22329711914 0 0 0 0 2938595.3542175293 -136768.85993671417 0 -136768.85993671417 1356153.1160945892 0 0 0 0 5470985.1683349609 3485515.3280754089 0 3485515.3280754089 887927.97657310963 0 0 0 0 1903242.9658991098 2198685.1471400084 0 2198685.1471400084 3920802.6564967781 0 0 0 0 2493230.569732666 1983267.7067527771 0 1983267.7067527771 522794.4995803833 0 0 0 0 7696388.571181342 3640969.4025067091 0 3640969.4025067091 2884265.8549939189 0 0 0 0 7901935.392604962 3244165.1804269627 0 3244165.1804269627 4534037.7208425691 0 0 0 0 1821679.4352081716 337364.51756205503 0 337364.51756205503 10082625.547145877 0 0 0 0 4414988.1950694621 -304207.13281631656 0 -304207.13281631656 2737329.2539410349 0 0 0 0 4505007.1993713379 3179941.1811790466 0 3179941.1811790466 3177631.9597358704 0 0 0 0 1677120.1889953613 1649961.2604217529 0 1649961.2604217529 4754605.3688640594 0 0 0 0 6847118.8434143066 6153674.2316074371 0 6153674.2316074371 2083647.3411483765 0 0 0 0 11849858.644346926 5868217.0715981349 0 5868217.0715981349 926871.26733020879 0 0 0 0 -224733.02893230319 334511.6272682026 0 334511.6272682026 374467.50070704706 0 0 0 0 1844012.1881103516 1245461.5896224976 0 1245461.5896224976 5527114.5262451172 0 0 0 0 -683646.01748657227 1907477.8527526855 0 1907477.8527526855 1293348.2133483887 0 0 0 0 4677116.7212580591 4511214.2194820717 0 4511214.2194820717 2640918.963883115 0 0 0 0 4946569.4926554766 1866750.8836450577 0 1866750.8836450577 2962132.5974264313 0 0 0 0 1420793.0084830672 1221728.7618489061 0 1221728.7618489061 10494495.046883591 0 0 0 0 2385291.0841674805 8570657.1149215698 0 8570657.1149215698 10068917.912063599 0 0 0 0 975240.60959273577 4539757.2401792072 0 4539757.2401792072 9175802.3174644411 0 0 0 0 3068021.1295776367 5857784.6624469757 0 5857784.6624469757 7232348.9763240814 0 0 0 0 1901257.6605987549 3903903.9362678528 0 3903903.9362678528 -1554348.3271636963 0 0 0 0 5746677.9293518066 11171751.259319305 0 11171751.259319305 12007183.07208252 0 0 0 0 12704453.978603363 14324490.64484787 0 14324490.64484787 8451997.3847045898 0 0 0 0 121324.42094653472 906705.05596306175 0 906705.05596306175 813082.07980895601 0 0 0 0 -6945555.9571228027 5594499.2206954956 0 5594499.2206954956 10409874.226921082 0 0 0 0 -4511297.8734741211 8759865.3531608582 0 8759865.3531608582 11446698.588962555 0 0 0 0 -2837329.8535461426 5738662.083770752 0 5738662.083770752 15715322.293037415 0 0 0 0 383866.88952636719 4500031.6610336304 0 4500031.6610336304 18067703.059913635 0 0 0 0 547007.00076293945 6128953.3724880219 0 6128953.3724880219 11100753.008552551 0 0 0 0 7274430.3660888672 17331425.165533066 0 17331425.165533066 -2334165.3020420074 0 0 0 0 -2628395.685760498 10988870.448162079 0 10988870.448162079 27966946.829605103 0 0 0 0 4837971.7117941976 6835813.4404616449 0 6835813.4404616449 5521006.4080376513 0 0 0 0 292678.58795166016 6618972.7336235046 0 6618972.7336235046 2406134.9482469559 0 0 0 0 -1888395.7193145752 11463805.277444839 0 11463805.277444839 12275777.996711731 0 0 0 0 -1338452.9512023926 9303850.0576133728 0 9303850.0576133728 8108733.0802516937 0 0 0 0 1785802.5453491211 6886179.445438385 0 6886179.445438385 8834318.9579639435 0 0 0 0 -1392799.6069946289 7586356.5921554565 0 7586356.5921554565 2895601.2295246124 0 0 0 0 8723304.2595214844 1014953.5254745483 0 1014953.5254745483 -3019649.2967453003 0 0 0 0 13914302.112860562 5473910.2054174244 0 5473910.2054174244 -288949.78188121226 0 0 0 0 102792.72195815295 52415.675901215523 0 52415.675901215523 -24262.791478575673 0 0 0 0 5977138.1493835449 8182573.3316850662 0 8182573.3316850662 1880078.3685598373 0 0 0 0 5035890.4656982422 14653998.69180727 0 14653998.69180727 4909511.3558235168 0 0 0 0 8165820.4094076157 -4452458.7120760083 0 -4452458.7120760083 -8595850.0815391541 0 0 0 0 4874138.5944295526 7634624.8267277125 0 7634624.8267277125 5522806.3035127586 0 0 0 0 7305965.2303466797 8715131.1032514572 0 8715131.1032514572 4352502.8289322257 0 0 0 0 11778907.352844238 31990283.149017334 0 31990283.149017334 16402538.930187225 0 0 0 0 14985731.097290039 5855062.6041221619 0 5855062.6041221619 -7314251.946685791 0 0 0 0 212304.20995203219 2214775.2301587909 0 2214775.2301587909 847093.83397925273 0 0 0 0 1054471.1204147339 4957312.3644037247 0 4957312.3644037247 13163938.262870789 0 0 0 0 1511052.5930488855 5508954.2943983106 0 5508954.2943983106 6991543.5786812585 0 0 0 0 -17778045.522537231 -13315882.690969467 0 -13315882.690969467 -1994021.7676239014 0 0 0 0 -6958834.1719427928 2808400.4080668893 0 2808400.4080668893 5389929.2565550227 0 0 0 0 7913802.44248873 11755092.489600461 0 11755092.489600461 1892764.2252389211 0 0 0 0 -94783980.69859314 -1918264.7531833649 0 -1918264.7531833649 44926533.62525177 0 0 0 0 -169938291.62565613 21487443.64874649 0 21487443.64874649 44165508.36101532 0 0 0 0 -30427846.553726196 60518110.194732666 0 60518110.194732666 -32032998.682430267 0 0 0 0 -44832433.000183105 -121724170.78064728 0 -121724170.78064728 -161064507.11387634 0 0 0 0 324228.2787380144 3278424.4869727176 0 3278424.4869727176 2808253.8711280599 0 0 0 0 -32318265.380661011 187290276.01990318 0 187290276.01990318 -221800922.14780045 0 0 0 0 40362672.142852783 38681915.570913315 0 38681915.570913315 -76103329.227677345 0 0 0 0 12325352.784138251 11401268.850810088 0 11401268.850810088 602403.40825365111 0 0 0 0 11107950.784439087 7908348.8889498711 0 7908348.8889498711 1310785.3722057343 0 0 0 0 8047093.7014465332 7802527.9154605865 0 7802527.9154605865 1307409.3462228775 0 0 0 0 -328008631.53370667 -33811699.215987742 0 -33811699.215987742 -5495107.0405547619 0 0 0 0 -410450000.08917236 -165411368.58739042 0 -165411368.58739042 124253727.50803375 0 0 0 0 2069288.3210123107 1462682.2647702806 0 1462682.2647702806 263482.95122521371 0 0 0 0 -839741016.34576416 -89069403.48972702 0 -89069403.48972702 65156465.430137634 0 0 0 0 -1023053.8787324429 -203785.33725191653 0 -203785.33725191653 367594.26886214502 0 0 0 0 7465263.0338287354 8035427.7595701218 0 8035427.7595701218 1301219.3314976692 0 0 0 0 7258061.7091217041 7827822.0027971268 0 7827822.0027971268 1568166.7171068192 0 0 0 0 5692946.3297233582 7574674.0730530024 0 7574674.0730530024 1667148.9858512878 0 0 0 0 8128035.2683563232 6827398.6711759567 0 6827398.6711759567 -1373758.0682487488 0 0 0 0 9668829.9185180664 7984319.0861387253 0 7984319.0861387253 -3652915.4205331802 0 0 0 0 14761228.730219439 13347690.850943234 0 13347690.850943234 -810669.63907006569 0 0 0 0 12333892.50591594 7850227.989201 0 7850227.989201 1325945.7822773792 0 0 0 0 9429424.2773590088 8668439.6635408401 0 8668439.6635408401 -1413008.870634079 0 0 0 0 -386335417.92852783 119489283.35925961 0 119489283.35925961 146754921.4178772 0 0 0 0 -1474575563.3379211 -339190939.67050934 0 -339190939.67050934 629443515.15895081 0 0 0 0 -438812836.11436462 -112199662.41758347 0 -112199662.41758347 412667965.79485321 0 0 0 0 -1002385517.9355316 -85326530.518205643 0 -85326530.518205643 493320421.40392303 0 0 0 0 -273835049.05647278 -281981609.52383614 0 -281981609.52383614 181390561.83362579 0 0 0 0 -1351891465.1786346 258712073.49726486 0 258712073.49726486 448648045.60681152 0 0 0 0 16749962.111663818 -876904.42167854309 0 -876904.42167854309 21492631.361816406 0 0 0 0 102310.67493773438 565616.598594293 0 565616.598594293 22881.844265565276 0 0 0 0 -676641483.28442383 142273128.40840149 0 142273128.40840149 793717108.89691162 0 0 0 0 15889381.352935553 98546736.146617994 0 98546736.146617994 33644452.586456299 0 0 0 0 -26607291.500320435 -37919267.961238861 0 -37919267.961238861 -233416152.62100506 0 0 0 0 -790149.13614749163 2918004.1971102878 0 2918004.1971102878 1452504.4026150219 0 0 0 0 4473081.5572738647 -72747897.798096657 0 -72747897.798096657 -212141665.37002945 0 0 0 0 -117255518.76486206 -39238463.940864563 0 -39238463.940864563 125911490.55749893 0 0 0 0 -1358761.8817352355 -1035354.3400614262 0 -1035354.3400614262 9966450.6474805363 0 0 0 0 -96212598.009063721 -113074164.64443207 0 -113074164.64443207 -86216192.569414139 0 0 0 0 -82389.384000554681 170691.54179766309 0 170691.54179766309 318102.05972384103 0 0 0 0 -617094978.9133606 -288318755.2540741 0 -288318755.2540741 -433501330.76810455 0 0 0 0 -1153179525.9563141 -600480718.61344147 0 -600480718.61344147 144585342.46620178 0 0 0 0 -1083598701.6495743 -336851009.49831104 0 -336851009.49831104 519898138.18354797 0 0 0 0 -433811430.71685791 68902444.927074432 0 68902444.927074432 87712838.556629181 0 0 0 0 -315937188.2963562 -145421234.50725174 0 -145421234.50725174 404136750.16810608 0 0 0 0 -572198028.18649292 394167786.07941437 0 394167786.07941437 -49815261.493469238 0 0 0 0 -208932793.17188263 528289985.23442459 0 528289985.23442459 343714823.13174438 0 0 0 0 -450870988.11109924 217418675.55162621 0 217418675.55162621 97931030.087440491 0 0 0 0 -183201935.67175293 307436860.31627083 0 307436860.31627083 -506175469.57909775 0 0 0 0 -157355806.57411194 500605601.15822029 0 500605601.15822029 -289089603.10508728 0 0 0 0 -438087381.97314453 408511820.01448822 0 408511820.01448822 141589195.06361961 0 0 0 0 -2443745.3698462285 3763958.1699445546 0 3763958.1699445546 10046055.322919359 0 0 0 0 -1640730.3834838867 6036068.8609352112 0 6036068.8609352112 -454849.02577614784 0 0 0 0 487236.21529230662 8068107.5854095817 0 8068107.5854095817 3539290.4790189154 0 0 0 0 12968151.758148193 -9842040.0517539978 0 -9842040.0517539978 -106473327.67917633 0 0 0 0 -981890.60474291444 8402677.7161244974 0 8402677.7161244974 3466062.4351710342 0 0 0 0 -505139676.4777832 202020037.80949736 0 202020037.80949736 -167308631.88394928 0 0 0 0 -717566932.58565521 222270683.03359699 0 222270683.03359699 83736817.820655823 0 0 0 0 17219142.500751495 47624969.071379662 0 47624969.071379662 1349662.2992858887 0 0 0 0 -387934.8877920974 6187471.8889945373 0 6187471.8889945373 657997.68448799103 0 0 0 0 3391787.9748840332 1187803.9782943726 0 1187803.9782943726 6196780.6038646698 0 0 0 0 -324830.68878434226 -560998.39745627716 0 -560998.39745627716 640348.11072043329 0 0 0 0 -2786603.9296112061 5364210.8703775406 0 5364210.8703775406 5835902.181687355 0 0 0 0 1355954.6684136763 4214691.5611033887 0 4214691.5611033887 4962056.2219679542 0 0 0 0 -3557603.9649047852 3438318.0154457092 0 3438318.0154457092 6859535.258928299 0 0 0 0 1484024.0508270264 4509147.3749170303 0 4509147.3749170303 3217027.8553504944 0 0 0 0 889568.4356842041 2917802.6606655121 0 2917802.6606655121 4384739.0232486129 0 0 0 0 1626898.3714294434 1358617.4150753021 0 1358617.4150753021 4645903.3251303434 0 0 0 0 3080710.6059265137 1380508.0637874603 0 1380508.0637874603 3959945.4365081787 0 0 0 0 634393.2512512207 764174.21179962158 0 764174.21179962158 4769261.664100647 0 0 0 0 3758914.5647895364 1686017.5006708801 0 1686017.5006708801 3745068.3041427433 0 0 0 0 1827801.3304443359 -79009.883316040039 0 -79009.883316040039 3429625.0891990662 0 0 0 0 3580565.2159270346 1272533.5766598359 0 1272533.5766598359 6320919.0532809244 0 0 0 0 -9086997.6279907227 -8026643.9565916061 0 -8026643.9565916061 17643900.662006378 0 0 0 0 -5221302.0118541718 6384484.4821050167 0 6384484.4821050167 10551560.88898468 0 0 0 0 1781925.3040771484 3498665.5122394562 0 3498665.5122394562 3533244.1111323535 0 0 0 0 3784607.9425756074 1097246.2750069052 0 1097246.2750069052 3998217.569694005 0 0 0 0 -1539460.5462341309 1339006.3300209045 0 1339006.3300209045 5468852.7411231995 0 0 0 0 -3179527.0322570801 5867710.9638271332 0 5867710.9638271332 8600136.8920698166 0 0 0 0 5722908.533996582 3354861.6536278725 0 3354861.6536278725 572015.51401519775 0 0 0 0 5079721.1575551853 1035022.767140992 0 1035022.767140992 4602371.9495359287 0 0 0 0 -806604.26167297363 1786760.6847438812 0 1786760.6847438812 2374486.6641540527 0 0 0 0 821060.89418565109 3165799.31203866 0 3165799.31203866 5695412.6169070825 0 0 0 0 -1266053.0423443317 1771328.4185078489 0 1771328.4185078489 9530588.918948587 0 0 0 0 7459181.854095459 157574.36084365845 0 157574.36084365845 1312993.1987285614 0 0 0 0 -3030008.0218505859 -4620668.8506717682 0 -4620668.8506717682 11010229.501426697 0 0 0 0 -6743551.0863723755 -6620856.8073968887 0 -6620856.8073968887 9686847.1349487305 0 0 0 0 -5603540.817565918 -3569365.7193450928 0 -3569365.7193450928 30106045.051582336 0 0 0 0 -2791195.7478345968 -519501.43325677514 0 -519501.43325677514 12521826.610402023 0 0 0 0 398360.14682006836 -8936921.9780044556 0 -8936921.9780044556 34508255.022802353 0 0 0 0 -3985368.7145996094 -12066206.836536407 0 -12066206.836536407 13036504.276817322 0 0 0 0 -8808818.3049621582 8940216.1875238419 0 8940216.1875238419 25588232.644882202 0 0 0 0 16492690.248725891 -7810486.8585119247 0 -7810486.8585119247 9011692.9982528687 0 0 0 0 -788393.16328752041 -6205813.0696648173 0 -6205813.0696648173 8291620.8797362112 0 0 0 0 1154688.949040249 -7893006.3963481979 0 -7893006.3963481979 10646245.640109506 0 0 0 0 -3819111.7082214355 -2538852.3838500977 0 -2538852.3838500977 3158836.1109695435 0 0 0 0 -7880184.674911499 -2539332.4846878052 0 -2539332.4846878052 6017474.8231582642 0 0 0 0 359229.54250970483 -5584510.9842382707 0 -5584510.9842382707 12640434.323141815 0 0 0 0 -671307.71905517578 -462476.24843978882 0 -462476.24843978882 384664.2903137207 0 0 0 0 2600965.2651829738 145900.57719460875 0 145900.57719460875 1905933.9210625608 0 0 0 0 11200034.314445496 -11916281.156064034 0 -11916281.156064034 8195540.9135417938 0 0 0 0 12150410.362816259 -6899143.1816877406 0 -6899143.1816877406 5444426.1016753605 0 0 0 0 12125879.405350171 -10483913.55143065 0 -10483913.55143065 4194133.4728550296 0 0 0 0 21775929.360046387 -11888061.904563904 0 -11888061.904563904 2535212.3621883392 0 0 0 0 19889729.573204041 -15396626.653491735 0 -15396626.653491735 18769057.62815094 0 0 0 0 2701408.2565574646 11265288.076483488 0 11265288.076483488 15199151.256965637 0 0 0 0 -1380765.7918344587 821176.79314773902 0 821176.79314773902 2549772.649452908 0 0 0 0 26736968.645385742 1252595.3043661118 0 1252595.3043661118 2381941.7370305061 0 0 0 0 -3230626.093952179 4624564.9850482941 0 4624564.9850482941 25360915.139858246 0 0 0 0 -7922942.4590454102 -4071888.713973999 0 -4071888.713973999 26589836.148283005 0 0 0 0 40285379.925506592 -2161146.1412563324 0 -2161146.1412563324 4219013.7235984802 0 0 0 0 6149652.0812039897 -230738.4183350727 0 -230738.4183350727 5441999.588062264 0 0 0 0 4486782.4647827148 -5771940.0443973541 0 -5771940.0443973541 3925140.7120494843 0 0 0 0 20807146.089569092 -8815855.0252599716 0 -8815855.0252599716 3180244.7286243439 0 0 0 0 24136835.832611084 -2435217.7182884216 0 -2435217.7182884216 -3144313.0260323286 0 0 0 0 12359305.103336334 -1429968.3638534546 0 -1429968.3638534546 1926699.0906677246 0 0 0 0 29823542.53112793 7867114.359287262 0 7867114.359287262 8011494.4616470337 0 0 0 0 25975595.099365234 -406950.75183486938 0 -406950.75183486938 1436099.6778912544 0 0 0 0 21632794.790184021 7286687.206143856 0 7286687.206143856 22082245.060285568 0 0 0 0 24751604.022705078 3775739.593708992 0 3775739.593708992 13346794.657094002 0 0 0 0 22640780.670516968 -4587233.5092127323 0 -4587233.5092127323 5498979.8787727356 0 0 0 0 14677046.447769165 -3856658.8535852432 0 -3856658.8535852432 9490420.493885994 0 0 0 0 21447575.773712158 -2707666.6502485275 0 -2707666.6502485275 3910715.1926250458 0 0 0 0 2510697.146791622 530950.49076986685 0 530950.49076986685 -422235.77139093634 0 0 0 0 18456650.342346191 -2674132.1298074722 0 -2674132.1298074722 6725363.7442202568 0 0 0 0 8675513.1349487305 -5241214.2506532669 0 -5241214.2506532669 -6070401.0472894013 0 0 0 0 18371059.305664062 -1431308.6668195724 0 -1431308.6668195724 6336601.4359846115 0 0 0 0 17899749.376419067 16256242.897788048 0 16256242.897788048 1675782.5166683197 0 0 0 0 8733576.8821212277 1348166.3045073897 0 1348166.3045073897 4701789.1561941374 0 0 0 0 -54225.519775390625 2532581.40883255 0 2532581.40883255 -1587020.3874835968 0 0 0 0 6562412.0546875 -883509.22022819519 0 -883509.22022819519 2066922.396987915 0 0 0 0 28332183.062648773 15939184.043699503 0 15939184.043699503 102886.67900657654 0 0 0 0 10775831.134820543 1842563.6765576042 0 1842563.6765576042 2738455.9375362797 0 0 0 0 20849155.171386719 242797.55333328247 0 242797.55333328247 -2320121.9630126953 0 0 0 0 10028180.503097113 -2006642.1281945333 0 -2006642.1281945333 217730.80886879377 0 0 0 0 21066174.224799849 761720.82909596711 0 761720.82909596711 -1478223.0894208504 0 0 0 0 537759.16566615738 256010.23994899169 0 256010.23994899169 -149069.16243196372 0 0 0 0 9048216.2598266602 -7528783.4898982048 0 -7528783.4898982048 -5213782.7283005714 0 0 0 0 17206094.851112366 -3911379.2686080933 0 -3911379.2686080933 1074051.0995731354 0 0 0 0 17761604.486724854 -4865905.5771638155 0 -4865905.5771638155 373986.1426486969 0 0 0 0 12757098.38139762 -7976249.673743831 0 -7976249.673743831 1908986.9783729017 0 0 0 0 24859649.549375921 -6087258.2470619269 0 -6087258.2470619269 1588693.1722670151 0 0 0 0 11513711.359142303 -8551501.3147640228 0 -8551501.3147640228 4707812.8112850189 0 0 0 0 20849930.381484561 -9210747.84099783 0 -9210747.84099783 3895032.395594826 0 0 0 0 851664.63977813721 -37135906.045574188 0 -37135906.045574188 12288434.905540466 0 0 0 0 21915503.031944275 -11296667.777285576 0 -11296667.777285576 4968305.4049863815 0 0 0 0 4694995.0700358599 -11531234.027237423 0 -11531234.027237423 660945.09188318125 0 0 0 0 11352716.666389465 -37671283.968720436 0 -37671283.968720436 10271504.480054855 0 0 0 0 18796189.368392944 -68483712.431465387 0 -68483712.431465387 -27341777.52267313 0 0 0 0 20625652.992095947 -44174701.755534172 0 -44174701.755534172 -86241006.450419903 0 0 0 0 -5543471.4834690094 -61577114.989485741 0 -61577114.989485741 -19223347.777966499 0 0 0 0 14736050.920326911 -11766401.993397027 0 -11766401.993397027 3320065.1982727107 0 0 0 0 16818882.850702286 -78351869.663082957 0 -78351869.663082957 -11880362.242827892 0 0 0 0 35289470.153064728 -40183884.525352716 0 -40183884.525352716 -10920339.410202026 0 0 0 0 -24803429.288158417 -44657641.731820434 0 -44657641.731820434 48752439.587004662 0 0 0 0 4313010.7908973694 -156854358.34504658 0 -156854358.34504658 100153383.31274176 0 0 0 0 -143689698.12054443 -160059805.18527818 0 -160059805.18527818 119681069.69077635 0 0 0 0 95174285.725509644 -47793076.58088994 0 -47793076.58088994 89824504.194666028 0 0 0 0 -176011110.31341553 -23896573.546989679 0 -23896573.546989679 107398614.22393179 0 0 0 0 -83050257.54069519 53948277.021573126 0 53948277.021573126 -8359770.8105027676 0 0 0 0 -55197189.299468994 -41319612.316454887 0 -41319612.316454887 56155677.785832167 0 0 0 0 6803818.1829376221 -18381449.562055588 0 -18381449.562055588 564302.6741437912 0 0 0 0 -44591882.955833435 -32832892.897206545 0 -32832892.897206545 11574782.173176527 0 0 0 0 10659005.088113308 -12903515.177889554 0 -12903515.177889554 5922375.209648462 0 0 0 0 6641835.7183408812 -8530351.3553384598 0 -8530351.3553384598 3201089.1045639925 0 0 0 0 -34453837.355613708 5380929.7289483547 0 5380929.7289483547 19494023.960990638 0 0 0 0 3770658.7942657471 -11324459.831562042 0 -11324459.831562042 4460271.613904953 0 0 0 0 -8310245.8559117168 -6148474.2643283755 0 -6148474.2643283755 8661049.1653031483 0 0 0 0 -8837519.0788040161 -11217762.993279457 0 -11217762.993279457 8730901.1614983082 0 0 0 0 3869683.6856412888 -12172656.908688247 0 -12172656.908688247 3742981.2364673615 0 0 0 0 -22625555.678085327 -9478719.0076141357 0 -9478719.0076141357 9276108.4500198364 0 0 0 0 1526103.1475894004 -677873.62589198351 0 -677873.62589198351 193119.26509387791 0 0 0 0 4631904.1375322342 -14674899.597334862 0 -14674899.597334862 8652431.0780525208 0 0 0 0 5207609.004281044 -18552376.60927999 0 -18552376.60927999 2152066.8637485504 0 0 0 0 4922437.6480484009 -10289030.018477917 0 -10289030.018477917 8864449.3338909149 0 0 0 0 1824372.78515625 -16793762.60922718 0 -16793762.60922718 3896738.5951404572 0 0 0 0 9027134.3033466339 -11212373.299111485 0 -11212373.299111485 3111624.962266922 0 0 0 0 10135095.937801361 -6661194.5161485672 0 -6661194.5161485672 9481392.2963981628 0 0 0 0 3011124.2014893396 -9294548.7008322403 0 -9294548.7008322403 12138070.317732694 0 0 0 0 15961212.137969971 -10331108.210934639 0 -10331108.210934639 6684700.5810031891 0 0 0 0 -43931609.842887878 37503930.42253685 0 37503930.42253685 19393720.948482513 0 0 0 0 -39399418.118392944 35892264.589876175 0 35892264.589876175 7573412.8703231812 0 0 0 0 -8254834.2575013191 4887196.3194492683 0 4887196.3194492683 954521.78425559215 0 0 0 0 -39682527.287597656 32192279.714366913 0 32192279.714366913 24318849.415672302 0 0 0 0 -8148883.8841247559 -604612.73124313354 0 -604612.73124313354 4143138.913444519 0 0 0 0 2580733.1734313965 -2033685.0968284607 0 -2033685.0968284607 1657358.9519767761 0 0 0 0 -512386.05647826567 -1643640.9206210971 0 -1643640.9206210971 6696751.5564431641 0 0 0 0 -2386911.4858322144 -20184067.428766251 0 -20184067.428766251 -29088660.220565796 0 0 0 0 -37138932.863769531 28499279.98664856 0 28499279.98664856 31426379.929870605 0 0 0 0 -26943741.167663574 20304051.43157959 0 20304051.43157959 34522288.619522095 0 0 0 0 -16899636.68145752 18204220.889450073 0 18204220.889450073 17075618.595161438 0 0 0 0 -7090991.9078369141 701409.06750488281 0 701409.06750488281 39778704.775619507 0 0 0 0 17057204.630767822 17827318.705150604 0 17827318.705150604 11344580.457176208 0 0 0 0 -28392377.362609863 9779943.6594924927 0 9779943.6594924927 34097541.859428406 0 0 0 0 41837316.595214844 -5519520.982925415 0 -5519520.982925415 13453713.224071503 0 0 0 0 -43777780.47454834 19499396.596073151 0 19499396.596073151 33789917.442562103 0 0 0 0 -47110967.146881104 -21344887.600914001 0 -21344887.600914001 8794061.0531425476 0 0 0 0 -120137612.42604065 11319227.664756775 0 11319227.664756775 41549096.742908478 0 0 0 0 4265814.73287661 -12112777.4999987 0 -12112777.4999987 8371620.8595250808 0 0 0 0 -27768659.178695679 9059846.6706786156 0 9059846.6706786156 -8738690.4586639404 0 0 0 0 15182275.317230225 -10164012.530801773 0 -10164012.530801773 -1444111.2001304626 0 0 0 0 -46073773.859039307 -1262488.4291915894 0 -1262488.4291915894 -13844441.509458542 0 0 0 0 9602184.9325934649 -13286809.897111285 0 -13286809.897111285 4105139.1559286378 0 0 0 0 -107976292.2991333 -33987418.722056389 0 -33987418.722056389 43225536.500033379 0 0 0 0 -6234934.1944274902 15520490.305639267 0 15520490.305639267 49432317.588920593 0 0 0 0 -63994301.427719116 -37287551.049995422 0 -37287551.049995422 103316133.98448849 0 0 0 0 -46572657.535079956 -1411077.9912414551 0 -1411077.9912414551 57783388.273555756 0 0 0 0 4612196.4808692932 14080510.115034103 0 14080510.115034103 6508100.0635070801 0 0 0 0 7372484.3517608643 -591450.54404735565 0 -591450.54404735565 53715228.255614281 0 0 0 0 -3084653.0116043091 31568044.658027649 0 31568044.658027649 74965524.358524323 0 0 0 0 1826668.5959314257 -358903.19323424622 0 -358903.19323424622 -1552338.1043205708 0 0 0 0 43249574.554859161 81285572.862083912 0 81285572.862083912 228238020.14190865 0 0 0 0 130610934.97633362 -386276560.02562523 0 -386276560.02562523 -8086879.6296114922 0 0 0 0 163414095.41133118 -32151990.7514925 0 -32151990.7514925 -95152015.562278748 0 0 0 0 -327105996.58955383 -180364009.78359604 0 -180364009.78359604 64930517.155235291 0 0 0 0 48862404.218486786 62360286.570186257 0 62360286.570186257 29091439.417648315 0 0 0 0 1117384.0437973812 -174006.31644131243 0 -174006.31644131243 -584334.83981186897 0 0 0 0 -269657509.12649536 -52050425.254944801 0 -52050425.254944801 65303322.260345459 0 0 0 0 -250560434.87615967 -76641518.498668671 0 -76641518.498668671 -14646361.960494995 0 0 0 0 -397524908.6260376 20627084.043289185 0 20627084.043289185 25778580.664741516 0 0 0 0 -243344596.98510742 41644956.022537231 0 41644956.022537231 25400858.542808533 0 0 0 0 -203649990.20330811 44985235.846786499 0 44985235.846786499 17972351.440055847 0 0 0 0 -384164727.90646362 128546800.59688187 0 128546800.59688187 69831528.552993774 0 0 0 0 -54748384.399475098 -32977234.431976318 0 -32977234.431976318 -8515294.2296524048 0 0 0 0 -175959905.65858459 -5458281.1508331299 0 -5458281.1508331299 5728011.4518737793 0 0 0 0 -44201663.630645752 -3327095.766746521 0 -3327095.766746521 21336343.194618225 0 0 0 0 -53672529.835479736 -18948894.936714172 0 -18948894.936714172 1275906.7574052811 0 0 0 0 -89425831.797744751 67892596.527664185 0 67892596.527664185 16338705.489868164 0 0 0 0 -219332840.3840332 114128254.14089966 0 114128254.14089966 68085160.097702026 0 0 0 0 -592868018.20495605 212340833.94623947 0 212340833.94623947 -41161275.179092407 0 0 0 0 -81174977.272857666 -59044116.461746216 0 -59044116.461746216 -56004981.726352692 0 0 0 0 -655497943.76013184 280216006.13376713 0 280216006.13376713 -84236923.957527161 0 0 0 0 -501785394.49142456 70600405.487140656 0 70600405.487140656 97269662.614715576 0 0 0 0 -425828534.56947136 -461232493.28006458 0 -461232493.28006458 -462894605.56169891 0 0 0 0 -44766890.339889526 -30895811.478840947 0 -30895811.478840947 44540778.685426831 0 0 0 0 17511614.028808594 184507413.65144652 0 184507413.65144652 -166617130.05508333 0 0 0 0 21555258.253472164 7600598.1522856802 0 7600598.1522856802 4131066.4529499318 0 0 0 0 -24294756.429676056 39116711.044255197 0 39116711.044255197 -13121969.100835919 0 0 0 0 3277894.979259491 -398925090.32488203 0 -398925090.32488203 314582215.86101723 0 0 0 0 -329739033.90056229 300512547.99395704 0 300512547.99395704 529180900.64228249 0 0 0 0 -370780164.40911865 180622076.89911699 0 180622076.89911699 411477576.29259443 0 0 0 0 15752662.219104081 6773332.634086648 0 6773332.634086648 4673542.1263811961 0 0 0 0 -42213297.673007965 536617658.84419394 0 536617658.84419394 107656179.70917511 0 0 0 0 276361679.30648804 -685393576.23245907 0 -685393576.23245907 485590303.2533437 0 0 0 0 5876342.1384901032 2973513.5303713344 0 2973513.5303713344 4305389.6136890389 0 0 0 0 4715928996.7817917 -1355357763.8115938 0 -1355357763.8115938 -235619917.54507938 0 0 0 0 3031166605.2228012 -2066819773.9895573 0 -2066819773.9895573 1170149210.7864168 0 0 0 0 3062115759.4988918 -626587042.39759529 0 -626587042.39759529 -543432550.64802718 0 0 0 0 144448532.49484253 -121072109.24690866 0 -121072109.24690866 5459339.9941772223 0 0 0 0 1562696967.7296753 -89066784.215444982 0 -89066784.215444982 74989975.777971148 0 0 0 0 2958616817.8801556 -1231731542.9954596 0 -1231731542.9954596 202909247.00068304 0 0 0 0 -215266314.94070435 242161503.84663647 0 242161503.84663647 565218795.45188832 0 0 0 0 1929918.121612601 -173344.13415176421 0 -173344.13415176421 -145763.31666565832 0 0 0 0 2805943650.6043243 -129217340.97474164 0 -129217340.97474164 -358102789.55261719 0 0 0 0 2938315745.2897034 571145793.15161324 0 571145793.15161324 -861987802.80145752 0 0 0 0 4727358438.3024826 -321593282.73294938 0 -321593282.73294938 -962199029.36515141 0 0 0 0 4715232992.4848242 1757595809.9873502 0 1757595809.9873502 -839390455.32063758 0 0 0 0 3176568753.4946442 629723115.06299424 0 629723115.06299424 -849306897.04623663 0 0 0 0 556848534.96305847 132219685.98860876 0 132219685.98860876 116951658.66227116 0 0 0 0 562298501.58513641 131522679.67577575 0 131522679.67577575 37798172.42784515 0 0 0 0 2171250014.0431595 1750161878.8757384 0 1750161878.8757384 653784847.04705703 0 0 0 0 -553099.31624753773 -2227109.3590586842 0 -2227109.3590586842 389860.71830365225 0 0 0 0 31672003.456027985 -29001338.464826703 0 -29001338.464826703 25635620.232200384 0 0 0 0 5474491.2857335582 -1976581.0622400418 0 -1976581.0622400418 -487040.57780168462 0 0 0 0 29644288.405109406 -4490689.9475267529 0 -4490689.9475267529 28133425.734417677 0 0 0 0 1251028.9232788086 -8889355.9082757235 0 -8889355.9082757235 21187362.964948416 0 0 0 0 20580329.957845017 -4072031.8314093817 0 -4072031.8314093817 -1948382.1456938933 0 0 0 0 16728053.586593628 2063339.2467592955 0 2063339.2467592955 12138190.97787714 0 0 0 0 8155594.43309021 4292106.655094862 0 4292106.655094862 15229942.294468537 0 0 0 0 13557772.552345276 3425514.5694684386 0 3425514.5694684386 8477595.6213816404 0 0 0 0 19026736.907117665 2285381.2588164788 0 2285381.2588164788 535287.67071950797 0 0 0 0 11451183.177825928 11881672.855153084 0 11881672.855153084 184640.11388671398 0 0 0 0 20231831.625175476 83463191.307644725 0 83463191.307644725 -256665576.84631538 0 0 0 0 28380487.00473287 4950354.1870857375 0 4950354.1870857375 1847039.4662345278 0 0 0 0 6066446.7321166992 5618784.4810249805 0 5618784.4810249805 14963286.91867283 0 0 0 0 10408397.475528717 770681.62690830231 0 770681.62690830231 26897.374387741089 0 0 0 0 13915965.163116455 -4973720.305855751 0 -4973720.305855751 -9746947.1686645299 0 0 0 0 22050295.476435043 5769914.460676197 0 5769914.460676197 894119.65082376613 0 0 0 0 10691318.197601318 1156675.0010080338 0 1156675.0010080338 541454.95738572627 0 0 0 0 18478765.256622978 3525883.4948598631 0 3525883.4948598631 4510440.2340109665 0 0 0 0 57184746.146606445 -22215126.399208069 0 -22215126.399208069 -64091036.546134949 0 0 0 0 102889144.08829498 63779699.362038374 0 63779699.362038374 -279950653.48321533 0 0 0 0 1236807.1262006033 459129.60294216499 0 459129.60294216499 89580.193442037329 0 0 0 0 41964795.551193237 -10416178.515061378 0 -10416178.515061378 -39850483.643915176 0 0 0 0 26122997.085380547 7174348.8466212805 0 7174348.8466212805 3116741.8951380686 0 0 0 0 54759296.254928589 -5596305.0413990021 0 -5596305.0413990021 -73318546.776330948 0 0 0 0 25527981.565940857 -33445026.085662842 0 -33445026.085662842 -20866932.777106285 0 0 0 0 41441898.659545898 -55712854.691130161 0 -55712854.691130161 8883414.4506454468 0 0 0 0 49964434.916313171 -42504120.066130638 0 -42504120.066130638 -78815662.580612183 0 0 0 0 22083361.841365814 -24646025.769370317 0 -24646025.769370317 -37143238.718519211 0 0 0 0 46973207.001327515 -47817872.391473293 0 -47817872.391473293 -28348545.57321167 0 0 0 0 68077416.842956543 -84556288.123888016 0 -84556288.123888016 5531707.8919763565 0 0 0 0 40889330.885482788 -68515638.282075882 0 -68515638.282075882 -80110942.205734253 0 0 0 0 74271701.664951801 -26209985.350392044 0 -26209985.350392044 -47557563.94584465 0 0 0 0 27236489.387748718 -65476694.637075424 0 -65476694.637075424 37020001.805158615 0 0 0 0 34613890.707077026 -110811989.40722227 0 -110811989.40722227 261692156.28636456 0 0 0 0 18896344.904388428 -69936481.011680603 0 -69936481.011680603 80762955.005130768 0 0 0 0 11365291.034788236 -30972977.162074134 0 -30972977.162074134 4678365.1004943848 0 0 0 0 -32077740.887771606 -98904987.077367783 0 -98904987.077367783 -11873835.003325462 0 0 0 0 183981139.65882874 242982687.3179493 0 242982687.3179493 -421790271.89734602 0 0 0 0 150019481.64942932 15829573.087573051 0 15829573.087573051 -306438148.48114347 0 0 0 0 256906159.31169128 117320242.80259609 0 117320242.80259609 122335187.20391369 0 0 0 0 156888547.45586395 -148735218.54942274 0 -148735218.54942274 48884888.310098648 0 0 0 0 283854233.40428162 88549286.55247283 0 88549286.55247283 152622584.00580263 0 0 0 0 311062550.77818394 95286205.994996905 0 95286205.994996905 -57982677.650066376 0 0 0 0 302714083.08792734 134665399.70814151 0 134665399.70814151 191829833.94516659 0 0 0 0 412956488.24964142 253472536.22560692 0 253472536.22560692 77320963.300677538 0 0 0 0 1432368.5012056604 -1037372.8449537046 0 -1037372.8449537046 326640.12609386561 0 0 0 0 87838123.530761719 395709215.07095146 0 395709215.07095146 619949760.27669621 0 0 0 0 1332575.7926614881 -2459225.3643346271 0 -2459225.3643346271 1489531.8900862923 0 0 0 0 82667093.064910889 -12701976.795365334 0 -12701976.795365334 -192875224.86146271 0 0 0 0 252392.18694467843 -109762.12384037301 0 -109762.12384037301 681205.78183474927 0 0 0 0 150834191.26882935 196544259.49606895 0 196544259.49606895 -120800649.56919408 0 0 0 0 -22082239.353549957 -6775674.2011656761 0 -6775674.2011656761 -6272164.8145914078 0 0 0 0 138777219.20599365 148778315.26856661 0 148778315.26856661 69092104.961107254 0 0 0 0 226910169.19900513 27507859.520215988 0 27507859.520215988 -24274903.317801952 0 0 0 0 132986042.64008331 -102899383.51675868 0 -102899383.51675868 19076222.319214344 0 0 0 0 143324333.16525555 47333015.673184991 0 47333015.673184991 62974359.727534294 0 0 0 0 133393986.89640045 -30541433.321489334 0 -30541433.321489334 84711577.529383183 0 0 0 0 403627324.79467773 170841645.42537594 0 170841645.42537594 24357868.479883194 0 0 0 0 271486681.2809906 -4743467.9353816509 0 -4743467.9353816509 56691442.408294916 0 0 0 0 697864638.97148895 -7808474.29662323 0 -7808474.29662323 97458747.364050388 0 0 0 0 480838664.89601898 462910286.41018939 0 462910286.41018939 538011359.50822759 0 0 0 0 379175213.23542023 99141040.158129692 0 99141040.158129692 110343676.91131079 0 0 0 0 326945709.00263977 -162350668.50281101 0 -162350668.50281101 36753939.94978714 0 0 0 0 151766601.76603699 -149972410.89622569 0 -149972410.89622569 178029818.63827562 0 0 0 0 332061436.7996521 216837205.14441645 0 216837205.14441645 121332114.18965578 0 0 0 0 772303.07152691111 -436386.67112717405 0 -436386.67112717405 137083.81259422202 0 0 0 0 249893537.39204407 169159446.18478888 0 169159446.18478888 164708859.06699383 0 0 0 0 969481541.01041412 961904071.81930983 0 961904071.81930983 800129755.31427717 0 0 0 0 1806813344.9845886 857151109.19745898 0 857151109.19745898 415496504.43826336 0 0 0 0 784016235.69759369 1130429508.928196 0 1130429508.928196 823559811.67419529 0 0 0 0 805812217.36050415 605455494.88972116 0 605455494.88972116 367222135.50880003 0 0 0 0 600182524.89832306 754295944.29543412 0 754295944.29543412 245168753.63553524 0 0 0 0 704953268.7480011 536029117.78104258 0 536029117.78104258 645115729.27083409 0 0 0 0 150579170.79132843 -159857564.61075473 0 -159857564.61075473 450752562.4924221 0 0 0 0 484340997.59487152 390906740.81294084 0 390906740.81294084 147947393.9484843 0 0 0 0 1012679.1435892135 -838719.40755609795 0 -838719.40755609795 -98182.469964943826 0 0 0 0 462455147.33990479 503503389.8051579 0 503503389.8051579 321656312.59130293 0 0 0 0 -477386760.80615234 -166538679.66285944 0 -166538679.66285944 631620984.11307526 0 0 0 0 -257392882.35952759 -212332261.67221737 0 -212332261.67221737 552371276.69757342 0 0 0 0 1112601845.9597549 2564209035.5952344 0 2564209035.5952344 4153320579.7833252 0 0 0 0 203278257.70818329 338674998.39952731 0 338674998.39952731 987818089.25647557 0 0 0 0 1171266392.0367088 1854348781.5574243 0 1854348781.5574243 1751702680.453054 0 0 0 0 2925443820.1298447 1955708491.6012712 0 1955708491.6012712 158789434.12783739 0 0 0 0 4714723189.5187149 2900079928.6624804 0 2900079928.6624804 630870297.35445964 0 0 0 0 4726488065.3286209 1620096860.5576696 0 1620096860.5576696 -426689140.36767626 0 0 0 0 2823424764.807457 1500039269.6167185 0 1500039269.6167185 317377761.9145261 0 0 0 0 2154058123.3304214 1471061207.5700448 0 1471061207.5700448 365474065.68992078 0 0 0 0 3371392455.5385132 926084169.71287823 0 926084169.71287823 -424323023.04315883 0 0 0 0 4723026992.0453796 -30721110.409531437 0 -30721110.409531437 -826396626.06001222 0 0 0 0 3006639429.9377136 743376339.71572077 0 743376339.71572077 -417117109.01195937 0 0 0 0 2634554460.1965332 138918465.79055902 0 138918465.79055902 -208333973.19851553 0 0 0 0 2391226717.949585 121654036.69887453 0 121654036.69887453 -206932193.14264041 0 0 0 0 2635156420.4102097 -347991124.97731388 0 -347991124.97731388 -861318620.53861368 0 0 0 0 940002248.66471481 354105952.60539293 0 354105952.60539293 576099604.21314406 0 0 0 0 1476944990.0377274 753447313.44690084 0 753447313.44690084 397256208.69101876 0 0 0 0 1727883189.0604019 -471184644.97565436 0 -471184644.97565436 -139455049.29005373 0 0 0 0 594188846.41703415 359431289.95733303 0 359431289.95733303 580502607.08603513 0 0 0 0 203264592.44884872 820524773.56328499 0 820524773.56328499 -605801750.41949248 0 0 0 0 363473084.04391289 -369404415.46531266 0 -369404415.46531266 57742249.04496181 0 0 0 0 1071328452.2074356 911408.37708300352 0 911408.37708300352 -505512847.27092409 0 0 0 0 4724599911.9712448 -1027345043.9034554 0 -1027345043.9034554 -969197506.82729506 0 0 0 0 1621658295.2467232 -1727221397.1872661 0 -1727221397.1872661 533100359.74804014 0 0 0 0 2554461609.5838928 -1062602560.6943574 0 -1062602560.6943574 -725995800.78994203 0 0 0 0 4718111186.4308586 -2740079169.2137661 0 -2740079169.2137661 115379467.46983215 0 0 0 0 122877978.87548065 -2381597685.1915746 0 -2381597685.1915746 3837899891.0483956 0 0 0 0 2482532.7928637788 -482253.9188577719 0 -482253.9188577719 1183258.9711075171 0 0 0 0 4704313104.1889496 -94595.426788416109 0 -94595.426788416109 -2793659.6553322491 0 0 0 0 109457716.32525635 2370367030.4600377 0 2370367030.4600377 2966937139.3625011 0 0 0 0 7050338.1815641522 -3078977.5933666704 0 -3078977.5933666704 1053678.1930113069 0 0 0 0 -75180732.442802429 5340725.922226429 0 5340725.922226429 1045727.5995893478 0 0 0 0 -77199251.780677795 -30558197.642561674 0 -30558197.642561674 -233450.18393179029 0 0 0 0 430272798.884444 -372310841.94361496 0 -372310841.94361496 429635174.74538982 0 0 0 0 11961721.545794219 -3209595.4467644673 0 -3209595.4467644673 1202406.8751160651 0 0 0 0 4556779.7906143069 -3771094.7850533575 0 -3771094.7850533575 121571.85114298598 0 0 0 0 1375033422.9321232 -595683193.30966783 0 -595683193.30966783 206247152.8225373 0 0 0 0 4607673.5525683276 1045868.886317201 0 1045868.886317201 2179784.3104839232 0 0 0 0 -288022943.8336792 169335319.91293061 0 169335319.91293061 -55043748.535556078 0 0 0 0 -361687506.02037048 67839058.185921371 0 67839058.185921371 238842174.54960823 0 0 0 0 -279664114.60556793 -56080338.799366236 0 -56080338.799366236 99899560.87661171 0 0 0 0 -77493787.860916138 -28803314.108174324 0 -28803314.108174324 46972170.943420194 0 0 0 0 -74245319.467395782 12103146.384740978 0 12103146.384740978 49189474.097710609 0 0 0 0 12984378.774053339 -3221165.5492518591 0 -3221165.5492518591 693717.1961830284 0 0 0 0 188180737.7440567 -473992139.70499718 0 -473992139.70499718 103875889.57354909 0 0 0 0 -232512651.7926712 -155171221.74591976 0 -155171221.74591976 -53771734.558479309 0 0 0 0 -203653001.24250793 -222914474.05168676 0 -222914474.05168676 -228783429.39060682 0 0 0 0 -247420042.02049065 -122073512.87920746 0 -122073512.87920746 150446678.54700947 0 0 0 0 -247179947.01358032 -473686166.47200131 0 -473686166.47200131 -269317671.33632928 0 0 0 0 13373954.652833998 -1457626.5327271447 0 -1457626.5327271447 -261591.4130715983 0 0 0 0 -206517432.31983185 122604573.53152743 0 122604573.53152743 236796791.21683982 0 0 0 0 4015242653.6709251 344464773.7780441 0 344464773.7780441 -411852492.25988477 0 0 0 0 716262182.5696907 -348190259.77472329 0 -348190259.77472329 -184870767.4016304 0 0 0 0 3681351107.8083725 1808077577.2728934 0 1808077577.2728934 515534109.48533905 0 0 0 0 4718731447.614645 2176170127.7249103 0 2176170127.7249103 -386400730.90953255 0 0 0 0 1979437035.8999481 3260484769.2328711 0 3260484769.2328711 1691376087.4609847 0 0 0 0 2750238862.5224314 805624865.59926999 0 805624865.59926999 -99012107.028547779 0 0 0 0 336032863.6960144 831221494.91634178 0 831221494.91634178 228524807.64247179 0 0 0 0 295671245.79158783 -283003612.28631204 0 -283003612.28631204 629943781.52270484 0 0 0 0 826179107.3169117 -238235824.48176414 0 -238235824.48176414 -75023136.190124035 0 0 0 0 313833677.84523773 -170946711.13225293 0 -170946711.13225293 26233458.128493428 0 0 0 0 647258632.48011398 398797518.52756804 0 398797518.52756804 154168123.64553118 0 0 0 0 1461645453.8867073 -56328987.401838601 0 -56328987.401838601 394931441.45694238 0 0 0 0 89661910.434417725 94982935.029243827 0 94982935.029243827 62858663.39652741 0 0 0 0 512649279.57480621 -105588661.84525514 0 -105588661.84525514 -533704583.77457142 0 0 0 0 252855654.23809814 -88662195.742757082 0 -88662195.742757082 -114044970.7431438 0 0 0 0 150107642.57607269 -361354251.1955719 0 -361354251.1955719 25437560.248697877 0 0 0 0 368670469.25761795 -262551333.81590444 0 -262551333.81590444 -408108319.63410282 0 0 0 0 154352660.87188721 -169162891.95166874 0 -169162891.95166874 -442069291.99181128 0 0 0 0 39281356.451705933 -336113580.37721395 0 -336113580.37721395 -343479865.29531676 0 0 0 0 87272392.414772034 -322419554.91573882 0 -322419554.91573882 -522138728.246737 0 0 0 0 -56957867.395721436 -232578789.87511027 0 -232578789.87511027 -381359084.36432195 0 0 0 0 3591790.5004272461 -373023393.70403624 0 -373023393.70403624 -399566812.66599756 0 0 0 0 35835471.011657715 -400960722.88125813 0 -400960722.88125813 -109203130.28471863 0 0 0 0 160534189.97932434 -261708645.38107097 0 -261708645.38107097 -344029625.64536327 0 0 0 0 -327277574.70021057 -219355585.78326499 0 -219355585.78326499 -309636156.33783698 0 0 0 0 -158168855.05468369 -397009785.65633881 0 -397009785.65633881 -126918695.6507659 0 0 0 0 -231483859.40509796 -183608561.05089355 0 -183608561.05089355 265844084.50724626 0 0 0 0 -35222333.994750977 -326710322.82736707 0 -326710322.82736707 -139769128.38494506 0 0 0 0 107139927.10240936 -387155275.1166355 0 -387155275.1166355 277963568.81855202 0 0 0 0 -27678106.521148682 -187371857.41711187 0 -187371857.41711187 12961535.363520384 0 0 0 0 54402765.817504883 12858704.172476768 0 12858704.172476768 513408781.21902239 0 0 0 0 -22323160.273271561 -216871483.05155587 0 -216871483.05155587 242173826.25873041 0 0 0 0 -283790203.28486633 -74519420.358605862 0 -74519420.358605862 526406520.76956654 0 0 0 0 -208944434.37100601 30103778.116539717 0 30103778.116539717 10755243.38346529 0 0 0 0 -79365728.680519104 243210060.31466484 0 243210060.31466484 324539981.05118847 0 0 0 0 82941539.845680237 -48841546.057309866 0 -48841546.057309866 517420852.79991198 0 0 0 0 1008482103.0191727 200968653.48902583 0 200968653.48902583 976596320.63410473 0 0 0 0 856892381.04605484 436515116.55657053 0 436515116.55657053 669162985.45246983 0 0 0 0 1698122413.9488373 926787685.21703911 0 926787685.21703911 554982031.74615836 0 0 0 0 241122123.49200821 -210033130.76505876 0 -210033130.76505876 756789668.90028381 0 0 0 0 848097349.94673157 98000727.427926064 0 98000727.427926064 515309654.86393273 0 0 0 0 1348819998.2571163 1215646056.2344677 0 1215646056.2344677 3061310673.9237843 0 0 0 0 1639643359.8632965 677689272.16283846 0 677689272.16283846 873009420.74068975 0 0 0 0 650718565.01857567 440140061.70497203 0 440140061.70497203 1510928835.0055933 0 0 0 0 2771206721.3864212 1899480380.4733562 0 1899480380.4733562 848320614.21358299 0 0 0 0 1397785623.8642731 905969181.84409523 0 905969181.84409523 1260603569.4557896 0 0 0 0 2881027925.4819107 649668042.64991236 0 649668042.64991236 729134916.57864952 0 0 0 0 3175634102.9446068 1620298125.7257001 0 1620298125.7257001 -391422491.68286705 0 0 0 0 284054.18930968642 903463.13196720369 0 903463.13196720369 2512169.7296571489 0 0 0 0 180152420.55297852 538582648.01698542 0 538582648.01698542 1165214514.2799759 0 0 0 0 2994330876.4510727 229586305.85707843 0 229586305.85707843 -200153951.53026962 0 0 0 0 1772677780.7377167 -61562605.107204437 0 -61562605.107204437 -269264370.99284267 0 0 0 0 1866514203.7037506 907416599.31662893 0 907416599.31662893 110154533.30703259 0 0 0 0 2505854646.8665886 1380549520.8977084 0 1380549520.8977084 444555165.71492004 0 0 0 0 1752499796.6249542 688256984.12422466 0 688256984.12422466 1220485696.3840199 0 0 0 0 1031343036.6408997 560703962.77986383 0 560703962.77986383 388649140.97022867 0 0 0 0 1861134778.7976532 982037473.4812696 0 982037473.4812696 -299082408.72171021 0 0 0 0 1734537919.3952026 1271668824.358387 0 1271668824.358387 277786311.58787835 0 0 0 0 1936229341.6082916 1262865103.5473409 0 1262865103.5473409 -153450813.63857365 0 0 0 0 1516605273.6271744 624778538.73420143 0 624778538.73420143 -73030413.248950481 0 0 0 0 653732103.3862114 244229474.89179993 0 244229474.89179993 35636274.051131725 0 0 0 0 373849248.74127197 85879078.378670692 0 85879078.378670692 -10514486.361069202 0 0 0 0 1345322197.9091644 805189017.36970258 0 805189017.36970258 -222831037.83456898 0 0 0 0 2017046335.7520142 1052020178.0764565 0 1052020178.0764565 -191083981.39756489 0 0 0 0 4640514.3061907813 3079108.6812071707 0 3079108.6812071707 2589454.2353846524 0 0 0 0 -436953904.72541809 719261097.3316772 0 719261097.3316772 -247003268.47966528 0 0 0 0 -166459449.0580368 -94839674.565758467 0 -94839674.565758467 -80322248.980669498 0 0 0 0 1025174225.6805801 594791221.48482323 0 594791221.48482323 239468460.92261386 0 0 0 0 1725287406.0271378 564814226.1170857 0 564814226.1170857 -862481259.47899079 0 0 0 0 2194276.2094755918 1707536.3972898815 0 1707536.3972898815 1277289.9090870742 0 0 0 0 404316686.13483429 -59630555.728144735 0 -59630555.728144735 -111469382.96508126 0 0 0 0 -495323004.1374054 840680960.62395585 0 840680960.62395585 1115792722.8960314 0 0 0 0 1077810452.4668121 1093379722.0578523 0 1093379722.0578523 880023540.04161072 0 0 0 0 381983325.66985321 849441735.19656479 0 849441735.19656479 930981600.86272657 0 0 0 0 790051274.30889893 258705783.25658327 0 258705783.25658327 133444883.45652771 0 0 0 0 451143896.38591003 362169753.04315186 0 362169753.04315186 115307000.84593773 0 0 0 0 44407300.595062256 119627810.57701182 0 119627810.57701182 225123283.70380044 0 0 0 0 1193437541.4713745 127488888.48855853 0 127488888.48855853 325468548.38256741 0 0 0 0 1126427015.4681091 952621219.50338161 0 952621219.50338161 783428633.41105509 0 0 0 0 671526902.23713684 266612045.39778066 0 266612045.39778066 764035815.9498924 0 0 0 0 1506343020.511734 798443916.04724658 0 798443916.04724658 380506541.67367816 0 0 0 0 605277097.80895996 291017390.99566674 0 291017390.99566674 408324567.62607825 0 0 0 0 526774140.95653915 -69558462.830365449 0 -69558462.830365449 80216204.492665291 0 0 0 0 228488756.38581848 96742323.819260597 0 96742323.819260597 358724138.03596616 0 0 0 0 326756662.81471252 56695941.945261717 0 56695941.945261717 102628157.41484165 0 0 0 0 37906883.69758606 38827178.644413948 0 38827178.644413948 -61801568.135985136 0 0 0 0 117827117.4178772 -110132263.30905199 0 -110132263.30905199 129202673.35397387 0 0 0 0 -123590710.80179024 -6422206.1896211207 0 -6422206.1896211207 -67166912.644984245 0 0 0 0 -566543884.4833374 132889639.9954114 0 132889639.9954114 -17094363.073617458 0 0 0 0 -176645480.06314087 40641647.284017563 0 40641647.284017563 -145731967.38022614 0 0 0 0 -588861965.5201416 -145479925.14192367 0 -145479925.14192367 -96801991.349973679 0 0 0 0 -155339358.79053497 -100918414.08784795 0 -100918414.08784795 -52803758.716197014 0 0 0 0 -228988825.65298462 147997270.86545372 0 147997270.86545372 15049284.121363163 0 0 0 0 -207138338.0825386 18564694.437540561 0 18564694.437540561 -280272479.48743439 0 0 0 0 199305401.58708191 209726357.95589375 0 209726357.95589375 -11363245.567496896 0 0 0 0 -420526300.77312469 -1648306.7660627365 0 -1648306.7660627365 255052962.5537982 0 0 0 0 -62766068.495346069 295603733.84999204 0 295603733.84999204 203893503.45426321 0 0 0 0 1837162.9900511419 2618348.4950254224 0 2618348.4950254224 4958559.8411591286 0 0 0 0 70593413.91633606 38396805.55848515 0 38396805.55848515 -45695195.469591141 0 0 0 0 -468625284.29854584 262863070.29427695 0 262863070.29427695 134615443.58745265 0 0 0 0 6704148.1783876084 2911144.8852610681 0 2911144.8852610681 1486902.0223561628 0 0 0 0 -1848426.4170761108 807899.39933013916 0 807899.39933013916 1564756.5366477966 0 0 0 0 6483098.105562523 -3673931.5567022357 0 -3673931.5567022357 2550138.8129076455 0 0 0 0 4139774.8104168028 -2063540.1888176054 0 -2063540.1888176054 2482045.9902039338 0 0 0 0 -2689652.2835846394 3436207.0070435181 0 3436207.0070435181 1345328.7697545546 0 0 0 0 6636518.8631888404 -5442213.6705580875 0 -5442213.6705580875 3290389.5750041814 0 0 0 0 4273076.5578613281 3588067.8380048275 0 3588067.8380048275 -6350996.5748939514 0 0 0 0 -1930199.4513912201 16252191.740127206 0 16252191.740127206 -18985018.697225094 0 0 0 0 691457.1011468973 1400048.4729644209 0 1400048.4729644209 -591449.67941710004 0 0 0 0 -860627853.11186218 50491691.029483557 0 50491691.029483557 75451496.546435356 0 0 0 0 15557287.990562439 -13206553.139017105 0 -13206553.139017105 -1632233.3922233582 0 0 0 0 13072045.357116699 -8349634.3625202179 0 -8349634.3625202179 1574113.4944000244 0 0 0 0 -2884483.3101425171 -14361979.63889122 0 -14361979.63889122 2216442.9980945587 0 0 0 0 6965970.7785186768 -13446065.116074562 0 -13446065.116074562 -1919348.4903869629 0 0 0 0 7122081.5267181396 -12948791.243204832 0 -12948791.243204832 -1430263.8248252869 0 0 0 0 1737072.8776855469 -10953332.023373127 0 -10953332.023373127 3824245.0388469696 0 0 0 0 3417220.9841003418 -15671160.881953239 0 -15671160.881953239 -1631812.3580875397 0 0 0 0 3860162.5444488525 -17279048.386370659 0 -17279048.386370659 -4545303.8539199829 0 0 0 0 7324787.2662200928 -12560343.91778183 0 -12560343.91778183 -1238641.444355011 0 0 0 0 7632602.258026123 -12891516.346218109 0 -12891516.346218109 -1743339.1845159531 0 0 0 0 8167336.6954956055 -13545039.074683189 0 -13545039.074683189 -4103843.3026924133 0 0 0 0 8257335.4007263184 -13537361.708192825 0 -13537361.708192825 -4860645.0495922565 0 0 0 0 12308472.017562866 -10762842.855308533 0 -10762842.855308533 -551875.41933393478 0 0 0 0 -2256859.1484069824 -7308154.9319095612 0 -7308154.9319095612 -6355226.771987915 0 0 0 0 13689803.506469727 -10444765.012619019 0 -10444765.012619019 -3652589.6833667755 0 0 0 0 13455320.181243896 -10075390.852805138 0 -10075390.852805138 -4216718.9014930725 0 0 0 0 11653260.066928402 -3243781.6380243376 0 -3243781.6380243376 1137741.2405913137 0 0 0 0 16153972.667709351 -8511097.2644672394 0 -8511097.2644672394 -3706512.0965156555 0 0 0 0 -1290344.0750656128 -8215753.8883471489 0 -8215753.8883471489 -8561333.8285903931 0 0 0 0 13766853.967832666 -7127196.601564683 0 -7127196.601564683 -30572.757642633514 0 0 0 0 7976225.0642547607 -28671999.077847481 0 -28671999.077847481 -14745853.025543094 0 0 0 0 6941831.1100704148 -14205243.073118528 0 -14205243.073118528 -187092.01088114874 0 0 0 0 30573190.395545959 29998802.125989914 0 29998802.125989914 14244504.832794666 0 0 0 0 9260044.9373474121 -17094186.659720421 0 -17094186.659720421 -3571471.2632923126 0 0 0 0 17203155.856155396 -13156447.881750107 0 -13156447.881750107 -5156167.6924037933 0 0 0 0 66590899.667907715 21512036.576057434 0 21512036.576057434 24371720.145217896 0 0 0 0 24436755.433935694 -2793582.5278979484 0 -2793582.5278979484 -4283508.6129945219 0 0 0 0 65009631.458587646 -8384943.9649190903 0 -8384943.9649190903 6045035.0093688965 0 0 0 0 5596355.1066838354 4760987.4055563789 0 4760987.4055563789 3179428.4598026257 0 0 0 0 19607997.440460205 -2608858.1919250488 0 -2608858.1919250488 -3520085.1840076447 0 0 0 0 -10509907.043655396 46765153.720911026 0 46765153.720911026 21937668.773263931 0 0 0 0 7946036.4031028748 1207355.645917654 0 1207355.645917654 1346441.0187187195 0 0 0 0 10018192.423576355 8147345.8340501785 0 8147345.8340501785 7449892.495306015 0 0 0 0 4455959.2958691008 437952.42944276147 0 437952.42944276147 -2228848.4849338178 0 0 0 0 4259459.5397186279 -3140915.968214035 0 -3140915.968214035 7909888.4234346747 0 0 0 0 8224507.6433334351 3450003.0071249008 0 3450003.0071249008 -8698594.4381828308 0 0 0 0 2855946.3252182007 2108381.9691505432 0 2108381.9691505432 1239309.9593678713 0 0 0 0 5805285.3059515152 224264.98247464933 0 224264.98247464933 2050609.2749805981 0 0 0 0 5189792.2733001709 2809125.1794319153 0 2809125.1794319153 472746.48836612701 0 0 0 0 28502857.515483856 -13079648.111317158 0 -13079648.111317158 7023520.6676692963 0 0 0 0 20562631.07283783 4314885.3590569496 0 4314885.3590569496 -453333.2898979187 0 0 0 0 1227655.6395874023 -19258.536380767822 0 -19258.536380767822 5889612.0408935547 0 0 0 0 30978.301574707031 2068986.026134491 0 2068986.026134491 -1123365.2607396841 0 0 0 0 1525475.1418740973 3198993.7372994982 0 3198993.7372994982 3211405.237533547 0 0 0 0 225765184.2687912 366234254.53966856 0 366234254.53966856 -266044961.33765221 0 0 0 0 227923.6926150322 2012197.5007496011 0 2012197.5007496011 6276425.4803876244 0 0 0 0 -302190285.54124451 375947782.70491552 0 375947782.70491552 -58924540.935208797 0 0 0 0 118618884.11421967 -38232224.709672689 0 -38232224.709672689 -119854455.48414707 0 0 0 0 5703487.4092873987 803427.92722762749 0 803427.92722762749 108089.53310434986 0 0 0 0 3863949.8455152661 2768308.7253485825 0 2768308.7253485825 3632428.6368662599 0 0 0 0 3775788.2038764954 1309261.7301902771 0 1309261.7301902771 5010977.9095506668 0 0 0 0 3930515.68221163 1981213.915773151 0 1981213.915773151 3316324.6893939637 0 0 0 0 2226911.6720275879 1354985.5064868927 0 1354985.5064868927 1361069.8798947334 0 0 0 0 3646251.3666992188 1583324.3521695137 0 1583324.3521695137 1242491.3927259445 0 0 0 0 57492995.584444046 -43914896.695810795 0 -43914896.695810795 3746446.861120224 0 0 0 0 104953797.78334045 -136137648.1899991 0 -136137648.1899991 -309567063.24585724 0 0 0 0 58863588.377250671 -165934677.0994091 0 -165934677.0994091 203620516.93946075 0 0 0 0 14010186.168907166 -62975986.503299236 0 -62975986.503299236 6511014.5527858734 0 0 0 0 -13448490.183685303 -106619895.76952267 0 -106619895.76952267 -3264901.6280748844 0 0 0 0 134196.52311706543 -93969828.973176956 0 -93969828.973176956 -121697675.25062561 0 0 0 0 -41663954.97833252 -64555014.172438622 0 -64555014.172438622 -27573088.924585342 0 0 0 0 -15325567.781570435 -83846566.462609291 0 -83846566.462609291 -32969495.662142754 0 0 0 0 -19182616.598320007 -103061414.5541153 0 -103061414.5541153 29792570.571052551 0 0 0 0 15393558.513513036 -16320820.442339942 0 -16320820.442339942 1670615.0820493363 0 0 0 0 -64440458.704284668 -78987812.134450912 0 -78987812.134450912 1912469.3061600924 0 0 0 0 -63822079.488342285 -40836242.238769412 0 -40836242.238769412 -2536385.3299407959 0 0 0 0 -4617007.9032096863 -23239229.358482957 0 -23239229.358482957 -4948029.5599899292 0 0 0 0 19274205.829973347 -14062293.159125507 0 -14062293.159125507 -2921413.626970375 0 0 0 0 3334907.5605010986 -15215997.653083801 0 -15215997.653083801 -4148190.8005536795 0 0 0 0 -3018840.0053787231 -22422907.924990177 0 -22422907.924990177 -5457372.1767272949 0 0 0 0 871035.53380584717 -17372527.776708364 0 -17372527.776708364 5798551.6788272858 0 0 0 0 9949158.8119222522 -15836119.204038613 0 -15836119.204038613 -1283521.4007321738 0 0 0 0 26544799.051239014 -2632988.760723114 0 -2632988.760723114 -13452838.939539433 0 0 0 0 -23101180.07257843 -53987307.543983936 0 -53987307.543983936 8839022.5031404495 0 0 0 0 28940117.779139817 -13106665.557627838 0 -13106665.557627838 -4915648.4157300852 0 0 0 0 1159354.1237605512 -15015905.612995932 0 -15015905.612995932 -2004220.2443273461 0 0 0 0 97565.910365536809 -2588654.0584243583 0 -2588654.0584243583 -368213.63869579381 0 0 0 0 127225.46681213379 -28245368.2398175 0 -28245368.2398175 -9260122.1487021446 0 0 0 0 14246248.69883728 -73407167.602671862 0 -73407167.602671862 -19874069.61039713 0 0 0 0 139230149.15354919 -94927204.07075429 0 -94927204.07075429 -31661733.681643367 0 0 0 0 76802259.182540894 -79284629.828192115 0 -79284629.828192115 -30433603.865009308 0 0 0 0 12608298.872333527 -122333954.4384023 0 -122333954.4384023 -28294002.974373817 0 0 0 0 28259590.887680054 -79068446.64815855 0 -79068446.64815855 74614683.087909698 0 0 0 0 80414315.333656311 -47621184.985735357 0 -47621184.985735357 -38965769.520701885 0 0 0 0 33881082.589508057 -67764815.875102997 0 -67764815.875102997 -46827602.54656601 0 0 0 0 91476092.181549072 -63345796.560430527 0 -63345796.560430527 -74242279.190233231 0 0 0 0 97247824.859458923 -38070749.368062496 0 -38070749.368062496 -63049929.82170105 0 0 0 0 171631732.67982483 53827443.02766037 0 53827443.02766037 -12254246.702610016 0 0 0 0 7983362.5532247014 1687037.4975487851 0 1687037.4975487851 349966.17659581266 0 0 0 0 99326348.783479691 -49157530.484470204 0 -49157530.484470204 -52408024.871804714 0 0 0 0 99601018.92489624 -51401201.121601105 0 -51401201.121601105 -64536870.407526016 0 0 0 0 107340386.56718063 -60750449.053946197 0 -60750449.053946197 -54330683.584776878 0 0 0 0 47964866.192504883 -44485038.241090834 0 -44485038.241090834 -35436070.786515474 0 0 0 0 86657765.947143555 -60737761.93806982 0 -60737761.93806982 -52246637.241699219 0 0 0 0 93586604.321426392 -51111366.908379853 0 -51111366.908379853 -51653578.531772137 0 0 0 0 124760358.78393555 -82736864.019593954 0 -82736864.019593954 -50267503.075368881 0 0 0 0 17704716.590377808 6846371.1621294022 0 6846371.1621294022 -15384895.197465897 0 0 0 0 34054159.535111278 -11023116.687154725 0 -11023116.687154725 -7245861.2908874787 0 0 0 0 18999738.105279215 -12032419.892504292 0 -12032419.892504292 -1410017.9251905507 0 0 0 0 45599104.716175064 -7934195.5026937202 0 -7934195.5026937202 -10578756.695918262 0 0 0 0 13819362.173492432 -25347171.302955627 0 -25347171.302955627 -19445848.117946625 0 0 0 0 97282253.776100159 -261087789.73289967 0 -261087789.73289967 -92711960.66491127 0 0 0 0 499809691.7257843 229815003.94606352 0 229815003.94606352 69493623.375589609 0 0 0 0 -225916699.96699142 -19014989.435307503 0 -19014989.435307503 -124742219.92389703 0 0 0 0 218226221.2546196 272320562.80025291 0 272320562.80025291 -77279933.70557785 0 0 0 0 -177578885.68215561 56264584.693844795 0 56264584.693844795 162024390.19163275 0 0 0 0 13866495.334243774 -33587923.794772148 0 -33587923.794772148 -17321705.776523471 0 0 0 0 250064760.24334717 -111362636.06929398 0 -111362636.06929398 -159344847.84326363 0 0 0 0 24098731.448050402 -7189056.4593973598 0 -7189056.4593973598 -4659945.5260971431 0 0 0 0 698133.65841895342 1845839.6167264404 0 1845839.6167264404 4025.3534167013131 0 0 0 0 56836.194610595703 113330416.58376026 0 113330416.58376026 8286746.3382934183 0 0 0 0 16402364.231143951 16524704.29398632 0 16524704.29398632 93175373.89906311 0 0 0 0 68841079.63494873 3188340.936000824 0 3188340.936000824 -8955148.3526992798 0 0 0 0 2740535.4478202388 4978704.3441641489 0 4978704.3441641489 -343712.79153708741 0 0 0 0 -64461702.25818944 -16765430.292085588 0 -16765430.292085588 -112362484.87930298 0 0 0 0 -88874770.895858765 -305584580.06680298 0 -305584580.06680298 -253734796.75244045 0 0 0 0 7724787.7618632112 1346289.4689534958 0 1346289.4689534958 -2856981.9629211966 0 0 0 0 297655552.03546906 73247543.018471718 0 73247543.018471718 14902921.106300354 0 0 0 0 556193163.77311707 109083104.82821506 0 109083104.82821506 63697842.176301897 0 0 0 0 93532908.157202721 135728981.30567992 0 135728981.30567992 173784658.76290798 0 0 0 0 205895872.54905701 -172827172.93828857 0 -172827172.93828857 -117717903.88265419 0 0 0 0 260319665.69096279 178307787.25531971 0 178307787.25531971 463051664.22507513 0 0 0 0 886794905.36224747 587605663.42452502 0 587605663.42452502 317019402.19548362 0 0 0 0 290758312.72362328 263717950.96834266 0 263717950.96834266 237345884.79002345 0 0 0 0 340828088.93521547 -34283553.025656015 0 -34283553.025656015 -48888544.856007099 0 0 0 0 107539465.61683464 -237472468.81520891 0 -237472468.81520891 -167806554.32936573 0 0 0 0 -75592127.985782623 -97097400.962423325 0 -97097400.962423325 98859108.096105099 0 0 0 0 -217347128.95386398 -437832755.17799556 0 -437832755.17799556 -106545392.22246742 0 0 0 0 2944206.2637446355 328200.3585026674 0 328200.3585026674 -1389913.5746468417 0 0 0 0 91363223.481204987 -28927498.303709984 0 -28927498.303709984 -155498875.84778404 0 0 0 0 284408959.00686836 -218441345.94389176 0 -218441345.94389176 -10249489.614097595 0 0 0 0 -246700377.37147141 -21718629.959971905 0 -21718629.959971905 41073340.325221062 0 0 0 0 -28954306.599168777 5417297.1348040104 0 5417297.1348040104 -18757333.802749634 0 0 0 0 8498831.4585266113 -73187548.608224154 0 -73187548.608224154 98184686.594029427 0 0 0 0 91989839.910015106 -7317625.0498204231 0 -7317625.0498204231 35051212.632804155 0 0 0 0 178174516.28126144 -99684111.080658674 0 -99684111.080658674 87592500.620052338 0 0 0 0 53231805.542221069 -16705656.246493578 0 -16705656.246493578 194091319.10898972 0 0 0 0 1403509.3544232901 68906.991889762692 0 68906.991889762692 -906440.10096897685 0 0 0 0 123757702.51065063 139986418.79913783 0 139986418.79913783 85890088.37411046 0 0 0 0 -49652386.092010498 51170126.58620289 0 51170126.58620289 49717570.160450101 0 0 0 0 109003752.89036179 30346867.991049528 0 30346867.991049528 -11421781.857294321 0 0 0 0 -27867814.61633873 -31213161.012294054 0 -31213161.012294054 23675739.594141006 0 0 0 0 27455901.482040405 49748142.570878744 0 49748142.570878744 38466365.289484024 0 0 0 0 -75832035.943710327 -2724186.1009213924 0 -2724186.1009213924 34072338.224172235 0 0 0 0 -186851176.1422348 -82749803.318945169 0 -82749803.318945169 971634.06921887398 0 0 0 0 -97422245.494434357 51643386.282479286 0 51643386.282479286 31110561.023554564 0 0 0 0 -37452828.144920349 -1151256.7010656595 0 -1151256.7010656595 -76687614.468735695 0 0 0 0 -134650552.4872303 -87437507.952975631 0 -87437507.952975631 -34380833.696297169 0 0 0 0 1214452.5188423488 -1501227.9111900735 0 -1501227.9111900735 -632709.90712388069 0 0 0 0 15852909.858646393 2280176.8689334393 0 2280176.8689334393 -1240200.4146289825 0 0 0 0 28125907.962859962 -5210744.2221041396 0 -5210744.2221041396 1586448.8319907775 0 0 0 0 20967726.599156018 3420352.2617532243 0 3420352.2617532243 -1220071.2260838503 0 0 0 0 22896722.538981952 5709987.287378313 0 5709987.287378313 -1903373.9546321747 0 0 0 0 -193225641.90305138 -49968221.013838291 0 -49968221.013838291 35700982.119865417 0 0 0 0 -259394090.73921776 -2185678.7142989635 0 -2185678.7142989635 2019945.3915643692 0 0 0 0 9339425.7308855057 -4752191.6470180899 0 -4752191.6470180899 -7419685.5276243091 0 0 0 0 -164552363.89224625 -68369082.128663063 0 -68369082.128663063 61052497.788228512 0 0 0 0 -167370153.27517509 -44578798.303940773 0 -44578798.303940773 -35860245.722484589 0 0 0 0 12102437.713012695 -420549.22936820984 0 -420549.22936820984 -3113806.6752090454 0 0 0 0 -280325872.27515221 -159167260.62138319 0 -159167260.62138319 -2554818.3712825775 0 0 0 0 30128570.039122757 -6014219.3965929393 0 -6014219.3965929393 -984350.88394469582 0 0 0 0 37685480.361783549 -8487121.9627571944 0 -8487121.9627571944 -9778097.4017944727 0 0 0 0 66955642.511947632 -37309142.917612076 0 -37309142.917612076 -24379047.172632217 0 0 0 0 32173402.144153755 2528218.3595888149 0 2528218.3595888149 -1961687.3539776718 0 0 0 0 142215296.63537216 699483221.5226531 0 699483221.5226531 834216282.83533859 0 0 0 0 15963078.065582275 671794673.92311954 0 671794673.92311954 1078105820.4476471 0 0 0 0 563149934.1111145 1769335012.1780932 0 1769335012.1780932 2695925495.9083271 0 0 0 0 2988855490.337326 567017636.32467699 0 567017636.32467699 880392385.14550018 0 0 0 0 -246614277.45441437 -126665024.4699831 0 -126665024.4699831 1220599898.6397543 0 0 0 0 -78800.149715727195 285554.54795998707 0 285554.54795998707 4031487.1474369271 0 0 0 0 3269977849.7727318 599091755.15487909 0 599091755.15487909 114674938.18370628 0 0 0 0 -254577.67097632214 626839.13639204949 0 626839.13639204949 250931.72053316073 0 0 0 0 5523071.0895745046 6413266.209723318 0 6413266.209723318 -384446.59233340551 0 0 0 0 4943203.2070541382 8359.4959087371826 0 8359.4959087371826 -3225305.6481227875 0 0 0 0 344582663.10855865 -53323414.33923912 0 -53323414.33923912 -367949830.59976006 0 0 0 0 243266733.43780899 219999855.47088671 0 219999855.47088671 -187187061.79253149 0 0 0 0 9475313.1122743711 5380067.2905237582 0 5380067.2905237582 -1505217.5015285793 0 0 0 0 9466781.319152832 -6504588.0466175079 0 -6504588.0466175079 -16241771.163459778 0 0 0 0 12398378.994413152 4728867.9524104148 0 4728867.9524104148 -2504978.4852835964 0 0 0 0 63771815.591018677 5497470.8799571991 0 5497470.8799571991 -9867200.6381664276 0 0 0 0 187381069.67503357 -105821016.06685829 0 -105821016.06685829 -404679150.84343719 0 0 0 0 16868585.784378052 16313023.757141113 0 16313023.757141113 -9465383.5041503906 0 0 0 0 9547840.2707672119 17616550.511648178 0 17616550.511648178 -9031781.524023056 0 0 0 0 1588274.9331668355 90963.733004251495 0 90963.733004251495 -923218.0009071622 0 0 0 0 -6027414.6167449951 2211165.1822013855 0 2211165.1822013855 -4083877.5471124649 0 0 0 0 -12774973.982337952 -105019433.97071934 0 -105019433.97071934 7187356.5489940643 0 0 0 0 255494753.62704849 271795264.2414546 0 271795264.2414546 147136181.26974034 0 0 0 0 226273347.82082748 -79913553.054990768 0 -79913553.054990768 -126896261.95527935 0 0 0 0 -18783025.973683357 190791206.95419782 0 190791206.95419782 266655091.46884918 0 0 0 0 623484604.25376129 864452912.55484748 0 864452912.55484748 615843524.23470724 0 0 0 0 458917307.81999588 529689890.34851015 0 529689890.34851015 490556990.2880106 0 0 0 0 444820792.88598251 175632220.56717485 0 175632220.56717485 184772722.60669804 0 0 0 0 1067988579.9109917 214858414.53978443 0 214858414.53978443 632487735.08323061 0 0 0 0 1516423017.5174675 1311822694.9318798 0 1311822694.9318798 480150769.99161172 0 0 0 0 412226467.46179581 1512494832.5863798 0 1512494832.5863798 1010011602.0394156 0 0 0 0 553611642.53304672 1402472174.6927633 0 1402472174.6927633 1101222583.7185583 0 0 0 0 415074246.32288742 1063576079.0630164 0 1063576079.0630164 426530161.92260063 0 0 0 0 1174060756.0113792 1205958728.2012331 0 1205958728.2012331 457678046.30378032 0 0 0 0 806043577.8068161 1045191919.2603273 0 1045191919.2603273 786359443.88786483 0 0 0 0 737769756.6963501 272375840.5370779 0 272375840.5370779 -820277359.82060719 0 0 0 0 -223352189.1764183 540863518.83224869 0 540863518.83224869 406116017.03288001 0 0 0 0 6452889.5824909694 2555893.3228920745 0 2555893.3228920745 976542.80905550765 0 0 0 0 -120280089.28722954 -2892645.6212747097 0 -2892645.6212747097 19669729.440784454 0 0 0 0 101029330.81151581 685484618.50533295 0 685484618.50533295 -994420652.91335988 0 0 0 0 -58239986.620792389 -111483145.7580533 0 -111483145.7580533 -121140956.9137578 0 0 0 0 14970871.682524348 -41360.013497076812 0 -41360.013497076812 -1411046.8307771129 0 0 0 0 -39733675.058746338 242828697.42722225 0 242828697.42722225 -674006509.21275187 0 0 0 0 640569240.9737854 217844882.96917415 0 217844882.96917415 -132066035.53982401 0 0 0 0 -132548241.87718201 -168194594.70811176 0 -168194594.70811176 176100156.96875858 0 0 0 0 -100500149.04517555 58911667.224295855 0 58911667.224295855 203099621.04826355 0 0 0 0 810019524.11465836 -143832991.36260056 0 -143832991.36260056 4895333.9528777599 0 0 0 0 2090826.864771679 2080271.3710313565 0 2080271.3710313565 1022000.0213631487 0 0 0 0 1805790714.4221344 949393847.3835634 0 949393847.3835634 235104060.06481314 0 0 0 0 969701914.40811157 1194636025.9518919 0 1194636025.9518919 1169432575.4817777 0 0 0 0 742962068.05141449 765056863.27051485 0 765056863.27051485 356575129.93225479 0 0 0 0 1434541706.0930481 1128528135.0565891 0 1128528135.0565891 494857071.85682964 0 0 0 0 806186841.58253479 1135120572.870625 0 1135120572.870625 953747318.206285 0 0 0 0 430620323.33732224 259919354.97962189 0 259919354.97962189 128069128.7827034 0 0 0 0 10992289.433163051 83016.279770613997 0 83016.279770613997 -1027153.6757026305 0 0 0 0 363961858.47794724 -83266484.298123837 0 -83266484.298123837 -1175782518.5685635 0 0 0 0 4368278.9746914636 250439.84422686801 0 250439.84422686801 -378541.42912085704 0 0 0 0 -32388290.102043152 -640279292.96666825 0 -640279292.96666825 -532252259.44710732 0 0 0 0 1414675348.0351238 1676699032.6904964 0 1676699032.6904964 1395181452.5534382 0 0 0 0 785291812.39644051 -589908223.38747621 0 -589908223.38747621 -619425855.33202004 0 0 0 0 347138116.98378372 -215335170.66613102 0 -215335170.66613102 -690102388.43988991 0 0 0 0 80327599.669967651 52531597.934310734 0 52531597.934310734 -511883309.85909772 0 0 0 0 -72393410.750307083 -132140190.49903834 0 -132140190.49903834 -701713999.01608181 0 0 0 0 143937875.49322486 47229966.770727873 0 47229966.770727873 -930149702.71111059 0 0 0 0 82779199.851196289 -110200911.31845522 0 -110200911.31845522 -716782630.57949972 0 0 0 0 2309191.2661233926 1394076.5198754692 0 1394076.5198754692 -1031889.2468804428 0 0 0 0 10008930.27996859 -9824058.8427077271 0 -9824058.8427077271 -38692264.285927773 0 0 0 0 -95325941.86267662 -19856993.874188662 0 -19856993.874188662 58984632.583691597 0 0 0 0 11625378.939506322 76873743.40913488 0 76873743.40913488 69193587.638667107 0 0 0 0 18062135.61418689 456031.31099844235 0 456031.31099844235 2750876.3974620411 0 0 0 0 -33048879.901453018 -3575044.1814681292 0 -3575044.1814681292 52957762.471747875 0 0 0 0 -78241528.636758804 -168770038.07487035 0 -168770038.07487035 -74595205.265472889 0 0 0 0 -100434333.94251823 80402449.418420792 0 80402449.418420792 564901574.74784231 0 0 0 0 1545317771.4744282 7044927.8400950432 0 7044927.8400950432 443753870.67837882 0 0 0 0 428005663.9023428 87793116.328499436 0 87793116.328499436 590705719.58264065 0 0 0 0 -24623366.602817535 -375670334.38136268 0 -375670334.38136268 -27531925.904191494 0 0 0 0 360449940.85079002 291653097.6202442 0 291653097.6202442 -23994933.842816353 0 0 0 0 1123132661.5304108 554047797.96297264 0 554047797.96297264 162438799.7021482 0 0 0 0 491644873.44845009 165892071.57730067 0 165892071.57730067 96150590.25206542 0 0 0 0 2294090166.5055828 1013522318.8308353 0 1013522318.8308353 434476876.30783379 0 0 0 0 1011817019.2000599 570784969.66222143 0 570784969.66222143 334467482.53011322 0 0 0 0 1125944534.7798357 1057848317.5054277 0 1057848317.5054277 544331781.1110878 0 0 0 0 1620206112.4381337 101073609.72510374 0 101073609.72510374 -371368307.02511168 0 0 0 0 606934752.12381363 517859119.35877252 0 517859119.35877252 -6720364.1545500755 0 0 0 0 573862055.9185276 831333027.93010259 0 831333027.93010259 151488888.67259622 0 0 0 0 479849670.17572784 364381177.88333035 0 364381177.88333035 1141679608.1713948 0 0 0 0 527510656.7707777 380227285.73205942 0 380227285.73205942 180598119.3493185 0 0 0 0 268934468.03469849 476163095.93423605 0 476163095.93423605 452991447.90602303 0 0 0 0 240758234.37447309 321612226.19640911 0 321612226.19640911 89140087.251358986 0 0 0 0 699960128.89460182 494883328.42211485 0 494883328.42211485 -57158648.40325737 0 0 0 0 240218219.1184845 351801349.7415719 0 351801349.7415719 132677156.92480898 0 0 0 0 300492483.59881592 142572782.1638605 0 142572782.1638605 -3238977.995059967 0 0 0 0 122187663.88676453 106986056.39816236 0 106986056.39816236 42690740.336440086 0 0 0 0 -111596933.02074862 -41697489.221095085 0 -41697489.221095085 88200034.757119179 0 0 0 0 -15486308.237895966 281014872.21284485 0 281014872.21284485 394137273.77898788 0 0 0 0 1557125.5546942344 4589285.1117801946 0 4589285.1117801946 883459.04185945401 0 0 0 0 3120962.7043374325 1555826.6561961486 0 1555826.6561961486 -1497368.2209871076 0 0 0 0 4901620.1278989231 8257363.5636017937 0 8257363.5636017937 15097392.74837207 0 0 0 0 12783152.866670609 34327777.804765701 0 34327777.804765701 88180835.441268921 0 0 0 0 25854457.567996025 -1417432.1426115036 0 -1417432.1426115036 -2188118.2030029297 0 0 0 0 784571668.94925106 -7633030.2784742117 0 -7633030.2784742117 180707757.02336788 0 0 0 0 58573302.48587513 -104932252.74256325 0 -104932252.74256325 -356807800.54924011 0 0 0 0 1353748.878096425 -2736048.9550159546 0 -2736048.9550159546 -4545340.2143697944 0 0 0 0 2218106049.3088322 -142859361.04640865 0 -142859361.04640865 -348005932.12149882 0 0 0 0 2052957207.2487869 160890816.87746906 0 160890816.87746906 -407572207.70046043 0 0 0 0 873791573.39450455 -1089935940.9395952 0 -1089935940.9395952 1540991284.0749583 0 0 0 0 1059511410.3582978 -85428866.424130201 0 -85428866.424130201 -210229360.50263786 0 0 0 0 3887043.3474042872 60233.997451882111 0 60233.997451882111 -10148651.757762922 0 0 0 0 649766347.38789511 -29001204.600042313 0 -29001204.600042313 -211195145.17350292 0 0 0 0 608715708.25395489 370339614.51312828 0 370339614.51312828 -225779366.12680531 0 0 0 0 1009817369.726578 342648683.04852092 0 342648683.04852092 -240046956.53326416 0 0 0 0 1246966869.8498917 304620002.19252968 0 304620002.19252968 -311647392.50801182 0 0 0 0 963746028.08883858 849895369.27402973 0 849895369.27402973 -312751093.02684021 0 0 0 0 645234356.52923012 653391952.39859033 0 653391952.39859033 -167073908.98881292 0 0 0 0 597909255.55158329 696533160.8049829 0 696533160.8049829 -173169519.29554749 0 0 0 0 3535978.3410106981 130894.51483638934 0 130894.51483638934 -441655.63407588471 0 0 0 0 1977249496.7869835 -597301236.87762928 0 -597301236.87762928 -1124098073.5097432 0 0 0 0 844446725.72739983 915733653.86754942 0 915733653.86754942 -401546528.18657827 0 0 0 0 1629345406.518322 670360123.19284439 0 670360123.19284439 -387138947.45069313 0 0 0 0 122008432.39518547 869467894.35007024 0 869467894.35007024 -73291765.110085011 0 0 0 0 -57879841.392537832 -8653134.7457584739 0 -8653134.7457584739 -566454845.79243994 0 0 0 0 551897682.74519873 -312242152.16061795 0 -312242152.16061795 -515735357.54185963 0 0 0 0 852351965.40237617 609433964.28115463 0 609433964.28115463 -215459977.75008821 0 0 0 0 505549966.87125874 3099955.8081444502 0 3099955.8081444502 -1208768277.8324695 0 0 0 0 6195488.4239942767 672377.8977194262 0 672377.8977194262 -695659.97956634499 0 0 0 0 419616771.01385927 761874160.31022537 0 761874160.31022537 -1174432785.1893451 0 0 0 0 94673212.597641468 156009329.3163839 0 156009329.3163839 -354009314.27197182 0 0 0 0 -67970194.01034832 665355134.86121786 0 665355134.86121786 566205496.40422201 0 0 0 0 471323544.88734055 203732013.54425168 0 203732013.54425168 657924968.13354445 0 0 0 0 876307385.97221375 -171441315.78385097 0 -171441315.78385097 191616238.04685366 0 0 0 0 1379198446.9468889 -165173632.3969332 0 -165173632.3969332 891778846.17666042 0 0 0 0 1616644498.1059914 311804360.4363094 0 311804360.4363094 496146889.52847522 0 0 0 0 -472016055.61387014 329158799.24656534 0 329158799.24656534 57287786.599173665 0 0 0 0 1159542478.6571245 -891305229.20240474 0 -891305229.20240474 -721864214.85225153 0 0 0 0 1928076183.8230629 -328832742.87495571 0 -328832742.87495571 138494053.65715247 0 0 0 0 2094944224.3054075 -290519296.83449787 0 -290519296.83449787 -336932591.42824125 0 0 0 0 1996546236.632616 -976860693.71739578 0 -976860693.71739578 282235118.61870807 0 0 0 0 1007627.8569282135 1246321.1013495661 0 1246321.1013495661 4077024.4588068961 0 0 0 0 3533894071.432869 -646531198.34558702 0 -646531198.34558702 375238769.29526591 0 0 0 0 2027875907.4411049 -720335019.64437795 0 -720335019.64437795 -201045715.39926881 0 0 0 0 1858619494.4160995 -1046799064.4071026 0 -1046799064.4071026 704718787.58428288 0 0 0 0 1878367744.1773815 -647190218.98304403 0 -647190218.98304403 665909455.56415105 0 0 0 0 346095623.73174179 -440088897.93955135 0 -440088897.93955135 600570833.91048622 0 0 0 0 233373478.13111162 -566112225.21614647 0 -566112225.21614647 -358228052.64940631 0 0 0 0 14954.163820332964 -1296892.0907538219 0 -1296892.0907538219 1189278.1324655907 0 0 0 0 247439469.15751743 -425219855.01239276 0 -425219855.01239276 938109898.33444881 0 0 0 0 121325700.48673058 -210664105.74305344 0 -210664105.74305344 376087238.2159729 0 0 0 0 179666493.65567303 -374591158.78175068 0 -374591158.78175068 643837268.84628677 0 0 0 0 241228553.70690536 -309600060.19542408 0 -309600060.19542408 493048622.78629684 0 0 0 0 322067163.33369064 -398597025.3065033 0 -398597025.3065033 385268240.69067001 0 0 0 0 314914820.90975189 -280662548.59223366 0 -280662548.59223366 97909523.607097626 0 0 0 0 395788444.2504425 -365554723.37955666 0 -365554723.37955666 51980222.944114685 0 0 0 0 356785385.48027992 -425739643.97722912 0 -425739643.97722912 180552682.91131592 0 0 0 0 3378308.5577368448 -2144900.7155151404 0 -2144900.7155151404 -2619459.4304796495 0 0 0 0 -163402256.29872227 212675001.97564507 0 212675001.97564507 198526517.33907318 0 0 0 0 8062440.2168475389 8396316.5997405052 0 8396316.5997405052 -7574736.6407661438 0 0 0 0 1948621986.5010643 -430925576.68955493 0 -430925576.68955493 -653179109.38400197 0 0 0 0 3209228.2568152379 4935962.2471580859 0 4935962.2471580859 10749961.702239007 0 0 0 0 336732568.05557728 456612417.06669044 0 456612417.06669044 -23837673.493674278 0 0 0 0 1105011241.4306488 166539205.61587381 0 166539205.61587381 -289884973.9612869 0 0 0 0 307667477.07652092 286866576.14784521 0 286866576.14784521 577914605.99823189 0 0 0 0 258466385.73388529 93120906.519802809 0 93120906.519802809 -44691589.244596958 0 0 0 0 30817586.756365776 150433357.12533045 0 150433357.12533045 -44659739.630593061 0 0 0 0 456006339.25904465 34364626.196998 0 34364626.196998 -513268315.49489415 0 0 0 0 293462180.19717455 -139534443.37101376 0 -139534443.37101376 -368412123.97045231 0 0 0 0 418628589.20531082 -91973959.983202219 0 -91973959.983202219 -570887679.15238905 0 0 0 0 299595607.20892859 -505055663.13979161 0 -505055663.13979161 -341644169.79081917 0 0 0 0 259634389.15544605 -493005731.76436532 0 -493005731.76436532 -310412925.25618577 0 0 0 0 109317703.41487503 -90223347.027459264 0 -90223347.027459264 -625093440.36233604 0 0 0 0 728992433.62206745 -615365122.54940057 0 -615365122.54940057 -434902159.23204005 0 0 0 0 2693851.1884499015 374146.35339827556 0 374146.35339827556 -245636.21384607279 0 0 0 0 254473301.91301489 766050316.4557128 0 766050316.4557128 376293899.00794399 0 0 0 0 -151288186.60353708 425743074.17661482 0 425743074.17661482 469118216.57827878 0 0 0 0 -9077278.3039360046 483247426.04986644 0 483247426.04986644 490226910.95796919 0 0 0 0 923284667.93776798 123252784.41757947 0 123252784.41757947 181914928.96339983 0 0 0 0 451764336.52836704 -293486835.26481301 0 -293486835.26481301 461162002.39806604 0 0 0 0 308399978.60121393 -63072710.924083233 0 -63072710.924083233 96514948.406146526 0 0 0 0 157251872.71891594 168397921.41264212 0 168397921.41264212 -89150209.629445404 0 0 0 0 519488941.08683395 -60605230.671095848 0 -60605230.671095848 -61947476.102064252 0 0 0 0 124533193.42488766 201820395.6667161 0 201820395.6667161 58136429.417864799 0 0 0 0 312163985.27670383 -39014892.712387145 0 -39014892.712387145 166523785.15401316 0 0 0 0 91599182.125544548 184477577.01117551 0 184477577.01117551 -35145049.636157513 0 0 0 0 73583499.986213684 239106158.67825449 0 239106158.67825449 164704152.06454557 0 0 0 0 39342233.385721207 280365814.97272563 0 280365814.97272563 34294159.049674034 0 0 0 0 38832977.727157593 274709704.50031489 0 274709704.50031489 -350836136.95474863 0 0 0 0 -60487964.76363945 220660646.24554133 0 220660646.24554133 -39269939.62154597 0 0 0 0 84226161.104420185 214643016.04119891 0 214643016.04119891 -354436630.73684597 0 0 0 0 400193987.61418724 451323586.86131537 0 451323586.86131537 -29851276.340582609 0 0 0 0 116746329.28038979 212278706.32182765 0 212278706.32182765 53425329.511067867 0 0 0 0 214956127.5361824 200619493.80140519 0 200619493.80140519 90060070.27924867 0 0 0 0 118471368.65803146 239895246.00543511 0 239895246.00543511 -258855590.34282923 0 0 0 0 11847812.991966248 233213627.77220774 0 233213627.77220774 -39975303.090746045 0 0 0 0 117456716.91986084 299332033.95997965 0 299332033.95997965 -40450883.613484576 0 0 0 0 122707760.47207642 281856449.23627591 0 281856449.23627591 14448690.239319563 0 0 0 0 303596921.70735359 303331726.56054103 0 303331726.56054103 -38394742.320906639 0 0 0 0 374194516.4101553 107299336.63592768 0 107299336.63592768 -172567487.77720118 0 0 0 0 211167961.99455595 301889726.21138114 0 301889726.21138114 -7668030.2910788059 0 0 0 0 128369281.11298752 217023037.34251034 0 217023037.34251034 -93498310.017892599 0 0 0 0 -48383179.080348969 259289429.99200988 0 259289429.99200988 -97339805.439757466 0 0 0 0 55947431.052469254 -40995908.587516308 0 -40995908.587516308 -251768748.76067233 0 0 0 0 1018921729.4080296 -453026167.52446914 0 -453026167.52446914 -282141076.1859889 0 0 0 0 1044742419.9420733 -419617766.18531775 0 -419617766.18531775 -525519312.4339776 0 0 0 0 780235318.85225487 -313643388.97379422 0 -313643388.97379422 -361587006.62098515 0 0 0 0 1259132030.9374876 -314162616.5729484 0 -314162616.5729484 -744816842.79785156 0 0 0 0 1175682563.2810078 -85985680.388570249 0 -85985680.388570249 -500836176.45517349 0 0 0 0 400578166.93354797 136647053.83048058 0 136647053.83048058 -172995350.86427402 0 0 0 0 419915478.63848495 113987377.85706663 0 113987377.85706663 -185799206.75696421 0 0 0 0 444935263.33177948 141989956.73247808 0 141989956.73247808 -187775742.73045254 0 0 0 0 4472897235.9726601 595213718.65478241 0 595213718.65478241 120966226.31131661 0 0 0 0 1444469451.5296421 28259588.706044197 0 28259588.706044197 -208234679.47723746 0 0 0 0 432009556.49440193 -338232948.14216197 0 -338232948.14216197 -316641047.00055194 0 0 0 0 1195879795.3503914 -551539751.26819086 0 -551539751.26819086 -414702663.14889449 0 0 0 0 1262879020.3433495 -445864567.7645216 0 -445864567.7645216 -551086061.87588525 0 0 0 0 1191970045.8961678 -444363344.52166283 0 -444363344.52166283 -759047116.56824207 0 0 0 0 1253090278.49751 -612901571.47927392 0 -612901571.47927392 -895806841.36382532 0 0 0 0 6013300103.5226669 682459781.49883223 0 682459781.49883223 73875064.181585759 0 0 0 0 -413336722.48208141 -1290689238.8691683 0 -1290689238.8691683 -339419832.57916522 0 0 0 0 4727116669.1138344 -1590579886.5920546 0 -1590579886.5920546 -326792520.20297116 0 0 0 0 2138363.4105421081 -1195287.980132611 0 -1195287.980132611 -368191.76541829522 0 0 0 0 1191297973.510891 -1713437578.346895 0 -1713437578.346895 -1218499827.252497 0 0 0 0 3551350890.4656982 -1085273910.4493704 0 -1085273910.4493704 -1074903228.6080813 0 0 0 0 4064846119.142355 -869316389.42619395 0 -869316389.42619395 -1089154621.4335577 0 0 0 0 3273384376.7802086 -1519322572.4663801 0 -1519322572.4663801 -1232132382.3431938 0 0 0 0 3502419672.160862 -560305622.05807757 0 -560305622.05807757 -844190822.81062531 0 0 0 0 1864938136.7305756 -502818183.2565496 0 -502818183.2565496 -843481030.30831325 0 0 0 0 1741448593.3435252 -595735469.37506735 0 -595735469.37506735 -896794424.10804343 0 0 0 0 1668108156.9346123 -100867286.38177145 0 -100867286.38177145 -634506362.14016831 0 0 0 0 2232884217.6107349 -40637721.214331031 0 -40637721.214331031 -527370507.12639594 0 0 0 0 2312580545.0889368 46487116.533806711 0 46487116.533806711 -618260570.65006411 0 0 0 0 3237316431.5061378 -171518643.34248114 0 -171518643.34248114 -625116777.28022563 0 0 0 0 4723546999.8978357 -342091327.06794071 0 -342091327.06794071 -1287845366.9706576 0 0 0 0 911182909.58562088 231742803.61178851 0 231742803.61178851 -180152822.66770601 0 0 0 0 669245736.81418419 208863538.17644453 0 208863538.17644453 -128749211.84076023 0 0 0 0 927534687.48105145 246599122.53515184 0 246599122.53515184 -249069525.63444138 0 0 0 0 1381181130.1238213 -34091791.19845438 0 -34091791.19845438 -524802632.2474013 0 0 0 0 1376687060.2218094 -41537750.549253106 0 -41537750.549253106 -519504354.25521231 0 0 0 0 1283111521.5266266 206567553.09964108 0 206567553.09964108 -252385527.06150562 0 0 0 0 1300774836.7497616 365217140.64899457 0 365217140.64899457 -222508531.07965374 0 0 0 0 1482083780.0196209 458494034.39403915 0 458494034.39403915 -243932341.16420746 0 0 0 0 1300378802.7061691 414667187.07725978 0 414667187.07725978 -197252510.31067413 0 0 0 0 909662556.42084122 474243131.02962428 0 474243131.02962428 -182061418.07159829 0 0 0 0 558906181.63457012 671603979.66360855 0 671603979.66360855 226070317.89221752 0 0 0 0 851743977.56768227 1520187997.6704507 0 1520187997.6704507 525007726.01620144 0 0 0 0 2615566.6312516816 964143.83745341003 0 964143.83745341003 281511.90537714009 0 0 0 0 136370265.5906105 -41616712.577838674 0 -41616712.577838674 -123366935.95159429 0 0 0 0 222159542.97697639 248552935.21583557 0 248552935.21583557 -766894226.70415139 0 0 0 0 3726316966.542284 112175143.57924134 0 112175143.57924134 -609051349.61599815 0 0 0 0 2093818536.5541325 721930427.08629227 0 721930427.08629227 -455155129.57673371 0 0 0 0 3717277145.1424713 750761129.39757967 0 750761129.39757967 -490812944.44597942 0 0 0 0 3374883751.3193512 -44712384.318646178 0 -44712384.318646178 -574367205.16387701 0 0 0 0 4723235126.3392544 816483115.04425824 0 816483115.04425824 -24890265.017503824 0 0 0 0 3821691894.4737434 1143997945.4782112 0 1143997945.4782112 -131323383.61083752 0 0 0 0 3871068615.5058403 1013160103.3977841 0 1013160103.3977841 -251265569.80043727 0 0 0 0 3214444993.977232 1898849116.4683852 0 1898849116.4683852 721314110.33012354 0 0 0 0 3877751.6870643087 36019.363336051349 0 36019.363336051349 -246756.57133393362 0 0 0 0 4552864888.0449467 890918920.41575003 0 890918920.41575003 -396163101.11660421 0 0 0 0 4726009584.8319111 1335957032.6706011 0 1335957032.6706011 694215329.11383164 0 0 0 0 6220190.4611785673 990619.58085376583 0 990619.58085376583 -80272.128710329562 0 0 0 0 -69571463.604717255 15119009.32412795 0 15119009.32412795 36287143.565070421 0 0 0 0 -251836071.13537693 156642334.72874072 0 156642334.72874072 -35569950.20030205 0 0 0 0 1761963644.1723938 -452604392.96710742 0 -452604392.96710742 -20742274.242824823 0 0 0 0 -376072872.08076191 12753881.129326135 0 12753881.129326135 521620645.5214017 0 0 0 0 568958839.68727112 667225143.50233614 0 667225143.50233614 371495423.91037011 0 0 0 0 239774296.71186829 -563770744.99659729 0 -563770744.99659729 237521386.65384954 0 0 0 0 -96448687.822423935 95885515.830019802 0 95885515.830019802 -100511150.40408885 0 0 0 0 -21871868.86208725 -197628159.71610433 0 -197628159.71610433 -246054364.46914452 0 0 0 0 -21006784.535942078 -1173893.7784534693 0 -1173893.7784534693 21074174.999862075 0 0 0 0 8114838.4805904627 -721970.54492597445 0 -721970.54492597445 -605142.46480985242 0 0 0 0 26271749.271471024 14752250.72766903 0 14752250.72766903 -40255935.62125802 0 0 0 0 9289091.092243094 -1114323.8843169715 0 -1114323.8843169715 -1265706.1781164675 0 0 0 0 -13778098.648712158 -269518517.46981573 0 -269518517.46981573 -622295389.82075286 0 0 0 0 -15380541.515575409 -33938510.986516476 0 -33938510.986516476 -29271844.726471364 0 0 0 0 79600844.649950027 -21932015.55891031 0 -21932015.55891031 -592432800.67134333 0 0 0 0 -2683524.6167602539 -5432091.1658172607 0 -5432091.1658172607 -7982688.1817843318 0 0 0 0 9273107.1016541347 -3010786.5341580664 0 -3010786.5341580664 -2405749.6841443041 0 0 0 0 -17690103.901737213 -72224152.496205151 0 -72224152.496205151 -527086188.71175128 0 0 0 0 -253321215.41616821 -42351318.021766663 0 -42351318.021766663 -383175236.78507614 0 0 0 0 17616531.727647033 1361649.764805794 0 1361649.764805794 -5249564.9321889831 0 0 0 0 3493821.1478881836 -2685472.3539066315 0 -2685472.3539066315 -23210240.625127792 0 0 0 0 16332932.838463483 7990270.3654347081 0 7990270.3654347081 -5908005.1633908469 0 0 0 0 32888223.09197998 -396259971.79592276 0 -396259971.79592276 -633741299.03433704 0 0 0 0 -248902102.34510803 -225636430.60815704 0 -225636430.60815704 -565404069.16444588 0 0 0 0 -74462075.667053223 -187997839.5204916 0 -187997839.5204916 -612175783.84532547 0 0 0 0 -58308187.172363281 -409462472.52161884 0 -409462472.52161884 -610669550.25658321 0 0 0 0 -222409227.41009521 -151434437.61983538 0 -151434437.61983538 -557332391.11322784 0 0 0 0 17785905.607538946 3076568.3864952233 0 3076568.3864952233 -4215789.2986858878 0 0 0 0 -176403307.2250061 -226070761.02166367 0 -226070761.02166367 -614320376.22326469 0 0 0 0 -13075242.224761963 -251757359.14324188 0 -251757359.14324188 -558066716.47862852 0 0 0 0 41396364.820671082 -292710165.47888899 0 -292710165.47888899 -596416557.31240749 0 0 0 0 -55227372.75793457 -354280053.73625612 0 -354280053.73625612 -516335193.51337051 0 0 0 0 165281016.23638916 -258261734.4891367 0 -258261734.4891367 -564634123.6256237 0 0 0 0 188980540.790802 155659031.02712727 0 155659031.02712727 -1111978872.8909531 0 0 0 0 177622549.337677 -321420464.50497341 0 -321420464.50497341 -545633083.851758 0 0 0 0 326526545.70856476 -26861917.60316658 0 -26861917.60316658 -1129493721.6899996 0 0 0 0 11703806.765256386 -3328500.3207497597 0 -3328500.3207497597 -2250877.3083206755 0 0 0 0 73366341.616912842 -94520194.791715622 0 -94520194.791715622 -732841410.79505253 0 0 0 0 302091752.61249542 -152732889.93940401 0 -152732889.93940401 -828197265.61794472 0 0 0 0 98895994.945922852 43623941.367788315 0 43623941.367788315 -871388046.98610306 0 0 0 0 -281008273.98049927 42707700.847782135 0 42707700.847782135 -589492438.51630116 0 0 0 0 -19054360.055877686 -76003072.75213623 0 -76003072.75213623 -694718990.03784275 0 0 0 0 -117141418.30963135 47407980.466295242 0 47407980.466295242 -803042490.2992897 0 0 0 0 -236980230.39385986 149631779.46965218 0 149631779.46965218 -727546002.5760088 0 0 0 0 119937490.12872124 -90387128.680966794 0 -90387128.680966794 -748400163.07417297 0 0 0 0 67506327.313186646 -264906086.28648996 0 -264906086.28648996 -876018416.02169991 0 0 0 0 153880482.85600281 -15651123.638784409 0 -15651123.638784409 -545453465.51036632 0 0 0 0 15691015.048596382 -35119403.78438732 0 -35119403.78438732 -27730816.827943325 0 0 0 0 -26659613.551691055 126888292.39788151 0 126888292.39788151 64057202.891302586 0 0 0 0 -6608522.3389129639 29380870.93148613 0 29380870.93148613 -10062828.2473979 0 0 0 0 80385537.969612122 13802510.698404312 0 13802510.698404312 -76226432.565547228 0 0 0 0 18894269.227226421 1541989.1379191456 0 1541989.1379191456 -2537886.8591183061 0 0 0 0 -12066757.140756607 13260772.703577757 0 13260772.703577757 -6350679.0247578621 0 0 0 0 16790245.696995504 -6977715.4374051755 0 -6977715.4374051755 -2979590.0922488952 0 0 0 0 8083852.4878869606 6603349.8024539985 0 6603349.8024539985 -5441446.4177266927 0 0 0 0 -1935249.4238739014 -114334788.34894931 0 -114334788.34894931 -541612336.29806995 0 0 0 0 37122651.974813461 -94296932.660488307 0 -94296932.660488307 -572032748.93031812 0 0 0 0 37339262.905189514 -106408052.63881695 0 -106408052.63881695 -540028425.96489906 0 0 0 0 -64446846.31678009 -386790550.77306104 0 -386790550.77306104 -1264085892.8531995 0 0 0 0 24489789.333507538 300716199.93755674 0 300716199.93755674 -1014216429.1056942 0 0 0 0 1845897.5422795378 1844938.4452285594 0 1844938.4452285594 -1224090.9806446778 0 0 0 0 37118926.308712959 113762924.32839549 0 113762924.32839549 -793713355.36961746 0 0 0 0 -190863493.36503124 291116018.88258278 0 291116018.88258278 -635771026.51722479 0 0 0 0 -175873759.62659454 117717402.85250616 0 117717402.85250616 -360025522.3178215 0 0 0 0 86167734.102074623 140201642.95838827 0 140201642.95838827 -595493115.14499164 0 0 0 0 -16664408.113255501 124584371.40752953 0 124584371.40752953 -352741697.92284489 0 0 0 0 120346563.16460848 99308858.567780137 0 99308858.567780137 -443952249.16699302 0 0 0 0 69683575.782304764 101493289.88647062 0 101493289.88647062 -250850269.8919718 0 0 0 0 88880126.394353867 184635245.29350597 0 184635245.29350597 -128610125.45095861 0 0 0 0 235098422.10483646 205558447.51061994 0 205558447.51061994 -261128412.13970995 0 0 0 0 54218429.734889984 -42200597.243872568 0 -42200597.243872568 -393397949.78224611 0 0 0 0 104430174.27380753 -70860804.240206718 0 -70860804.240206718 -553435396.97276044 0 0 0 0 55875923.737529755 -29003734.780077517 0 -29003734.780077517 -383602421.63470542 0 0 0 0 83199272.589683533 -43886810.955084562 0 -43886810.955084562 -529858893.22662759 0 0 0 0 270084128.35575485 -104113270.92222416 0 -104113270.92222416 -1336854597.0054283 0 0 0 0 80542961.312000275 65224899.84125042 0 65224899.84125042 -813412347.82498741 0 0 0 0 4498981.1643278636 -3072226.7969129439 0 -3072226.7969129439 1892671.8357733218 0 0 0 0 -943253439.91109467 -617656444.55000162 0 -617656444.55000162 -634987286.44080913 0 0 0 0 -487436185.38460732 -1559180297.7772009 0 -1559180297.7772009 -1334881508.6907444 0 0 0 0 375057588.69485474 -337434489.16116714 0 -337434489.16116714 -831166534.8679409 0 0 0 0 145960317.58630371 -268267597.10352325 0 -268267597.10352325 -605141731.80286026 0 0 0 0 87810212.61145401 -811814903.82878101 0 -811814903.82878101 -730627041.38150787 0 0 0 0 566773841.75218964 -718168884.29747391 0 -718168884.29747391 -1147027496.7727408 0 0 0 0 568340337.41423035 -438942008.01133728 0 -438942008.01133728 -544089269.85711861 0 0 0 0 243292901.02700424 -467172403.4005661 0 -467172403.4005661 -315308481.15266037 0 0 0 0 428038705.16728973 -123224157.01042557 0 -123224157.01042557 -94691725.358142853 0 0 0 0 145518052.88421488 -120150644.59191942 0 -120150644.59191942 210442324.2647438 0 0 0 0 360734331.4972496 -407973625.5416584 0 -407973625.5416584 -681498516.57659531 0 0 0 0 -152901786.27462101 290551794.56115985 0 290551794.56115985 129151872.14724314 0 0 0 0 354997821.75102043 206374660.71874046 0 206374660.71874046 139827577.91947365 0 0 0 0 -31175995.352268696 280788178.24932194 0 280788178.24932194 307890064.54905701 0 0 0 0 212239590.1385144 288670257.1348567 0 288670257.1348567 -760710842.09130764 0 0 0 0 64490971.679733276 559127653.24398565 0 559127653.24398565 -168110594.22111702 0 0 0 0 -812945.05544009595 3280261.7607328235 0 3280261.7607328235 405026.20139061473 0 0 0 0 1032833014.3397551 -197505705.14646554 0 -197505705.14646554 -900547002.84241247 0 0 0 0 -106241352.02256489 -177629583.62489444 0 -177629583.62489444 -450838875.74112141 0 0 0 0 -173738342.12655258 -349305650.20990992 0 -349305650.20990992 -887461603.16573334 0 0 0 0 159989115.51173401 -179385.53692483902 0 -179385.53692483902 -797099401.28403974 0 0 0 0 4015469.1150584221 -121630942.08656597 0 -121630942.08656597 -432066471.22136348 0 0 0 0 16370864.414023202 -10762740.100090034 0 -10762740.100090034 6366311.5367292333 0 0 0 0 2182806.0407188088 -392873.70864036493 0 -392873.70864036493 455308.76353455801 0 0 0 0 15129092.29070282 341110626.19619322 0 341110626.19619322 23874207.369986832 0 0 0 0 1120767446.1976852 -472985134.30439758 0 -472985134.30439758 28929786.184736252 0 0 0 0 12274440.455074944 -7752965.1326114479 0 -7752965.1326114479 4026303.4028871274 0 0 0 0 33134658.753585815 -509287715.1797291 0 -509287715.1797291 -1295956497.1763248 0 0 0 0 770443120.06697083 1075259308.8728004 0 1075259308.8728004 660596638.50167847 0 0 0 0 1228782614.1497116 1558908271.3449287 0 1558908271.3449287 1143439760.7833395 0 0 0 0 994885899.22077942 956062124.22216892 0 956062124.22216892 696189934.68347549 0 0 0 0 2218358915.9968033 1157839405.6441803 0 1157839405.6441803 728227425.46566629 0 0 0 0 501414824.9197998 363824143.57970047 0 363824143.57970047 313860946.97381616 0 0 0 0 442650596.08953857 343349209.55719566 0 343349209.55719566 316233604.97325683 0 0 0 0 -264448560.64161825 -43440707.004735887 0 -43440707.004735887 61522702.946784973 0 0 0 0 474739407.8911972 246411233.21784878 0 246411233.21784878 271326680.44264126 0 0 0 0 -381542329.39579582 248388454.09332132 0 248388454.09332132 -359784736.07741356 0 0 0 0 977521.21631647833 135211.78105380572 0 135211.78105380572 -733425.12175062113 0 0 0 0 -282988956.7980957 131848722.45691872 0 131848722.45691872 7078272.282793045 0 0 0 0 628525885.87780762 252332820.55003548 0 252332820.55003548 243439873.72348022 0 0 0 0 -303870265.79956055 -53115608.762033463 0 -53115608.762033463 638047986.79322815 0 0 0 0 -413798443.26860809 145747080.92738438 0 145747080.92738438 307087092.00973272 0 0 0 0 564333528.46025777 -140442310.63934723 0 -140442310.63934723 238888797.68110466 0 0 0 0 598847496.00426483 492640429.63848972 0 492640429.63848972 168165717.08095551 0 0 0 0 846456807.02602005 701430801.31501913 0 701430801.31501913 449745558.352808 0 0 0 0 1132713303.2637939 334704684.67744637 0 334704684.67744637 -143576283.78963852 0 0 0 0 1441897175.0505829 944860181.21121979 0 944860181.21121979 -391103363.3425765 0 0 0 0 3612094.2344478741 -568319.64892233722 0 -568319.64892233722 -1311789.0654495144 0 0 0 0 1826141417.6965332 1146555117.6304903 0 1146555117.6304903 34670470.090482712 0 0 0 0 27470213.88194637 29186102.490650937 0 29186102.490650937 10185151.161726726 0 0 0 0 22991801.729930878 37749007.940022469 0 37749007.940022469 -5289180.1396989822 0 0 0 0 24646038.672670364 35898994.889878511 0 35898994.889878511 -16668503.044998169 0 0 0 0 47718901.522357941 48821852.653835297 0 48821852.653835297 -45785251.955097198 0 0 0 0 42399750.825935364 184978316.65613365 0 184978316.65613365 -72737978.951313019 0 0 0 0 16235211.085243225 80211220.258162498 0 80211220.258162498 -36961432.894004822 0 0 0 0 7423110.0730497651 1644889.9843516294 0 1644889.9843516294 -139300.28001172841 0 0 0 0 93537866.888286591 1184758.3924043179 0 1184758.3924043179 12144796.677802086 0 0 0 0 172743073.73235321 133291371.23137522 0 133291371.23137522 -59817800.821680069 0 0 0 0 167110226.50037384 60477380.185842514 0 60477380.185842514 -34482772.154255867 0 0 0 0 -171108323.61114502 141729474.55054235 0 141729474.55054235 31653263.699077606 0 0 0 0 26782471.210530773 31190677.849994015 0 31190677.849994015 10530229.042008609 0 0 0 0 -156095053.03209305 93321462.92529726 0 93321462.92529726 48911520.437877655 0 0 0 0 -146159818.3286171 134162141.58029175 0 134162141.58029175 64411403.632377625 0 0 0 0 -161552436.95779419 78310682.412029266 0 78310682.412029266 -33592341.248214722 0 0 0 0 24391184.039041467 6025026.7307177503 0 6025026.7307177503 -638496.67884268099 0 0 0 0 1036346586.5478821 -382024204.85305882 0 -382024204.85305882 -449065459.03047943 0 0 0 0 75951256.08536911 37307445.470816374 0 37307445.470816374 34279409.807401299 0 0 0 0 91803571.472286224 33592434.434132576 0 33592434.434132576 -8157957.5566558838 0 0 0 0 24522051.819583643 35861492.460309915 0 35861492.460309915 3986348.0309005063 0 0 0 0 -53246758.579776764 133644839.46985912 0 133644839.46985912 -439962244.2832303 0 0 0 0 159411870.99870682 515623228.49890614 0 515623228.49890614 151448754.70221949 0 0 0 0 27026543.377972234 4655551.7357425783 0 4655551.7357425783 -3761352.7264736667 0 0 0 0 -315199870.14516449 7669927.9694843292 0 7669927.9694843292 35269436.097501755 0 0 0 0 -228292568.97991562 117782109.54562473 0 117782109.54562473 36095136.262985229 0 0 0 0 -23998329.240646362 108806752.12254715 0 108806752.12254715 -8997399.5789031982 0 0 0 0 2350751051.1548615 2180625851.7988091 0 2180625851.7988091 658240256.5490427 0 0 0 0 379223733.84850311 -1793564268.1895256 0 -1793564268.1895256 -2155646998.9401169 0 0 0 0 3816218998.1680908 1362252463.1608543 0 1362252463.1608543 -403095816.83075333 0 0 0 0 3594541606.1586151 188903098.07878304 0 188903098.07878304 63169481.445087433 0 0 0 0 1875663695.9469604 242313048.80955601 0 242313048.80955601 540540635.67169952 0 0 0 0 3752179233.3928375 -1574123310.7919235 0 -1574123310.7919235 990227688.0211792 0 0 0 0 4831893291.725235 -332725636.28473282 0 -332725636.28473282 -218135937.770401 0 0 0 0 1368094346.066391 431570537.22613335 0 431570537.22613335 87993467.21055603 0 0 0 0 3060736742.0879898 1469474460.8611259 0 1469474460.8611259 22270101.815179825 0 0 0 0 1486570686.03368 778810619.00327444 0 778810619.00327444 -28637911.16037178 0 0 0 0 -512139059.98510551 -478654535.12517333 0 -478654535.12517333 606981049.50160217 0 0 0 0 521222047.45909882 903792276.57588816 0 903792276.57588816 334737238.00343943 0 0 0 0 -196172904.78297424 -760465187.69455147 0 -760465187.69455147 -14939782.107582092 0 0 0 0 1384503.4202997275 -358377.84910957702 0 -358377.84910957702 -179753.02771434188 0 0 0 0 1408335160.9737091 375328102.36179161 0 375328102.36179161 110909691.52448845 0 0 0 0 -215381972.15718079 533580847.92751694 0 533580847.92751694 271719631.77713394 0 0 0 0 115054263.39035034 -179819405.96645737 0 -179819405.96645737 -609678303.87202072 0 0 0 0 280076907.01316833 -54508020.82841301 0 -54508020.82841301 401324568.43594241 0 0 0 0 537176373.13827515 -683725541.98304367 0 -683725541.98304367 295695451.08264732 0 0 0 0 753695115.1112113 -347649569.04468608 0 -347649569.04468608 230704009.21339417 0 0 0 0 750077162.48748779 -380331174.24455261 0 -380331174.24455261 1195993836.1273041 0 0 0 0 11260614.696904898 6154825.714147836 0 6154825.714147836 -1591767.6889919126 0 0 0 0 1263258531.7689819 226839632.38087082 0 226839632.38087082 -561041521.13067245 0 0 0 0 -55501179.474094391 84984821.808989525 0 84984821.808989525 -278532304.8723948 0 0 0 0 1359176453.5024786 372538693.49077797 0 372538693.49077797 -236656812.05612183 0 0 0 0 175585406.21697998 -200581006.46924877 0 -200581006.46924877 -496513112.23619342 0 0 0 0 183170613.50105286 -320017874.21887493 0 -320017874.21887493 -322399643.89987183 0 0 0 0 1480680776.8397598 25642119.925285339 0 25642119.925285339 -804397158.41170502 0 0 0 0 1523987169.6580024 -357445205.85218 0 -357445205.85218 -1130527490.5094757 0 0 0 0 1509037875.1514692 -16877171.528857172 0 -16877171.528857172 -1275423224.0066528 0 0 0 0 1164450514.9829102 -698491662.23205948 0 -698491662.23205948 -1453718018.3219357 0 0 0 0 2127571813.7814941 -182510636.81413937 0 -182510636.81413937 -1807954541.0736008 0 0 0 0 863070656.39550781 -573512418.76403046 0 -573512418.76403046 3375232545.4285393 0 0 0 0 2940427858.7829895 1341474875.1613808 0 1341474875.1613808 -13728448.07775116 0 0 0 0 1315470727.0783081 919141424.95951843 0 919141424.95951843 519191383.41186714 0 0 0 0 601817717.75167084 -970543382.41358757 0 -970543382.41358757 -1428947480.5363197 0 0 0 0 1599111605.0541992 -838213633.60573578 0 -838213633.60573578 -2440587414.5197477 0 0 0 0 1048744360.855484 -460360080.64061737 0 -460360080.64061737 -937663080.02746201 0 0 0 0 497727533.05695724 -507249477.4484787 0 -507249477.4484787 -402736831.64690781 0 0 0 0 790211551.58456421 -623094542.70998764 0 -623094542.70998764 -908737432.79541492 0 0 0 0 990476148.36479187 -278790833.79421806 0 -278790833.79421806 -388054435.24531555 0 0 0 0 697127527.02640438 -371157346.46910143 0 -371157346.46910143 -315261736.39185333 0 0 0 0 731010077.80775452 -469943835.6586647 0 -469943835.6586647 -466218133.8866806 0 0 0 0 567117477.29069948 -453326376.7492497 0 -453326376.7492497 -69692966.110824585 0 0 0 0 577453629.864254 -402653277.17207718 0 -402653277.17207718 19133730.155147552 0 0 0 0 703918460.95439148 -320403351.04385567 0 -320403351.04385567 -197398523.28386879 0 0 0 0 895899946.54328156 -203680816.07735348 0 -203680816.07735348 -126988221.10231781 0 0 0 0 831810289.5029192 62212591.190804243 0 62212591.190804243 174324661.59377289 0 0 0 0 337019252.40448761 -101115376.05481339 0 -101115376.05481339 120576982.11499596 0 0 0 0 14394201.009005811 31944682.93754914 0 31944682.93754914 18480048.60070648 0 0 0 0 25801575.170063019 79266061.869548798 0 79266061.869548798 20319271.316741943 0 0 0 0 452165717.4487896 -374796704.08598948 0 -374796704.08598948 173388968.52188873 0 0 0 0 376379433.08755493 -249710634.32928467 0 -249710634.32928467 38776671.094043732 0 0 0 0 -33227043.261917114 -22685605.516885757 0 -22685605.516885757 -24423114.555350959 0 0 0 0 7977507.2176084071 1320615.2550285216 0 1320615.2550285216 -1206907.1547421627 0 0 0 0 -282303.53141784668 134345502.06634903 0 134345502.06634903 -30428929.69430542 0 0 0 0 161148258.9249649 47792978.570316315 0 47792978.570316315 -5382883.5804414749 0 0 0 0 26421891.071273804 74487351.710765839 0 74487351.710765839 46968092.635002136 0 0 0 0 15671816.916649066 27347884.128505487 0 27347884.128505487 -21456810.181857012 0 0 0 0 133330405.93741608 -19355591.515337467 0 -19355591.515337467 -48123498.157047272 0 0 0 0 -686171749.18006134 106236995.53864193 0 106236995.53864193 133658211.67725754 0 0 0 0 -502098254.16844177 311934904.80522156 0 311934904.80522156 56900867.19293499 0 0 0 0 -486612798.03483582 -110904155.90458679 0 -110904155.90458679 80209899.899047852 0 0 0 0 -137769704.45207214 -254711612.45203018 0 -254711612.45203018 -146153071.09715271 0 0 0 0 59237806.290145874 -43413120.754333496 0 -43413120.754333496 -244315719.11374092 0 0 0 0 182275731.73913574 137537578.61419678 0 137537578.61419678 50629678.928466797 0 0 0 0 -150985240.02320862 219121548.42867661 0 219121548.42867661 45687023.988571167 0 0 0 0 109273456.07320404 164366509.0103302 0 164366509.0103302 120942991.03437805 0 0 0 0 6999018.7587691434 20445934.60853757 0 20445934.60853757 -22395965.267523028 0 0 0 0 222114344.42709351 298957583.45185852 0 298957583.45185852 363702440.355896 0 0 0 0 536183.85232644156 214563.31376321614 0 214563.31376321614 -992918.1660278067 0 0 0 0 -35093544.055091858 -90371856.354627609 0 -90371856.354627609 -4961466.1556167603 0 0 0 0 -49728709.269325256 -113442060.46874237 0 -113442060.46874237 27948524.305686951 0 0 0 0 -39212165.144668579 -93043985.706637383 0 -93043985.706637383 30639233.105064392 0 0 0 0 -53201402.086204529 -106563535.36406708 0 -106563535.36406708 78833823.940872192 0 0 0 0 45204734.230392456 81440495.129905701 0 81440495.129905701 137122223.31175232 0 0 0 0 78575500.556600571 57518277.277674675 0 57518277.277674675 24420636.745910645 0 0 0 0 7783095.6304473877 72189879.84022522 0 72189879.84022522 90414380.52646637 0 0 0 0 7170993.4679069519 1164607.7458572388 0 1164607.7458572388 -22384327.040912628 0 0 0 0 -45085238.750774384 19087379.210231781 0 19087379.210231781 49141469.139694214 0 0 0 0 -18065775.048750877 2930507.7427806854 0 2930507.7427806854 58795546.32019043 0 0 0 0 573773.43975830078 89209044.571017265 0 89209044.571017265 152764096.42129517 0 0 0 0 -1526444.0222396851 142496794.9748745 0 142496794.9748745 131402816.27210999 0 0 0 0 -99538665.02192688 -44150736.326896667 0 -44150736.326896667 88551890.287864685 0 0 0 0 103946522.08599854 103726897.38809204 0 103726897.38809204 39816893.198707581 0 0 0 0 74681230.641288757 205471779.16094208 0 205471779.16094208 400373233.6204834 0 0 0 0 181871727.60456848 101345191.55761719 0 101345191.55761719 122690957.52954102 0 0 0 0 225859445.68577576 277015216.03533936 0 277015216.03533936 294468222.19165039 0 0 0 0 296419903.7552948 426110504.06417084 0 426110504.06417084 411907759.65036011 0 0 0 0 -2013474.9214430843 1033681.5169815244 0 1033681.5169815244 2793061.9458758719 0 0 0 0 13108693.198664114 19673331.872485705 0 19673331.872485705 12413426.182573799 0 0 0 0 117243630.95656967 -49249340.040092468 0 -49249340.040092468 213578951.63011551 0 0 0 0 -24878520.382862091 14757800.83549118 0 14757800.83549118 31286522.972011566 0 0 0 0 -42180653.051744461 30077809.702320099 0 30077809.702320099 35974949.886764526 0 0 0 0 5698456.9047512785 12178728.487011034 0 12178728.487011034 215092.94432316907 0 0 0 0 -33235872.139064789 -11846906.154014587 0 -11846906.154014587 8327222.1427211761 0 0 0 0 136334170.46629524 -100789512.50522232 0 -100789512.50522232 -46672212.523075104 0 0 0 0 2300686.939395315 6454581.5970629826 0 6454581.5970629826 11991043.940618344 0 0 0 0 865269269.09581566 343550672.11023712 0 343550672.11023712 193699564.00706673 0 0 0 0 1244050538.2017994 734814571.62024307 0 734814571.62024307 -20814641.694272995 0 0 0 0 14653568.751529478 1681799.2954135891 0 1681799.2954135891 1954473.1901706718 0 0 0 0 1184804935.4184093 203797965.34368896 0 203797965.34368896 57786059.849147797 0 0 0 0 2807375733.8417521 353847761.52611732 0 353847761.52611732 679134805.91064072 0 0 0 0 2651546151.8154888 718429881.15328598 0 718429881.15328598 -129676391.55625534 0 0 0 0 -219439.19755365839 2483376.6158321192 0 2483376.6158321192 1024534.0758942142 0 0 0 0 2856557616.7990198 1937491878.9188175 0 1937491878.9188175 695670006.3214035 0 0 0 0 1612976054.9307308 -525080527.45605183 0 -525080527.45605183 3399479543.830925 0 0 0 0 4310034.2410007091 -302147.87873695046 0 -302147.87873695046 1605824.3478341009 0 0 0 0 264621422.73891449 -1082878204.0180149 0 -1082878204.0180149 2142309199.4527264 0 0 0 0 261653420.98104477 -198248098.94268799 0 -198248098.94268799 257222953.11175537 0 0 0 0 197550439.13204098 -240767662.8221426 0 -240767662.8221426 235332739.31369781 0 0 0 0 305240333.58255482 -426619877.25658226 0 -426619877.25658226 571920565.69646454 0 0 0 0 775302127.48418808 -696073837.06968498 0 -696073837.06968498 195078964.55657196 0 0 0 0 957529412.72685623 -370624487.06868935 0 -370624487.06868935 -223288048.08855057 0 0 0 0 2623513127.5733337 -1514513114.4844742 0 -1514513114.4844742 -78745112.063148499 0 0 0 0 3084179437.1647201 -407504580.4849577 0 -407504580.4849577 -1010990642.0344238 0 0 0 0 1794829300.4315972 442744501.29076767 0 442744501.29076767 -1215903963.2303772 0 0 0 0 1458573085.1611404 -709266396.53991318 0 -709266396.53991318 -241681857.37888908 0 0 0 0 757688786.14110947 434525378.59908867 0 434525378.59908867 66448725.911545277 0 0 0 0 1002759883.1832638 569536766.39833641 0 569536766.39833641 -402751722.99098587 0 0 0 0 721258500.17664337 -152164353.19033539 0 -152164353.19033539 -213315186.46489716 0 0 0 0 570958854.13428497 -496748504.11872101 0 -496748504.11872101 -121585234.75383949 0 0 0 0 679604898.05054474 -298476607.53961945 0 -298476607.53961945 -184322541.26284981 0 0 0 0 291261018.83731461 -455062632.405478 0 -455062632.405478 -245640002.09322357 0 0 0 0 591508759.85686874 -222480705.17353821 0 -222480705.17353821 -207261126.82121277 0 0 0 0 167466563.24564701 633625866.82162213 0 633625866.82162213 665894961.51300621 0 0 0 0 -20593212.828577518 -165888379.47552681 0 -165888379.47552681 1072630091.4675665 0 0 0 0 1052658578.6319141 577554582.1921463 0 577554582.1921463 146945379.45981216 0 0 0 0 -1011832.3351587574 5403448.1993487021 0 5403448.1993487021 1289206.3526083622 0 0 0 0 -248680978.76568604 1102593252.6562729 0 1102593252.6562729 417684603.96979141 0 0 0 0 2030004.1142486231 -161594.6684425734 0 -161594.6684425734 -594652.95716096833 0 0 0 0 -212974664.93389297 1607259947.3541243 0 1607259947.3541243 -646468071.33918762 0 0 0 0 -1078598311.6898665 307198679.76513481 0 307198679.76513481 432843821.14158249 0 0 0 0 451284403.42952323 526523874.38343436 0 526523874.38343436 -985564738.88190842 0 0 0 0 2055427481.1697838 928850755.31819248 0 928850755.31819248 160960531.62825012 0 0 0 0 468501224.05938244 -13967768.052391052 0 -13967768.052391052 150589072.83524847 0 0 0 0 108292408.72797918 304655665.46115494 0 304655665.46115494 1058822845.746048 0 0 0 0 543035297.13197899 -103202647.91231537 0 -103202647.91231537 1150081715.756321 0 0 0 0 4346991.4205207825 -64539901.722919464 0 -64539901.722919464 136085256.7873106 0 0 0 0 -566466507.24029779 204153254.78941917 0 204153254.78941917 512432043.65509033 0 0 0 0 9873157.1765143871 -27992911.651022911 0 -27992911.651022911 129412946.75621986 0 0 0 0 -452997521.44488621 331837444.9236145 0 331837444.9236145 -318878008.64173985 0 0 0 0 2682952.5231831437 -2938301.9404014386 0 -2938301.9404014386 475893.5483838208 0 0 0 0 -1191865141.222681 1091346280.1720524 0 1091346280.1720524 -211373919.49656582 0 0 0 0 3629355.1124784658 -9756097.1838891879 0 -9756097.1838891879 2257003.1870025974 0 0 0 0 11579235.853092194 -28952298.710731506 0 -28952298.710731506 4399557.081161499 0 0 0 0 67555790.338665009 180655971.79693508 0 180655971.79693508 244433756.47229767 0 0 0 0 444617271.96939087 368775823.11959457 0 368775823.11959457 328804188.6488409 0 0 0 0 7834055.906972982 -6743144.8993719425 0 -6743144.8993719425 9718857.9148928449 0 0 0 0 -16857770.755028725 -46723137.150273323 0 -46723137.150273323 27964289.686477661 0 0 0 0 35257135.791097641 -2720243.8571624756 0 -2720243.8571624756 9373009.0511364937 0 0 0 0 -8032393.1480026245 35967317.607347488 0 35967317.607347488 72940022.347064972 0 0 0 0 64198635.2354002 71070702.475915909 0 71070702.475915909 22926624.554917336 0 0 0 0 30806553.203115463 29017524.107684135 0 29017524.107684135 -2838461.230091095 0 0 0 0 228151.82831216976 -173035.22131177038 0 -173035.22131177038 1779569.4232656723 0 0 0 0 16643653.694210887 110179616.52378225 0 110179616.52378225 277979082.94002533 0 0 0 0 -56777425.384966373 168697948.81899071 0 168697948.81899071 244887290.02865791 0 0 0 0 -57039913.782332897 178139969.42516518 0 178139969.42516518 493237675.08261299 0 0 0 0 24259319.434297323 51038443.952613831 0 51038443.952613831 125797849.65507889 0 0 0 0 -29112355.158045292 -27068755.893733025 0 -27068755.893733025 323686468.49656105 0 0 0 0 11623296.107708454 -2864709.5794887543 0 -2864709.5794887543 -4680372.5511848927 0 0 0 0 3624874.236504958 5118679.2473681606 0 5118679.2473681606 3400430.7317808354 0 0 0 0 232442841.76224899 -41152552.424200058 0 -41152552.424200058 -66621860.713335037 0 0 0 0 -25846979.059720993 -162733874.00942087 0 -162733874.00942087 376731634.04887772 0 0 0 0 -8446468.4614849091 -67042438.772974014 0 -67042438.772974014 247054342.16864586 0 0 0 0 125333130.54601824 -281599927.58277452 0 -281599927.58277452 417384481.17041397 0 0 0 0 7642957.1629104614 -130312462.42573833 0 -130312462.42573833 575128144.22225189 0 0 0 0 -40337764.69106102 -193630101.50326824 0 -193630101.50326824 631003488.78885651 0 0 0 0 -73782090.068515778 -91052048.835760117 0 -91052048.835760117 412358923.8800211 0 0 0 0 -104105416.17970276 -53982587.985548019 0 -53982587.985548019 404755224.18562889 0 0 0 0 -104230848.22412872 -118439530.66888428 0 -118439530.66888428 509597185.18664837 0 0 0 0 -14603807.170886993 -123989749.14524937 0 -123989749.14524937 208287699.90241051 0 0 0 0 7638778.1611557007 -14059598.098918915 0 -14059598.098918915 145037837.95290279 0 0 0 0 8552927.0183146242 8118133.3757235911 0 8118133.3757235911 4637385.9397576246 0 0 0 0 3853931.8121833801 -43299481.667108536 0 -43299481.667108536 133280012.50873566 0 0 0 0 -2413854.5830154419 58438792.653114319 0 58438792.653114319 256467634.20194435 0 0 0 0 -102703147.85399532 -20647534.338062733 0 -20647534.338062733 373470758.75094604 0 0 0 0 -195908211.14096832 19812902.425427914 0 19812902.425427914 478342567.03011465 0 0 0 0 -172180435.80611992 89231330.6603477 0 89231330.6603477 435091940.77661395 0 0 0 0 61208507.050270081 165100197.07203674 0 165100197.07203674 300108046.87600994 0 0 0 0 -4925769.2565243244 32848790.333400488 0 32848790.333400488 114104970.04325867 0 0 0 0 -52355404.384490967 -20571317.877638817 0 -20571317.877638817 23382855.48758316 0 0 0 0 7958609.0135498382 -174467.11644853838 0 -174467.11644853838 5102925.0187126212 0 0 0 0 18802940.057987213 22776110.11838913 0 22776110.11838913 114103204.04512565 0 0 0 0 -4512614.9871616364 8268393.0344467163 0 8268393.0344467163 118306597.27377319 0 0 0 0 1401809.4227828979 34711514.650781631 0 34711514.650781631 235931949.22690392 0 0 0 0 -1398517.9852849483 8700041.7014614753 0 8700041.7014614753 8675885.5762548335 0 0 0 0 -4761068.8640680313 16596790.040332794 0 16596790.040332794 14702709.228301525 0 0 0 0 6665646.8111848831 30103638.169235706 0 30103638.169235706 1673585.289185524 0 0 0 0 12743414.220819877 11511686.239846867 0 11511686.239846867 5728993.5429524323 0 0 0 0 29850126.291700363 27346107.162041664 0 27346107.162041664 47080750.950569153 0 0 0 0 9308133.9393043518 14343456.219266415 0 14343456.219266415 -6017934.9288768768 0 0 0 0 18697577.763408661 21300602.410551548 0 21300602.410551548 -19859902.95340538 0 0 0 0 40105906.082004547 32504012.546499252 0 32504012.546499252 2638662.3191394806 0 0 0 0 11711159.151131153 -3961660.2904553413 0 -3961660.2904553413 13877147.380654335 0 0 0 0 3512167.0499650505 2266053.2148502846 0 2266053.2148502846 -147405.95615824685 0 0 0 0 19201057.725154042 1093013.7090600729 0 1093013.7090600729 -692258.05517578125 0 0 0 0 42005444.71607516 -5808807.481653899 0 -5808807.481653899 -3759806.6653461456 0 0 0 0 19775128.379454613 -8551179.0686588287 0 -8551179.0686588287 2380086.2535705566 0 0 0 0 15158389.235770226 4245920.6440219879 0 4245920.6440219879 -7525485.9316730499 0 0 0 0 6662000.9345817566 3417417.5713691711 0 3417417.5713691711 -4224215.1715908051 0 0 0 0 19584660.906874657 -1525977.5186281204 0 -1525977.5186281204 -8510769.1711483002 0 0 0 0 14630351.396982193 23183931.613779068 0 23183931.613779068 1546116.4595432281 0 0 0 0 113267171.15483189 61337640.006131172 0 61337640.006131172 27086535.266384721 0 0 0 0 117427569.8722775 19074045.275208116 0 19074045.275208116 3281650.2508182526 0 0 0 0 -821832.78150562686 -770087.66730529233 0 -770087.66730529233 580939.47991669271 0 0 0 0 282046.16375350952 -5946346.2905235291 0 -5946346.2905235291 -2552676.6822662354 0 0 0 0 -34095531.364390373 -31705832.512560844 0 -31705832.512560844 7805885.0697762966 0 0 0 0 6959283.9785749158 4040644.9878278067 0 4040644.9878278067 8494354.6637408491 0 0 0 0 2191720.3321256638 2574944.1140565872 0 2574944.1140565872 -1074938.1099128723 0 0 0 0 4999566.1349360645 5256598.8872938259 0 5256598.8872938259 4858575.6054856842 0 0 0 0 1566434.4983444214 3608684.0594167709 0 3608684.0594167709 455235.88929748535 0 0 0 0 5082758.5199841056 5996972.0367386397 0 5996972.0367386397 6441961.6884236149 0 0 0 0 6680856.4845067002 4759532.1036216319 0 4759532.1036216319 -490365.38462574966 0 0 0 0 2670180.3728342876 1717053.367043539 0 1717053.367043539 -845954.71482970333 0 0 0 0 8773523.5701026917 4372216.0084247589 0 4372216.0084247589 -100964.62852859497 0 0 0 0 192582.41326755285 528485.61896698596 0 528485.61896698596 737262.89308325714 0 0 0 0 -13984001.661756754 -6027653.7445133924 0 -6027653.7445133924 31877664.091096878 0 0 0 0 37131711.93646431 -63117.040958881378 0 -63117.040958881378 38035677.306186676 0 0 0 0 19950387.675334215 29572226.02585125 0 29572226.02585125 511363.98744297028 0 0 0 0 85985459.375170708 49702934.400280952 0 49702934.400280952 419747.54744720459 0 0 0 0 27951973.969724655 75688960.769057274 0 75688960.769057274 4162296.5060520172 0 0 0 0 129578435.68889713 -11032241.69229126 0 -11032241.69229126 -17850663.953791976 0 0 0 0 -3384307.784825447 10905666.294264928 0 10905666.294264928 6956559.6555374674 0 0 0 0 121475412.41386414 67909277.114262581 0 67909277.114262581 30972540.318393707 0 0 0 0 84869847.368373871 79054158.698479652 0 79054158.698479652 27652194.736651421 0 0 0 0 103584079.22895145 117278193.92486668 0 117278193.92486668 2190718.5187644958 0 0 0 0 41522178.062208176 126696408.5936842 0 126696408.5936842 43451755.886415005 0 0 0 0 140432578.68899775 134602474.86735821 0 134602474.86735821 -71419541.712554932 0 0 0 0 153809519.89668655 102150804.21332645 0 102150804.21332645 6707265.4364919662 0 0 0 0 3330980.9936913336 -900689.98292211164 0 -900689.98292211164 -1773821.4545847813 0 0 0 0 102255002.29423523 -32287148.802352667 0 -32287148.802352667 24074829.162558079 0 0 0 0 339347352.08611059 -169078693.77240342 0 -169078693.77240342 75312762.906071663 0 0 0 0 126905613.2773056 19643832.734603763 0 19643832.734603763 8473493.3728487492 0 0 0 0 81758943.963840485 45189117.103808403 0 45189117.103808403 12514380.772762954 0 0 0 0 109396238.68525696 80916753.712559223 0 80916753.712559223 44107889.770516634 0 0 0 0 241395120.33911896 82604936.893726647 0 82604936.893726647 9840650.7115163803 0 0 0 0 -390504.77900457382 -27935086.318202496 0 -27935086.318202496 61859270.807758331 0 0 0 0 866874.19557654858 13638737.547703203 0 13638737.547703203 3483270.1275544451 0 0 0 0 88299984.263397217 48086725.579357147 0 48086725.579357147 44222960.973222733 0 0 0 0 49555207.442337036 54533070.449301481 0 54533070.449301481 16468635.277410388 0 0 0 0 91145045.604230881 78460467.840191245 0 78460467.840191245 30217437.604837894 0 0 0 0 81165575.408677578 10415766.951249123 0 10415766.951249123 -25924372.311201096 0 0 0 0 18088186.064941186 15240525.23097432 0 15240525.23097432 -5871081.6490118783 0 0 0 0 61045700.008246422 -3386293.5608472824 0 -3386293.5608472824 -20629398.910165787 0 0 0 0 65482547.246051788 66850163.228755534 0 66850163.228755534 -24676778.299695969 0 0 0 0 78186315.050953388 -1821859.0982003212 0 -1821859.0982003212 -40621851.574261665 0 0 0 0 -33022270.263830185 1768971.3886072636 0 1768971.3886072636 49110808.882663965 0 0 0 0 29811513.557898045 42954142.111396074 0 42954142.111396074 55572004.791620255 0 0 0 0 10175705.907151232 2091793.6845294747 0 2091793.6845294747 6973942.9352125982 0 0 0 0 66163814.412433624 55314782.385979652 0 55314782.385979652 -22577797.073916674 0 0 0 0 -1376317.7946674819 -1366310.3806957244 0 -1366310.3806957244 672324.60888831131 0 0 0 0 114164109.02606606 237439038.91410828 0 237439038.91410828 -103908386.47336531 0 0 0 0 221120494.56871086 364016241.73187101 0 364016241.73187101 -425674295.04716206 0 0 0 0 85799258.911265612 205075770.86568165 0 205075770.86568165 28894504.824769735 0 0 0 0 74129587.104195952 407782389.16502571 0 407782389.16502571 112409697.99290085 0 0 0 0 68956715.748710632 90816921.806297302 0 90816921.806297302 125864675.44389582 0 0 0 0 57555513.870439529 233508937.88644791 0 233508937.88644791 43883473.281604767 0 0 0 0 43111705.720975876 147434474.0163269 0 147434474.0163269 209947077.84565449 0 0 0 0 60485732.789922237 76506883.330799818 0 76506883.330799818 -171217817.79374123 0 0 0 0 -75791014.193574905 272603514.7912513 0 272603514.7912513 -142005897.02594209 0 0 0 0 70125020.320513964 72315203.267427623 0 72315203.267427623 -214898030.42212009 0 0 0 0 8182314.5609646449 -2871826.4196292823 0 -2871826.4196292823 -2944327.4556647516 0 0 0 0 24032058.731636047 133083432.76562452 0 133083432.76562452 -240306376.66186976 0 0 0 0 41401415.358034134 56685594.256921411 0 56685594.256921411 -206507956.26493955 0 0 0 0 141744403.91736364 73531172.403745174 0 73531172.403745174 -219070608.82472324 0 0 0 0 144957927.97914565 240863.91152620316 0 240863.91152620316 -392287096.31560278 0 0 0 0 145838928.09756395 47284494.7908023 0 47284494.7908023 -335101173.0748415 0 0 0 0 9793949.4119844437 -84568065.701068521 0 -84568065.701068521 -197554961.2859273 0 0 0 0 25935711.302512854 -14097877.14017646 0 -14097877.14017646 -137262528.0753727 0 0 0 0 18030617.375147227 -13546541.032571811 0 -13546541.032571811 10190394.161515053 0 0 0 0 -16748522.511428833 -60017095.042435884 0 -60017095.042435884 -34312100.69206953 0 0 0 0 -31209664.013931274 -63948612.198793411 0 -63948612.198793411 -14473363.386203051 0 0 0 0 -1283115.788192749 -6161586.5489215851 0 -6161586.5489215851 15887493.000224113 0 0 0 0 24403012.029571533 -18055743.2752316 0 -18055743.2752316 -12693339.617290497 0 0 0 0 -16429322.465129852 -24893315.20100975 0 -24893315.20100975 7691325.1682662964 0 0 0 0 -12671593.022369385 -37825275.885414124 0 -37825275.885414124 -4198375.7365341187 0 0 0 0 32232475.813964844 -44662206.570388794 0 -44662206.570388794 -66617043.831253052 0 0 0 0 1296470.8360848725 -607555.72447215393 0 -607555.72447215393 -332059.61841783673 0 0 0 0 26082907.131650329 -15949579.622752093 0 -15949579.622752093 -120420776.14882612 0 0 0 0 15792585.269167596 -6425125.5879910579 0 -6425125.5879910579 -4400161.0061286213 0 0 0 0 61627838.37194252 -31368402.093925476 0 -31368402.093925476 11879859.80962038 0 0 0 0 141037386.83159447 -87743383.437825561 0 -87743383.437825561 24048752.065420389 0 0 0 0 78119795.95169735 -2405871.38402915 0 -2405871.38402915 -62795678.309651375 0 0 0 0 93590735.714056015 -39276563.823827744 0 -39276563.823827744 -35021829.801774979 0 0 0 0 52836128.307545662 -13660038.246382713 0 -13660038.246382713 -11956789.26193285 0 0 0 0 69572261.139145851 -37536650.262245655 0 -37536650.262245655 -3133595.6721258163 0 0 0 0 57721726.828723907 -26025663.512404442 0 -26025663.512404442 -3334366.890497759 0 0 0 0 69544785.384604454 -25362842.977651119 0 -25362842.977651119 -13942305.597137451 0 0 0 0 29762326.779357601 -1139929.3369596694 0 -1139929.3369596694 3275435.3641172987 0 0 0 0 17334094.207038879 -12340840.227128983 0 -12340840.227128983 -7068567.5219888687 0 0 0 0 81671599.436248779 75639347.495187283 0 75639347.495187283 -44845885.174771309 0 0 0 0 41503549.687408447 39736306.437317371 0 39736306.437317371 -34658039.121623039 0 0 0 0 59549210.047679618 9436688.282534942 0 9436688.282534942 3041270.7268861849 0 0 0 0 12422506.0858372 5730448.3490677495 0 5730448.3490677495 -6231076.3776437016 0 0 0 0 86764830.939346313 -7751679.2074924707 0 -7751679.2074924707 -126278307.55695307 0 0 0 0 58996749.484176636 3380386.5366950631 0 3380386.5366950631 -111214639.02614707 0 0 0 0 62245725.465141296 18789315.481945157 0 18789315.481945157 -53189682.552678108 0 0 0 0 33402416.636505127 84268862.470355213 0 84268862.470355213 -140703698.40431142 0 0 0 0 -3305266.9641265869 36817221.463390231 0 36817221.463390231 -6572493.8166046739 0 0 0 0 21126955.118158683 3852493.6650957284 0 3852493.6650957284 6433485.5444174688 0 0 0 0 5067000.5931324884 1459688.7358963899 0 1459688.7358963899 -2140442.7463649199 0 0 0 0 172616586.42563248 275927160.94092691 0 275927160.94092691 211569559.27799824 0 0 0 0 13251172.466822468 4358378.1692065634 0 4358378.1692065634 1733444.4489855063 0 0 0 0 -34752384.857254028 5023286.7944478989 0 5023286.7944478989 59404984.940282822 0 0 0 0 22917082.255911827 27911765.949715018 0 27911765.949715018 36520064.917367935 0 0 0 0 5612979.4623580873 2497131.0027572289 0 2497131.0027572289 3015000.1133990823 0 0 0 0 14990426.763931274 804249.06171607971 0 804249.06171607971 11788109.469421387 0 0 0 0 10659408.598964691 -14912530.297907591 0 -14912530.297907591 9683368.5979690552 0 0 0 0 40690821.251890704 -4711705.6970262248 0 -4711705.6970262248 4245432.5894231331 0 0 0 0 18062202.174316406 -16616504.877897263 0 -16616504.877897263 -3486993.8813819885 0 0 0 0 -626156.86227416992 -14365772.85011673 0 -14365772.85011673 13327453.445882797 0 0 0 0 9276906.5326843262 -24766836.312826157 0 -24766836.312826157 2532793.4507007599 0 0 0 0 9518282.0722541809 -23570322.544032097 0 -23570322.544032097 2807867.1295852661 0 0 0 0 17389866.451286316 -11216218.164376259 0 -11216218.164376259 5159556.9295446873 0 0 0 0 9631369.9646053314 -6482075.4349501133 0 -6482075.4349501133 17713360.592857361 0 0 0 0 9584823.6307983398 -8116790.804350853 0 -8116790.804350853 19701598.885883331 0 0 0 0 82394306.711029053 -5183220.1759119034 0 -5183220.1759119034 -27813293.205947161 0 0 0 0 38953165.6227424 -8622433.3245347925 0 -8622433.3245347925 -8511459.3804712892 0 0 0 0 85103633.894777298 8860287.6197829843 0 8860287.6197829843 -60777089.631187439 0 0 0 0 99349099.271484375 -22385985.824604988 0 -22385985.824604988 -51322410.244079828 0 0 0 0 86595600.919677734 -2857118.1310758591 0 -2857118.1310758591 -48241776.370684147 0 0 0 0 12969059.756652832 -5002608.9338804483 0 -5002608.9338804483 -7948751.9139341116 0 0 0 0 41881603.842525482 66199765.401185036 0 66199765.401185036 -21933813.505240798 0 0 0 0 54375591.600561365 -9074834.7301116735 0 -9074834.7301116735 -5975750.1345904097 0 0 0 0 50071054.997700691 20307835.607567787 0 20307835.607567787 24388352.836090088 0 0 0 0 29849834.218011856 72362525.217939258 0 72362525.217939258 -35271411.512405872 0 0 0 0 70364131.400527954 90164374.318071604 0 90164374.318071604 -123104162.99293089 0 0 0 0 101771652.73182297 62348018.474224687 0 62348018.474224687 -44474958.675014019 0 0 0 0 76365402.54261744 20819432.861083269 0 20819432.861083269 -4866041.0514622498 0 0 0 0 65363818.92300415 37336675.907918215 0 37336675.907918215 -65234238.456609726 0 0 0 0 83323565.182006836 14556307.587206841 0 14556307.587206841 -37713033.846398354 0 0 0 0 69058166.522449926 15598743.510967722 0 15598743.510967722 -1042060.9051623782 0 0 0 0 126317026.68347359 55757234.212852001 0 55757234.212852001 -139133498.36503983 0 0 0 0 73841197.431747437 49816442.403066635 0 49816442.403066635 -66773273.342874527 0 0 0 0 74460056.883388519 5275324.9122078419 0 5275324.9122078419 -84456043.597383261 0 0 0 0 160556494.15649104 55005181.176529132 0 55005181.176529132 -55802874.779017925 0 0 0 0 162571028.733307 -40558129.797052756 0 -40558129.797052756 -33808632.006274223 0 0 0 0 57898207.042556763 30822419.378159046 0 30822419.378159046 -51567224.988304138 0 0 0 0 4873037.1085586548 56061421.527947903 0 56061421.527947903 -60076747.235976696 0 0 0 0 44937560.944812775 52525158.170167863 0 52525158.170167863 -63503598.220477104 0 0 0 0 42197935.861129761 38145361.691136122 0 38145361.691136122 -73626979.497231364 0 0 0 0 33801124.508026123 76563127.569613218 0 76563127.569613218 -89081573.845736086 0 0 0 0 100761802.71882629 96416309.922293186 0 96416309.922293186 -97382687.370573044 0 0 0 0 4730669.4133758545 115870466.07384229 0 115870466.07384229 -169468780.63154602 0 0 0 0 1486751.9265441895 89155171.511001587 0 89155171.511001587 -97843385.705373228 0 0 0 0 217542090.89484024 176010832.35895944 0 176010832.35895944 -243545846.65338135 0 0 0 0 115635554.80509949 39214053.046023369 0 39214053.046023369 -90912184.720065117 0 0 0 0 106667958.59560776 13256361.275082946 0 13256361.275082946 -82852928.964441299 0 0 0 0 113107037.45513916 545787.24538993835 0 545787.24538993835 -62150572.605813742 0 0 0 0 173333565.24519348 9446424.2497787476 0 9446424.2497787476 -106533231.82809734 0 0 0 0 114395718.21518326 44442986.320560098 0 44442986.320560098 -95292100.066433907 0 0 0 0 143499360.69720459 42810344.485629678 0 42810344.485629678 -134619577.50693917 0 0 0 0 288152927.74871826 -4764120.4659535885 0 -4764120.4659535885 -138905992.68491229 0 0 0 0 219724378.54386902 -55304683.348562479 0 -55304683.348562479 -88063289.376437187 0 0 0 0 152150791.63778687 -33352063.582023144 0 -33352063.582023144 -94945815.326215506 0 0 0 0 138428830.34173584 -58930647.547231913 0 -58930647.547231913 -66106277.202755213 0 0 0 0 142137789.64938354 -60698891.251193047 0 -60698891.251193047 -68138187.387477875 0 0 0 0 112281748.74453735 -45075014.372728229 0 -45075014.372728229 -70184638.306690216 0 0 0 0 113573461.78427124 -43885107.79476738 0 -43885107.79476738 -69621588.729653835 0 0 0 0 145955189.1567688 -28395765.892242432 0 -28395765.892242432 -85338110.752138138 0 0 0 0 124998807.91171265 -23278861.531778336 0 -23278861.531778336 -78588534.732017517 0 0 0 0 103370197.67741394 -15002582.797092915 0 -15002582.797092915 -71283621.496236801 0 0 0 0 95076334.534179688 -35170727.01690197 0 -35170727.01690197 -62384279.276462555 0 0 0 0 275470129.4360199 -91359645.837182045 0 -91359645.837182045 -115594284.76134396 0 0 0 0 258197939.21770477 -95029765.461111069 0 -95029765.461111069 -168118884.77619839 0 0 0 0 296711191.38298035 940675.53035640717 0 940675.53035640717 -37376776.162317276 0 0 0 0 154696723.28702927 -61595762.762578964 0 -61595762.762578964 -28504843.419984818 0 0 0 0 169702498.94337463 -85875659.934850931 0 -85875659.934850931 -49427774.79435873 0 0 0 0 211790220.31667519 -26876157.660505533 0 -26876157.660505533 -77429471.381981373 0 0 0 0 465154484.39749146 -14940913.287722588 0 -14940913.287722588 -89160269.311621666 0 0 0 0 418652653.08158112 -25885055.264340401 0 -25885055.264340401 -73297091.128536224 0 0 0 0 300875310.64979935 -21904653.185242653 0 -21904653.185242653 -538638.87161445618 0 0 0 0 4468314.0268478394 -7097072.6512408257 0 -7097072.6512408257 -48507523.85820961 0 0 0 0 3393131.8175150044 -3798193.9322763868 0 -3798193.9322763868 -3919090.9441855485 0 0 0 0 400861889.46448517 -41238123.94463253 0 -41238123.94463253 -9924970.5058174133 0 0 0 0 471160992.0891223 -162827066.01303953 0 -162827066.01303953 42781536.337489128 0 0 0 0 -724074.40518160909 78948.082886245102 0 78948.082886245102 1354496.3807362358 0 0 0 0 -91509804.274551392 297948034.70379019 0 297948034.70379019 -285209445.14616466 0 0 0 0 -130362298.79794693 95710553.507036775 0 95710553.507036775 -165938132.15082169 0 0 0 0 -26071897.343360901 28570884.634296924 0 28570884.634296924 -126030721.64381266 0 0 0 0 -46163571.772262573 84143432.550771713 0 84143432.550771713 -241619680.68567944 0 0 0 0 -62187360.939529419 89366247.229107857 0 89366247.229107857 -140616069.16910744 0 0 0 0 -1622293.174336575 3798632.8335055783 0 3798632.8335055783 3721448.2616917179 0 0 0 0 -137653141.17137146 119484283.02678633 0 119484283.02678633 -139358606.15808773 0 0 0 0 -84405486.531890869 181485698.64704514 0 181485698.64704514 -236903997.79256654 0 0 0 0 69210331.632709503 -38570911.317714214 0 -38570911.317714214 -33207055.360570908 0 0 0 0 75519101.394004822 -105629979.19229889 0 -105629979.19229889 12784948.656429291 0 0 0 0 3212819.508199079 -5123432.5386996232 0 -5123432.5386996232 -3591397.6349541871 0 0 0 0 -76858773.60043335 -44216155.494541168 0 -44216155.494541168 6302028.9856595993 0 0 0 0 332593520.30944824 -35355772.294886589 0 -35355772.294886589 -26466640.312895775 0 0 0 0 558116855.02481079 37879957.425882339 0 37879957.425882339 -39844359.42526412 0 0 0 0 307640802.11480331 -46862389.927769661 0 -46862389.927769661 75819091.069501877 0 0 0 0 306984233.56318665 -27512681.902113914 0 -27512681.902113914 -16291785.886513233 0 0 0 0 375591323.11678648 458297263.93312669 0 458297263.93312669 275519322.67903137 0 0 0 0 313684333.82863617 279228006.49572659 0 279228006.49572659 48595740.817083836 0 0 0 0 266148184.08198929 550246328.67705798 0 550246328.67705798 469940967.74540138 0 0 0 0 93972415.272890091 13730668.954432964 0 13730668.954432964 -193089253.29347944 0 0 0 0 194836653.78170776 -10083045.770929456 0 -10083045.770929456 -176355721.39944315 0 0 0 0 28978913.05619812 256273344.82624102 0 256273344.82624102 131859937.54823732 0 0 0 0 139170038.43292236 -43257193.629742622 0 -43257193.629742622 -105793930.00926971 0 0 0 0 145498628.30099487 31270203.068804741 0 31270203.068804741 -198779797.16585851 0 0 0 0 91214400.040122986 -616389.5598950386 0 -616389.5598950386 -134805273.93573761 0 0 0 0 83631599.070800781 12062646.059179425 0 12062646.059179425 -142179548.9279139 0 0 0 0 11253267.333068848 12129729.654099464 0 12129729.654099464 -119858716.88821316 0 0 0 0 28871012.344146729 50967070.009643555 0 50967070.009643555 -163356428.85154629 0 0 0 0 -21228789.609634399 25122390.124740124 0 25122390.124740124 -102961457.52704525 0 0 0 0 72542856.767532349 33949071.205221176 0 33949071.205221176 -148990436.02769899 0 0 0 0 406369561.10774231 76902765.864890099 0 76902765.864890099 -100426046.88426208 0 0 0 0 72416636.620986938 30627092.936764717 0 30627092.936764717 -27694282.083342552 0 0 0 0 919013534.21591949 216391257.72557545 0 216391257.72557545 -114305709.29600525 0 0 0 0 49462245.789030075 -5059715.6357183456 0 -5059715.6357183456 -31380335.184406281 0 0 0 0 -16516550.475143433 159544492.05191517 0 159544492.05191517 -129391468.37562656 0 0 0 0 -2436113.2005349323 3003970.1999259293 0 3003970.1999259293 4736560.3483680049 0 0 0 0 -2102079.3832969666 86683443.874091625 0 86683443.874091625 -67981891.301278114 0 0 0 0 238853865.62980652 63910668.6425457 0 63910668.6425457 -71699413.492748737 0 0 0 0 59285199.55506897 128285131.25923347 0 128285131.25923347 210158330.59307098 0 0 0 0 -1514687.7143572569 1317390.0096165314 0 1317390.0096165314 2613827.2860324662 0 0 0 0 248992937.28905487 737362018.51201916 0 737362018.51201916 727738405.32716179 0 0 0 0 597410609.06141853 801192517.44700861 0 801192517.44700861 613679186.82297897 0 0 0 0 402079422.09742737 510215643.93771839 0 510215643.93771839 231741327.35839272 0 0 0 0 397918150.47361755 570558423.02400494 0 570558423.02400494 317682286.23886108 0 0 0 0 580490290.18524933 454056309.10788059 0 454056309.10788059 385662652.48855972 0 0 0 0 556286710.20877075 374898211.96473789 0 374898211.96473789 161626876.80951118 0 0 0 0 -2022249.1848112866 -435134.02291085012 0 -435134.02291085012 2522957.826764768 0 0 0 0 840975471.16768265 -9241947.9089875221 0 -9241947.9089875221 66398967.532766342 0 0 0 0 925377143.22851944 424354564.61447906 0 424354564.61447906 -240549213.1644783 0 0 0 0 1135454796.4453888 106680949.96321964 0 106680949.96321964 -244184577.05853653 0 0 0 0 930975762.00127411 495112152.21861601 0 495112152.21861601 164339649.39233854 0 0 0 0 718087995.84838867 682749973.00389671 0 682749973.00389671 301780644.34736681 0 0 0 0 215724596.77050018 -75892390.470758438 0 -75892390.470758438 58637544.683317184 0 0 0 0 202236846.6803894 -121896693.43816757 0 -121896693.43816757 -87309302.408489227 0 0 0 0 11058131.74131012 146121577.25663185 0 146121577.25663185 30967472.931383848 0 0 0 0 522723731.35245514 156982346.23799229 0 156982346.23799229 26661955.837585449 0 0 0 0 189028026.43479919 -67173227.100728035 0 -67173227.100728035 71873637.498132706 0 0 0 0 176574753.75743103 -100577391.78772783 0 -100577391.78772783 43330679.614555359 0 0 0 0 2093387.1071865987 296962.69585609995 0 296962.69585609995 5974888.6297307834 0 0 0 0 217808497.76076508 -169935140.50554323 0 -169935140.50554323 152098888.37911987 0 0 0 0 -3222942.1283765882 -346609.22449338529 0 -346609.22449338529 1664145.638500436 0 0 0 0 2718932.0833560787 4956994.9228384737 0 4956994.9228384737 2406261.7880194234 0 0 0 0 506555.50739192963 1594203.7119252682 0 1594203.7119252682 -143346.94338226318 0 0 0 0 256043755.22746277 -212153199.70875645 0 -212153199.70875645 174290942.39684057 0 0 0 0 2256586.8060680684 329313.98246039264 0 329313.98246039264 2977705.1738494206 0 0 0 0 14298901.371553421 -20999750.823079586 0 -20999750.823079586 -21229666.710144043 0 0 0 0 564901621.52113342 -900156169.85660696 0 -900156169.85660696 -410421485.25369501 0 0 0 0 461160122.84906006 -165483182.68479347 0 -165483182.68479347 79905407.43945086 0 0 0 0 534190489.48119354 -247612340.61517215 0 -247612340.61517215 -451657221.84486389 0 0 0 0 300367251.57086372 68935705.966631174 0 68935705.966631174 25260908.674257278 0 0 0 0 1891628941.8675995 -62073486.345713615 0 -62073486.345713615 -775616750.23870659 0 0 0 0 707024412.35238647 -31926658.656478405 0 -31926658.656478405 -203295311.34967709 0 0 0 0 1020222907.308548 1134623367.6200647 0 1134623367.6200647 2676554990.3119926 0 0 0 0 2337022847.8148422 -901963162.9210453 0 -901963162.9210453 408410397.78869629 0 0 0 0 -578624656.31095123 351727799.95219088 0 351727799.95219088 587411876.87979078 0 0 0 0 -1527484.9621715546 6022916.1751375198 0 6022916.1751375198 7649547.69921875 0 0 0 0 -1148345.5378822759 2028901.7743996698 0 2028901.7743996698 10244527.262840815 0 0 0 0 1435445402.2528381 691408118.21944523 0 691408118.21944523 -104666476.07688332 0 0 0 0 2682100486.7809753 885040732.9596014 0 885040732.9596014 -375937008.18205047 0 0 0 0 4570375.3110880852 1990989.4931102134 0 1990989.4931102134 1033846.7759569729 0 0 0 0 728516284.60728073 1387470807.0748401 0 1387470807.0748401 1802350201.2113597 0 0 0 0 247421024.46256256 268078163.19133109 0 268078163.19133109 175397348.8909725 0 0 0 0 -59261888.014995575 53315336.875184536 0 53315336.875184536 273800748.31874561 0 0 0 0 -58255239.679901123 12175795.771876812 0 12175795.771876812 4937024.1819677353 0 0 0 0 1153436784.7876873 696898695.19104481 0 696898695.19104481 -60284450.583244324 0 0 0 0 1735886793.0083923 903203517.38311481 0 903203517.38311481 79437399.23625946 0 0 0 0 1167731397.8203201 597584756.35571146 0 597584756.35571146 -62555009.828292847 0 0 0 0 1897243029.0115051 678379988.32706451 0 678379988.32706451 -482158962.95310497 0 0 0 0 2066708626.0650177 -454878398.87472963 0 -454878398.87472963 -186719487.83077669 0 0 0 0 2850383304.407917 1008552320.5349052 0 1008552320.5349052 -394341707.6533165 0 0 0 0 1068508059.885498 1095017790.2173042 0 1095017790.2173042 205049259.94752526 0 0 0 0 1857492606.6936722 594675326.98931646 0 594675326.98931646 -467061830.93793869 0 0 0 0 -8074505.334022522 2305586.7019200325 0 2305586.7019200325 5285830.7935066223 0 0 0 0 -76069589.44908905 52571696.242437363 0 52571696.242437363 -20167197.351356506 0 0 0 0 -6066915.4597396851 4076124.4947223663 0 4076124.4947223663 6971816.3800773621 0 0 0 0 565924.17643457837 2989266.7917166371 0 2989266.7917166371 6744580.7524985503 0 0 0 0 -10131063.705753326 4610673.2721452713 0 4610673.2721452713 8893745.7335662842 0 0 0 0 -16122886.892303467 -5720144.819981575 0 -5720144.819981575 4312237.5818166733 0 0 0 0 -13221668.959327698 1270221.3328800201 0 1270221.3328800201 7850151.1769294739 0 0 0 0 -10068370.172912598 -732062.48961448669 0 -732062.48961448669 2038136.9648799896 0 0 0 0 4120021331.1345901 297390143.39842987 0 297390143.39842987 -193705633.3603096 0 0 0 0 2666678970.2829285 805346679.86137009 0 805346679.86137009 -419006138.92592144 0 0 0 0 2430214376.3959045 573131334.73542881 0 573131334.73542881 263262699.67420197 0 0 0 0 536585.10182651505 234883.43748293631 0 234883.43748293631 134885.60762638692 0 0 0 0 1750282629.5690308 828014078.57907295 0 828014078.57907295 235830734.31136322 0 0 0 0 -228464.54063000623 544589.5343228206 0 544589.5343228206 2175256.1444325522 0 0 0 0 2255891549.2823849 199892292.47796226 0 199892292.47796226 979622629.32584763 0 0 0 0 1890057603.6100998 1600649312.7971172 0 1600649312.7971172 871866253.67637825 0 0 0 0 3556953050.4014053 1270897659.1339693 0 1270897659.1339693 53735889.156267166 0 0 0 0 8597362.1584758759 79709068.029602289 0 79709068.029602289 644811027.35118294 0 0 0 0 1906262.3726011626 1409755.7513529602 0 1409755.7513529602 -221966.26338258199 0 0 0 0 1946055570.9614611 1185475407.7357769 0 1185475407.7357769 372648689.11705399 0 0 0 0 2290316.0595566444 -170862.22902605496 0 -170862.22902605496 -1114251.5077220425 0 0 0 0 392123466.88146973 206984666.23775101 0 206984666.23775101 59291705.737081528 0 0 0 0 513350190.1795578 394965354.07782173 0 394965354.07782173 -34945113.11277914 0 0 0 0 2337185784.4672699 514642514.42330313 0 514642514.42330313 132903775.72694206 0 0 0 0 850996815.60507965 1266594062.6463223 0 1266594062.6463223 183881902.1961211 0 0 0 0 -67852308.045284271 -215116945.91201675 0 -215116945.91201675 -11418328.32617569 0 0 0 0 4213956.8303871155 91172193.829476833 0 91172193.829476833 79226032.886793733 0 0 0 0 -50581199.161872864 -46518395.619697094 0 -46518395.619697094 44330322.774988174 0 0 0 0 294659071.61206818 -553579080.40126896 0 -553579080.40126896 460427771.16523361 0 0 0 0 1172682020.46978 350282544.41932392 0 350282544.41932392 -267293426.82627058 0 0 0 0 3729279.7439208403 -188789.32675929368 0 -188789.32675929368 2417915.833534779 0 0 0 0 897328615.10133362 375712938.11872101 0 375712938.11872101 522113784.99779606 0 0 0 0 11621127.342674255 3474011.2029094696 0 3474011.2029094696 21860666.105091095 0 0 0 0 -43852172.67830658 23745577.931855202 0 23745577.931855202 18020618.194499969 0 0 0 0 3541829.9187393188 25717997.351220131 0 25717997.351220131 13503696.036317825 0 0 0 0 28808545.941633224 59402213.107884884 0 59402213.107884884 -18208857.981243134 0 0 0 0 19953077.665393829 46356120.647519112 0 46356120.647519112 4597153.5599784851 0 0 0 0 33909241.406627655 34331188.223361969 0 34331188.223361969 -5036756.0536746979 0 0 0 0 9971543.2552509308 49272137.715382576 0 49272137.715382576 -10502469.491794586 0 0 0 0 -8897596.1417236328 58197424.222948074 0 58197424.222948074 -6067255.3102092743 0 0 0 0 12509138.263038635 52964717.014457226 0 52964717.014457226 -11888619.792263031 0 0 0 0 -12066700.473167419 80313995.761705399 0 80313995.761705399 -36932430.167539597 0 0 0 0 -8760013.1386413574 48760428.633960724 0 48760428.633960724 -9830495.5059375763 0 0 0 0 -7579836.9001846313 39215539.334888697 0 39215539.334888697 11500609.113555908 0 0 0 0 -67250467.346374512 85034934.592168808 0 85034934.592168808 13223024.146332741 0 0 0 0 -42635625.61806488 57354176.132333755 0 57354176.132333755 10281244.869663239 0 0 0 0 -176673749.64329147 -51183705.812084675 0 -51183705.812084675 60781517.348705292 0 0 0 0 -9056078.2978668213 -47527395.483754158 0 -47527395.483754158 37203253.187351227 0 0 0 0 1949472.8974769972 526692.55352126248 0 526692.55352126248 -980183.86448653229 0 0 0 0 6211044.7883110046 -25770009.977565765 0 -25770009.977565765 -1552325.457736969 0 0 0 0 510280485.14553833 487843503.7189579 0 487843503.7189579 188297837.22463608 0 0 0 0 367117715.17502213 288689907.61773407 0 288689907.61773407 282087951.87744331 0 0 0 0 -9630748.7127914429 -2881243.2916641235 0 -2881243.2916641235 -751499.79497337341 0 0 0 0 -16669638.185617447 -1864227.5877431631 0 -1864227.5877431631 10294736.18662262 0 0 0 0 -10646176.901527405 -8447281.2750549316 0 -8447281.2750549316 29169680.842256546 0 0 0 0 -43614579.612738788 -22837251.50765273 0 -22837251.50765273 22904725.476825714 0 0 0 0 -10233147.329441071 -7294734.8934473991 0 -7294734.8934473991 9570461.3243713379 0 0 0 0 -15669024.158008575 -8853549.292263031 0 -8853549.292263031 38828837.379192352 0 0 0 0 -7346276.5810127258 12029126.826600075 0 12029126.826600075 31821582.625558853 0 0 0 0 -15165782.608963013 2267652.7178916931 0 2267652.7178916931 23107153.07220459 0 0 0 0 -12654854.641960144 1631143.1388969421 0 1631143.1388969421 7099889.3193445206 0 0 0 0 -12347680.474464417 12911372.343286514 0 12911372.343286514 12595403.585720062 0 0 0 0 -5965317.1832809448 11013713.951757431 0 11013713.951757431 7309219.3607330322 0 0 0 0 -14723047.970870972 43414416.384233475 0 43414416.384233475 1129800.2916164398 0 0 0 0 -12427067.384206772 11501471.691709042 0 11501471.691709042 35334274.412582397 0 0 0 0 -42079652.577972412 15315925.054210663 0 15315925.054210663 67013161.899606705 0 0 0 0 119348068.73703766 24639943.423727036 0 24639943.423727036 22611826.14056015 0 0 0 0 28964642.074886322 -32225693.074040413 0 -32225693.074040413 57820158.94203949 0 0 0 0 47787631.575798035 5693927.8542366028 0 5693927.8542366028 17974055.542819977 0 0 0 0 34426616.690983772 68361837.296263456 0 68361837.296263456 24186158.342922211 0 0 0 0 32569822.086227417 45645792.745450974 0 45645792.745450974 43677527.181243896 0 0 0 0 61048558.086433411 62578272.076292038 0 62578272.076292038 10946270.111221313 0 0 0 0 93715652.331871033 91532402.177249908 0 91532402.177249908 69905922.410274506 0 0 0 0 143699856.2085228 -23359024.257436752 0 -23359024.257436752 -159311076.28064346 0 0 0 0 699335.74181366712 850750.34908579849 0 850750.34908579849 -223753.70477220602 0 0 0 0 125985.02313579246 4683548.7108954638 0 4683548.7108954638 887684.19396490208 0 0 0 0 108995149.44258118 21770563.040306091 0 21770563.040306091 -100977507.04520226 0 0 0 0 2841300.4723320007 67883190.872318268 0 67883190.872318268 149757444.45471191 0 0 0 0 124600107.94532204 79211985.060132623 0 79211985.060132623 -62783971.384853363 0 0 0 0 129116801.32055759 38242936.961969495 0 38242936.961969495 -15713836.278461456 0 0 0 0 86761487.884378433 104964991.87826633 0 104964991.87826633 -58896073.580739975 0 0 0 0 89946435.830734253 80959394.752848625 0 80959394.752848625 29040527.766925812 0 0 0 0 44452268.657592773 81824568.883987427 0 81824568.883987427 68950204.204191208 0 0 0 0 82203036.303398132 193629719.55483341 0 193629719.55483341 112250799.8938179 0 0 0 0 97474488.345306396 187868018.03867722 0 187868018.03867722 32058297.091266632 0 0 0 0 44413774.526687622 165593291.0421772 0 165593291.0421772 208693602.52761459 0 0 0 0 242045114.72386169 -91794907.996505737 0 -91794907.996505737 -155172589.50985718 0 0 0 0 297101.52690192685 1217932.8963952195 0 1217932.8963952195 593865.14945312683 0 0 0 0 344859003.08772659 -61524220.672459602 0 -61524220.672459602 -181253608.46500015 0 0 0 0 -9443681.8512115479 47260820.973129272 0 47260820.973129272 259058177.26597404 0 0 0 0 35195057.292686462 81702722.250775337 0 81702722.250775337 105957866.38206863 0 0 0 0 -4731443.8446960449 -8129520.6928806305 0 -8129520.6928806305 101005728.86857224 0 0 0 0 977986.72078902274 3312674.1588188037 0 3312674.1588188037 1191648.7783177625 0 0 0 0 -2500110.9902801514 6869540.5963783264 0 6869540.5963783264 7434428.552734375 0 0 0 0 -60937549.882095337 -23784705.320514679 0 -23784705.320514679 -18030387.171539307 0 0 0 0 5147954.3131866455 9421341.4431934357 0 9421341.4431934357 6508866.7195301056 0 0 0 0 3128637.9861068726 17525471.028331757 0 17525471.028331757 -24010743.24915123 0 0 0 0 1112199.2654522955 1960134.1885686219 0 1960134.1885686219 127887.43687803671 0 0 0 0 193026205.65356159 -155536878.23434162 0 -155536878.23434162 -104000616.12388802 0 0 0 0 -150277500.84060669 158880865.68196106 0 158880865.68196106 180080144.51025462 0 0 0 0 -109424185.55252075 -52758953.631155014 0 -52758953.631155014 205483261.81443214 0 0 0 0 -56457053.10043335 98597376.204961777 0 98597376.204961777 -49504278.616300583 0 0 0 0 -49922770.926040649 1495585.7050895691 0 1495585.7050895691 1117605.388584137 0 0 0 0 -116147669.93245983 -8761999.1624016762 0 -8761999.1624016762 5878598.9711914062 0 0 0 0 -13129367.077091217 -1356519.8292865753 0 -1356519.8292865753 4049885.8304977417 0 0 0 0 -3988017.8010635376 -1399718.5452032089 0 -1399718.5452032089 -5768224.7146587372 0 0 0 0 67478.193057183176 3100810.1067867237 0 3100810.1067867237 2700290.4561507665 0 0 0 0 2707192.9277191162 -7425733.6210803986 0 -7425733.6210803986 -2385798.2323799133 0 0 0 0 -5189740.8652801514 -1205034.9409580231 0 -1205034.9409580231 23205792.877700806 0 0 0 0 22889993.412223816 35520915.330646515 0 35520915.330646515 34031542.858585358 0 0 0 0 11731099.037784576 7787616.5243549347 0 7787616.5243549347 942073.50717735291 0 0 0 0 -10777047.947372437 -6364964.1307678223 0 -6364964.1307678223 13657839.521438599 0 0 0 0 51150483.06085968 -96368452.661569595 0 -96368452.661569595 116316820.02409649 0 0 0 0 -56329913.207256317 189351421.11424732 0 189351421.11424732 80815040.530433655 0 0 0 0 176476230.80530167 -98176582.098225594 0 -98176582.098225594 -151413425.07639313 0 0 0 0 261389179.06524658 -62695214.757850647 0 -62695214.757850647 -178078526.60652924 0 0 0 0 294715.97068202123 906230.20592802344 0 906230.20592802344 727652.32076300681 0 0 0 0 49687255.826637268 61938763.556043625 0 61938763.556043625 73289917.11402607 0 0 0 0 199833819.33551025 67969260.680482864 0 67969260.680482864 -3847447.0151824951 0 0 0 0 84196710.140708923 37213604.14466095 0 37213604.14466095 -10310593.909784317 0 0 0 0 257687786.49269295 -57227766.795567036 0 -57227766.795567036 -52219186.074634552 0 0 0 0 67970011.344528198 -60092130.031433105 0 -60092130.031433105 -34993177.306503296 0 0 0 0 64788284.320671082 -12805281.828954697 0 -12805281.828954697 -15006423.374708176 0 0 0 0 135598727.36193466 -19386862.727293015 0 -19386862.727293015 -24022314.675926208 0 0 0 0 54005596.200328827 20390364.687257767 0 20390364.687257767 -5356762.4764480591 0 0 0 0 68655651.967487335 20185192.133608818 0 20185192.133608818 -5568812.5307044983 0 0 0 0 69523581.573760986 9993013.5467720032 0 9993013.5467720032 -11878449.953426361 0 0 0 0 55607300.522331238 11512771.054243088 0 11512771.054243088 -6920705.0151576996 0 0 0 0 50076263.202537537 4675568.9880847931 0 4675568.9880847931 -3100713.234205246 0 0 0 0 66009303.849682808 -901279.99181675911 0 -901279.99181675911 -2370763.2173805237 0 0 0 0 56788193.914058685 10460847.525770187 0 10460847.525770187 1831728.2045021057 0 0 0 0 56962385.288642883 11489121.247056007 0 11489121.247056007 -7097337.1613464355 0 0 0 0 53291274.305435181 13711560.778057098 0 13711560.778057098 -702941.82674217224 0 0 0 0 57607885.777104378 12864359.636068106 0 12864359.636068106 -1110073.1440124512 0 0 0 0 54304875.367774963 14972018.481491089 0 14972018.481491089 7505485.6785911322 0 0 0 0 33023045.355911255 -15389233.471930504 0 -15389233.471930504 -51068929.902887344 0 0 0 0 57365640.980201721 15859550.977546692 0 15859550.977546692 1161348.4238724709 0 0 0 0 29793085.763863623 -7140457.6652718559 0 -7140457.6652718559 -16755934.505182173 0 0 0 0 450468481.33236694 -132794229.06462097 0 -132794229.06462097 -110988201.38613701 0 0 0 0 138206545.18466187 57713380.460536957 0 57713380.460536957 -53896991.030776978 0 0 0 0 170822404.4359436 76260197.523979187 0 76260197.523979187 -79504360.117027283 0 0 0 0 385869990.90777016 132249619.67097569 0 132249619.67097569 -72513290.883262634 0 0 0 0 168241812.81355286 57212674.794868469 0 57212674.794868469 -54045603.5192976 0 0 0 0 186911591.18188477 -118382648.80335236 0 -118382648.80335236 -109499357.74375153 0 0 0 0 163150276.62643433 -5885333.9920959473 0 -5885333.9920959473 -93426407.849250793 0 0 0 0 305664159.22064209 31330189.849536896 0 31330189.849536896 -92886625.370361328 0 0 0 0 58838361.46950531 7835895.3275718689 0 7835895.3275718689 -2703753.7132530212 0 0 0 0 43843962.875 5469609.9743118286 0 5469609.9743118286 -1179846.8539180756 0 0 0 0 53790607.624610901 9611067.4478340149 0 9611067.4478340149 -5074703.5329856873 0 0 0 0 38540400.08026886 8120280.6353149414 0 8120280.6353149414 980591.54535675049 0 0 0 0 45314909.585945129 13577107.8477211 0 13577107.8477211 -4148515.3442230225 0 0 0 0 36961002.532081604 11953785.958921909 0 11953785.958921909 -2601271.6236991882 0 0 0 0 7982141.0953759719 -2091814.8804444503 0 -2091814.8804444503 -1604099.9594273604 0 0 0 0 485197930.8056941 -193520110.03436005 0 -193520110.03436005 66021072.451946259 0 0 0 0 -2060171.3966688588 -465128.16334300116 0 -465128.16334300116 2483734.302461572 0 0 0 0 502929990.74889374 8424574.6167259216 0 8424574.6167259216 105373137.87319946 0 0 0 0 46030676.179920197 181847376.24156952 0 181847376.24156952 -79250947.799603939 0 0 0 0 37212745.026855469 10150340.306430817 0 10150340.306430817 -4517697.4189867973 0 0 0 0 37400831.516220093 2667625.5916957855 0 2667625.5916957855 -10489939.471386075 0 0 0 0 42230084.894111633 10266131.66268158 0 10266131.66268158 -4081043.251467824 0 0 0 0 51949527.553218842 15931341.930429459 0 15931341.930429459 -5665267.540473938 0 0 0 0 42632192.287315369 10848194.613256454 0 10848194.613256454 -10270453.992404938 0 0 0 0 332280715.74861717 -107216746.38103676 0 -107216746.38103676 -51372888.135955811 0 0 0 0 3227262.8638696959 -1674045.5063047893 0 -1674045.5063047893 2588327.8639351465 0 0 0 0 -1179545.8084640503 13329845.690683842 0 13329845.690683842 12908578.105747223 0 0 0 0 184397766.73987579 3865008.0353050232 0 3865008.0353050232 -6195897.1853656769 0 0 0 0 -3277122.3831155971 -667391.69675605558 0 -667391.69675605558 4173845.0661947653 0 0 0 0 173600199.59766865 -32855195.584798455 0 -32855195.584798455 9829903.8836593628 0 0 0 0 245144588.37953186 -101995369.94077682 0 -101995369.94077682 -36340965.324922562 0 0 0 0 174210773.07893944 -27796703.064083457 0 -27796703.064083457 -50989138.639549255 0 0 0 0 172994922.49556732 -122165409.40065765 0 -122165409.40065765 54086669.889633179 0 0 0 0 149432647.67663574 -75198151.639923096 0 -75198151.639923096 -60812749.709150314 0 0 0 0 248324791.78193665 209109722.23443794 0 209109722.23443794 276845048.00333405 0 0 0 0 540202653.35623932 147340814.07668209 0 147340814.07668209 65577187.957403183 0 0 0 0 291530866.45788574 -114754293.81043625 0 -114754293.81043625 48207642.890956879 0 0 0 0 318288355.75997162 -78280259.875229836 0 -78280259.875229836 -143716586.05438232 0 0 0 0 280664036.68561935 1289778.5489091873 0 1289778.5489091873 -124059787.78741837 0 0 0 0 210768229.85057068 -26812287.945400238 0 -26812287.945400238 13207225.058253288 0 0 0 0 -80561585.031494141 39286203.393001556 0 39286203.393001556 -100646584.66284752 0 0 0 0 282903510.31799316 -46261177.109779358 0 -46261177.109779358 -152142873.65961075 0 0 0 0 316199211.28038788 -106010626.89512825 0 -106010626.89512825 -161206581.2019577 0 0 0 0 870020763.60369873 25601945.26631546 0 25601945.26631546 -151351684.1102252 0 0 0 0 177433072.44701004 -51043925.291582108 0 -51043925.291582108 -122019088.45186615 0 0 0 0 180423019.67011833 -64973003.572496414 0 -64973003.572496414 -218012774.99670029 0 0 0 0 -13750375.20716095 99282486.694713593 0 99282486.694713593 -9875717.9356918335 0 0 0 0 13502542.39397049 -19847059.165086269 0 -19847059.165086269 -32081294.363220215 0 0 0 0 190441611.09152222 86316737.766105652 0 86316737.766105652 -53838434.580871582 0 0 0 0 200454799.00440216 -37677586.898084641 0 -37677586.898084641 -113073604.81998444 0 0 0 0 276176697.82827377 -32963074.675346375 0 -32963074.675346375 -166828401.10447693 0 0 0 0 243319646.98930359 -39780560.972606659 0 -39780560.972606659 -113460581.29915667 0 0 0 0 279335075.32017517 194911879.53630066 0 194911879.53630066 -18928160.261756897 0 0 0 0 497545432.83560181 16352595.626472473 0 16352595.626472473 -161347445.13359261 0 0 0 0 14876346.130737305 164105264.94193268 0 164105264.94193268 -6240953.6511764526 0 0 0 0 70115233.32258606 45152846.936920166 0 45152846.936920166 -48885421.518875122 0 0 0 0 96110878.28793335 81758371.075298309 0 81758371.075298309 -44394418.351589203 0 0 0 0 94753200.26461792 80561307.692437172 0 80561307.692437172 -16640856.159431458 0 0 0 0 109720559.49900818 88486006.554489136 0 88486006.554489136 -34139699.187057495 0 0 0 0 79489094.480224609 62377052.67276001 0 62377052.67276001 -18808267.955674171 0 0 0 0 116529590.15840149 46213029.731395721 0 46213029.731395721 -55918141.061462402 0 0 0 0 61646113.611618042 40998523.839828491 0 40998523.839828491 -53071429.235866547 0 0 0 0 95587202.736976624 16772449.479904175 0 16772449.479904175 -62054665.723022461 0 0 0 0 551169.55653381348 53526658.867961884 0 53526658.867961884 -43395299.327301025 0 0 0 0 72025606.085525513 70712015.713265419 0 70712015.713265419 -64723265.968521118 0 0 0 0 2998041.1151521038 -89222.895239602774 0 -89222.895239602774 102669.58627337217 0 0 0 0 652562579.93882751 241159488.33172607 0 241159488.33172607 92376731.111465454 0 0 0 0 -152032220.06087494 110080122.46115112 0 110080122.46115112 11808680.343048096 0 0 0 0 2809663.9557589851 -541743.20433991682 0 -541743.20433991682 -1544446.9791160002 0 0 0 0 -2031754.1895980835 44286232.957327843 0 44286232.957327843 -64762054.462173462 0 0 0 0 672874532.17631531 -377158024.66210175 0 -377158024.66210175 -293775789.82379913 0 0 0 0 363334137.04135132 324901690.83894539 0 324901690.83894539 787543786.44636536 0 0 0 0 28695560.565704346 3576491.5124053955 0 3576491.5124053955 -16806791.211555481 0 0 0 0 9686181.9672608022 -6099336.4171470888 0 -6099336.4171470888 -7887240.42297782 0 0 0 0 53243913.179145813 30956831.957141876 0 30956831.957141876 -44354895.384597778 0 0 0 0 27800720.84200938 10971833.211459221 0 10971833.211459221 -8329508.1405385733 0 0 0 0 39114545.211177826 25616723.207575798 0 25616723.207575798 -43362587.030136108 0 0 0 0 11361858.845993042 65560878.645633698 0 65560878.645633698 -65311143.837232947 0 0 0 0 15914783.399651632 9355772.1010152213 0 9355772.1010152213 -2667785.9367828667 0 0 0 0 14811783.114837646 72582599.337177277 0 72582599.337177277 -55319300.287258148 0 0 0 0 -1972302.8950419798 3240477.6635145629 0 3240477.6635145629 5301514.4677589107 0 0 0 0 -93795002.230596542 233454483.47391653 0 233454483.47391653 -245025291.78702927 0 0 0 0 -94013537.409664154 226183416.81322098 0 226183416.81322098 -339161771.72636032 0 0 0 0 108459100.77391052 -235098339.43325806 0 -235098339.43325806 42807116.895423889 0 0 0 0 -123849601.6265564 306209437.62309265 0 306209437.62309265 180711606.48008728 0 0 0 0 840542887.51690292 18202995.633328438 0 18202995.633328438 -168409267.73369598 0 0 0 0 -1335723.1819523871 1531923.9678915925 0 1531923.9678915925 2809511.9988864549 0 0 0 0 -202271449.01305389 79811583.7607584 0 79811583.7607584 106883651.31188202 0 0 0 0 -93633854.804265976 -13091900.072320938 0 -13091900.072320938 75773020.698722839 0 0 0 0 19670613.14994812 126010814.15105057 0 126010814.15105057 45645226.644096375 0 0 0 0 -142722908.57155609 117247582.88021088 0 117247582.88021088 129759130.17024612 0 0 0 0 22192000.012733817 238966190.50488222 0 238966190.50488222 -26432016.842025757 0 0 0 0 340214388.40306091 461189599.35598755 0 461189599.35598755 128809281.68381119 0 0 0 0 314922548.5398407 141798503.68149567 0 141798503.68149567 -50087851.907012939 0 0 0 0 87179937.423603058 76884336.376854897 0 76884336.376854897 5260891.3971557617 0 0 0 0 97498707.027702332 92146470.808082581 0 92146470.808082581 -60099717.581085205 0 0 0 0 -11017003.847240448 47106258.624207497 0 47106258.624207497 23117857.355163574 0 0 0 0 10509707.05960083 100448148.11209869 0 100448148.11209869 30668042.923818588 0 0 0 0 27040885.424682617 -3629355.5162467957 0 -3629355.5162467957 -8696934.4465351105 0 0 0 0 19989947.706030115 -675634.41427445039 0 -675634.41427445039 -10320927.015717283 0 0 0 0 23407950.565162659 2388510.3893299103 0 2388510.3893299103 -10792335.650512695 0 0 0 0 13181952.779736519 12456317.33423233 0 12456317.33423233 -13145433.87172699 0 0 0 0 14339023.848608017 3458657.0363047123 0 3458657.0363047123 -1899528.04322052 0 0 0 0 16791945.951188043 -2677186.8456165157 0 -2677186.8456165157 -16441626.846260548 0 0 0 0 78575430.564025879 -42888997.650554657 0 -42888997.650554657 -81415959.746337891 0 0 0 0 965545438.48930359 162043159.12133026 0 162043159.12133026 -499770881.67195129 0 0 0 0 242188066.40298462 -61760744.704620361 0 -61760744.704620361 -328086511.30953979 0 0 0 0 145130919.18579865 41576746.429424286 0 41576746.429424286 -7803126.2051925659 0 0 0 0 42429456.689300537 -13735930.062521935 0 -13735930.062521935 -28867791.558806121 0 0 0 0 24325698.474456787 -6848939.2757205963 0 -6848939.2757205963 -29002062.792068601 0 0 0 0 45247360.196837425 15760772.78015852 0 15760772.78015852 -51960773.773983002 0 0 0 0 148526359.87319946 39260369.159645081 0 39260369.159645081 -31063062.389740944 0 0 0 0 26941420.903259277 9015206.6297674179 0 9015206.6297674179 -35658346.940485001 0 0 0 0 25575678.613820761 4850074.8384173643 0 4850074.8384173643 -10860663.265545761 0 0 0 0 15891548.744155884 5945386.2898826599 0 5945386.2898826599 -16492919.082798958 0 0 0 0 48651376.251434326 -7230338.9213256836 0 -7230338.9213256836 -10390368.093760252 0 0 0 0 28445220.871780396 -6284491.7016277313 0 -6284491.7016277313 -12169812.533985138 0 0 0 0 14613847.150772095 -3228084.5558242798 0 -3228084.5558242798 1159805.091917038 0 0 0 0 18205578.48327022 5465537.8018137924 0 5465537.8018137924 -6684866.3803516561 0 0 0 0 10731104.180789741 -5797955.4982551411 0 -5797955.4982551411 -5802789.6858484009 0 0 0 0 30314237.618156433 742301.28583335876 0 742301.28583335876 -16589294.112035751 0 0 0 0 25482062.756385326 82182984.667246431 0 82182984.667246431 -33497145.222738266 0 0 0 0 -26134480.704956055 -5437002.7359142303 0 -5437002.7359142303 15785518.775294304 0 0 0 0 -22138855.053344727 -20583713.94806385 0 -20583713.94806385 27435668.861039162 0 0 0 0 -34330706.617980957 -13050532.466645718 0 -13050532.466645718 31807797.011235237 0 0 0 0 18508416.55115509 -49709578.053241253 0 -49709578.053241253 -24874352.851270676 0 0 0 0 -28436122.437973022 -199101.73490667343 0 -199101.73490667343 4802822.5544052124 0 0 0 0 -29825260.511047363 -31010126.61061573 0 -31010126.61061573 61858027.375198364 0 0 0 0 -411963.18851562217 -8393.8333894908428 0 -8393.8333894908428 398938.43412433658 0 0 0 0 278174355.15138626 106289165.54931736 0 106289165.54931736 -59163896.672599792 0 0 0 0 14414412.294921875 40038616.416436195 0 40038616.416436195 4008919.3074269295 0 0 0 0 213011004.33319092 -66620511.216114521 0 -66620511.216114521 -65707280.827436447 0 0 0 0 102820769.08828735 56595917.420441628 0 56595917.420441628 -90852985.885105133 0 0 0 0 57087938.87600708 127279518.13825893 0 127279518.13825893 146737682.48395538 0 0 0 0 9089827.7789640948 -7233095.7134172115 0 -7233095.7134172115 -8780950.0192602314 0 0 0 0 28796416.837272644 -46965881.385495186 0 -46965881.385495186 -80052450.621343613 0 0 0 0 -53090025.700927734 -83155545.773434639 0 -83155545.773434639 37733906.183073044 0 0 0 0 13266512.064758301 -26705781.318178654 0 -26705781.318178654 -39565021.770532608 0 0 0 0 18049549.500142373 -12623509.26741525 0 -12623509.26741525 -19389758.142698623 0 0 0 0 7101733.7616958618 -20782398.803334475 0 -20782398.803334475 -7951441.0494737625 0 0 0 0 16596712.592750549 -23664869.21899724 0 -23664869.21899724 -38464117.008428574 0 0 0 0 15604206.456413269 -34166271.7447052 0 -34166271.7447052 -51536629.978364944 0 0 0 0 32117222.955741771 -5787461.8482100889 0 -5787461.8482100889 -22839925.761830293 0 0 0 0 12192858.380775452 -29001116.30584234 0 -29001116.30584234 -37263596.037461281 0 0 0 0 12637558.290374756 -29997401.890493751 0 -29997401.890493751 -42827320.101993561 0 0 0 0 65045674.468540192 13613105.877311707 0 13613105.877311707 2463136.7360363007 0 0 0 0 121075846.63395309 -42276963.001894951 0 -42276963.001894951 -56950169.764770508 0 0 0 0 22348490.584119245 4121819.2960481029 0 4121819.2960481029 -9355545.3938552402 0 0 0 0 61632877.487995148 19169136.848127365 0 19169136.848127365 7706134.8796098232 0 0 0 0 140409686.97508335 -20852562.735361099 0 -20852562.735361099 -58844482.310165405 0 0 0 0 140042509.45671177 -12508693.246942997 0 -12508693.246942997 -78809266.811416626 0 0 0 0 124642638.60290527 -7566222.5038146973 0 -7566222.5038146973 -68716287.373321533 0 0 0 0 95712266.891235352 16909033.371055603 0 16909033.371055603 -61956714.900894165 0 0 0 0 107982922.60296631 25568045.140855789 0 25568045.140855789 -64721795.495666504 0 0 0 0 146714166.79144287 20570118.219993591 0 20570118.219993591 -66296262.857406616 0 0 0 0 130904663.11831379 -19908301.285348892 0 -19908301.285348892 -36728177.854690552 0 0 0 0 123567225.90346527 -7971125.3879203796 0 -7971125.3879203796 -55544830.444274902 0 0 0 0 129696012.49847412 -9188477.9291000366 0 -9188477.9291000366 -68207224.808486938 0 0 0 0 99670487.213684082 1430903.7044067383 0 1430903.7044067383 -56335337.621246338 0 0 0 0 121923224.99143982 -15720203.549285889 0 -15720203.549285889 -48506794.414810181 0 0 0 0 20817270.213729858 -4329670.5565929413 0 -4329670.5565929413 -10512595.151630402 0 0 0 0 93448680.704666138 -8977841.6220474243 0 -8977841.6220474243 -33828250.565338135 0 0 0 0 25056445.635145057 -2446967.0890856832 0 -2446967.0890856832 -17781605.408150584 0 0 0 0 83499124.328781128 -5335986.4498977661 0 -5335986.4498977661 -34421465.908229828 0 0 0 0 52541692.115520239 8821824.2422804236 0 8821824.2422804236 -39885848.089294434 0 0 0 0 65442285.45274353 38561048.412361145 0 38561048.412361145 -57646843.407553673 0 0 0 0 68347320.180488586 7873014.8454055786 0 7873014.8454055786 -37505301.181518555 0 0 0 0 14884853.739807129 3455485.4627990723 0 3455485.4627990723 691261.13171386719 0 0 0 0 -5351252.0192871094 -13131799.472148895 0 -13131799.472148895 -44434225.029418468 0 0 0 0 15755383.303595819 -5394863.7950695157 0 -5394863.7950695157 -8011587.3202278186 0 0 0 0 128687749.30062103 1438893.904258728 0 1438893.904258728 -6726654.3273773193 0 0 0 0 23977262.337731656 754800.2020011954 0 754800.2020011954 -12677545.879544856 0 0 0 0 5100322.880382482 -3529680.3427576227 0 -3529680.3427576227 -5720553.6440845728 0 0 0 0 45093098.288696289 23694214.420318604 0 23694214.420318604 5428265.5048217773 0 0 0 0 37564031.398552522 -4557501.4813197814 0 -4557501.4813197814 -25735856.631290548 0 0 0 0 16600307.681091309 1203821.5253295898 0 1203821.5253295898 -11958147.266845703 0 0 0 0 24282007.7592078 -6391690.7451406624 0 -6391690.7451406624 -22528393.266607098 0 0 0 0 49370018.542331696 -524417432.92894459 0 -524417432.92894459 3864300.8812789917 0 0 0 0 982470222.71932983 -209061809.63919067 0 -209061809.63919067 -123416828.50204468 0 0 0 0 321802168.84967041 -252334451.64939499 0 -252334451.64939499 37538656.238327026 0 0 0 0 9753315.1362915039 -32577320.868968964 0 -32577320.868968964 -87961096.612182617 0 0 0 0 1237319.7270071302 -2288565.9572793543 0 -2288565.9572793543 -1119954.9005549252 0 0 0 0 1258576854.1325684 165227895.31499481 0 165227895.31499481 -80784619.464836121 0 0 0 0 -173500730.00240326 -194307240.03012085 0 -194307240.03012085 -19910239.396621704 0 0 0 0 632647351.01344299 -430482256.22104263 0 -430482256.22104263 -150577957.05501652 0 0 0 0 372171096.18544006 -26057809.020738602 0 -26057809.020738602 70698047.49671936 0 0 0 0 2598225.2941424102 -4603347.2931490988 0 -4603347.2931490988 -2588029.5443956833 0 0 0 0 847341225.2016449 -117068050.71707344 0 -117068050.71707344 -149634977.95050383 0 0 0 0 -43184555.142438889 -61886664.891077518 0 -61886664.891077518 17680643.407737732 0 0 0 0 325454162.07616425 208660665.67227554 0 208660665.67227554 77807674.510066271 0 0 0 0 513705580.05207062 381999877.52741051 0 381999877.52741051 -123939638.80519104 0 0 0 0 1391105448.7238541 805720212.67733765 0 805720212.67733765 73670661.421675682 0 0 0 0 1573594162.871727 -119060350.8363781 0 -119060350.8363781 -240551505.70188332 0 0 0 0 510068007.62019348 328090343.07138824 0 328090343.07138824 58792753.931110382 0 0 0 0 516577048.40475464 363849737.28915024 0 363849737.28915024 -63241554.785281181 0 0 0 0 -32048979.687789917 38444044.647569656 0 38444044.647569656 113811447.72960663 0 0 0 0 -1326527.4881770536 1708479.2724785833 0 1708479.2724785833 2997039.6382188089 0 0 0 0 795397595.88807297 59929494.372138739 0 59929494.372138739 -399786042.68292618 0 0 0 0 653497855.76493835 694303445.06472063 0 694303445.06472063 350618441.90171242 0 0 0 0 914449111.52928925 647184056.40211678 0 647184056.40211678 40000252.256750107 0 0 0 0 319070192.27489853 159149699.50225592 0 159149699.50225592 344065377.37776947 0 0 0 0 840257369.98440552 503671933.56555748 0 503671933.56555748 290202693.42610979 0 0 0 0 733126247.16399384 734069692.48173428 0 734069692.48173428 221813875.92131424 0 0 0 0 -73210281.405319214 698306920.129879 0 698306920.129879 513411645.98888016 0 0 0 0 764848666.25023079 782535609.47449923 0 782535609.47449923 263207401.82796478 0 0 0 0 395699565.74378204 271100967.23639107 0 271100967.23639107 628610903.82688665 0 0 0 0 400497222.58249283 365040538.4976716 0 365040538.4976716 294818637.34321404 0 0 0 0 16090513.761421204 189139427.89485931 0 189139427.89485931 324595431.90717554 0 0 0 0 12599629.967735291 342910252.5355587 0 342910252.5355587 -417297692.10043907 0 0 0 0 21715910.104377747 5453545.9254570007 0 5453545.9254570007 -85563976.876018524 0 0 0 0 -42639799.518424988 267678245.74873543 0 267678245.74873543 -320814693.8157692 0 0 0 0 -1895904.9568147063 3394394.8581734654 0 3394394.8581734654 5428998.1656779386 0 0 0 0 -141561908.20454025 242905566.74672127 0 242905566.74672127 36183202.272964478 0 0 0 0 -58428294.402740479 -28860073.402780533 0 -28860073.402780533 7931270.2289009094 0 0 0 0 30769062.63760376 61934997.484788895 0 61934997.484788895 99582310.857551575 0 0 0 0 5986834.8561765514 353630.34827945754 0 353630.34827945754 163861.18214888871 0 0 0 0 -56565343.235481262 2398867.8605461121 0 2398867.8605461121 42430096.965713501 0 0 0 0 -1367543.4477081299 41296620.855178833 0 41296620.855178833 12911784.915348053 0 0 0 0 -15117012.531906128 35917497.586137772 0 35917497.586137772 24724917.815673828 0 0 0 0 17620509.152877223 6093592.7634037137 0 6093592.7634037137 2919145.5936025381 0 0 0 0 71315563.183929443 36294801.86517334 0 36294801.86517334 5509253.9281864166 0 0 0 0 12388706.268475562 936866.24769116938 0 936866.24769116938 -9526006.5469077826 0 0 0 0 134428853.15471649 -11934046.639480591 0 -11934046.639480591 -31687757.974380493 0 0 0 0 135227484.0841217 71282394.179623604 0 71282394.179623604 80519137.067970276 0 0 0 0 118123004.3872757 25888629.850997925 0 25888629.850997925 7154083.2225036621 0 0 0 0 119940565.64839172 17956226.99697876 0 17956226.99697876 21761333.797634125 0 0 0 0 113756037.07035828 31385269.914558411 0 31385269.914558411 -32535573.846321106 0 0 0 0 124519451.02979279 6842663.0196075439 0 6842663.0196075439 -11255658.412414551 0 0 0 0 95731413.375274658 31540855.67990303 0 31540855.67990303 -63872399.76966095 0 0 0 0 95235478.127853394 48704779.73263073 0 48704779.73263073 5540123.9569854736 0 0 0 0 170020936.6592865 18241172.130561829 0 18241172.130561829 2504266.3257827759 0 0 0 0 64836786.580078125 41034452.761484146 0 41034452.761484146 152483652.9285965 0 0 0 0 310620405.29594421 139654155.24968719 0 139654155.24968719 123670186.51424789 0 0 0 0 48061062.530513763 -7726421.2235388756 0 -7726421.2235388756 131192004.89508057 0 0 0 0 141927358.88745117 -29350769.922073364 0 -29350769.922073364 77538081.186008453 0 0 0 0 283702063.87987518 61071373.909799576 0 61071373.909799576 -53167115.14863205 0 0 0 0 236065829.11935997 224738965.16290331 0 224738965.16290331 316733143.68016815 0 0 0 0 710891157.21779823 962611409.89100599 0 962611409.89100599 633679696.58536148 0 0 0 0 810722.24145017937 607327.51783119887 0 607327.51783119887 3224013.1582469828 0 0 0 0 -513088497.28227234 -20252820.027141571 0 -20252820.027141571 491870479.57303619 0 0 0 0 4707689899.203968 424575128.926718 0 424575128.926718 58405650.042228699 0 0 0 0 -61063154.037582397 474964049.69722366 0 474964049.69722366 889555759.46709251 0 0 0 0 -42804835.926719666 175668134.37649918 0 175668134.37649918 -51579003.410816193 0 0 0 0 149561750.46125031 59219481.049985886 0 59219481.049985886 -73044929.533493042 0 0 0 0 -272552604.0622406 82247771.622344971 0 82247771.622344971 14151503.159114838 0 0 0 0 1837189.8095004912 3963001.4231728353 0 3963001.4231728353 10081816.425699167 0 0 0 0 4284824093.6163349 -669801148.65510035 0 -669801148.65510035 -540403283.08174133 0 0 0 0 1916975938.5900879 -545794581.87171555 0 -545794581.87171555 735099801.45756912 0 0 0 0 1767429456.2722626 -173153623.00281525 0 -173153623.00281525 596786339.24013901 0 0 0 0 2822981839.219696 414045333.26474762 0 414045333.26474762 46733621.785522461 0 0 0 0 1114923827.8127441 -65814906.430782318 0 -65814906.430782318 134159382.94327545 0 0 0 0 1933786367.3859863 803687123.91048813 0 803687123.91048813 -682792000.43664932 0 0 0 0 1050517564.8173599 -319257643.22432184 0 -319257643.22432184 -862724775.31027222 0 0 0 0 -309311100.21180725 319592301.13467216 0 319592301.13467216 165090624.52211118 0 0 0 0 1522882307.1704559 609506710.66208267 0 609506710.66208267 308320844.06209183 0 0 0 0 403202425.81304932 -86002546.929920197 0 -86002546.929920197 196171545.38442445 0 0 0 0 243803228.06051636 141661616.16148376 0 141661616.16148376 353815934.14465332 0 0 0 0 -298665017.44317627 -345839495.97861862 0 -345839495.97861862 540432941.6097374 0 0 0 0 269534454.50783157 12433842.51076889 0 12433842.51076889 999442198.67543793 0 0 0 0 1471486864.1936493 654268858.45497513 0 654268858.45497513 1196863074.4421997 0 0 0 0 950527001.84640503 -343572716.82526779 0 -343572716.82526779 466595531.41000748 0 0 0 0 1003900621.9942551 -367571352.55339813 0 -367571352.55339813 653814864.17029572 0 0 0 0 317096335.99278259 -475789230.96891403 0 -475789230.96891403 384976600.10445404 0 0 0 0 366144547.42105103 79998041.036838531 0 79998041.036838531 415904468.62763214 0 0 0 0 23138508.273385197 4789175.7790844869 0 4789175.7790844869 -3978200.0541664227 0 0 0 0 -34005063.737670898 331019546.00007391 0 331019546.00007391 -380881118.35029078 0 0 0 0 263460925.96374512 -208026500.79649925 0 -208026500.79649925 345445892.64916825 0 0 0 0 -349873173.43664551 89635277.102954865 0 89635277.102954865 128726759.22083855 0 0 0 0 -184037590.90219116 410242484.71734452 0 410242484.71734452 281690826.22686839 0 0 0 0 139453789.60369873 -628061319.56851625 0 -628061319.56851625 605613238.90334034 0 0 0 0 2335620127.5744629 -1589257766.2354774 0 -1589257766.2354774 655540143.53599596 0 0 0 0 4746825509.9263611 -1062829283.6489019 0 -1062829283.6489019 -634669313.63333392 0 0 0 0 4027957572.8865051 443275968.29276657 0 443275968.29276657 -424562150.83522034 0 0 0 0 2539202110.5310974 -694981929.53985596 0 -694981929.53985596 -588711491.79943156 0 0 0 0 2147556846.694252 -106093673.87860489 0 -106093673.87860489 7860004.4634418488 0 0 0 0 1125226339.4813538 -301912146.14225578 0 -301912146.14225578 168096163.61065102 0 0 0 0 2112039623.0232849 -22968421.919275284 0 -22968421.919275284 -178071553.76940918 0 0 0 0 962072579.01039124 -116914942.47350359 0 -116914942.47350359 74847522.384048462 0 0 0 0 2110096255.5229669 233179461.2063008 0 233179461.2063008 -80389423.014194489 0 0 0 0 3110054220.2412109 -10539456.818815231 0 -10539456.818815231 -418800769.82113647 0 0 0 0 2069415864.6216125 287661335.14476395 0 287661335.14476395 -244293356.92485809 0 0 0 0 2539095127.6798401 189172681.03911018 0 189172681.03911018 -313383641.25785255 0 0 0 0 2139881324.4482498 108613593.73843813 0 108613593.73843813 -150506406.55828094 0 0 0 0 1101990271.6155396 272905103.77547264 0 272905103.77547264 -409963.50384902954 0 0 0 0 382246313.42584229 278870474.05075645 0 278870474.05075645 173973447.02810287 0 0 0 0 857193267.78279877 178595623.98716116 0 178595623.98716116 100353512.84979248 0 0 0 0 52676090.233566284 -211350113.76747894 0 -211350113.76747894 150506423.75831985 0 0 0 0 -197952143.58041382 70917759.050495148 0 70917759.050495148 86875828.305923462 0 0 0 0 -106618219.98568726 220868270.01377773 0 220868270.01377773 231753470.65590286 0 0 0 0 -285557850.9569397 208910979.97804451 0 208910979.97804451 1992971.6028137207 0 0 0 0 -318831983.61904907 -129809107.55441284 0 -129809107.55441284 -31909279.373178482 0 0 0 0 -284651056.78540039 -15889001.859937668 0 -15889001.859937668 181263256.6646347 0 0 0 0 -263651924.73910522 -166176699.46347237 0 -166176699.46347237 -129363105.28751373 0 0 0 0 -200232826.99765015 -291164100.60656357 0 -291164100.60656357 80666455.969314575 0 0 0 0 -223955452.09274292 39368023.716686249 0 39368023.716686249 301277739.28332806 0 0 0 0 -164667642.62642384 266669415.17386699 0 266669415.17386699 318577250.13191986 0 0 0 0 -161409712.1267395 313176553.75664139 0 313176553.75664139 5240111.5146789551 0 0 0 0 -194687919.41285706 31244263.347064972 0 31244263.347064972 220334498.28908157 0 0 0 0 -224812395.01224518 18383310.393294334 0 18383310.393294334 459926342.53863525 0 0 0 0 -1643201.4818625599 -1043569.2380827498 0 -1043569.2380827498 1342043.1951618665 0 0 0 0 775483276.87036133 359087525.63396454 0 359087525.63396454 404269594.43258512 0 0 0 0 1665505108.8122864 205991410.90102768 0 205991410.90102768 -1489160736.9538383 0 0 0 0 2270909527.515686 95663383.409820557 0 95663383.409820557 -118787234.14893723 0 0 0 0 981893283.04162598 508180264.51292038 0 508180264.51292038 82642217.356517792 0 0 0 0 444307.50391234457 -977473.68843390793 0 -977473.68843390793 938326.05292615097 0 0 0 0 1974051334.0819855 472137802.4372139 0 472137802.4372139 -109837874.2224884 0 0 0 0 1039370038.1009216 -255439138.83324051 0 -255439138.83324051 -442816196.13789368 0 0 0 0 2203519207.4249878 200376486.15998459 0 200376486.15998459 -18761256.726303101 0 0 0 0 2429020661.3727722 -61548177.133468628 0 -61548177.133468628 55619646.731056213 0 0 0 0 2108623264.0737762 275885308.60138702 0 275885308.60138702 -71776153.374290466 0 0 0 0 -126963149.10522842 68386127.970550537 0 68386127.970550537 29801837.948898315 0 0 0 0 3672907802.7207546 124721508.19224787 0 124721508.19224787 -532071226.35131836 0 0 0 0 1823815.2458207225 9170013.5593466535 0 9170013.5593466535 19728159.885909788 0 0 0 0 2664812328.9417419 899398753.27056122 0 899398753.27056122 -428893660.16394424 0 0 0 0 -15344154.079330444 52232695.066661835 0 52232695.066661835 -10792275.408309937 0 0 0 0 -36805323.234588623 87506371.51373291 0 87506371.51373291 -12249317.63759613 0 0 0 0 590338.87553405762 71577393.278636932 0 71577393.278636932 -12974281.263290405 0 0 0 0 -54660204.981719971 15732967.949485779 0 15732967.949485779 18138338.673706055 0 0 0 0 2258603.9554138184 39691793.573928833 0 39691793.573928833 10984063.982542038 0 0 0 0 3446038.9948959351 28192381.094421387 0 28192381.094421387 56710392.848754883 0 0 0 0 -9853121.0204315186 55873937.584575653 0 55873937.584575653 47738431.583602905 0 0 0 0 1131163007.1348877 -903901036.6529665 0 -903901036.6529665 140782206.56012028 0 0 0 0 15978415.070310786 9551382.6663376205 0 9551382.6663376205 -15383006.139103025 0 0 0 0 -12345747.080718994 54249015.056861877 0 54249015.056861877 65439997.959899902 0 0 0 0 1858667191.1474152 602902062.29791737 0 602902062.29791737 274769003.01554871 0 0 0 0 795298.13547021151 16777739.34349218 0 16777739.34349218 31643282.497438453 0 0 0 0 2419674368.0596313 497881810.74641609 0 497881810.74641609 62270677.058822632 0 0 0 0 2677358588.1848145 603563040.25257874 0 603563040.25257874 -149343023.72879028 0 0 0 0 2766849916.5772705 818464450.88321304 0 818464450.88321304 213691094.50479889 0 0 0 0 2354611384.4623642 1054250101.3854737 0 1054250101.3854737 674018287.81465149 0 0 0 0 -1424587716.6764526 1426564586.4360909 0 1426564586.4360909 638488599.36842203 0 0 0 0 1627145.2188756065 2787681.1612069309 0 2787681.1612069309 -504284.76179221459 0 0 0 0 -163387434.12341309 -470660779.24363327 0 -470660779.24363327 -1267034157.814476 0 0 0 0 1460241069.6547852 138896245.44807452 0 138896245.44807452 -1991302586.2810273 0 0 0 0 3938897542.2582397 1129513869.593564 0 1129513869.593564 -128258602.673172 0 0 0 0 2068361.8831404895 3097308.1627550535 0 3097308.1627550535 4413436.2580026127 0 0 0 0 3120578001.6705627 1604402474.5869656 0 1604402474.5869656 592967042.08451462 0 0 0 0 6236049643.2444153 1198781867.4366491 0 1198781867.4366491 -1758099981.6326499 0 0 0 0 556518.76722858101 -199985.77976810932 0 -199985.77976810932 2885510.3178999824 0 0 0 0 488531605.64613342 -375768287.60299134 0 -375768287.60299134 189092635.77606583 0 0 0 0 -1483187302.4137268 824180386.74717331 0 824180386.74717331 105303449.24870753 0 0 0 0 537323278.65741158 -107717323.69387823 0 -107717323.69387823 46927449.680930138 0 0 0 0 -1569098605.9342041 951194075.76056576 0 951194075.76056576 7714250.7132003307 0 0 0 0 -100220386.93023682 48028.245000839233 0 48028.245000839233 190310580.9442997 0 0 0 0 -7053880.0884094238 -402924569.50122786 0 -402924569.50122786 749065892.70773506 0 0 0 0 234489148.50213623 -208585889.66625428 0 -208585889.66625428 168741447.8360858 0 0 0 0 33091605.083282471 -127526734.63876247 0 -127526734.63876247 291220512.54129887 0 0 0 0 3955759.5411834717 -20894596.52111268 0 -20894596.52111268 91584320.967069626 0 0 0 0 41391799.100769043 -154146166.7409687 0 -154146166.7409687 199127186.74739361 0 0 0 0 32106336.257781982 -90068206.116670609 0 -90068206.116670609 -85983.648527473211 0 0 0 0 -68489738.755599976 96761430.678022146 0 96761430.678022146 3436163.3000764847 0 0 0 0 -15355179.323455811 4288878.5924549103 0 4288878.5924549103 156566918.21942234 0 0 0 0 -65487792.686035156 121381411.03672504 0 121381411.03672504 77870569.61148262 0 0 0 0 -59866876.706878662 101015322.33195758 0 101015322.33195758 -32602590.862840652 0 0 0 0 -206324509.71994019 415844054.00500393 0 415844054.00500393 -71561366.943943024 0 0 0 0 -41271363.384719849 57175429.161921501 0 57175429.161921501 245054251.54016495 0 0 0 0 -386813185.08840942 89383263.753199577 0 89383263.753199577 586340796.82215214 0 0 0 0 69402351.5675354 60709989.237464905 0 60709989.237464905 4851817.2831878662 0 0 0 0 54588556.714679718 82095063.39774704 0 82095063.39774704 12131992.580627441 0 0 0 0 25668587.844409443 7063970.7853394486 0 7063970.7853394486 -17881862.083950706 0 0 0 0 12633390.072036743 86835409.285247803 0 86835409.285247803 -29704727.652908325 0 0 0 0 63770495.489982605 70370832.180038452 0 70370832.180038452 -31623719.284912109 0 0 0 0 72480521.285419464 49561655.256708145 0 49561655.256708145 6751935.1684646606 0 0 0 0 9097620.6323547363 55909977.193031311 0 55909977.193031311 9811392.5995140076 0 0 0 0 66499243.652954102 35871941.044143677 0 35871941.044143677 -24410708.028991699 0 0 0 0 88817110.993148804 -2088538.827960968 0 -2088538.827960968 -28174662.883476257 0 0 0 0 54294105.134685516 27055199.340862036 0 27055199.340862036 -2627799.8339595795 0 0 0 0 39314679.458358765 93452895.242208481 0 93452895.242208481 -228090478.40193033 0 0 0 0 47991072.771224976 42168092.109214783 0 42168092.109214783 27922087.233288765 0 0 0 0 79718968.140380859 56373185.709609509 0 56373185.709609509 -7794188.9785728455 0 0 0 0 16266157.083340107 15150314.443208084 0 15150314.443208084 6766457.9896477591 0 0 0 0 30845896.046513766 3877676.7683431059 0 3877676.7683431059 -15455418.701671481 0 0 0 0 21434799.333511353 43062916.891723633 0 43062916.891723633 23180052.710409164 0 0 0 0 24847486.761282876 30265797.519445647 0 30265797.519445647 18328149.658234239 0 0 0 0 14341508.117935181 59747321.948959351 0 59747321.948959351 26248066.022342682 0 0 0 0 7819289.4391479492 30941049.731864929 0 30941049.731864929 19830828.251739502 0 0 0 0 20487149.368188858 45293229.063095093 0 45293229.063095093 27272169.081390381 0 0 0 0 6374589.1275939941 36083276.059517682 0 36083276.059517682 40441364.023143768 0 0 0 0 10714808.423120499 65152914.740796566 0 65152914.740796566 18394943.047346115 0 0 0 0 33174363.614267699 35996227.511163495 0 35996227.511163495 15559506.74673482 0 0 0 0 -8274276.977684021 22644879.748465538 0 22644879.748465538 -2919185.13022995 0 0 0 0 89394640.770782471 47268096.494754791 0 47268096.494754791 38160373.204377174 0 0 0 0 83303804.363769531 10857667.521924973 0 10857667.521924973 35518195.280345917 0 0 0 0 -1664412.8941879272 41183728.624671459 0 41183728.624671459 44946588.582147598 0 0 0 0 7073444.1613727286 5567654.625444524 0 5567654.625444524 3208079.1327119023 0 0 0 0 -96064830.971939087 89772909.270070553 0 89772909.270070553 42640605.089477539 0 0 0 0 118416444.63848877 14775461.948119164 0 14775461.948119164 16600811.214810371 0 0 0 0 193809886.67717743 158097295.94384122 0 158097295.94384122 589726.82088279724 0 0 0 0 349169290.50576782 4808213.4834794998 0 4808213.4834794998 15932944.871362448 0 0 0 0 45914957.362731934 73085632.968435287 0 73085632.968435287 88510529.203579903 0 0 0 0 4364794.5355403125 2970506.2622352019 0 2970506.2622352019 1070855.1169277052 0 0 0 0 46856332.042480469 80983700.96072197 0 80983700.96072197 24053537.948707581 0 0 0 0 3995411.5960067809 4106220.0698572956 0 4106220.0698572956 -51734.749482991174 0 0 0 0 117544509.11590576 -22307761.017849922 0 -22307761.017849922 99347881.203426361 0 0 0 0 49322956.024124146 71326509.342998028 0 71326509.342998028 33526561.714204788 0 0 0 0 9654261.6761494875 7928912.0344876274 0 7928912.0344876274 1361132.4869817062 0 0 0 0 50107131.332885742 56983870.50486517 0 56983870.50486517 -87886143.860494018 0 0 0 0 12177547.773727417 -207932176.72543973 0 -207932176.72543973 -150303734.12414122 0 0 0 0 -2865024.5343933105 63940125.31618309 0 63940125.31618309 29891705.358025074 0 0 0 0 14721424.864105225 74676636.392465115 0 74676636.392465115 31740937.120746851 0 0 0 0 53928768.997215271 98026296.458149284 0 98026296.458149284 -34812063.513120651 0 0 0 0 131094198.45248413 223305591.49140978 0 223305591.49140978 28660571.693601012 0 0 0 0 291624423.86834717 50680051.19270134 0 50680051.19270134 -18826742.180280685 0 0 0 0 698249445.03057861 -45195091.83245039 0 -45195091.83245039 -258698088.6596961 0 0 0 0 1760230.7948912978 2373733.2381813005 0 2373733.2381813005 1187035.4089183076 0 0 0 0 328259402.71086884 158505487.86753482 0 158505487.86753482 -139609679.47136164 0 0 0 0 45551406.238037109 176282379.94620562 0 176282379.94620562 -35193348.859103084 0 0 0 0 -42657904.756828308 -256558648.83312178 0 -256558648.83312178 254228518.66769981 0 0 0 0 223649192.05039978 28089689.967977345 0 28089689.967977345 62240060.959870934 0 0 0 0 333691235.00327682 345070336.39937162 0 345070336.39937162 -141638822.87317348 0 0 0 0 -3099542.0511627197 -35479154.853443265 0 -35479154.853443265 145252026.36184168 0 0 0 0 524562.80135156214 444552.08246184886 0 444552.08246184886 42367.405146359932 0 0 0 0 -44459073.974563599 93625657.437428713 0 93625657.437428713 190266872.3728466 0 0 0 0 640580678.6722908 200321339.13818911 0 200321339.13818911 -268542299.52216685 0 0 0 0 692289819.94650269 -106861238.64504395 0 -106861238.64504395 -315370.02253539237 0 0 0 0 24118282.883285522 -248599000.10074991 0 -248599000.10074991 294995882.76528823 0 0 0 0 295789145.32655334 191388279.74409673 0 191388279.74409673 -52392848.587718844 0 0 0 0 741803699.57470703 -94238750.803437933 0 -94238750.803437933 -116677042.09030381 0 0 0 0 1220148.8244659454 -67975.578843697906 0 -67975.578843697906 -168514.88128880161 0 0 0 0 325951308.40397644 -410798953.68661058 0 -410798953.68661058 451835084.06183606 0 0 0 0 148879182.01559448 -135416394.0935545 0 -135416394.0935545 103137870.09328842 0 0 0 0 146858155.20809937 -169302679.25577283 0 -169302679.25577283 126268636.72123337 0 0 0 0 144135097.2116394 -131920318.15265548 0 -131920318.15265548 124552662.4194603 0 0 0 0 3190882.2375036478 126382.17313894443 0 126382.17313894443 -346328.62716877862 0 0 0 0 28800986.135993958 -75288254.476828054 0 -75288254.476828054 240568.62863630452 0 0 0 0 -30522445.496917725 -27598269.881546557 0 -27598269.881546557 -22318241.080188036 0 0 0 0 3374937.053465033 -6457.177391178906 0 -6457.177391178906 -184347.5890700517 0 0 0 0 -26179484.918075562 19031389.232088484 0 19031389.232088484 -1586012.5047247857 0 0 0 0 5542832.7386807054 -709637.8780802507 0 -709637.8780802507 -186662.72648553504 0 0 0 0 1729526.4436950684 -8144855.0333096944 0 -8144855.0333096944 -10122017.651876807 0 0 0 0 194330858.51745605 -119150807.21620345 0 -119150807.21620345 44475763.98788929 0 0 0 0 1955256.0825466067 963014.99173938483 0 963014.99173938483 69510.346521815402 0 0 0 0 115132643.40312958 -99742319.402199149 0 -99742319.402199149 88979511.996727943 0 0 0 0 197877425.21777344 -166633542.63475847 0 -166633542.63475847 87625383.804451227 0 0 0 0 191918020.23544312 -204925975.48549438 0 -204925975.48549438 127320339.79916444 0 0 0 0 186907353.45578003 -141229830.92634058 0 -141229830.92634058 47692283.868722439 0 0 0 0 40931835.731384277 -61457595.059613228 0 -61457595.059613228 119753037.27759528 0 0 0 0 -46134590.581214905 -145806521.08021522 0 -145806521.08021522 147425472.58660889 0 0 0 0 1827114.1113459468 1930967.8340382352 0 1930967.8340382352 1133200.9373069503 0 0 0 0 387168745.49517059 94817044.125803411 0 94817044.125803411 -83898011.842722893 0 0 0 0 112995745.58624268 -134786992.02120352 0 -134786992.02120352 163303774.44123554 0 0 0 0 234929438.95460892 -192962246.98983222 0 -192962246.98983222 67786129.742368698 0 0 0 0 -37883791.692295074 -15483137.036702961 0 -15483137.036702961 6815560.8539643288 0 0 0 0 693909.79437429644 508631.90057941526 0 508631.90057941526 -31928.255195788806 0 0 0 0 430442944.97192383 -209592215.37918997 0 -209592215.37918997 47928795.404172421 0 0 0 0 149251590.85274506 -219748531.25258279 0 -219748531.25258279 188820474.012012 0 0 0 0 196787154.7492218 -177569434.23360062 0 -177569434.23360062 113681111.13175035 0 0 0 0 101575362.01205444 75299713.094632387 0 75299713.094632387 -24563520.605168819 0 0 0 0 -13909492.624557495 3013582.4449564219 0 3013582.4449564219 12831650.483962059 0 0 0 0 -1563899165.8172455 -574232487.92718351 0 -574232487.92718351 1090468963.3883297 0 0 0 0 913676418.32580566 2994256900.781044 0 2994256900.781044 987661515.35292578 0 0 0 0 4248233324.5324097 -2418528201.8776865 0 -2418528201.8776865 845431645.63766086 0 0 0 0 3708519.3781759515 -647798.23067221045 0 -647798.23067221045 2247267.2170498837 0 0 0 0 6986671.0958836228 -312144.86863588542 0 -312144.86863588542 -223994.03028464766 0 0 0 0 16500871.016479492 17685357.446533114 0 17685357.446533114 -10804434.772392035 0 0 0 0 21493204.336486816 -18193233.192803949 0 -18193233.192803949 -5375344.6043123007 0 0 0 0 10776211.698181152 15206075.784834813 0 15206075.784834813 -21658064.786915965 0 0 0 0 6435834.0489730835 5882253.2271413244 0 5882253.2271413244 -23701502.218209565 0 0 0 0 51306173.643981934 14279922.31209809 0 14279922.31209809 -25085006.663226873 0 0 0 0 8458437.5590515137 34807480.583529875 0 34807480.583529875 38197.579704152908 0 0 0 0 -15605300.011444092 -37849731.904911704 0 -37849731.904911704 4599793.3454227187 0 0 0 0 43075178.922405243 -20661430.121299401 0 -20661430.121299401 -21491457.91012308 0 0 0 0 3222170.7912782207 -340682.72794304788 0 -340682.72794304788 161138.44768423904 0 0 0 0 1349804.8972473145 -17522136.98834892 0 -17522136.98834892 -21723907.036336243 0 0 0 0 17606548.886444092 -1220073.156142056 0 -1220073.156142056 -22998504.230823502 0 0 0 0 879472575.30401611 -545265723.8954494 0 -545265723.8954494 293991786.92114192 0 0 0 0 1853342627.6987305 595434605.6087445 0 595434605.6087445 -230311914.24831575 0 0 0 0 1691855480.2649231 452629377.75030738 0 452629377.75030738 -338347842.21952999 0 0 0 0 2143708402.7836609 570954193.61590648 0 570954193.61590648 -308852145.5713318 0 0 0 0 1153270.0553742945 -181417.73217711598 0 -181417.73217711598 138542.12281141814 0 0 0 0 2044609533.9276581 410677472.32155633 0 410677472.32155633 -219123606.87146115 0 0 0 0 1346445373.0083008 258320888.86791238 0 258320888.86791238 -14029208.446012592 0 0 0 0 1640303577.6245422 327254755.31162596 0 327254755.31162596 -224713921.35109907 0 0 0 0 1413837396.3892517 705613784.87722301 0 705613784.87722301 5047959.9621042013 0 0 0 0 837678646.6237793 233081254.97845793 0 233081254.97845793 -168555698.20054722 0 0 0 0 1303533517.3391266 1421584917.3862305 0 1421584917.3862305 1949926553.4964941 0 0 0 0 1970674819.182373 -734520473.60106349 0 -734520473.60106349 264401554.90274334 0 0 0 0 3474634.2039557546 704028.81563061662 0 704028.81563061662 288148.55048964015 0 0 0 0 3157819513.4738464 293701586.63578629 0 293701586.63578629 -338189533.58175534 0 0 0 0 2392700846.6061401 1952659307.5006893 0 1952659307.5006893 63858399.596977055 0 0 0 0 1863186416.7576447 1935245331.6718607 0 1935245331.6718607 139633413.50515604 0 0 0 0 9065076.0545103848 1049295.7546981238 0 1049295.7546981238 -1346657.1716853883 0 0 0 0 1705594715.0305252 2448371105.098721 0 2448371105.098721 1240666105.9209943 0 0 0 0 667842618.96792603 -417671470.03919268 0 -417671470.03919268 132495251.324049 0 0 0 0 477415740.64859009 -37781588.286353111 0 -37781588.286353111 -587218662.14651299 0 0 0 0 17515111.709564209 -7534622.003818512 0 -7534622.003818512 -11447735.208141804 0 0 0 0 49891010.974884033 -3441129.1646947861 0 -3441129.1646947861 -11052084.124851704 0 0 0 0 2464558.4749450684 -4810554.8613586426 0 -4810554.8613586426 -8504052.4541301727 0 0 0 0 2427979.4565811157 30761182.845866442 0 30761182.845866442 -14579066.941297531 0 0 0 0 26696426.589565277 -13896578.424069881 0 -13896578.424069881 -44267434.109455109 0 0 0 0 11937897.27947998 28833872.88581562 0 28833872.88581562 -46068607.803142726 0 0 0 0 15803381.443084717 33055110.95112896 0 33055110.95112896 -41461313.41327095 0 0 0 0 21155072.314834595 -7587208.7185702324 0 -7587208.7185702324 -22932128.087100983 0 0 0 0 12689713.828369141 16984569.099467278 0 16984569.099467278 -2658902.9269042015 0 0 0 0 4436448.3366727345 -2318805.0427324995 0 -2318805.0427324995 -3212385.1113528376 0 0 0 0 -9611039.473033905 -11372418.925439894 0 -11372418.925439894 304007.43905878067 0 0 0 0 145808573.23742676 21865263.052483559 0 21865263.052483559 -53364232.486633301 0 0 0 0 154445754.39260864 -20324578.431007862 0 -20324578.431007862 -10189120.215771675 0 0 0 0 -5453389.9233322144 -9886817.6208221912 0 -9886817.6208221912 -5383814.1315040588 0 0 0 0 13397878.744876549 -2947972.5936713293 0 -2947972.5936713293 -5933986.6492139958 0 0 0 0 -38008545.139099121 -33789468.183364391 0 -33789468.183364391 -24666115.091817856 0 0 0 0 -8368084.4463806152 -5707576.6210346222 0 -5707576.6210346222 6262051.3734440804 0 0 0 0 -7748986.7086249068 -4541785.7654979974 0 -4541785.7654979974 2406895.0673218537 0 0 0 0 -11341415.902389526 -11557939.585003138 0 -11557939.585003138 6987900.4613313675 0 0 0 0 -8910133.0868988037 -9526453.3513388634 0 -9526453.3513388634 -4081795.7100009918 0 0 0 0 -15145147.73828125 -20016425.270568371 0 -20016425.270568371 -13572114.535520554 0 0 0 0 -16541516.182029724 -948976.58553533256 0 -948976.58553533256 -8277004.0641994476 0 0 0 0 2153936.0522266999 148638.19343032688 0 148638.19343032688 -1670074.038072871 0 0 0 0 16705790.948455811 -8608084.207098484 0 -8608084.207098484 -7777814.685760498 0 0 0 0 83958189.634399414 45989888.167514801 0 45989888.167514801 27075743.079280853 0 0 0 0 318284657.32095337 26828335.845990181 0 26828335.845990181 -67998398.404389381 0 0 0 0 452905.22174884379 148721.17983464152 0 148721.17983464152 -31977.365778871812 0 0 0 0 7121270.0274260081 239268.43427118659 0 239268.43427118659 -3335741.8029744271 0 0 0 0 -10730887.313549042 -11477838.926930904 0 -11477838.926930904 2856328.0281562805 0 0 0 0 -33451442.459091187 224203.90548229218 0 224203.90548229218 16314293.722457886 0 0 0 0 229404236.0823822 30440024.106019497 0 30440024.106019497 -41617375.271075249 0 0 0 0 -1107177.4831906632 -812440.06724373251 0 -812440.06724373251 1004585.2619544799 0 0 0 0 29646665.164413452 87100949.844972134 0 87100949.844972134 49638859.502698898 0 0 0 0 -54750558.478317261 -10728508.410912871 0 -10728508.410912871 -10240899.503341556 0 0 0 0 22791116.021576405 -76035609.826325372 0 -76035609.826325372 8362689.7281131744 0 0 0 0 4710358.181176424 -2354740.0604402646 0 -2354740.0604402646 -3755560.6122097885 0 0 0 0 -64199416.335006714 16570696.834962964 0 16570696.834962964 -14532372.94575882 0 0 0 0 138680902.99085999 -35493480.219853401 0 -35493480.219853401 -103259459.52053833 0 0 0 0 145786724.84977722 -68467745.639566898 0 -68467745.639566898 18426509.560276031 0 0 0 0 68967571.406520844 98229502.159531832 0 98229502.159531832 98140261.698736191 0 0 0 0 125523635.28534698 127104767.18688035 0 127104767.18688035 71764572.260986328 0 0 0 0 -28161717.89414978 122707044.91503382 0 122707044.91503382 -28951923.304906845 0 0 0 0 52726908.171813965 29006641.175376892 0 29006641.175376892 59505062.843170166 0 0 0 0 154648263.07913208 36281077.871976852 0 36281077.871976852 -15122205.665212631 0 0 0 0 19815360.886016846 -12077586.711961508 0 -12077586.711961508 -17728248.449581146 0 0 0 0 10662984.129888311 834642.9259441793 0 834642.9259441793 -3436328.8520486187 0 0 0 0 7050034.888092041 2733918.1392345428 0 2733918.1392345428 -23407904.591598511 0 0 0 0 -18107132.934448242 -3490967.8996524811 0 -3490967.8996524811 -23024573.737541199 0 0 0 0 -20462320.863769531 -9170574.2629108429 0 -9170574.2629108429 14071816.748579025 0 0 0 0 2895407.4673961401 -696528.47953788191 0 -696528.47953788191 -2158071.708987236 0 0 0 0 68033601.606010437 -51366235.911994934 0 -51366235.911994934 38085294.432552338 0 0 0 0 -6030630.9273986816 4942072.4270858765 0 4942072.4270858765 -19522816.034807682 0 0 0 0 -62776250.943702698 32504198.42778182 0 32504198.42778182 40210942.804058075 0 0 0 0 18092908.544906616 57095942.087612152 0 57095942.087612152 91340587.736118317 0 0 0 0 15557267.463516235 8358376.3852901459 0 8358376.3852901459 13647619.100730896 0 0 0 0 1892448.2679443359 -18517079.626174927 0 -18517079.626174927 -22188759.410700798 0 0 0 0 16400119.365402222 -28540473.902245522 0 -28540473.902245522 4882957.3301887512 0 0 0 0 136149771.52409363 45026745.42712307 0 45026745.42712307 20632955.115763664 0 0 0 0 71822706.437698364 38266433.136203289 0 38266433.136203289 8686315.2080535889 0 0 0 0 38911070.13609314 -3506974.6919631958 0 -3506974.6919631958 5733093.8268241882 0 0 0 0 78098853.125511169 -46281585.088368893 0 -46281585.088368893 -7544415.0302429199 0 0 0 0 10508083.706756592 -23832631.51749897 0 -23832631.51749897 49699.178013801575 0 0 0 0 17142383.084663358 4571374.3767239973 0 4571374.3767239973 -6184605.8940999806 0 0 0 0 73876826.52961731 81899803.760245323 0 81899803.760245323 79611697.559932709 0 0 0 0 -1388320.8239167631 -1773204.5077334642 0 -1773204.5077334642 -40646.191860688385 0 0 0 0 -9234016.1220703125 -6966847.5499887466 0 -6966847.5499887466 3614062.018661499 0 0 0 0 21866863.253488541 21195811.514055133 0 21195811.514055133 10361570.303567886 0 0 0 0 25162675.500178065 1596230.1272247061 0 1596230.1272247061 -20651389.661196209 0 0 0 0 100882074.81248474 62966302.294326782 0 62966302.294326782 -14760708.635326385 0 0 0 0 33588762.934570312 -8694803.0729866028 0 -8694803.0729866028 3944310.2858791351 0 0 0 0 7652874.7606251016 5390328.9164642431 0 5390328.9164642431 -3336346.7713289056 0 0 0 0 18586324.951965332 18061124.500034332 0 18061124.500034332 -1378576.3223590851 0 0 0 0 13873073.234481812 35719493.579892159 0 35719493.579892159 -13720371.203784943 0 0 0 0 56575674.861755371 65441008.407306671 0 65441008.407306671 -1609446.758108139 0 0 0 0 65167878.259368896 23895381.205715179 0 23895381.205715179 16286147.107513428 0 0 0 0 42430277.717956543 42287086.21198082 0 42287086.21198082 69165233.457620621 0 0 0 0 66344317.630432129 52598327.241786957 0 52598327.241786957 64399733.254342079 0 0 0 0 1941532.0841064453 10226301.295143127 0 10226301.295143127 68926297.964736938 0 0 0 0 661589.92831601948 687883.97985798866 0 687883.97985798866 -188264.82695753127 0 0 0 0 48084549.611694336 47769328.803882599 0 47769328.803882599 18913243.818832397 0 0 0 0 49644581.032035828 75636945.696689606 0 75636945.696689606 5355497.804233551 0 0 0 0 93986883.893058777 43197761.920650482 0 43197761.920650482 24819820.742591858 0 0 0 0 18937119.588394165 26208582.603678703 0 26208582.603678703 27597678.591480255 0 0 0 0 34442551.388476729 35899396.442581072 0 35899396.442581072 -16141277.69877243 0 0 0 0 2519321.0598606914 1483796.8917448446 0 1483796.8917448446 517426.63102803193 0 0 0 0 69820284.563148499 49419154.7967453 0 49419154.7967453 15048826.743232727 0 0 0 0 31647181.923524037 10213838.735964108 0 10213838.735964108 -14519733.316336015 0 0 0 0 64115036.485237122 73540110.070571899 0 73540110.070571899 23487968.767427444 0 0 0 0 26974661.845153809 18833341.091308594 0 18833341.091308594 14434660.415596008 0 0 0 0 12075649.304931641 3750901.1565093994 0 3750901.1565093994 -11105968.664772034 0 0 0 0 7416718.3801576793 17280452.690162569 0 17280452.690162569 7269265.8032946791 0 0 0 0 21310353.943812162 2811534.6196590401 0 2811534.6196590401 -9849346.4175749011 0 0 0 0 34511771.830566406 -372534.35723876953 0 -372534.35723876953 412023.06106567383 0 0 0 0 32026565.527068019 2956169.6874705292 0 2956169.6874705292 -15997185.91859236 0 0 0 0 15754235.043549545 11030952.845650531 0 11030952.845650531 -7359613.6704814825 0 0 0 0 -284945678.34785461 32251387.143443108 0 32251387.143443108 -17235561.162826538 0 0 0 0 6156943.4818318486 8579625.4140904211 0 8579625.4140904211 -4628226.7492489815 0 0 0 0 66490405.995117188 210048094.56178379 0 210048094.56178379 -27236784.193424344 0 0 0 0 235629340.48483276 -107184045.18504333 0 -107184045.18504333 -73584395.820268631 0 0 0 0 -16350885.644592285 8511510.2115936279 0 8511510.2115936279 48025688.358402371 0 0 0 0 -71565041.649108887 38678344.976604462 0 38678344.976604462 43451999.840219498 0 0 0 0 13815860.841873169 46748570.329044819 0 46748570.329044819 -13349716.62455833 0 0 0 0 69370919.275566339 -125916212.45975244 0 -125916212.45975244 -6445575.1704978943 0 0 0 0 1818290.9560937583 -213331.4593091011 0 -213331.4593091011 -568678.78397866525 0 0 0 0 32599527.645141602 10386085.341728687 0 10386085.341728687 -26035169.410911083 0 0 0 0 19428477.735472515 11773247.476600081 0 11773247.476600081 -4245743.4970798548 0 0 0 0 33861673.571929932 7086790.6826360226 0 7086790.6826360226 -72724958.789470673 0 0 0 0 21973809.228210449 41698218.761297703 0 41698218.761297703 -30332534.67954433 0 0 0 0 32961887.830108643 54052668.935305834 0 54052668.935305834 -18339945.31059742 0 0 0 0 25065196.182525635 38517207.268241882 0 38517207.268241882 -15997825.019356012 0 0 0 0 40227936.559539795 32393272.938011169 0 32393272.938011169 -60922277.13986969 0 0 0 0 51120194.236785889 13843946.977226257 0 13843946.977226257 -8719256.8407516479 0 0 0 0 36786410.535003662 54082168.658614874 0 54082168.658614874 4099413.0637207031 0 0 0 0 43748891.423278809 48276202.148347855 0 48276202.148347855 -18085316.318750381 0 0 0 0 -2242057.6807556152 38066656.269160271 0 38066656.269160271 3379120.0679035187 0 0 0 0 5625962.6698608398 56163373.331918716 0 56163373.331918716 9571112.2347545624 0 0 0 0 11027622.2237854 65399139.900406837 0 65399139.900406837 4988641.4929790497 0 0 0 0 -29971486.355926514 85452073.596040726 0 85452073.596040726 -5992915.6662836075 0 0 0 0 17072110.266494751 27081078.002234459 0 27081078.002234459 -32115406.224813461 0 0 0 0 2672013.8672318608 754894.44525999576 0 754894.44525999576 -107907.90525053721 0 0 0 0 16818768.966552734 2664358.8469376564 0 2664358.8469376564 -16886804.365104198 0 0 0 0 14098466.494659424 -9040965.9717078209 0 -9040965.9717078209 -53353042.123389363 0 0 0 0 9910370.2237132713 3407800.4538238905 0 3407800.4538238905 964417.81006221473 0 0 0 0 21594410.060241699 3926018.3668775558 0 3926018.3668775558 -7747795.0245631337 0 0 0 0 6817661.9395958632 -832223.86180376634 0 -832223.86180376634 -2673037.1525441576 0 0 0 0 49185558.092529297 -19551146.080085754 0 -19551146.080085754 -7018829.5399742126 0 0 0 0 -13192551.396685123 21145469.994879358 0 21145469.994879358 -1626130.8524107933 0 0 0 0 13197990.623238914 9676258.6176088639 0 9676258.6176088639 253216.10191098507 0 0 0 0 -7978341.3609008789 9302222.7151358128 0 9302222.7151358128 6105592.0210061073 0 0 0 0 6977260.047164917 2541594.9506274462 0 2541594.9506274462 -2590812.1842088699 0 0 0 0 5601795.4224472046 1026308.536585927 0 1026308.536585927 -2166081.7641263008 0 0 0 0 6763618.6424071193 362196.26336021721 0 362196.26336021721 -1231562.6150300554 0 0 0 0 13027632.835259974 1836594.0662131459 0 1836594.0662131459 1000347.7954293145 0 0 0 0 13702589.988113403 61427526.244735956 0 61427526.244735956 -19374560.271759987 0 0 0 0 8961217.589630127 55132976.663527369 0 55132976.663527369 13808525.480910301 0 0 0 0 15099534.900118396 10391724.060545921 0 10391724.060545921 -475781.08023249754 0 0 0 0 3084229.7214813232 41898990.576977968 0 41898990.576977968 -13285290.192419529 0 0 0 0 3102663.3358612061 41439423.572473764 0 41439423.572473764 -8922021.821644783 0 0 0 0 -8217402.2241516113 22055472.090473413 0 22055472.090473413 -3565710.7986210585 0 0 0 0 -13249743.840291023 19041522.989382997 0 19041522.989382997 16594179.653098106 0 0 0 0 -9944272.1821899414 8618014.3670964241 0 8618014.3670964241 6421170.681977272 0 0 0 0 -5725654.1565246582 2311590.7136933804 0 2311590.7136933804 32743443.682108462 0 0 0 0 -7050445.6951904297 28416489.977990568 0 28416489.977990568 29699191.554527283 0 0 0 0 10822382.670562744 -15965822.868083358 0 -15965822.868083358 49369578.035700798 0 0 0 0 -6080338.7330322266 32360454.352924109 0 32360454.352924109 16160790.115447253 0 0 0 0 -7057892.2858886719 47540566.144388795 0 47540566.144388795 84749739.336714268 0 0 0 0 1081983.5502319336 2798734.6739368439 0 2798734.6739368439 6390032.7976170182 0 0 0 0 3650221.6850280762 2001240.8767136335 0 2001240.8767136335 6611436.322675705 0 0 0 0 -964861.03286743164 -242121.46670603752 0 -242121.46670603752 3465942.2434027195 0 0 0 0 -8454986.7714233398 10726509.663440704 0 10726509.663440704 6844048.9281730652 0 0 0 0 -16590041.870819092 10083019.153731346 0 10083019.153731346 7486134.479195118 0 0 0 0 -7745831.1697998047 5774777.0463705063 0 5774777.0463705063 10837177.225854397 0 0 0 0 -9666916.2116699219 11614549.286723018 0 11614549.286723018 193370.2903547287 0 0 0 0 -1873317.1207504272 3319284.3479297757 0 3319284.3479297757 -478443.84649467468 0 0 0 0 -8900460.7549438477 7189471.7720108032 0 7189471.7720108032 -36264.560194969177 0 0 0 0 -328013.90087890625 131406.07164978981 0 131406.07164978981 4273184.6778697968 0 0 0 0 -138156.34236907959 2916217.9006383419 0 2916217.9006383419 1651678.3964586258 0 0 0 0 -539611.4841003418 1590330.3287273645 0 1590330.3287273645 -1708787.8714485168 0 0 0 0 231345586.36529541 -431360399.63223267 0 -431360399.63223267 810470661.02975464 0 0 0 0 122537.95048047602 432350.14366140077 0 432350.14366140077 -499172.00236891716 0 0 0 0 10703115.014380068 6208496.4538839683 0 6208496.4538839683 3490851.8186155702 0 0 0 0 -171130198.9722023 227243435.42707896 0 227243435.42707896 -9696636.626323266 0 0 0 0 390385.20809177309 780545.74566779286 0 780545.74566779286 285568.91544195404 0 0 0 0 6900490.5036315918 3741813.0062038898 0 3741813.0062038898 -295330.73590117693 0 0 0 0 5483628.7018057257 3594920.1232303246 0 3594920.1232303246 -1201350.7823024313 0 0 0 0 9616648.6494445801 2830734.8636643887 0 2830734.8636643887 -1595530.597329855 0 0 0 0 6931915.8858795166 4598756.4148607254 0 4598756.4148607254 -2650213.3121557236 0 0 0 0 884736.81624391675 29780.782627433538 0 29780.782627433538 -624221.35842567403 0 0 0 0 8099612.3319790959 8117315.2025964633 0 8117315.2025964633 693639.60348187666 0 0 0 0 5864962.4610137939 2620359.2453043461 0 2620359.2453043461 -3067474.3961129189 0 0 0 0 -13796152.884086609 1443648.4302906394 0 1443648.4302906394 3166305.3873910904 0 0 0 0 297107.54631985724 1320348.9415562423 0 1320348.9415562423 -126019.54905454695 0 0 0 0 6353632.6390686035 3260354.8045907021 0 3260354.8045907021 695130.08795727789 0 0 0 0 1647527.0143280029 1451994.1599348714 0 1451994.1599348714 583.35396119274242 0 0 0 0 4049825.1777969897 1932094.2418053183 0 1932094.2418053183 -278385.95416315302 0 0 0 0 2514842.1395263672 720194.45474036993 0 720194.45474036993 -116494.68719217756 0 0 0 0 7049078.9723815918 3831864.3021453023 0 3831864.3021453023 -241886.76529526711 0 0 0 0 8188551.379211247 6043281.6259944439 0 6043281.6259944439 1826543.3319915377 0 0 0 0 2568861.2052001953 642224.78513536847 0 642224.78513536847 -5852.7505927394677 0 0 0 0 4906625.0460474938 334842.12068144884 0 334842.12068144884 -732781.70988537895 0 0 0 0 8085989.4043426514 1006794.6206126213 0 1006794.6206126213 -1541554.1967952251 0 0 0 0 6310010.8379087448 1905941.5090062246 0 1905941.5090062246 -1853539.1453876495 0 0 0 0 3006680.2151489258 -1326551.4736285249 0 -1326551.4736285249 -605969.01763851568 0 0 0 0 7914491.1166992188 742678.3304425478 0 742678.3304425478 -3844566.9897150993 0 0 0 0 8757075.680974409 3599393.517099157 0 3599393.517099157 -719960.1112201392 0 0 0 0 231058991.83288574 -579309062.21317291 0 -579309062.21317291 -882769.35418665595 0 0 0 0 8102562.3186035156 -137505.01992535591 0 -137505.01992535591 -3151734.9891786575 0 0 0 0 15225041.260709763 56726566.293252021 0 56726566.293252021 -30752618.888413429 0 0 0 0 12473674.47946167 5084251.9860270619 0 5084251.9860270619 9449143.7855446339 0 0 0 0 2879726.6904041916 1700286.8800266422 0 1700286.8800266422 -342740.96877282625 0 0 0 0 4663435.3036499023 -659766.43066878815 0 -659766.43066878815 -7476.9272600869344 0 0 0 0 9790696.5786620155 1791019.9125225171 0 1791019.9125225171 -556566.50594642712 0 0 0 0 8863460.2526836693 -1502230.7454563193 0 -1502230.7454563193 -1946595.3781692581 0 0 0 0 5461781.5274200439 597372.71085226536 0 597372.71085226536 -3498016.0147857666 0 0 0 0 11935129.798893251 -4454307.418937061 0 -4454307.418937061 -4877506.7470599096 0 0 0 0 3800863.2623901367 -2984125.1037570834 0 -2984125.1037570834 -6879507.2918429375 0 0 0 0 295965536.2394104 -72290415.370785713 0 -72290415.370785713 -238010270.95765495 0 0 0 0 13384326.423651025 -2419535.4788034279 0 -2419535.4788034279 -4856668.5168648893 0 0 0 0 6416866.6441271976 1961774.1303630993 0 1961774.1303630993 -411880.78218009701 0 0 0 0 5008435.3653869629 -1706014.1806463301 0 -1706014.1806463301 -4097764.9376176596 0 0 0 0 9185010.296836853 178877.54109585285 0 178877.54109585285 -5673787.5164989233 0 0 0 0 8280721.8143310547 -282948.16264748573 0 -282948.16264748573 -5244745.1841397285 0 0 0 0 5594787.1119711697 422021.13092476316 0 422021.13092476316 -497071.0881366682 0 0 0 0 9407086.3629512787 1292822.4615826756 0 1292822.4615826756 -4676429.4851083755 0 0 0 0 6485437.0594177246 1469226.0057506561 0 1469226.0057506561 -4868235.9536440372 0 0 0 0 14451977.831054688 -11964345.874177933 0 -11964345.874177933 14243963.576949835 0 0 0 0 1605042.6370239258 28711981.018611908 0 28711981.018611908 3195512.6833553314 0 0 0 0 14992291.828620665 2458542.5293678492 0 2458542.5293678492 -2407601.909515216 0 0 0 0 -985045.43534009531 -964836.51011616737 0 -964836.51011616737 -10279.265830777586 0 0 0 0 203240591.51200962 351321694.48660153 0 351321694.48660153 -235049704.90766907 0 0 0 0 -33704274.906005859 12990108.299328804 0 12990108.299328804 -15055745.656398773 0 0 0 0 -50449877.269714355 -60976594.581886292 0 -60976594.581886292 255177061.8514328 0 0 0 0 -121339029.07788086 -36863828.82934761 0 -36863828.82934761 53784954.604972839 0 0 0 0 231960411.23109436 -81518489.768795967 0 -81518489.768795967 -27733253.731332779 0 0 0 0 555919.14661912248 177747.66144320369 0 177747.66144320369 -457907.28169178404 0 0 0 0 44954629.898101807 47996731.484525681 0 47996731.484525681 -115327356.4955368 0 0 0 0 -16244904.8776474 36027426.612627268 0 36027426.612627268 -15189865.581222534 0 0 0 0 48041845.162800789 -4142189.8976804018 0 -4142189.8976804018 -11172732.730140686 0 0 0 0 10989983.123886108 18409590.582493305 0 18409590.582493305 463098.85758018494 0 0 0 0 14101674.672622681 -1888188.1079483032 0 -1888188.1079483032 1836222.464307785 0 0 0 0 -12227962.814025879 -11764904.307831787 0 -11764904.307831787 -8277671.9409481585 0 0 0 0 -34863615.001281738 -39278139.715000927 0 -39278139.715000927 -9436108.3171963692 0 0 0 0 -32915519.71607399 -17577970.671845265 0 -17577970.671845265 4846644.4824849367 0 0 0 0 -24386986.044334412 -18207909.504791498 0 -18207909.504791498 -26031809.363510132 0 0 0 0 94961605.668800354 24682831.431444168 0 24682831.431444168 90606922.894824982 0 0 0 0 -47918119.158203125 -42321404.929613113 0 -42321404.929613113 -12804400.136299133 0 0 0 0 -7371475.109381333 -2452593.5390760899 0 -2452593.5390760899 2157558.6514576874 0 0 0 0 -10737741.770111084 -4695434.5341362953 0 -4695434.5341362953 -6838662.9782042503 0 0 0 0 4542573.50896696 -2023027.1391915828 0 -2023027.1391915828 -2872810.7016479122 0 0 0 0 279483184.01531982 -103223635.65483856 0 -103223635.65483856 151298922.50235748 0 0 0 0 13371865.359952062 -2674926.8949052766 0 -2674926.8949052766 -3763854.3659619321 0 0 0 0 -13959063.330596924 -10688342.751481771 0 -10688342.751481771 8831949.081766367 0 0 0 0 -30571612.437988281 -37888511.723590612 0 -37888511.723590612 -24448871.860937119 0 0 0 0 -1233707.8411505967 -317936.79285196215 0 -317936.79285196215 423898.62517398287 0 0 0 0 -30001715.871454239 -27260979.856250167 0 -27260979.856250167 -35071873.31401062 0 0 0 0 14131076.049500421 -2445008.991723109 0 -2445008.991723109 -2563270.1143930769 0 0 0 0 -115461976.55014038 -100870179.82681751 0 -100870179.82681751 -49212021.180805445 0 0 0 0 -14413303.353347778 -23996925.67070204 0 -23996925.67070204 -2576139.9796175957 0 0 0 0 -3293532.0381469727 -19974878.564840049 0 -19974878.564840049 -12677260.370563745 0 0 0 0 -5424446.9511890411 1632449.1603952404 0 1632449.1603952404 3022120.5390758514 0 0 0 0 -1269937.0188140869 -4984281.0040763468 0 -4984281.0040763468 -1563543.510474503 0 0 0 0 561430.3917388916 -451371.17485225201 0 -451371.17485225201 -4011392.3615430593 0 0 0 0 -587536.93296813965 235001.83428487135 0 235001.83428487135 1034010.5608081017 0 0 0 0 2206636.1326904297 -4123826.9015899897 0 -4123826.9015899897 -4111111.0041672401 0 0 0 0 1777190.1505289972 -1691116.3498919569 0 -1691116.3498919569 1011114.4871777371 0 0 0 0 1173553.7491455078 -3140002.7857453823 0 -3140002.7857453823 -592941.6526933983 0 0 0 0 2223181.9677734375 -5392951.7813350447 0 -5392951.7813350447 -2706212.7192643057 0 0 0 0 -2955933.6598991454 -4451011.7816060977 0 -4451011.7816060977 -346098.92258697143 0 0 0 0 3756232.6390991211 -4412754.5509245396 0 -4412754.5509245396 -2846189.1856857538 0 0 0 0 1243815.0347290039 -3685350.9657092094 0 -3685350.9657092094 -3041844.7638853192 0 0 0 0 2118710.4023132324 -1191789.8125668764 0 -1191789.8125668764 -4101730.5027537653 0 0 0 0 4407365.5155639648 -1877780.5826063997 0 -1877780.5826063997 -4929466.2455862761 0 0 0 0 463394.81423172355 -136086.29028459638 0 -136086.29028459638 -246604.19221039044 0 0 0 0 4250095.6774749756 -1541274.202682507 0 -1541274.202682507 -1747603.1673759455 0 0 0 0 9276318.4965057373 -1194812.744036275 0 -1194812.744036275 -1615968.3990702219 0 0 0 0 3468880.7830810547 -2450573.5284122792 0 -2450573.5284122792 3536.2966905295848 0 0 0 0 1137587.9497680664 -5494571.4742045254 0 -5494571.4742045254 -1680539.6933694533 0 0 0 0 10158611.949874878 5102644.5427695252 0 5102644.5427695252 4446453.7011518255 0 0 0 0 44109693.715942383 4103309.6244538641 0 4103309.6244538641 -4722171.5352673316 0 0 0 0 23641734.709640503 -1444415.6844507917 0 -1444415.6844507917 6044.9335044572526 0 0 0 0 17435859.009246826 11377099.147989566 0 11377099.147989566 6375393.0254664458 0 0 0 0 17201571.796630859 3411632.913708888 0 3411632.913708888 4504297.1182359196 0 0 0 0 6425474.5651092529 -5570458.0810940918 0 -5570458.0810940918 -5935799.456194465 0 0 0 0 -1446477.8636779785 -1766071.2879432701 0 -1766071.2879432701 5285236.9555691853 0 0 0 0 7984527.438659668 9234260.7428739779 0 9234260.7428739779 1967412.3379509598 0 0 0 0 1812258.5385630578 -782500.38261703774 0 -782500.38261703774 424081.92991466209 0 0 0 0 15241697.084915161 -1003499.9973202792 0 -1003499.9973202792 -1311708.5514724739 0 0 0 0 36495427.874176025 -21310522.602079004 0 -21310522.602079004 -2920292.7330102548 0 0 0 0 45142218.933307648 5877406.7558539398 0 5877406.7558539398 -6832482.6902191769 0 0 0 0 56859412.83265686 -6512642.1041557994 0 -6512642.1041557994 -24001.277335790321 0 0 0 0 89349991.685424805 4015463.9916647412 0 4015463.9916647412 -8368667.8744237404 0 0 0 0 74350716.399978638 -18507141.670355521 0 -18507141.670355521 -2819418.7063840553 0 0 0 0 19586897.958587646 -46655890.738208421 0 -46655890.738208421 22434041.997812252 0 0 0 0 82494876.020935059 -2830211.7470587604 0 -2830211.7470587604 21503048.985875115 0 0 0 0 69853350.309341431 -12015103.612690851 0 -12015103.612690851 -290371.0729027018 0 0 0 0 149719379.15716553 -31700349.295418628 0 -31700349.295418628 4560358.3440479711 0 0 0 0 123744452.7156105 49832478.737859301 0 49832478.737859301 18592629.134800792 0 0 0 0 -86646.605731099844 -316083.19737031683 0 -316083.19737031683 75819.205184098857 0 0 0 0 83753561.560119629 15056300.191295519 0 15056300.191295519 156161683.02449766 0 0 0 0 97109454.427474976 -75712095.916101784 0 -75712095.916101784 67803009.060506672 0 0 0 0 165609810.22198486 26507708.758135114 0 26507708.758135114 11497044.213361457 0 0 0 0 96464245.147521973 -8915453.1627824903 0 -8915453.1627824903 -1411836.5061968416 0 0 0 0 10791000.499572754 8106330.1910087317 0 8106330.1910087317 41798410.1350476 0 0 0 0 40693519.518737793 44224680.602265447 0 44224680.602265447 41616164.940650575 0 0 0 0 68662.111695200205 16259.576021134853 0 16259.576021134853 -7412.7895519428712 0 0 0 0 -15749892.157348633 -2454359.6491632462 0 -2454359.6491632462 27285131.890477538 0 0 0 0 -2085775.010225147 -2249509.1764756879 0 -2249509.1764756879 -237506.94312303269 0 0 0 0 5491643.0448913574 4233284.4472159743 0 4233284.4472159743 18640834.164224342 0 0 0 0 20814424.227966309 7125859.4617668688 0 7125859.4617668688 -2966829.4227719717 0 0 0 0 -396438.31511625648 -1026257.331671793 0 -1026257.331671793 259484.99975519389 0 0 0 0 25757545.591430664 2544628.6973312423 0 2544628.6973312423 -1948194.8302737772 0 0 0 0 28045773.569915771 22607956.174374048 0 22607956.174374048 15311149.627215654 0 0 0 0 -4632801.4113006592 12409832.996742398 0 12409832.996742398 43338435.563244462 0 0 0 0 -383691.84292602539 -5584215.9658483677 0 -5584215.9658483677 35119961.424273103 0 0 0 0 1066775.6803588867 7180025.2929985709 0 7180025.2929985709 131741672.80914052 0 0 0 0 -985175.84042358398 -17720851.948513895 0 -17720851.948513895 35657073.157698482 0 0 0 0 13509753.538909912 -43661816.257849962 0 -43661816.257849962 -11463571.691050082 0 0 0 0 -14587869.548095703 -42512686.913509935 0 -42512686.913509935 -19277621.270932555 0 0 0 0 -22854833.299133301 -28465470.661328882 0 -28465470.661328882 31973481.58409033 0 0 0 0 -343268.75546264648 -1748914.3982802108 0 -1748914.3982802108 26655501.058435798 0 0 0 0 -20106971.956451416 -18534278.212602794 0 -18534278.212602794 17958158.994989354 0 0 0 0 -15716478.110351562 -40772641.921513677 0 -40772641.921513677 -20509164.220896989 0 0 0 0 22849405.732513428 -20165098.77719304 0 -20165098.77719304 -43872846.537068099 0 0 0 0 -261368.7574005127 -39759948.301974982 0 -39759948.301974982 -50272222.777554214 0 0 0 0 1714656.5217590332 -9884231.9331347942 0 -9884231.9331347942 -6816487.1385307312 0 0 0 0 18086798.934020996 9029474.3601636887 0 9029474.3601636887 -15726984.285627365 0 0 0 0 1109961.9454040527 10566185.935172319 0 10566185.935172319 -10079347.519164085 0 0 0 0 3212601.7009204999 -240067.43273952231 0 -240067.43273952231 -1318370.931660668 0 0 0 0 5787742.1409611106 -6889467.4809465669 0 -6889467.4809465669 -3177748.263091851 0 0 0 0 -8751926.3961791992 2354947.4467191696 0 2354947.4467191696 -6238328.7737271786 0 0 0 0 -24399396.26550293 -6405098.7732043266 0 -6405098.7732043266 -11709377.956345081 0 0 0 0 36590279.757171631 14728526.04165557 0 14728526.04165557 -8716629.3189777732 0 0 0 0 2736198.1318828687 405947.62431050092 0 405947.62431050092 -396719.8619546878 0 0 0 0 -50619238.736387253 -89283380.571763873 0 -89283380.571763873 -43999405.625673056 0 0 0 0 7757777.401184082 -37058936.339072227 0 -37058936.339072227 -1285007.097170949 0 0 0 0 7458119.8629272729 -6644313.270741608 0 -6644313.270741608 -2973141.9580232129 0 0 0 0 21040847.477813721 -87211738.108943313 0 -87211738.108943313 -89480804.082254589 0 0 0 0 -55554794.52633667 -41393998.940844536 0 -41393998.940844536 -11524617.188879877 0 0 0 0 35904443.128662109 -31307974.708510399 0 -31307974.708510399 -92317203.402400255 0 0 0 0 24355174.406280518 -36534736.764967427 0 -36534736.764967427 -25254646.227167845 0 0 0 0 99482985.456260681 5701065.8018528074 0 5701065.8018528074 -30452834.674914837 0 0 0 0 50633304.210693359 -12750043.261506438 0 -12750043.261506438 -29183567.599282429 0 0 0 0 76435579.333190918 -53377772.217036873 0 -53377772.217036873 -19920021.083862215 0 0 0 0 74844247.474517822 -12818691.078939915 0 -12818691.078939915 -52160871.132093012 0 0 0 0 76259283.250244141 -32523430.41093269 0 -32523430.41093269 -61775315.425533056 0 0 0 0 6634643.1638031006 -41719869.277407862 0 -41719869.277407862 -43905568.390103698 0 0 0 0 50942291.59161377 20696345.46183145 0 20696345.46183145 -11664828.482063826 0 0 0 0 103884481.98204803 43752411.196972325 0 43752411.196972325 -13242076.9851183 0 0 0 0 65238331.227600098 21591201.91489616 0 21591201.91489616 -25409108.321436226 0 0 0 0 40186470.778095245 24937557.841272481 0 24937557.841272481 222622.88029897213 0 0 0 0 43365685.533935547 12521489.076389551 0 12521489.076389551 -20479517.988351464 0 0 0 0 36355876.083129883 -2918538.4918036461 0 -2918538.4918036461 -30409529.720502496 0 0 0 0 56642605.318145752 12764825.864908278 0 12764825.864908278 -34467235.70596689 0 0 0 0 38700050.208496094 -1732769.4218974113 0 -1732769.4218974113 -30442190.532551467 0 0 0 0 29934994.65713501 -42675166.795692474 0 -42675166.795692474 -60565238.350831628 0 0 0 0 27771560.464447021 -13812295.071670055 0 -13812295.071670055 -36311650.453757703 0 0 0 0 17710107.352661133 -27156368.134064198 0 -27156368.134064198 -33845485.69289422 0 0 0 0 43217732.309555054 -12353068.347713374 0 -12353068.347713374 -48365052.589472294 0 0 0 0 10404141.475753784 -23764625.311866373 0 -23764625.311866373 -22989489.829752684 0 0 0 0 15120981.067565918 -20487177.245913267 0 -20487177.245913267 -53556317.156657219 0 0 0 0 -40207673.702274323 -20937247.101500571 0 -20937247.101500571 -28265877.472109318 0 0 0 0 -1234419.1847840846 -621883.39069406316 0 -621883.39069406316 652439.76127756608 0 0 0 0 10225138.473751605 -5894804.9454011172 0 -5894804.9454011172 -1861877.1050785915 0 0 0 0 7421050.0598907471 -86315633.647463799 0 -86315633.647463799 31347647.803741455 0 0 0 0 7426382.5851135254 -15892202.875481129 0 -15892202.875481129 -3002757.6734060049 0 0 0 0 15433482.994995117 -15223510.41154772 0 -15223510.41154772 -16172683.84131223 0 0 0 0 21455729.664550781 -19443344.751613438 0 -19443344.751613438 -28497263.214524984 0 0 0 0 8229300.0841674805 -16542670.837706566 0 -16542670.837706566 -13016256.932739079 0 0 0 0 26897866.82510376 -8962804.7311422825 0 -8962804.7311422825 -17801097.967971504 0 0 0 0 22448683.878601074 -9344684.9506962895 0 -9344684.9506962895 -17823329.214249313 0 0 0 0 24566073.708648682 -4938084.7027854025 0 -4938084.7027854025 -8717689.0867460966 0 0 0 0 18937739.268737793 -5683515.8154497445 0 -5683515.8154497445 970166.00879979134 0 0 0 0 19809057.738372803 -5098220.1892028451 0 -5098220.1892028451 -8722937.0915443078 0 0 0 0 -52350574.731218338 2161211.0872271061 0 2161211.0872271061 -1811670.2224636078 0 0 0 0 11447026.910689071 -6448960.975046955 0 -6448960.975046955 -1873981.4405744036 0 0 0 0 20352389.135162354 -5537327.7558271885 0 -5537327.7558271885 -5915779.6010281444 0 0 0 0 -7826133.6038818359 21341237.593195677 0 21341237.593195677 -24375900.115813732 0 0 0 0 -51493395.957214355 9710397.3133366108 0 9710397.3133366108 16624403.419978619 0 0 0 0 15940362.241027832 -8115584.1505791545 0 -8115584.1505791545 -4274173.4658602476 0 0 0 0 -42590776.560058594 4123308.8880213499 0 4123308.8880213499 -13225700.520835638 0 0 0 0 -37144940.422348022 9586891.875267148 0 9586891.875267148 9685189.2132158279 0 0 0 0 -35247029.456207275 10488015.705579519 0 10488015.705579519 -9251386.4543757439 0 0 0 0 -5247624.6582336426 -17625253.884901047 0 -17625253.884901047 25254292.167558193 0 0 0 0 -4514399.1278076172 -45510140.40045619 0 -45510140.40045619 82753090.902664691 0 0 0 0 -49206359.791870117 14090047.766499758 0 14090047.766499758 9547811.0744396448 0 0 0 0 9290326.5891113281 -40322322.217126369 0 -40322322.217126369 9066310.2569441795 0 0 0 0 40751677.663543701 -55200307.14236021 0 -55200307.14236021 14880695.556754589 0 0 0 0 37338534.717437744 -14457288.607517719 0 -14457288.607517719 -10060218.669828773 0 0 0 0 30398294.409820557 -67632595.656750202 0 -67632595.656750202 -3770.8992214202881 0 0 0 0 5645776.826965332 -64579054.769361019 0 -64579054.769361019 41357927.538580894 0 0 0 0 38296996.50390625 -84408803.830511093 0 -84408803.830511093 27792034.384942055 0 0 0 0 28171187.114440918 -102220651.04838216 0 -102220651.04838216 85399840.103063107 0 0 0 0 103435768.24859619 -91856480.661618948 0 -91856480.661618948 137222046.05800819 0 0 0 0 196057993.56256104 -3668437.4312508106 0 -3668437.4312508106 -212593422.49811697 0 0 0 0 26312598.843811035 93837379.763922691 0 93837379.763922691 -122481722.03620458 0 0 0 0 182033095.09057617 -124689157.34465307 0 -124689157.34465307 -53557572.636404037 0 0 0 0 86771040.909912109 -139604573.68972111 0 -139604573.68972111 53539777.468873739 0 0 0 0 65413663.604003906 -13193034.279281139 0 -13193034.279281139 -106953565.32650685 0 0 0 0 43075505.902267456 -75326954.806437731 0 -75326954.806437731 -18430190.284063339 0 0 0 0 21766880.088134766 -26475866.428609848 0 -26475866.428609848 -47873931.223437786 0 0 0 0 74187789.153137207 -67698209.336628437 0 -67698209.336628437 -18562762.773509502 0 0 0 0 9722416.4898376465 20056890.157139778 0 20056890.157139778 -61143736.597565532 0 0 0 0 25716174.47517395 -12506860.882326126 0 -12506860.882326126 -31750012.223944664 0 0 0 0 -56906167.281707764 57495350.775182724 0 57495350.775182724 -43376894.977842331 0 0 0 0 47512007.633483887 1415080.0709929466 0 1415080.0709929466 -56715877.839341164 0 0 0 0 -15411381.048477173 12742883.097977996 0 12742883.097977996 -22437374.966578484 0 0 0 0 -7896518.5787658691 8363220.5974555016 0 8363220.5974555016 -22878583.489006996 0 0 0 0 2554523.3180541992 -5848880.3176705837 0 -5848880.3176705837 -29758793.639025211 0 0 0 0 956093.49823667109 -71068.390272006392 0 -71068.390272006392 -398457.13850330515 0 0 0 0 35366275.70149231 37617628.08024776 0 37617628.08024776 -21509208.439810872 0 0 0 0 7099022.5310668945 -38196945.200217724 0 -38196945.200217724 -17379402.082509041 0 0 0 0 37007731.943481445 -63070399.088964462 0 -63070399.088964462 639541.48350292444 0 0 0 0 7479794.0704956055 -9366839.0922727585 0 -9366839.0922727585 775534.16810405254 0 0 0 0 12966558.877410889 8534807.2322099209 0 8534807.2322099209 -4134989.6178598404 0 0 0 0 1124149.4377377778 -2493605.3283756617 0 -2493605.3283756617 -695525.68235965504 0 0 0 0 -7287765.7063598633 -47046494.383690834 0 -47046494.383690834 21384803.938040972 0 0 0 0 15437478.210128784 -6589914.6417729855 0 -6589914.6417729855 -7891640.8240938187 0 0 0 0 3643450.4163232595 -1260053.2138951346 0 -1260053.2138951346 -1079936.6716307607 0 0 0 0 25165042.770957947 -6726519.3305268288 0 -6726519.3305268288 -7333044.6798915863 0 0 0 0 19717547.154769897 617349.66007313132 0 617349.66007313132 -10114645.819675833 0 0 0 0 8018086.4423609823 -1140790.5372437965 0 -1140790.5372437965 -4304752.6703972612 0 0 0 0 7938698.6336175799 -1761555.5027525946 0 -1761555.5027525946 -4567433.9016614174 0 0 0 0 20120788.392189026 -3622125.1250210851 0 -3622125.1250210851 -4309188.7084051371 0 0 0 0 20758809.897750854 -1378786.5664580762 0 -1378786.5664580762 -7384418.3132451773 0 0 0 0 23223982.709762573 2049340.5966667533 0 2049340.5966667533 -15972903.438253731 0 0 0 0 23469608.414405823 -2658334.9914714843 0 -2658334.9914714843 -13101715.014507055 0 0 0 0 23129274.793609619 2461263.015751183 0 2461263.015751183 -9246909.6732161343 0 0 0 0 11465177.533935547 4973534.3405197114 0 4973534.3405197114 -7371530.616974622 0 0 0 0 25424007.806549072 9675021.6687742919 0 9675021.6687742919 -15556217.205292247 0 0 0 0 33494839.173618317 7505381.7830019444 0 7505381.7830019444 -15020587.44382894 0 0 0 0 11951201.530883789 3924546.447338596 0 3924546.447338596 -305190.78421152383 0 0 0 0 22534473.788879395 14691333.289446786 0 14691333.289446786 -2936629.0073116124 0 0 0 0 23005851.675476074 15767196.491774358 0 15767196.491774358 1011423.7566387653 0 0 0 0 -2056901.0065002441 -1119242.552470848 0 -1119242.552470848 -3908749.8062089179 0 0 0 0 52383337.06842804 -15931922.26079154 0 -15931922.26079154 -26570271.616469383 0 0 0 0 3904562.5028308071 -1103493.5802393258 0 -1103493.5802393258 -4258234.7847058587 0 0 0 0 9607819.9997787476 8569448.6910367794 0 8569448.6910367794 -6592087.0359781086 0 0 0 0 -1013538.281162262 26388118.421986282 0 26388118.421986282 -45643367.523046494 0 0 0 0 741137.14338187873 -459119.43472247571 0 -459119.43472247571 -44704.179664492141 0 0 0 0 10093345.807022095 -30247704.965566635 0 -30247704.965566635 -65712764.622061729 0 0 0 0 13520551.112686157 -7168115.1545715332 0 -7168115.1545715332 3888988.3511552811 0 0 0 0 -5117860.7339172363 -35389785.547545433 0 -35389785.547545433 8116565.054045558 0 0 0 0 -8559677.0722579956 -13827146.841701388 0 -13827146.841701388 36788150.339401245 0 0 0 0 6518434.7589111328 -7282693.5984940529 0 -7282693.5984940529 8577003.6419887543 0 0 0 0 21366667.427780151 -24462906.551250935 0 -24462906.551250935 11163690.834573746 0 0 0 0 -26865.510637268424 51521.502466317266 0 51521.502466317266 -111951.65942637406 0 0 0 0 -8161774.7913513184 8241866.2327116542 0 8241866.2327116542 -3503910.7115288079 0 0 0 0 -10567872.678497314 3711140.5725800395 0 3711140.5725800395 -5408643.2824321389 0 0 0 0 2481691.4796203896 -814592.92966724187 0 -814592.92966724187 -3958171.6123378752 0 0 0 0 -351784.62539672852 5489669.2263714839 0 5489669.2263714839 -7958355.2766193748 0 0 0 0 1478922.0995254517 464762.64532069862 0 464762.64532069862 -1765297.7371372283 0 0 0 0 143846.33581542969 4428765.1618507653 0 4428765.1618507653 -13510186.686198279 0 0 0 0 -16545760.5234375 1420597.9921637028 0 1420597.9921637028 -12777409.895076308 0 0 0 0 1577749.7083892822 -680343.31680321321 0 -680343.31680321321 -20065352.899164975 0 0 0 0 594582.60064697266 -987813.84242817387 0 -987813.84242817387 -8546658.1226271093 0 0 0 0 -10825840 -1526599.528039068 0 -1526599.528039068 -8173900.5321927965 0 0 0 0 10198777.184684753 -7479291.0341829117 0 -7479291.0341829117 -9373478.053527981 0 0 0 0 4588730.6815490723 -1477800.6864499152 0 -1477800.6864499152 -5687656.5510578752 0 0 0 0 5380556.7863769531 -2383835.5162486136 0 -2383835.5162486136 -13680524.09583313 0 0 0 0 8728806.0441894531 -1900916.0959306844 0 -1900916.0959306844 -11511665.738676086 0 0 0 0 -992812.84002685547 -2391078.7458728217 0 -2391078.7458728217 -2357966.527850613 0 0 0 0 1698571.4019470215 -560156.83977494761 0 -560156.83977494761 -9089313.2097220123 0 0 0 0 1798008.5846901685 -1590670.6736667119 0 -1590670.6736667119 -1842577.119927407 0 0 0 0 -6655897.4117355347 3873302.5275344234 0 3873302.5275344234 -7297833.4928882346 0 0 0 0 -5360214.9826660156 -1812436.8508414663 0 -1812436.8508414663 -4312033.2603246048 0 0 0 0 -2056994.248046875 6223502.6082121171 0 6223502.6082121171 -6387088.0972104743 0 0 0 0 90711.896919250488 3102218.6962881014 0 3102218.6962881014 -16748824.264233781 0 0 0 0 -313989.6527557373 8699745.0806529038 0 8699745.0806529038 -12782786.085433021 0 0 0 0 -18864941.353187561 18683000.266123649 0 18683000.266123649 -22502042.771318197 0 0 0 0 -19534898.678466797 20346861.072819769 0 20346861.072819769 -25005667.567542553 0 0 0 0 -39799.091339111328 -179376.36841486394 0 -179376.36841486394 137021.50869952672 0 0 0 0 -4991740.0043029785 1738409.5151633769 0 1738409.5151633769 -26186764.281031132 0 0 0 0 7323887.2545928955 -8204442.5848550629 0 -8204442.5848550629 10041054.357439276 0 0 0 0 14139624.697265625 12781290.750214286 0 12781290.750214286 24957384.96870245 0 0 0 0 8491767.5173339844 4106046.6924782172 0 4106046.6924782172 -6074109.7954770178 0 0 0 0 8649224.8859100342 5261699.2107247412 0 5261699.2107247412 2368642.5932062715 0 0 0 0 12640900.095153809 -7594229.3239608295 0 -7594229.3239608295 1844374.2538017018 0 0 0 0 9156194.7631225586 -3588278.1478102505 0 -3588278.1478102505 -7029217.6499883533 0 0 0 0 9731557.3226013184 -2596709.2390012927 0 -2596709.2390012927 -5698574.4379844069 0 0 0 0 7730785.3457336426 -7239722.4506900981 0 -7239722.4506900981 -552034.2248287499 0 0 0 0 16012470.949966431 -12223106.791153308 0 -12223106.791153308 252269.66468240516 0 0 0 0 11989963.615356445 -8691630.2021516301 0 -8691630.2021516301 40260.272115960717 0 0 0 0 17143165.252924919 -7237281.6379507221 0 -7237281.6379507221 7771074.9881451773 0 0 0 0 94641.270247206092 21438.633019614965 0 21438.633019614965 -7597.4187139606502 0 0 0 0 16419522.298782349 -5940322.3729418386 0 -5940322.3729418386 -1090314.5244685905 0 0 0 0 7866948.1889038086 -11595625.331270585 0 -11595625.331270585 8477875.2786472589 0 0 0 0 36322.654812633991 2997.1151720806956 0 2997.1151720806956 -6915.6649292010516 0 0 0 0 12932702.862129211 -2924700.5452784207 0 -2924700.5452784207 -2978883.8802167764 0 0 0 0 31395725.491027832 -7870096.6491012461 0 -7870096.6491012461 9211.9230679602751 0 0 0 0 3140176.06199646 3699965.5062961169 0 3699965.5062961169 337092.53790442459 0 0 0 0 9074724.5660095215 -2207885.2691018046 0 -2207885.2691018046 -488525.38353050203 0 0 0 0 -1475819.5945739746 3592248.4397807959 0 3592248.4397807959 1155530.3021590346 0 0 0 0 -584875.82196044922 -606563.24073285423 0 -606563.24073285423 1936525.1370840967 0 0 0 0 4658653.2365112305 1102614.6019174661 0 1102614.6019174661 -4180601.5691659003 0 0 0 0 1685148.6900634766 1197134.4202852435 0 1197134.4202852435 -5143195.3260671943 0 0 0 0 12407264.804412842 -3766298.220726728 0 -3766298.220726728 -1974458.7943159593 0 0 0 0 8609014.0905151367 -12691974.836557498 0 -12691974.836557498 15024686.200768311 0 0 0 0 3520735.1265258789 -7284060.6602418236 0 -7284060.6602418236 -1988721.043617591 0 0 0 0 5713532.8176574707 -6775146.2002473995 0 -6775146.2002473995 8506736.7099390291 0 0 0 0 26966888.7068367 -6383707.0466870377 0 -6383707.0466870377 1231136.1472828656 0 0 0 0 23089227.725341797 -24681926.678016689 0 -24681926.678016689 11408087.994312428 0 0 0 0 22673083.278137207 -11686991.722430535 0 -11686991.722430535 3465.1914648366956 0 0 0 0 9413225.1070251465 63840.508722718747 0 63840.508722718747 4641018.3833455099 0 0 0 0 6705594.7035675049 -3335450.4018480619 0 -3335450.4018480619 3303676.9133835416 0 0 0 0 -546084.79122924805 2342272.0348914242 0 2342272.0348914242 9381.1908278648971 0 0 0 0 -192438.09024047852 1596540.6154804537 0 1596540.6154804537 -7722506.1396131553 0 0 0 0 -1867534.9822540283 4381320.4122368582 0 4381320.4122368582 -4006313.2361602373 0 0 0 0 1992640.8990514725 -1602238.1281558909 0 -1602238.1281558909 -1519204.4138270831 0 0 0 0 -1865631.4319076538 876337.13892937684 0 876337.13892937684 -1613015.6729340265 0 0 0 0 -2570356.9787139893 1173870.8879180453 0 1173870.8879180453 -6080.8045297895333 0 0 0 0 1277679.1237617433 -1649573.1421760693 0 -1649573.1421760693 1535687.2454934216 0 0 0 0 918508.18141174316 -1419689.8378469441 0 -1419689.8378469441 8918863.1547421515 0 0 0 0 420473.775694713 -1341451.9775045179 0 -1341451.9775045179 1581395.3041295037 0 0 0 0 4393687.8771362305 -8269939.1180950031 0 -8269939.1180950031 -3699.7268069908637 0 0 0 0 1617027.647857666 -4169222.529003839 0 -4169222.529003839 5877084.0680019818 0 0 0 0 3285893.0017089844 -13682824.889155652 0 -13682824.889155652 7923796.3154970873 0 0 0 0 346234.87054777145 -409468.2995166555 0 -409468.2995166555 -199658.84131398774 0 0 0 0 2372118.5847473145 -1373935.1902665235 0 -1373935.1902665235 12840801.244418573 0 0 0 0 -203606346.64889526 4138938.956413582 0 4138938.956413582 109365526.91733336 0 0 0 0 1353640.380397737 -3219547.8056675047 0 -3219547.8056675047 2665017.4410668211 0 0 0 0 5226660.0535354614 -3139589.1369683389 0 -3139589.1369683389 644863.68008546531 0 0 0 0 2063999.5907376558 -1206896.8096259534 0 -1206896.8096259534 -632414.52365138289 0 0 0 0 3532655.8702850342 -3463250.7751626968 0 -3463250.7751626968 2438964.2501783371 0 0 0 0 1975975.2625427246 -4990405.980679512 0 -4990405.980679512 2872052.949845314 0 0 0 0 -1500702.0062789917 -3012623.7887272835 0 -3012623.7887272835 5494407.1608028412 0 0 0 0 1706259.4468861222 -2589305.807270743 0 -2589305.807270743 1705899.6573162647 0 0 0 0 788929.99884033203 -1704979.7588686943 0 -1704979.7588686943 2413674.0161266327 0 0 0 0 3187196.269317627 -4481904.7110028267 0 -4481904.7110028267 4945386.5003051758 0 0 0 0 9941692.1525878906 -9043997.2397985458 0 -9043997.2397985458 9877718.9224604368 0 0 0 0 3781522.922164917 -3328932.873393774 0 -3328932.873393774 4642071.7045145035 0 0 0 0 185437.18776132166 -370705.05595529824 0 -370705.05595529824 508101.18651266303 0 0 0 0 -924954.06150817871 -3591894.6654958725 0 -3591894.6654958725 26358496.77307415 0 0 0 0 10326514.65357399 -15809364.839087844 0 -15809364.839087844 21480240.618579865 0 0 0 0 -2196174.4458007812 1690503.2811527252 0 1690503.2811527252 9237098.4505565166 0 0 0 0 5145152.6906890869 -6160497.3642516136 0 -6160497.3642516136 8047900.8379020691 0 0 0 0 5719787.3492050171 -6368616.7366774082 0 -6368616.7366774082 3504605.0606298447 0 0 0 0 5106529.3607711792 -5980663.5133092403 0 -5980663.5133092403 3661280.1592407227 0 0 0 0 1175384.7971191406 -6266651.1301674843 0 -6266651.1301674843 8672750.5548038483 0 0 0 0 484187.90441856533 -1401476.9876223654 0 -1401476.9876223654 1902010.3800375201 0 0 0 0 3397385.7651062012 225274713.53773743 0 225274713.53773743 -29859559.922385007 0 0 0 0 107866679.65731812 21711334.884189844 0 21711334.884189844 82903848.362429738 0 0 0 0 695102063.92441559 80016133.561597675 0 80016133.561597675 -25785633.019632339 0 0 0 0 972877.61891376972 10504.68374182703 0 10504.68374182703 -44953.966575602397 0 0 0 0 573002802.35881042 -195769788.41734233 0 -195769788.41734233 11356270.090462392 0 0 0 0 539076261.77359009 202014404.4675495 0 202014404.4675495 -142964039.28636241 0 0 0 0 1089017123.4737091 16630288.745758174 0 16630288.745758174 -559562.05265037867 0 0 0 0 1027989580.0678711 -201033361.01254022 0 -201033361.01254022 11044867.704150736 0 0 0 0 1178824095.8097534 -39821543.981346726 0 -39821543.981346726 -209006153.65180337 0 0 0 0 673150378.1424942 -11826400.831218474 0 -11826400.831218474 -173360041.4497267 0 0 0 0 1118025992.1432495 -159885478.91790009 0 -159885478.91790009 -130095289.23869932 0 0 0 0 1078579108.1893921 63368704.467752099 0 63368704.467752099 -139589509.6782155 0 0 0 0 513643923.22117615 -131027525.40188988 0 -131027525.40188988 -90850704.791544825 0 0 0 0 596375603.66790771 32279970.463551119 0 32279970.463551119 -85683424.803689435 0 0 0 0 608290354.19100952 18824214.353107989 0 18824214.353107989 153737669.08143228 0 0 0 0 599341694.89989853 88004104.573502898 0 88004104.573502898 -198916601.03279459 0 0 0 0 369131.77103036642 -742735.91650156677 0 -742735.91650156677 1395448.628566585 0 0 0 0 2888741.0967407227 -3218555.5098008742 0 -3218555.5098008742 10175.220857377393 0 0 0 0 3029192.438293457 -4123400.1813378064 0 -4123400.1813378064 5817700.019133403 0 0 0 0 13774530.97013855 97427188.680464327 0 97427188.680464327 -101895760.67953753 0 0 0 0 12580133.065292358 94436452.760716379 0 94436452.760716379 73804487.881749034 0 0 0 0 306888161.88372803 -54294788.796687126 0 -54294788.796687126 57556100.711487874 0 0 0 0 -19835857.439605713 153115887.78251415 0 153115887.78251415 100493107.40894651 0 0 0 0 -58992544.260787964 -74713503.057848454 0 -74713503.057848454 -82790863.575244427 0 0 0 0 63914242.69229126 -189509568.12040043 0 -189509568.12040043 24126569.444765031 0 0 0 0 819182.96146976948 422158.45976172388 0 422158.45976172388 424356.76130623545 0 0 0 0 712802541.69935608 490378780.59611344 0 490378780.59611344 -369085561.994802 0 0 0 0 -3868355.5194091797 93194197.159440517 0 93194197.159440517 309698363.89161325 0 0 0 0 671492053.32684708 95317286.497660115 0 95317286.497660115 632458818.99494648 0 0 0 0 668378594.17303467 35047370.003970623 0 35047370.003970623 81473853.581633806 0 0 0 0 526214770.72438049 254969292.93839037 0 254969292.93839037 195840833.85176039 0 0 0 0 779842482.12103271 58336057.172544062 0 58336057.172544062 -85948295.324733257 0 0 0 0 474815536.09844971 -145895372.24244189 0 -145895372.24244189 11856367.847938776 0 0 0 0 1418386863.311348 -437489832.91382617 0 -437489832.91382617 65779462.660638332 0 0 0 0 1264343626.9455872 407744217.81900501 0 407744217.81900501 165374913.09514499 0 0 0 0 1650732205.069458 -167015600.24420738 0 -167015600.24420738 -15077013.888162136 0 0 0 0 855004013.42098999 535237685.64432478 0 535237685.64432478 138598870.68211579 0 0 0 0 1682259.4801138043 -823978.49603443965 0 -823978.49603443965 42936.337427134626 0 0 0 0 1709830003.9004612 68117879.709819764 0 68117879.709819764 199385944.92464972 0 0 0 0 62798062.795135498 73421167.975056291 0 73421167.975056291 -61520400.549933434 0 0 0 0 16802414.089706421 86132441.694506109 0 86132441.694506109 64440082.554969549 0 0 0 0 61341540.595581055 -248070347.66251421 0 -248070347.66251421 191847158.35017204 0 0 0 0 -15428396.074005127 43028680.255156159 0 43028680.255156159 192279144.2688179 0 0 0 0 63143334.064208984 -117996898.14760751 0 -117996898.14760751 217893863.4092977 0 0 0 0 393036001.08752441 -26784785.496458411 0 -26784785.496458411 89166392.389518738 0 0 0 0 541497787.73369694 41665439.43384707 0 41665439.43384707 -218494983.09508896 0 0 0 0 538076347.28369141 76804742.993704319 0 76804742.993704319 -159593728.54194832 0 0 0 0 229048096.8328228 -1760909.6360024512 0 -1760909.6360024512 -90536360.838874817 0 0 0 0 294340936.29842758 323499655.29698724 0 323499655.29698724 186026635.40007019 0 0 0 0 879853868.31051636 62112600.62324214 0 62112600.62324214 -186182260.43778992 0 0 0 0 1493709408.4718323 257836186.87722182 0 257836186.87722182 -223325633.88100529 0 0 0 0 709660468.79347229 139764531.52180099 0 139764531.52180099 -210452575.05888605 0 0 0 0 800224844.03347778 -28069739.947782516 0 -28069739.947782516 -136248527.48836803 0 0 0 0 508094598.73692322 -187745772.43160725 0 -187745772.43160725 -2495926.1058111191 0 0 0 0 1206803808.7165565 -665025361.55522466 0 -665025361.55522466 288536668.29708958 0 0 0 0 262982784.96395874 -121969090.11775923 0 -121969090.11775923 21450547.629013062 0 0 0 0 284882732.74560547 -83046660.433510303 0 -83046660.433510303 17985453.73822403 0 0 0 0 2220993.4132833034 551176.11140376329 0 551176.11140376329 752942.13779471582 0 0 0 0 1161810.1917827241 -1079980.7695098445 0 -1079980.7695098445 509277.25061068032 0 0 0 0 108761025.86227417 -74958104.1637187 0 -74958104.1637187 63193785.670608044 0 0 0 0 311768593.49127197 27224750.181925297 0 27224750.181925297 -32010551.608470917 0 0 0 0 424857937.36776733 -58834426.857499599 0 -58834426.857499599 -10872224.990318894 0 0 0 0 434045.12521063536 -458899.85890910029 0 -458899.85890910029 170075.73941097967 0 0 0 0 39364146.803302765 46613750.838868618 0 46613750.838868618 51474805.393070221 0 0 0 0 217682404.84405518 279934343.63056469 0 279934343.63056469 34939499.637187958 0 0 0 0 105823518.70689392 39863491.199752808 0 39863491.199752808 119205569.85568154 0 0 0 0 467798324.88035583 40982474.838789701 0 40982474.838789701 -146321149.57346821 0 0 0 0 463058380.77920532 9253357.1286373138 0 9253357.1286373138 108651833.23397064 0 0 0 0 707132085.00588989 135488992.95688474 0 135488992.95688474 -212728826.85918999 0 0 0 0 684392071.72183228 220103744.73331547 0 220103744.73331547 -19238170.291954041 0 0 0 0 471639265.22140503 -4747103.6552200317 0 -4747103.6552200317 197745425.11067963 0 0 0 0 938062658.99087524 124000401.34272432 0 124000401.34272432 -222065926.86240005 0 0 0 0 597858073.61660767 54371878.886617661 0 54371878.886617661 -235825828.81429958 0 0 0 0 517369459.87591553 94618914.808168411 0 94618914.808168411 -182814207.39149475 0 0 0 0 13459701.276790619 -11808214.953704 0 -11808214.953704 7555146.181303978 0 0 0 0 1129.5423862189054 25347.267826318741 0 25347.267826318741 367491.95169458818 0 0 0 0 -15628625.746429443 -24721732.105760098 0 -24721732.105760098 16907682.8190732 0 0 0 0 -15767989.779785156 -52852051.357067108 0 -52852051.357067108 18099606.323999405 0 0 0 0 18547496.10697937 -14136101.053775311 0 -14136101.053775311 -71317797.938825607 0 0 0 0 -20528714.68359375 35117406.382070601 0 35117406.382070601 -627450.46085834503 0 0 0 0 -33878323.257843018 -51033640.676693916 0 -51033640.676693916 848327.06279563904 0 0 0 0 -148683.14392089844 -2963662.4641628265 0 -2963662.4641628265 32487783.698780537 0 0 0 0 -117940.66363525391 5218085.7235193253 0 5218085.7235193253 11873097.727253914 0 0 0 0 2893616.6363830566 114406.10208511353 0 114406.10208511353 88802.874739646912 0 0 0 0 2390184.1629180908 304407.38733005524 0 304407.38733005524 5595545.8578025699 0 0 0 0 361750.41227577627 -323155.98221801966 0 -323155.98221801966 922374.12864829996 0 0 0 0 1342082.153137207 -1719211.5183122158 0 -1719211.5183122158 1793444.7751703262 0 0 0 0 -6090261.8481903076 8535272.9830965996 0 8535272.9830965996 19660398.516702175 0 0 0 0 4519616.3934898376 5370286.1713962555 0 5370286.1713962555 20588474.223007202 0 0 0 0 -48895010.089447021 -25914964.258952141 0 -25914964.258952141 53832101.371316195 0 0 0 0 -1564013.2726669312 -1324230.6482477188 0 -1324230.6482477188 40208676.658212662 0 0 0 0 -37194736.64553833 -85176266.094718933 0 -85176266.094718933 -29374342.825548172 0 0 0 0 -39057532.257446289 -61661528.465620518 0 -61661528.465620518 121795853.39707923 0 0 0 0 -7968989.9547271729 -44980150.626535892 0 -44980150.626535892 2913397.4718332291 0 0 0 0 -15483113.955718994 -26169541.393558979 0 -26169541.393558979 -24958458.926243782 0 0 0 0 -31027241.624923706 -56800643.472185493 0 -56800643.472185493 6963011.9302310944 0 0 0 0 -1031569.3649291992 -34222313.136154175 0 -34222313.136154175 22817689.332838058 0 0 0 0 16650439.10597229 -44987407.413841248 0 -44987407.413841248 -7133708.4541435242 0 0 0 0 -22791029.159805298 -18657694.119908333 0 -18657694.119908333 5856061.7441501617 0 0 0 0 23560704.628540039 -17243311.677561283 0 -17243311.677561283 5303578.7459869385 0 0 0 0 7231723.0981140137 -48072389.570328236 0 -48072389.570328236 165066.54878807068 0 0 0 0 52474779.723632812 -10122796.083872318 0 -10122796.083872318 -97920190.354454994 0 0 0 0 14192739.624546319 -2444471.1338100778 0 -2444471.1338100778 -1091918.2652423156 0 0 0 0 198536783.25764465 -194226924.41305542 0 -194226924.41305542 -64271105.389995575 0 0 0 0 -718333.79992446303 -432427.51669080183 0 -432427.51669080183 1372431.6881841514 0 0 0 0 -42553582.775665283 -28684758.538169861 0 -28684758.538169861 105704800.40662336 0 0 0 0 248770346.5773468 7594207.5192508698 0 7594207.5192508698 -22292715.078912735 0 0 0 0 -49195274.257751465 -53893819.483640671 0 -53893819.483640671 117217847.55632019 0 0 0 0 -20487119.799919128 -40089744.071579933 0 -40089744.071579933 68183574.507517815 0 0 0 0 6993584.8289718628 -47998791.956280708 0 -47998791.956280708 -167468520.78456402 0 0 0 0 10619724.770682693 -2173188.8465138129 0 -2173188.8465138129 -375734.84492410917 0 0 0 0 59824294.449562073 -22373186.95298481 0 -22373186.95298481 32592929.567152023 0 0 0 0 -31237931.472991943 -61266651.363322258 0 -61266651.363322258 157427336.47329649 0 0 0 0 875007.90775680542 -61620788.388832748 0 -61620788.388832748 -23302374.268216133 0 0 0 0 -14730618.640350342 -60380419.847720385 0 -60380419.847720385 25138430.349020839 0 0 0 0 2956046.0890536457 -2424252.3397883326 0 -2424252.3397883326 -1310510.2730144458 0 0 0 0 13672690.675689697 -12284649.736461431 0 -12284649.736461431 -82124362.036081791 0 0 0 0 98628069.90423584 623058.18126296997 0 623058.18126296997 -4052045.1963794231 0 0 0 0 292728113.14190674 89480701.339119911 0 89480701.339119911 -26717837.614507675 0 0 0 0 150197.96067625284 -229217.42681899294 0 -229217.42681899294 -103691.0388513857 0 0 0 0 31821752.580841064 -55995928.718526602 0 -55995928.718526602 -54366698.37531662 0 0 0 0 35562456.127563477 -81180690.054860592 0 -81180690.054860592 -117230162.3115654 0 0 0 0 -58029081.478988647 -39422884.193975449 0 -39422884.193975449 -22609294.42082262 0 0 0 0 -971224.01250486821 -1455535.5287921764 0 -1455535.5287921764 2582314.0758497785 0 0 0 0 102945470.65574646 13441982.300624132 0 13441982.300624132 -59795138.600729942 0 0 0 0 138361507.88182068 -1966728.5226664543 0 -1966728.5226664543 -130341268.64872932 0 0 0 0 133866221.86270142 52012442.360057831 0 52012442.360057831 -38682066.228606224 0 0 0 0 -49105714.613021851 7552073.8522634506 0 7552073.8522634506 37347523.531525135 0 0 0 0 1068812017.3957462 466476207.53315616 0 466476207.53315616 522123175.22518158 0 0 0 0 546078932.08595276 -2693072.9463326931 0 -2693072.9463326931 292748257.95615387 0 0 0 0 809549062.27088928 -332020933.57732797 0 -332020933.57732797 506843719.46998978 0 0 0 0 1110669798.468689 -15692967.84707737 0 -15692967.84707737 -112005485.18744659 0 0 0 0 723431577.47639084 519322448.27622437 0 519322448.27622437 23852699.07681179 0 0 0 0 2513208.8358068317 -426145.29872826464 0 -426145.29872826464 60798.250130528118 0 0 0 0 1252384460.6111298 -263142344.74265003 0 -263142344.74265003 -143487228.1046133 0 0 0 0 117081568.52638245 -236769187.84551287 0 -236769187.84551287 688555025.7148447 0 0 0 0 76320748.492874146 36746673.810541153 0 36746673.810541153 193484604.73660946 0 0 0 0 6905775.2105594277 -1422678.9287517942 0 -1422678.9287517942 -48178.588202181738 0 0 0 0 225690748.2754364 -43474869.014775753 0 -43474869.014775753 -294263233.96928501 0 0 0 0 -103323503.93795776 -50613597.603666306 0 -50613597.603666306 318045988.15735513 0 0 0 0 2994708.1210631728 -2053480.5992635414 0 -2053480.5992635414 -1463276.2882008462 0 0 0 0 64750263.164665222 6847207.0170419216 0 6847207.0170419216 -285211157.27174759 0 0 0 0 113957610.70819092 -289383115.07658768 0 -289383115.07658768 255071909.78747296 0 0 0 0 118791613.04699707 -183949712.40530396 0 -183949712.40530396 51802412.78810215 0 0 0 0 192280931.77625275 -215751966.01866984 0 -215751966.01866984 229936708.22721004 0 0 0 0 -173082880.54411316 -179423530.66636515 0 -179423530.66636515 128217278.05159092 0 0 0 0 445507094.28645325 339062195.07400751 0 339062195.07400751 -540700885.61240387 0 0 0 0 1436788.82334508 -931594.83387549408 0 -931594.83387549408 -707805.18260194384 0 0 0 0 360461551.00747681 -533665968.68915439 0 -533665968.68915439 719003616.94739723 0 0 0 0 988124117.27598572 -50290388.735164165 0 -50290388.735164165 76166593.281767368 0 0 0 0 121428324.56463623 15233326.971476555 0 15233326.971476555 114974518.51148605 0 0 0 0 582497342.82543182 318742040.9012835 0 318742040.9012835 201795671.18567276 0 0 0 0 -8761182.6213188171 196992799.03297991 0 196992799.03297991 12407857.754458427 0 0 0 0 577379022.47654724 291510134.84325361 0 291510134.84325361 9334962.5958995819 0 0 0 0 190581793.74814415 -231539932.63184041 0 -231539932.63184041 -431497648.62798548 0 0 0 0 339196378.36071014 39773691.060779929 0 39773691.060779929 -204499596.24868751 0 0 0 0 1485859.0025986135 -1599469.2015642989 0 -1599469.2015642989 273414.84651022922 0 0 0 0 -76215220.670669556 -37519464.904455185 0 -37519464.904455185 -93303345.099157214 0 0 0 0 74437451.996261597 64426044.306758404 0 64426044.306758404 -91865425.471078873 0 0 0 0 -120877498.87384796 -254155635.65527606 0 -254155635.65527606 237765954.11764622 0 0 0 0 642050.36177644134 -1066990.0764629142 0 -1066990.0764629142 216830.82380035706 0 0 0 0 161289510.61914825 -419418320.56936049 0 -419418320.56936049 171318409.26957321 0 0 0 0 584671745.03186035 -340924383.7231431 0 -340924383.7231431 51880798.01676169 0 0 0 0 624087775.27676392 -316874305.45500946 0 -316874305.45500946 -44431697.250717163 0 0 0 0 306550818.00166321 -64514845.398885727 0 -64514845.398885727 -243451464.43594742 0 0 0 0 368917449.76696777 -21228373.65586853 0 -21228373.65586853 -77911903.93824482 0 0 0 0 290530073.13075256 -98739667.900752068 0 -98739667.900752068 -114598040.11638331 0 0 0 0 148829172.49406433 -129704939.48981571 0 -129704939.48981571 -71440481.714510918 0 0 0 0 40794386.76177597 -122073915.06977573 0 -122073915.06977573 -63048046.109988451 0 0 0 0 61451249.045265198 -45138678.974709094 0 -45138678.974709094 -139125737.4472186 0 0 0 0 -22768146.824901581 43687950.878661156 0 43687950.878661156 -80058975.150025368 0 0 0 0 -73996823.409439087 -46735654.288267016 0 -46735654.288267016 -58796965.377371311 0 0 0 0 -16487367.119308472 -4230465.445151329 0 -4230465.445151329 -85080444.099905014 0 0 0 0 -106430541.60623932 -31728945.103001833 0 -31728945.103001833 -65564802.161055565 0 0 0 0 -52280127.142120361 -52927511.164780319 0 -52927511.164780319 -264645355.97385049 0 0 0 0 -7179719.5005493164 32796811.415123463 0 32796811.415123463 -167445897.3790518 0 0 0 0 115351621.2170105 -98040724.369271636 0 -98040724.369271636 -58609423.469545841 0 0 0 0 -15552813.659883499 2143064.9356561005 0 2143064.9356561005 -50801792.170624733 0 0 0 0 52762784.629463196 -61765451.217458248 0 -61765451.217458248 -34415989.841353416 0 0 0 0 124395528.2293396 -51011402.689578056 0 -51011402.689578056 -96270067.296127796 0 0 0 0 139007544.20840454 32773752.663281441 0 32773752.663281441 -80203043.869088769 0 0 0 0 126669024.34864807 18032232.825187683 0 18032232.825187683 -34371650.188015461 0 0 0 0 157570656.94108963 -8752205.0964440107 0 -8752205.0964440107 -105070435.60306168 0 0 0 0 63974684.027069092 11326889.973136902 0 11326889.973136902 -68346322.301718473 0 0 0 0 69516533.124603271 -10651849.254638672 0 -10651849.254638672 -103430218.58888197 0 0 0 0 -90845060.767181396 -76410880.423538208 0 -76410880.423538208 -187209453.31724453 0 0 0 0 37670631.366119385 -16359469.547852039 0 -16359469.547852039 -97574247.889436245 0 0 0 0 -81581196.173049927 -102525519.53494596 0 -102525519.53494596 -127165539.11233234 0 0 0 0 321857.34951920062 -106985.8068780154 0 -106985.8068780154 816582.52964039752 0 0 0 0 -100723704.64056396 -62888316.99940443 0 -62888316.99940443 16531886.127317429 0 0 0 0 -61109269.745746613 -179156777.02669537 0 -179156777.02669537 -202277391.25556374 0 0 0 0 -29840113.557891846 -98561774.242389679 0 -98561774.242389679 -247578420.75285196 0 0 0 0 -52483173.092193604 -91396531.989625931 0 -91396531.989625931 -85937128.567296982 0 0 0 0 -20831276.76953125 75860934.018577576 0 75860934.018577576 17040731.924309254 0 0 0 0 610296052.21240234 -360916138.51256609 0 -360916138.51256609 159169268.38006926 0 0 0 0 357365642.97000122 177569465.46116352 0 177569465.46116352 -92363966.833673477 0 0 0 0 -84349.304778166115 -121324.06443184987 0 -121324.06443184987 645982.34418326244 0 0 0 0 -169497682.03594971 -317849091.74535131 0 -317849091.74535131 94759989.943433762 0 0 0 0 185166283.36032104 -468907834.67155361 0 -468907834.67155361 111886310.83232248 0 0 0 0 40968367.079437256 -230475389.06836057 0 -230475389.06836057 2681862.2982053757 0 0 0 0 568903720.43796539 -276253466.77813804 0 -276253466.77813804 -99114143.000617981 0 0 0 0 43255421.764801025 -42590138.511530399 0 -42590138.511530399 -67941263.810119152 0 0 0 0 -167190132.89363956 -62361702.026897252 0 -62361702.026897252 -66532078.489974976 0 0 0 0 -12719263.018920898 -205218234.86422586 0 -205218234.86422586 64484487.862773895 0 0 0 0 149685464.43330383 -250718214.98212284 0 -250718214.98212284 505355.19076156616 0 0 0 0 208667096.56861496 -68954717.590915054 0 -68954717.590915054 -41936103.440800667 0 0 0 0 199651304.75331116 -273764989.39029884 0 -273764989.39029884 -56240187.404870987 0 0 0 0 171255807.6960144 -223269953.83483231 0 -223269953.83483231 -93912116.061894476 0 0 0 0 381012675.07870483 -203204496.05910343 0 -203204496.05910343 -93227333.562893882 0 0 0 0 448335206.66242981 66787327.484079137 0 66787327.484079137 44087691.568188399 0 0 0 0 211079902.52204895 -72863216.339607 0 -72863216.339607 -37552883.929047823 0 0 0 0 192839637.20134258 83569873.277888924 0 83569873.277888924 68013745.99938941 0 0 0 0 114360198.4091568 -4459294.2829369307 0 -4459294.2829369307 -30693429.272450447 0 0 0 0 163565977.39465332 -58143965.103278041 0 -58143965.103278041 78468157.007371545 0 0 0 0 -1915705.9310150146 -42258613.850958347 0 -42258613.850958347 61567222.622207046 0 0 0 0 -22267258.155174255 -18267195.915566161 0 -18267195.915566161 39824517.967522025 0 0 0 0 9350526.319524765 8563135.8970348835 0 8563135.8970348835 -69635758.629822254 0 0 0 0 10707624.298278809 -547888.73456573486 0 -547888.73456573486 -11915318.259815216 0 0 0 0 80579949.653778076 40268305.062736988 0 40268305.062736988 2882082.3967962265 0 0 0 0 61736492.259185791 -21027669.028650999 0 -21027669.028650999 -39450823.788271904 0 0 0 0 10438956.906097412 30655725.058253765 0 30655725.058253765 -26473975.372370481 0 0 0 0 2467025.7019805908 21787465.384013772 0 21787465.384013772 -29126821.048800468 0 0 0 0 1087708.6359694898 -1292745.184356248 0 -1292745.184356248 -990133.95231503341 0 0 0 0 138991470.13540649 -48758662.831518352 0 -48758662.831518352 -29523962.454904556 0 0 0 0 615672.79110728204 -678887.08818766847 0 -678887.08818766847 -525434.63901072275 0 0 0 0 42735550.771087646 -17522831.784160137 0 -17522831.784160137 -46509602.998841286 0 0 0 0 26219613.565475464 -35666098.480768681 0 -35666098.480768681 -63543447.622674942 0 0 0 0 1689137.6031341553 33828649.221230507 0 33828649.221230507 -118505379.34864855 0 0 0 0 -12561156.336166382 -15735945.842529297 0 -15735945.842529297 -40949055.415630341 0 0 0 0 -16238487.271636963 29139664.919242859 0 29139664.919242859 -31383856.554891586 0 0 0 0 -192653657.30401611 -22474304.670728683 0 -22474304.670728683 -54223361.282999992 0 0 0 0 1027086.8153782189 -1440917.3945636675 0 -1440917.3945636675 -1060901.3393928409 0 0 0 0 45921535.345794678 11350765.419811726 0 11350765.419811726 -75348059.704601407 0 0 0 0 -19033783.093099594 -76603577.923565239 0 -76603577.923565239 -144686714.0444622 0 0 0 0 -239640923.63574982 -107078404.1002605 0 -107078404.1002605 -39831315.404836178 0 0 0 0 2834588.6955102365 1339090.5101072341 0 1339090.5101072341 189485.79154370748 0 0 0 0 -29103155.505203247 -41677165.337667257 0 -41677165.337667257 -31403477.89919275 0 0 0 0 -89706539.404800415 -43206423.65294981 0 -43206423.65294981 -5541722.9236848354 0 0 0 0 10675997.208756268 3515975.5926496685 0 3515975.5926496685 330245.28739561606 0 0 0 0 -176799311.41372681 -73959095.80133754 0 -73959095.80133754 10852043.298615143 0 0 0 0 -90387399.555113316 -53691532.79524143 0 -53691532.79524143 -56349348.701165199 0 0 0 0 91743582.187591553 22190763.996328309 0 22190763.996328309 -17011888.091603249 0 0 0 0 98639775.535736084 -2346766.9073282033 0 -2346766.9073282033 70291006.240704715 0 0 0 0 39022628.614013672 -31133057.450814992 0 -31133057.450814992 -63420717.64979887 0 0 0 0 23221784.527267456 -64046692.216700554 0 -64046692.216700554 -79396446.570650339 0 0 0 0 150270932.19816589 49704131.531484365 0 49704131.531484365 -184655617.64608979 0 0 0 0 197836695.84851074 78231291.743791103 0 78231291.743791103 -99573984.247312069 0 0 0 0 60184210.928875923 -36009549.183720589 0 -36009549.183720589 -1855689.1834373474 0 0 0 0 15502192.514072418 -17308945.908185959 0 -17308945.908185959 17917124.255687714 0 0 0 0 47533511.755046844 49854642.654914856 0 49854642.654914856 39315229.524854422 0 0 0 0 32442389.643433571 7332116.8645071685 0 7332116.8645071685 -20512733.001572132 0 0 0 0 32514213.932455808 -10402693.255588429 0 -10402693.255588429 -12397224.764540946 0 0 0 0 41368154.46544075 -27391782.301051646 0 -27391782.301051646 -32659989.091204643 0 0 0 0 -27955307.020996094 -36746606.734305382 0 -36746606.734305382 -1272667.6623384953 0 0 0 0 50079152.787434757 5040445.683762446 0 5040445.683762446 23775187.824542999 0 0 0 0 38886161.080490112 4436196.1633782387 0 4436196.1633782387 -19944586.290807724 0 0 0 0 1574200.7174072266 -5273768.8838434219 0 -5273768.8838434219 -15216713.941766262 0 0 0 0 30847993.90525388 -8690854.1663532294 0 -8690854.1663532294 -14274962.646076044 0 0 0 0 20869887.367752075 -42648273.340487003 0 -42648273.340487003 -48476931.745751381 0 0 0 0 36578355.946426392 -26502578.486868858 0 -26502578.486868858 -32070132.664429188 0 0 0 0 69452582.303604126 -108711808.06355405 0 -108711808.06355405 -44232941.184804916 0 0 0 0 -28550943.962299347 -81741433.328442454 0 -81741433.328442454 -79415910.816672325 0 0 0 0 660451.8645324707 -37006296.069328308 0 -37006296.069328308 -109265815.77445126 0 0 0 0 -55818922.2161026 -36512173.356713057 0 -36512173.356713057 -45538185.023573875 0 0 0 0 8139189.2472229004 -11699342.380652428 0 -11699342.380652428 -90603371.312345505 0 0 0 0 19671780.36365509 -34961868.397497535 0 -34961868.397497535 -50281487.443042755 0 0 0 0 133444185.93710327 14047777.018714905 0 14047777.018714905 -128681723.09602547 0 0 0 0 87287410.965423584 -55555824.577143669 0 -55555824.577143669 74227292.720587254 0 0 0 0 25433242.941131592 12254403.306943893 0 12254403.306943893 20485735.974033356 0 0 0 0 32739782.036407471 33597290.144950867 0 33597290.144950867 -26419372.89875412 0 0 0 0 -14524059.066833496 -109433337.12526703 0 -109433337.12526703 87582323.273061752 0 0 0 0 572852.98710318655 -854087.10658775084 0 -854087.10658775084 -608825.39239274431 0 0 0 0 -12681080.549407959 -181512820.5492394 0 -181512820.5492394 8258168.3788833618 0 0 0 0 -125994263.63452148 -160054051.36371183 0 -160054051.36371183 5026802.4243187904 0 0 0 0 208218641.14785767 -920467.20764255524 0 -920467.20764255524 -24678270.248735428 0 0 0 0 720893.51855710521 130020.05539088696 0 130020.05539088696 -32860.977944415528 0 0 0 0 -66723144.33114624 -74962618.83594656 0 -74962618.83594656 -51061543.463856697 0 0 0 0 57101694.013092041 -8282197.184132576 0 -8282197.184132576 -3592964.8511729985 0 0 0 0 52026500.934188843 -37833941.357277393 0 -37833941.357277393 -15654327.516386509 0 0 0 0 129261868.59637451 10769087.785586357 0 10769087.785586357 -4138007.8890741467 0 0 0 0 78580924.928756714 -47587148.160785198 0 -47587148.160785198 11747944.085102081 0 0 0 0 59734626.636657715 -12842845.705207825 0 -12842845.705207825 -40388560.828696251 0 0 0 0 42834660.824981689 -28345774.731906414 0 -28345774.731906414 933694.77746772766 0 0 0 0 50397136.495758057 -32213521.218894005 0 -32213521.218894005 -17246504.67449379 0 0 0 0 77691482.610809326 -19091307.419490337 0 -19091307.419490337 -18699151.580282211 0 0 0 0 52451871.708740234 -40955998.691494703 0 -40955998.691494703 -2461950.0216083527 0 0 0 0 40029778.740127563 -5901126.8571891785 0 -5901126.8571891785 -2891319.4136176109 0 0 0 0 58570249.433151245 -6833639.5067043304 0 -6833639.5067043304 -3182645.1323604584 0 0 0 0 3342987.7270301059 -396503.99598644301 0 -396503.99598644301 -1148312.4117441848 0 0 0 0 9682601.9286884815 -140803.71250259876 0 -140803.71250259876 -2454729.2365351822 0 0 0 0 13657177.32434082 -4168226.2268640995 0 -4168226.2268640995 -4157505.1778982282 0 0 0 0 11565123.032806396 -4592746.0483878851 0 -4592746.0483878851 -3754152.2488349676 0 0 0 0 8996002.7148017883 996134.34101052582 0 996134.34101052582 -5861484.9927000999 0 0 0 0 9137971.1153259277 1516709.3534628153 0 1516709.3534628153 -4569146.4362609386 0 0 0 0 10049911.235147424 -1968910.2075028867 0 -1968910.2075028867 -3891262.3366315174 0 0 0 0 28459672.834533691 -17537638.598985672 0 -17537638.598985672 11807393.774747372 0 0 0 0 35676966.866455078 -27072189.950819016 0 -27072189.950819016 19263334.467510223 0 0 0 0 24672164.133636475 -26937413.141143799 0 -26937413.141143799 31229297.656772614 0 0 0 0 45934797.035583496 -43210254.55865097 0 -43210254.55865097 20940175.483753204 0 0 0 0 38753389.704162598 -32442270.549539566 0 -32442270.549539566 4882097.0270328522 0 0 0 0 39321528.702606201 -30679965.054531097 0 -30679965.054531097 10272264.767946243 0 0 0 0 -9997707.3316955566 -67220244.530544281 0 -67220244.530544281 -81583720.975048661 0 0 0 0 10038398.08870697 -35572953.35804534 0 -35572953.35804534 -31625924.444299698 0 0 0 0 -70822910.762329102 -34124975.623035431 0 -34124975.623035431 7734051.679558754 0 0 0 0 1605388.9861835837 -549021.92310043424 0 -549021.92310043424 -570123.97554588504 0 0 0 0 3243145.9091353267 -6332840.7634550668 0 -6332840.7634550668 2298522.1494201282 0 0 0 0 -4322408.8591766357 -16737276.653879166 0 -16737276.653879166 -10609056.548201561 0 0 0 0 -17731092.120643616 -25505858.307490349 0 -25505858.307490349 62264.655263900757 0 0 0 0 1775878.4187469482 -34360958.992027283 0 -34360958.992027283 -31794649.745144606 0 0 0 0 11656518.832870483 -10430448.189678669 0 -10430448.189678669 -8684.2048257924616 0 0 0 0 2565084.0238342285 -25041475.545554161 0 -25041475.545554161 -4591207.9473319054 0 0 0 0 4445997.3430403322 -9206228.1026730612 0 -9206228.1026730612 2449703.5688360156 0 0 0 0 12577228.980789185 -6236851.8322228491 0 -6236851.8322228491 -6194639.6559159756 0 0 0 0 5367218.135597229 -17313691.584879816 0 -17313691.584879816 -1941083.5694262385 0 0 0 0 36489485.944488525 -6314208.0556161245 0 -6314208.0556161245 -10164862.770611972 0 0 0 0 -65086526.565063477 37302749.970803261 0 37302749.970803261 25069948.769132614 0 0 0 0 -25145342.770599365 52685966.09828639 0 52685966.09828639 40030678.778409541 0 0 0 0 548184.6999168545 -184198.90960476547 0 -184198.90960476547 -742239.09449602012 0 0 0 0 37213649.902679443 -27737854.358280718 0 -27737854.358280718 -11865780.435414672 0 0 0 0 22854906.929321289 -18011832.825698316 0 -18011832.825698316 -9126544.8256440163 0 0 0 0 25144417.176376343 -30514640.845050626 0 -30514640.845050626 -9347744.9278700352 0 0 0 0 50705640.819946289 -18500583.118525147 0 -18500583.118525147 -12178647.587193608 0 0 0 0 -8443616.0473022461 -15776152.30196844 0 -15776152.30196844 -1847076.9771526456 0 0 0 0 1612057.0466024131 -1294487.0385213308 0 -1294487.0385213308 -1244599.6274366654 0 0 0 0 13512793.068481445 66906296.263241053 0 66906296.263241053 -34949090.080983222 0 0 0 0 7082845.4738984257 -2764835.6799707711 0 -2764835.6799707711 -6301280.6256796326 0 0 0 0 -104266769.36761475 -63290622.017605782 0 -63290622.017605782 48938062.671114922 0 0 0 0 50733422.665397644 -93780425.582287192 0 -93780425.582287192 -33854070.173963547 0 0 0 0 8861142.2247619629 5865323.1977953613 0 5865323.1977953613 -30749.314197778702 0 0 0 0 4794139.8093261719 -265208.09464502335 0 -265208.09464502335 -1904781.2365469933 0 0 0 0 3976648.5521113575 -458974.89676028118 0 -458974.89676028118 -3437434.8178529539 0 0 0 0 3590116.8352355957 -608893.65664386749 0 -608893.65664386749 -3181717.627576828 0 0 0 0 7239989.3958073854 -627259.6752891168 0 -627259.6752891168 -4077967.8400195423 0 0 0 0 5663954.320892334 4621370.1280269623 0 4621370.1280269623 -6685007.5020198822 0 0 0 0 9348199.6511252597 -1312603.2118070535 0 -1312603.2118070535 -2592139.9165267986 0 0 0 0 2092909.3150127791 -918217.09198717773 0 -918217.09198717773 -1329029.8055930538 0 0 0 0 47752365.489685059 -12877250.105491638 0 -12877250.105491638 214446.34754943848 0 0 0 0 -4686993.9438934326 -3689374.2992824912 0 -3689374.2992824912 -5362499.3210654259 0 0 0 0 15594453.313293457 -378879.24438643456 0 -378879.24438643456 -5575467.697437048 0 0 0 0 21302153.321472168 7144698.1246157885 0 7144698.1246157885 -414136.81309473515 0 0 0 0 26018607.774017334 -8624345.2855051979 0 -8624345.2855051979 -10620192.550725769 0 0 0 0 21537483.777557373 3873627.7959368005 0 3873627.7959368005 -3816422.7157496708 0 0 0 0 -4914631.339050293 -5314173.7571809292 0 -5314173.7571809292 -20217605.287817001 0 0 0 0 -277362.75977997482 -2155340.8240520768 0 -2155340.8240520768 -337081.76826617168 0 0 0 0 1143132.603356421 -1184797.2314309664 0 -1184797.2314309664 -1994182.6206759312 0 0 0 0 13027136.855895996 -11940272.139187574 0 -11940272.139187574 -37405088.005790234 0 0 0 0 -25077935.861175537 11832479.165089607 0 11832479.165089607 -22510448.039068818 0 0 0 0 51662701.556947708 -4694791.9712208649 0 -4694791.9712208649 -13855770.945552345 0 0 0 0 36802970.875732422 4113070.6810525404 0 4113070.6810525404 -7385703.6272861976 0 0 0 0 103013065.04475403 -62828530.227161169 0 -62828530.227161169 -14336444.535753965 0 0 0 0 -12880211.336791992 234359.49226951599 0 234359.49226951599 -8601500.2318587303 0 0 0 0 340646.68696717918 -854554.21057998668 0 -854554.21057998668 -460138.03248538991 0 0 0 0 10341690.71599634 -2980363.4287586492 0 -2980363.4287586492 -4463056.9745499725 0 0 0 0 3501423.0837943554 -3176689.5297326734 0 -3176689.5297326734 -3354206.6928646234 0 0 0 0 1032362.8227386475 -2439713.7969306707 0 -2439713.7969306707 -6427721.6285991669 0 0 0 0 10340556.391981967 -1971512.4645587504 0 -1971512.4645587504 -4815633.6914279517 0 0 0 0 10161682.810626075 157895.14952596277 0 157895.14952596277 -4307902.3482728731 0 0 0 0 6123326.6505279541 -1000185.0701267719 0 -1000185.0701267719 -5808671.9163331985 0 0 0 0 1225748.7959899902 -10036907.90332675 0 -10036907.90332675 -16755962.029767036 0 0 0 0 5134196.3639526367 150477.93583011627 0 150477.93583011627 -6678437.3055610657 0 0 0 0 5545089.3636590391 -2525771.3615822382 0 -2525771.3615822382 -691637.90082986513 0 0 0 0 5558528.1327896118 -839835.75779676437 0 -839835.75779676437 -5991228.9884185791 0 0 0 0 1532268.2338867188 1772807.4616565704 0 1772807.4616565704 -13035580.465954781 0 0 0 0 5325883.2981414795 -2327312.5898761749 0 -2327312.5898761749 -472030.30210494995 0 0 0 0 2150833.3269042969 229322.51662731171 0 229322.51662731171 -13157056.752770543 0 0 0 0 4794514.3312654495 -205076.51143501699 0 -205076.51143501699 -5331188.5767621994 0 0 0 0 10121978.229379043 -1128496.0327105774 0 -1128496.0327105774 -4458181.9547229484 0 0 0 0 2730625.4563201964 1540359.6514536031 0 1540359.6514536031 -3548406.5662164199 0 0 0 0 28976.684264704585 -29081.928395822644 0 -29081.928395822644 26793.638048836961 0 0 0 0 49391506.117019653 4205437.1812705994 0 4205437.1812705994 19009455.274263382 0 0 0 0 10006443.297307447 934481.94604347646 0 934481.94604347646 -3695527.7859284971 0 0 0 0 5303109.161239624 -2441028.9182071686 0 -2441028.9182071686 -1037351.9827528 0 0 0 0 92807886.30645752 -50645858.333847046 0 -50645858.333847046 21826354.709003448 0 0 0 0 90407331.123596191 -89916799.351280212 0 -89916799.351280212 -41046999.987543106 0 0 0 0 748068.25056317449 534473.39456051216 0 534473.39456051216 -683803.56392201409 0 0 0 0 29052408.533630371 -20531777.600641251 0 -20531777.600641251 1066983.1982784271 0 0 0 0 7370976.2872114182 -5749662.2091150079 0 -5749662.2091150079 -2332057.6048585204 0 0 0 0 4906614.2933752835 -1395817.0525984503 0 -1395817.0525984503 -470038.30528003164 0 0 0 0 -12421450.496276855 1524563.0075931549 0 1524563.0075931549 23236398.715116501 0 0 0 0 17725864.877044678 3348161.193939209 0 3348161.193939209 21783851.819270134 0 0 0 0 -21453262.153198242 -6065881.23645401 0 -6065881.23645401 41735497.375305176 0 0 0 0 74546253.954833984 -10749701.517776489 0 -10749701.517776489 23889617.815349579 0 0 0 0 5507961.4436340332 226838.53062534332 0 226838.53062534332 -7334875.8817791939 0 0 0 0 44470775.396177292 -25827184.189861536 0 -25827184.189861536 6004270.2633018494 0 0 0 0 -1455036.928527832 -6548531.492729187 0 -6548531.492729187 3327129.4398517609 0 0 0 0 2001261.1462762356 -4660862.822068274 0 -4660862.822068274 -2407588.7489737342 0 0 0 0 16554212.585024659 -2401433.8964394927 0 -2401433.8964394927 -3708470.6168355807 0 0 0 0 6959107.0789794922 2229843.8143401146 0 2229843.8143401146 -13342640.870342255 0 0 0 0 2785979.236038208 -264004.58385372162 0 -264004.58385372162 -6046217.9495677948 0 0 0 0 11463363.178822145 -2431821.4978236696 0 -2431821.4978236696 -3945356.5715882932 0 0 0 0 17038861.304870605 -2165328.9330368517 0 -2165328.9330368517 -2646099.2478340482 0 0 0 0 9644309.6394002363 -6790366.5018846057 0 -6790366.5018846057 -4182691.3626924558 0 0 0 0 -13211042.630081177 -17722833.894983292 0 -17722833.894983292 -7810069.8527927399 0 0 0 0 53734970.772888184 75455823.320000648 0 75455823.320000648 -147198320.00046539 0 0 0 0 21247038.367393494 -7740397.4787898064 0 -7740397.4787898064 -26227830.533783913 0 0 0 0 -15471605.930053711 204258778.61369896 0 204258778.61369896 4211087.3648910522 0 0 0 0 -89786403.976913452 178860180.55461693 0 178860180.55461693 222044084.36415863 0 0 0 0 -80543311.879119873 -11786263.015264511 0 -11786263.015264511 356251063.53833771 0 0 0 0 -20464555.700531006 14066728.614852905 0 14066728.614852905 70973397.608324051 0 0 0 0 26455646.509338379 -60772237.264613152 0 -60772237.264613152 61613816.13146019 0 0 0 0 195554889.03479004 -176050921.90104961 0 -176050921.90104961 169913135.25109005 0 0 0 0 -23312320.918579102 12147291.265076637 0 12147291.265076637 29357476.775006294 0 0 0 0 -37542704.46913147 4168848.1388864517 0 4168848.1388864517 130311863.30498695 0 0 0 0 -22109101.422424316 -12677375.93025589 0 -12677375.93025589 61807383.417419434 0 0 0 0 -11943862.243621826 -27788656.090786934 0 -27788656.090786934 58203640.686150789 0 0 0 0 -2003571.3465576172 -30005455.996955395 0 -30005455.996955395 28776004.223873138 0 0 0 0 -572022.90954589844 -38141353.727417946 0 -38141353.727417946 28457281.939462483 0 0 0 0 39237685.045730591 -34535937.168703556 0 -34535937.168703556 42449797.545276642 0 0 0 0 25258602.005249023 5238206.0658130646 0 5238206.0658130646 -40383577.036632538 0 0 0 0 149185801.4116993 -64339961.522829711 0 -64339961.522829711 -2227777.8232383728 0 0 0 0 55612146.071777344 77001371.944993973 0 77001371.944993973 -182603762.47344208 0 0 0 0 -34650649.21546936 25439462.061401367 0 25439462.061401367 -59648588.631933212 0 0 0 0 42494626.574455261 -26327513.635545969 0 -26327513.635545969 -36180977.797578812 0 0 0 0 -18279749.157138824 -27951550.303714156 0 -27951550.303714156 -29945549.322809219 0 0 0 0 15575324.263153076 -20923684.720166206 0 -20923684.720166206 -85289478.618174553 0 0 0 0 8811519.5747070312 -25336860.687130451 0 -25336860.687130451 -29950755.634654999 0 0 0 0 5808511.9177856445 -7066377.1234521866 0 -7066377.1234521866 -10956040.77692461 0 0 0 0 21131894.050857544 -39037080.139630318 0 -39037080.139630318 -18300268.347696304 0 0 0 0 31411347.742675781 -18230918.871406555 0 -18230918.871406555 -48795811.293439388 0 0 0 0 31947905.859222412 -38370245.505536079 0 -38370245.505536079 -15023334.177392006 0 0 0 0 56356020.705200195 -45387266.546134949 0 -45387266.546134949 -19751743.598577023 0 0 0 0 52519117.798568726 -41462492.852731943 0 -41462492.852731943 1352631.1365089417 0 0 0 0 33055796.837249756 -23284153.541755676 0 -23284153.541755676 1921376.2335548401 0 0 0 0 58893387.40772295 -22393069.568741739 0 -22393069.568741739 42096068.937030792 0 0 0 0 53055657.346069336 -43234210.628896713 0 -43234210.628896713 6357800.0467665195 0 0 0 0 59732449.706298828 -56845882.09521389 0 -56845882.09521389 24739875.570203781 0 0 0 0 52955262.939376831 -40981202.087412357 0 -40981202.087412357 1430845.6034126282 0 0 0 0 37429237.900970459 -35856519.028451443 0 -35856519.028451443 54795951.952377319 0 0 0 0 15927170.148574829 -16144578.757954597 0 -16144578.757954597 43175038.27570343 0 0 0 0 6339485.5192565918 3884202.6299133301 0 3884202.6299133301 6257220.4084205627 0 0 0 0 76022755.13772583 -77363564.933087349 0 -77363564.933087349 60683682.955825806 0 0 0 0 95158649.711090088 -68750429.778531075 0 -68750429.778531075 55964927.832995415 0 0 0 0 1166156.6344514452 -297752.70880486071 0 -297752.70880486071 95825.128014031798 0 0 0 0 59176359.600494385 -38706407.977510929 0 -38706407.977510929 17671183.736862183 0 0 0 0 59063656.860473633 -35000790.712983131 0 -35000790.712983131 28734917.467151642 0 0 0 0 12482423.948883057 -16555399.801660538 0 -16555399.801660538 30863472.137681961 0 0 0 0 13455871.273071289 -10900077.967004776 0 -10900077.967004776 42033173.193359256 0 0 0 0 -8570840.9900970459 -26816577.018690586 0 -26816577.018690586 31418994.77958107 0 0 0 0 1637581.8676757812 -12817972.969043255 0 -12817972.969043255 27065966.735628128 0 0 0 0 17299459.653137207 -31416431.479366302 0 -31416431.479366302 2927397.2235107422 0 0 0 0 26486294.010116577 -15042931.2414608 0 -15042931.2414608 31962480.998292923 0 0 0 0 4727073151.6447296 627313977.94425631 0 627313977.94425631 -261176887.73486757 0 0 0 0 3969825083.9177246 173867558.02274251 0 173867558.02274251 -99568930.162851512 0 0 0 0 2323934.012407368 -1069519.0974293575 0 -1069519.0974293575 -185721.29088222177 0 0 0 0 4453185206.4795837 415113574.59161621 0 415113574.59161621 -51578455.040151849 0 0 0 0 -220742745.29795837 -119258415.33363923 0 -119258415.33363923 123917685.78411192 0 0 0 0 97423275.159690857 31459718.677727878 0 31459718.677727878 -83162870.880769014 0 0 0 0 4317300891.8884277 398558747.20086718 0 398558747.20086718 -24255938.22215724 0 0 0 0 4022601338.296526 148425119.45790926 0 148425119.45790926 -216092375.27276772 0 0 0 0 79187024.97833252 23033631.332540989 0 23033631.332540989 -25323978.113409638 0 0 0 0 6388773.3371266667 -2721447.0415795743 0 -2721447.0415795743 -519240.57723875088 0 0 0 0 -54821271.596950531 -40184542.789017215 0 -40184542.789017215 -6416730.7728674412 0 0 0 0 2190916913.258728 -483744023.8812167 0 -483744023.8812167 443733574.00642121 0 0 0 0 11222430.69248445 -2650305.3267613202 0 -2650305.3267613202 -1480741.1304262399 0 0 0 0 -66102540.424072266 -43414434.698255301 0 -43414434.698255301 27441599.079084873 0 0 0 0 -26240985.464492798 -58523703.316835523 0 -58523703.316835523 -1159059.4009518623 0 0 0 0 4289037878.6504288 379032434.45845801 0 379032434.45845801 -388748511.76652795 0 0 0 0 4608319065.3567352 585626837.94644189 0 585626837.94644189 -133014925.40999237 0 0 0 0 4491552378.9371033 192556447.2075147 0 192556447.2075147 -403379464.54122925 0 0 0 0 4339155505.4525623 368588313.22961825 0 368588313.22961825 -204867200.66704926 0 0 0 0 4579924405.3674469 302645391.56293792 0 302645391.56293792 275848527.98960495 0 0 0 0 4721945217.7694054 214936995.4152779 0 214936995.4152779 -103478686.6110971 0 0 0 0 4568786823.0942554 178921638.36171657 0 178921638.36171657 1093964952.4439518 0 0 0 0 4259705856.702095 54434952.016485699 0 54434952.016485699 -172363.81659960927 0 0 0 0 3671574587.9604797 101093084.62100972 0 101093084.62100972 -177570076.13991994 0 0 0 0 3199462138.9298401 461349430.55567169 0 461349430.55567169 -95052117.46425508 0 0 0 0 39837201.391956329 6074630.5173792643 0 6074630.5173792643 -5416060.1264467146 0 0 0 0 6872201.1909228526 1571627.6810972691 0 1571627.6810972691 212802.18469246387 0 0 0 0 1567001733.7691803 749773378.89801943 0 749773378.89801943 966596489.26293278 0 0 0 0 9336589.092586508 1553657.2849430665 0 1553657.2849430665 -738934.60057121678 0 0 0 0 28786416.397254944 1933782.8349768836 0 1933782.8349768836 -4904932.6485124528 0 0 0 0 20337840.579711914 5042291.9597686082 0 5042291.9597686082 345121.11637503037 0 0 0 0 5212991123.8347321 446856261.78479463 0 446856261.78479463 -443891843.88968301 0 0 0 0 3065057738.6283112 2149974679.4853215 0 2149974679.4853215 883008195.81833649 0 0 0 0 3056537.7781412154 -48171.061121837294 0 -48171.061121837294 51095.562232473188 0 0 0 0 4746284664.1768637 -1537622240.3364167 0 -1537622240.3364167 62170171.788258791 0 0 0 0 5014645904.8157043 817087297.42702341 0 817087297.42702341 -72623940.921066105 0 0 0 0 39639195.825439453 18668074.65723896 0 18668074.65723896 -32776583.941560745 0 0 0 0 22345093.546244651 3497082.4961541286 0 3497082.4961541286 -2505240.1168644913 0 0 0 0 -79018592.354919434 -89924636.780005455 0 -89924636.780005455 -102900416.99139214 0 0 0 0 636766806.74789429 22207986.900034904 0 22207986.900034904 -188926225.42097092 0 0 0 0 21242385.006647304 -670839.6922359087 0 -670839.6922359087 -1595235.1825485746 0 0 0 0 -58833836.611923218 268167921.56438422 0 268167921.56438422 54769815.379664421 0 0 0 0 -137226622.03701019 18668607.236940384 0 18668607.236940384 81326020.68091011 0 0 0 0 -365654173.32449341 -199410714.69820452 0 -199410714.69820452 -124053786.93864632 0 0 0 0 2008563.0882666782 296905.3762110807 0 296905.3762110807 -796187.01304357406 0 0 0 0 -30853969.509597778 -140405681.75024423 0 -140405681.75024423 -18807859.389114961 0 0 0 0 13774020.984825134 839871.42611334473 0 839871.42611334473 -2476903.7508884817 0 0 0 0 8308513.6522574127 2150759.8174597248 0 2150759.8174597248 -1530677.918128019 0 0 0 0 28114586.042785645 13321373.8871876 0 13321373.8871876 -15457912.546671487 0 0 0 0 19973592.157012939 -3081200.7634730488 0 -3081200.7634730488 -1552114.0900462568 0 0 0 0 20774805.329315186 -323896.94983173581 0 -323896.94983173581 4517926.6094998885 0 0 0 0 18328160.973495483 4537112.5481509287 0 4537112.5481509287 -4746707.3102835128 0 0 0 0 49718555.40687561 26253947.820732526 0 26253947.820732526 1460021.0988611355 0 0 0 0 3661401.2783341706 1590977.9213836938 0 1590977.9213836938 358978.03906889184 0 0 0 0 10021781.168952942 -5951185.6097463146 0 -5951185.6097463146 -522048.67295658682 0 0 0 0 1335599.9109725952 -4146353.3013770571 0 -4146353.3013770571 -1911.4834287634449 0 0 0 0 11349694.099273682 4480703.0223828591 0 4480703.0223828591 -1736356.5393753154 0 0 0 0 21300064.169219971 -5075374.2527910955 0 -5075374.2527910955 9818.4339415570776 0 0 0 0 45008985.060577393 86635.155597365811 0 86635.155597365811 -18479993.902457893 0 0 0 0 34400528.38293457 11703584.333865877 0 11703584.333865877 212870.3422173924 0 0 0 0 74365707.401702881 41659467.695407286 0 41659467.695407286 10666601.575123915 0 0 0 0 2190215.4562607929 1260008.5566870049 0 1260008.5566870049 661009.70283784147 0 0 0 0 29548958.769134521 97446.33152366057 0 97446.33152366057 -4501548.4223281462 0 0 0 0 47459071.176040649 8338723.4323768578 0 8338723.4323768578 -39170792.074687384 0 0 0 0 31581459.034729004 2202386.16796799 0 2202386.16796799 -10398879.476892218 0 0 0 0 25895875.45016098 -14082913.593559813 0 -14082913.593559813 -14083427.49483604 0 0 0 0 31648162.811920166 3650893.3567081541 0 3650893.3567081541 -33097122.30176571 0 0 0 0 14819496.069396973 -6759734.4060965478 0 -6759734.4060965478 -13272620.351013035 0 0 0 0 9244966.4772644043 61746456.420793056 0 61746456.420793056 -66582194.343122952 0 0 0 0 19443493.5919386 1602553.4051145057 0 1602553.4051145057 -809532.63095446548 0 0 0 0 62630769.789852142 11353310.971132368 0 11353310.971132368 -21463411.362471581 0 0 0 0 55494490.046516418 -6738516.5687788725 0 -6738516.5687788725 19559955.463366508 0 0 0 0 17357747.266298354 2038477.8428102313 0 2038477.8428102313 -294612.80238714791 0 0 0 0 -304830423.47851562 57162356.042446136 0 57162356.042446136 26783081.933729172 0 0 0 0 50181314.187103271 14155937.319255054 0 14155937.319255054 -2104971.9372726381 0 0 0 0 22475315.933776855 -8497918.979254622 0 -8497918.979254622 -20113293.12186411 0 0 0 0 -55035110.745142564 -59339572.131164245 0 -59339572.131164245 692543.17649483681 0 0 0 0 1345436.5592657104 246735.81128101796 0 246735.81128101796 -850724.07408669428 0 0 0 0 -16797355.137954712 14997669.203904271 0 14997669.203904271 796349.95718669891 0 0 0 0 2247822.6091770194 -364209.76952522248 0 -364209.76952522248 -241114.05467171414 0 0 0 0 -27003223.025192261 20480003.533992827 0 20480003.533992827 2967791.0227655172 0 0 0 0 65570249.289550781 23166848.073188841 0 23166848.073188841 13958394.767096043 0 0 0 0 -18517826.580993652 4366500.8604106903 0 4366500.8604106903 3798629.0063445568 0 0 0 0 -22015774.929763794 9395489.7267458439 0 9395489.7267458439 13110889.034907818 0 0 0 0 -39827648.034432411 -9152286.729412064 0 -9152286.729412064 5878810.8766901493 0 0 0 0 2623174.7750469595 1647778.8007200994 0 1647778.8007200994 -567660.01357409777 0 0 0 0 -41613917.111465454 9644118.6169655323 0 9644118.6169655323 7758600.7243589163 0 0 0 0 -26073582.239509583 21368289.89906992 0 21368289.89906992 23884782.28953056 0 0 0 0 45475294.35137558 37861648.09082076 0 37861648.09082076 -33093498.057151318 0 0 0 0 -77938080.827842712 52254823.371593945 0 52254823.371593945 11058504.990800038 0 0 0 0 -2509.2745353132486 -4631.9570356830955 0 -4631.9570356830955 821978.82254398253 0 0 0 0 489379912.42388916 28753335.728312373 0 28753335.728312373 -113069814.28953886 0 0 0 0 159386582.08428955 -57521188.278210163 0 -57521188.278210163 26058297.019120216 0 0 0 0 99240382.810638428 71001878.413971901 0 71001878.413971901 46336418.024659514 0 0 0 0 78174363.922592163 15197656.948429525 0 15197656.948429525 35525646.126061767 0 0 0 0 5294424.3918304443 11517303.360500097 0 11517303.360500097 24885888.143509656 0 0 0 0 156066761.62267303 -6628505.8815506995 0 -6628505.8815506995 -20791804.67037344 0 0 0 0 993807.67274710163 1248270.5107999295 0 1248270.5107999295 1528352.040236738 0 0 0 0 4981923.6928283498 2501171.2165221162 0 2501171.2165221162 -4983663.3292147052 0 0 0 0 151494542.13809204 60706465.273315787 0 60706465.273315787 -9055802.0134226233 0 0 0 0 114635518.5472641 -4160618.8734255284 0 -4160618.8734255284 -9872080.9814653993 0 0 0 0 6196183.8505935669 24995821.760308266 0 24995821.760308266 15137812.705613136 0 0 0 0 -3108305.6190109253 -2796436.8144953251 0 -2796436.8144953251 5571453.9251079559 0 0 0 0 -20689293.22026825 10090172.877471328 0 10090172.877471328 13441499.467992783 0 0 0 0 389151.76699471846 4881835.7281716801 0 4881835.7281716801 9551841.0356728099 0 0 0 0 23067755.808078766 20680489.510554075 0 20680489.510554075 4087793.7666096687 0 0 0 0 20955751.755126953 11512706.225387335 0 11512706.225387335 3984538.6733169556 0 0 0 0 2342898.4103769213 2543792.5792613178 0 2543792.5792613178 7975756.3343023164 0 0 0 0 227798177.4246521 -216880575.06359386 0 -216880575.06359386 366424457.18208313 0 0 0 0 11116260.743515015 25658398.999569774 0 25658398.999569774 14852240.8460989 0 0 0 0 -14741699.58706665 11877916.406135559 0 11877916.406135559 11820757.877530336 0 0 0 0 18778571.728363037 15971551.611029029 0 15971551.611029029 13332226.472253799 0 0 0 0 -19456146.54486084 14998717.731249332 0 14998717.731249332 19582016.685225964 0 0 0 0 -13532262.28616333 11442553.670884132 0 11442553.670884132 8934748.7821726799 0 0 0 0 -12652353.553955078 7506622.2356417179 0 7506622.2356417179 4276784.7898321152 0 0 0 0 -23217463.958374023 -4652889.803486824 0 -4652889.803486824 643614.93777394295 0 0 0 0 111595851.96081543 103855150.88237 0 103855150.88237 94087104.427932739 0 0 0 0 351762.61526489258 16526511.711339951 0 16526511.711339951 -103415042.8462553 0 0 0 0 7679852.9983503148 -2652617.9458710365 0 -2652617.9458710365 -3564420.2147793099 0 0 0 0 413664815.11442566 291692143.09678459 0 291692143.09678459 353852311.41120148 0 0 0 0 301866112.65255737 56638688.402856827 0 56638688.402856827 11622447.557666779 0 0 0 0 33242041.627349854 37204838.384414673 0 37204838.384414673 -108563171.54805517 0 0 0 0 204937941.63232422 139051318.41096878 0 139051318.41096878 -11087625.486549377 0 0 0 0 75579777.234680176 -49973358.301428795 0 -49973358.301428795 -53806197.600727081 0 0 0 0 424501364.65478516 188488434.10536194 0 188488434.10536194 -22853736.432373047 0 0 0 0 519884561.28106689 126891457.71523476 0 126891457.71523476 -88351048.230529785 0 0 0 0 759814055.15637207 226676061.27735519 0 226676061.27735519 -159572321.15156364 0 0 0 0 790863007.14425659 285692089.43667316 0 285692089.43667316 -78127499.040161133 0 0 0 0 630623507.29382324 258867245.20589542 0 258867245.20589542 -18322460.326522827 0 0 0 0 818719591.07275391 264550941.76156616 0 264550941.76156616 -249972857.74356079 0 0 0 0 771634057.9430542 420083815.59574127 0 420083815.59574127 -82104430.588815689 0 0 0 0 729461235.637146 443384879.72479439 0 443384879.72479439 219486018.42460251 0 0 0 0 739696550.84466553 333983032.41122818 0 333983032.41122818 -6848395.6409039497 0 0 0 0 739293128.84295654 304542834.85551453 0 304542834.85551453 -81844012.535770416 0 0 0 0 850827338.03262329 755886583.4064846 0 755886583.4064846 427575443.12646365 0 0 0 0 901696829.13104248 -276261835.71686363 0 -276261835.71686363 -41732429.296132088 0 0 0 0 65296907.751159668 -217047581.47622299 0 -217047581.47622299 -27317452.371299744 0 0 0 0 2550855.1845295355 -858177.32457659766 0 -858177.32457659766 -1015596.4957894832 0 0 0 0 1173280588.2387695 552918195.189888 0 552918195.189888 10527087.595659256 0 0 0 0 1377119657.879364 -790109970.41841888 0 -790109970.41841888 185975850.2730217 0 0 0 0 4270136.6389160156 77687592.861598969 0 77687592.861598969 -825685.73220825195 0 0 0 0 62457044.150442362 76777430.234931961 0 76777430.234931961 -57937873.594062805 0 0 0 0 26006388.742095947 -10113664.769583702 0 -10113664.769583702 -77948692.5762375 0 0 0 0 -8767985.9379882812 55209569.594287872 0 55209569.594287872 -26325526.012588501 0 0 0 0 124103.50903198868 -254232.76018244773 0 -254232.76018244773 -129494.62156059407 0 0 0 0 -7513084.2334594727 87747025.198448181 0 87747025.198448181 -2773251.1487808228 0 0 0 0 -1590679.4544677734 36296572.819829941 0 36296572.819829941 40217890.825559616 0 0 0 0 95206425.57208252 -131700791.55631495 0 -131700791.55631495 153235673.25627899 0 0 0 0 -2562000.8677520752 4738920.4692854881 0 4738920.4692854881 1415593.9263210297 0 0 0 0 121435203.52230072 -4028228.4115731716 0 -4028228.4115731716 -29599659.529438972 0 0 0 0 17252056.9637146 -12212575.262932777 0 -12212575.262932777 -1437592.4385910034 0 0 0 0 67807207.395782471 -445030.79944944382 0 -445030.79944944382 -9191709.4463300705 0 0 0 0 3672497.0299866684 370264.2563245818 0 370264.2563245818 -7344336.6010092879 0 0 0 0 1055056.6576225832 -238844.94727575034 0 -238844.94727575034 -1049707.2158460268 0 0 0 0 4540428.2896118164 804572.22403144836 0 804572.22403144836 1225219.8548278809 0 0 0 0 -5671610.3604736328 -15535506.289019346 0 -15535506.289019346 -24711903.913397789 0 0 0 0 -20723890.971481323 31280549.00995636 0 31280549.00995636 -57352343.48608017 0 0 0 0 8146069.6619262695 -18037090.291137695 0 -18037090.291137695 24263045.335021973 0 0 0 0 -60839.817618593574 -116924.76465798169 0 -116924.76465798169 -524126.5155457342 0 0 0 0 85729974.560546875 -53094951.263076782 0 -53094951.263076782 -96688869.623954773 0 0 0 0 71667538.789123535 -19444446.40580368 0 -19444446.40580368 -80944211.068016052 0 0 0 0 -77482990.654663086 -55136336.154132843 0 -55136336.154132843 -58129515.230049133 0 0 0 0 121748560.54721069 -51476201.613164902 0 -51476201.613164902 -86975803.117794037 0 0 0 0 65315414.822875977 -92488931.204460144 0 -92488931.204460144 -148652710.64186096 0 0 0 0 78828279.166404724 10123184.215575695 0 10123184.215575695 -6954307.0037536621 0 0 0 0 -108218150.66333008 -143219378.67015839 0 -143219378.67015839 -99836598.306621552 0 0 0 0 5741327.2008162737 -2934609.0238623396 0 -2934609.0238623396 -3752856.7598166931 0 0 0 0 -214840912.35943604 -98853493.644836426 0 -98853493.644836426 -37968283.972328186 0 0 0 0 6661418.2077636719 -1529771.6559891701 0 -1529771.6559891701 -1556130.9032516479 0 0 0 0 7524975.5328610837 -1004421.3590835482 0 -1004421.3590835482 -9264983.0258956607 0 0 0 0 -83427639.51802063 -89314002.666190147 0 -89314002.666190147 -56866567.68522644 0 0 0 0 11218120.931065924 -3881292.3779947422 0 -3881292.3779947422 -7120079.0596668497 0 0 0 0 2866416.7484925166 780291.46491229534 0 780291.46491229534 -5840020.8726704139 0 0 0 0 5886784.9345834702 -3207882.9368737862 0 -3207882.9368737862 -1967410.34429682 0 0 0 0 20698881.140594482 -9190024.5869492292 0 -9190024.5869492292 -15928134.386684895 0 0 0 0 8574657.212387085 4589805.7684178352 0 4589805.7684178352 9624643.0871911049 0 0 0 0 135553622.23535156 4285465.3770446777 0 4285465.3770446777 -93327066.249137878 0 0 0 0 181164095.85131836 91028316.544516563 0 91028316.544516563 -35069860.009033203 0 0 0 0 2942061.4086914062 -4816362.6136322021 0 -4816362.6136322021 -13390030.102134705 0 0 0 0 10237389.836547852 -13455354.192876816 0 -13455354.192876816 -6104380.408842802 0 0 0 0 3026363.6857153624 -495515.64284475893 0 -495515.64284475893 -4261320.4658762766 0 0 0 0 -2503403.0347900391 -7656938.1118927002 0 -7656938.1118927002 -10645376.958356857 0 0 0 0 45081062.393737793 8091180.8000822067 0 8091180.8000822067 -2174597.3704118729 0 0 0 0 14547494.088180542 4719789.1183267832 0 4719789.1183267832 799338.05084609985 0 0 0 0 18058961.420837402 -4691835.0801553726 0 -4691835.0801553726 -8483206.8068151474 0 0 0 0 -7455653.0548248291 18705882.987141609 0 18705882.987141609 6819219.1265792847 0 0 0 0 174797.53529132903 16915.347760103643 0 16915.347760103643 -80025.067678127903 0 0 0 0 -8504937.2189025879 -13392352.37282896 0 -13392352.37282896 -19879828.984031677 0 0 0 0 -328590.33219337463 -19839924.578995794 0 -19839924.578995794 -22262038.118766308 0 0 0 0 -848674.18249511719 -15292949.250302434 0 -15292949.250302434 -6292764.3913042545 0 0 0 0 -3250331.301574707 -5870358.9460468292 0 -5870358.9460468292 -11309522.130684614 0 0 0 0 2237984.7050878257 -2705446.0093658343 0 -2705446.0093658343 494060.6281845374 0 0 0 0 16821483.362701416 -3255512.7078490257 0 -3255512.7078490257 -15328059.615172982 0 0 0 0 15051973.55758667 -23739213.384386301 0 -23739213.384386301 -11967229.156168699 0 0 0 0 -15418978.893066406 -20301244.762529612 0 -20301244.762529612 -18434683.358685851 0 0 0 0 3940288.7268358422 -1528634.0412066132 0 -1528634.0412066132 -8614607.0263009667 0 0 0 0 32772913.143035889 -19180383.474719703 0 -19180383.474719703 -19370192.896892548 0 0 0 0 87439350.472717285 69927809.185918808 0 69927809.185918808 108233617.85394096 0 0 0 0 38467694.367202759 -6994978.792534709 0 -6994978.792534709 -23002235.235471725 0 0 0 0 1672559.7699121535 1186539.0822995827 0 1186539.0822995827 1063919.1583499033 0 0 0 0 23671858.449428558 10071430.914166272 0 10071430.914166272 -74596345.429721832 0 0 0 0 249829171.43145752 -196578737.69761658 0 -196578737.69761658 120950056.31882286 0 0 0 0 1227906446.2162476 -64516773.130374908 0 -64516773.130374908 -28304202.509879589 0 0 0 0 1148936851.2753296 92077202.587864876 0 92077202.587864876 -68177545.281900406 0 0 0 0 690621149.69659424 -146521022.20964241 0 -146521022.20964241 -40549183.628306866 0 0 0 0 636639642.12664795 33293485.829403877 0 33293485.829403877 80476642.43390274 0 0 0 0 624272782.82580566 48591203.896343231 0 48591203.896343231 84279420.254957199 0 0 0 0 874886842.972229 103518496.05594254 0 103518496.05594254 25884518.099386215 0 0 0 0 59451429.066299438 -3671808.5892319679 0 -3671808.5892319679 213275092.21734619 0 0 0 0 336707889.199646 -21300104.352910995 0 -21300104.352910995 106434596.77747726 0 0 0 0 326858395.44854736 52942482.716497421 0 52942482.716497421 70782606.204456329 0 0 0 0 227781205.04412842 12440869.315330505 0 12440869.315330505 71807582.982259035 0 0 0 0 375847278.56207275 99482622.312356949 0 99482622.312356949 -35660614.187965393 0 0 0 0 610133398.49447632 57040121.42049408 0 57040121.42049408 10241081.526596069 0 0 0 0 594920274.1870575 66809608.791259766 0 66809608.791259766 135484040.8692627 0 0 0 0 387846556.62139893 63318431.326105118 0 63318431.326105118 28174471.255138397 0 0 0 0 596883703.5276947 49828547.21114397 0 49828547.21114397 -56670054.508640289 0 0 0 0 366170245.42456055 114152059.69197464 0 114152059.69197464 -51142419.571331024 0 0 0 0 647944190.32562256 157177012.96811771 0 157177012.96811771 -99048420.846946716 0 0 0 0 678869510.81530762 108161927.62232971 0 108161927.62232971 -101699331.21608734 0 0 0 0 543733252.06811523 178101452.50393677 0 178101452.50393677 -83616759.289997339 0 0 0 0 508968918.02015686 83550253.329443932 0 83550253.329443932 -97533982.069274902 0 0 0 0 205133997.47088623 73550064.686115265 0 73550064.686115265 -20724200.991727829 0 0 0 0 314138809.47631836 12788507.826738358 0 12788507.826738358 -48320073.355308533 0 0 0 0 64416993.278827667 15069307.122450851 0 15069307.122450851 4944914.3882825375 0 0 0 0 2166548.580849342 1832268.6305653751 0 1832268.6305653751 5749613.8910300825 0 0 0 0 847031639.92831421 163275738.37953663 0 163275738.37953663 -134740618.19043541 0 0 0 0 803480893.82794189 212590686.42590904 0 212590686.42590904 -189756008.48275948 0 0 0 0 831900584.12646484 137420520.49463654 0 137420520.49463654 -155230866.45773315 0 0 0 0 729475026.72564697 208492459.76388741 0 208492459.76388741 -158959952.93000031 0 0 0 0 802771240.97705078 104136663.91443253 0 104136663.91443253 -83619345.970411301 0 0 0 0 794939291.63529968 62084306.965969563 0 62084306.965969563 117094581.46039581 0 0 0 0 687189503.65283203 122506247.7551899 0 122506247.7551899 -73636742.123023987 0 0 0 0 7327904.2796335481 -66752.343013927341 0 -66752.343013927341 -222716.0556932739 0 0 0 0 30996135.258972168 6528490.4221749306 0 6528490.4221749306 4648634.4936781973 0 0 0 0 3341685.7124111429 1623577.9917978868 0 1623577.9917978868 3636935.5739624556 0 0 0 0 1251556479.2735596 396574913.81435966 0 396574913.81435966 -21161450.356887817 0 0 0 0 1048727673.1481171 435871437.03184605 0 435871437.03184605 146964172.49773788 0 0 0 0 741792161.30389404 249983065.27842522 0 249983065.27842522 301296631.18047333 0 0 0 0 30858018.385234833 5849035.5248641372 0 5849035.5248641372 1320854.7194719315 0 0 0 0 -55520407.592086494 234958956.38526869 0 234958956.38526869 -37813383.568738937 0 0 0 0 1247196393.7223816 371690909.21785021 0 371690909.21785021 80064831.834848404 0 0 0 0 15846255.30313684 3254547.4928187099 0 3254547.4928187099 40551.482771461204 0 0 0 0 26081629.119445801 5092115.8927020729 0 5092115.8927020729 733360.92036515649 0 0 0 0 -84321868.709014893 195343895.91752815 0 195343895.91752815 72430070.046422958 0 0 0 0 6526.4571287855506 -153518.51903762668 0 -153518.51903762668 1163837.5933792773 0 0 0 0 1894771947.921814 247380147.27730465 0 247380147.27730465 -89096046.642314911 0 0 0 0 1552032726.2998962 48104293.573822975 0 48104293.573822975 -10464295.948496819 0 0 0 0 1395457609.0087433 833484048.52497339 0 833484048.52497339 372200223.80295563 0 0 0 0 36684.829226315022 235832.05784704187 0 235832.05784704187 174011.82792680315 0 0 0 0 1788099666.7053833 439976064.39562702 0 439976064.39562702 -368234133.54179013 0 0 0 0 1540585716.6447144 379117767.27349436 0 379117767.27349436 272238157.46716547 0 0 0 0 6207359.4790073 -544092.85568416864 0 -544092.85568416864 2557960.2651521284 0 0 0 0 18450761.568618774 927705.51629899815 0 927705.51629899815 1693682.7306182086 0 0 0 0 1477474775.621521 584657335.10631549 0 584657335.10631549 -118228897.16607165 0 0 0 0 550919456.26708984 465399080.15130568 0 465399080.15130568 183257039.58797884 0 0 0 0 24966190.993286133 -1683396.949521834 0 -1683396.949521834 -670811.53968971968 0 0 0 0 8948317.1668701172 -12090593.909418108 0 -12090593.909418108 -13494450.507761169 0 0 0 0 6503221.1925058737 508182.35397794098 0 508182.35397794098 -239894.89098448103 0 0 0 0 28665825.517120361 4774393.4765375257 0 4774393.4765375257 -2237772.7907614708 0 0 0 0 -4221997.7282409668 -30338762.055471752 0 -30338762.055471752 -22209470.209802128 0 0 0 0 41441598.787303925 17668889.928763233 0 17668889.928763233 -17465615.151550323 0 0 0 0 1979380.9080984071 211662.79359282553 0 211662.79359282553 -58621.727386719431 0 0 0 0 2098717.7183438838 -349635.81485028565 0 -349635.81485028565 437768.77297693375 0 0 0 0 -24561150.439868927 -86382107.411866322 0 -86382107.411866322 -55626485.382587135 0 0 0 0 -4780134.0584106445 -21811631.11641679 0 -21811631.11641679 -51177767.735351734 0 0 0 0 72222619.62109375 -5874638.7922481745 0 -5874638.7922481745 -64610651.847757936 0 0 0 0 140275269.07183838 24763334.241521183 0 24763334.241521183 -410693.35771256447 0 0 0 0 45535700.396575928 -97428871.292417318 0 -97428871.292417318 -101823467.38923527 0 0 0 0 914372480.50158691 -130034367.35496776 0 -130034367.35496776 -141531275.69769514 0 0 0 0 35507330.202667236 19704715.349642117 0 19704715.349642117 -25823938.153590567 0 0 0 0 17241964.011749268 -10351627.767178064 0 -10351627.767178064 -2260450.42865721 0 0 0 0 147068885.20221329 -90663595.613953486 0 -90663595.613953486 -54813315.743816882 0 0 0 0 163458538.840065 -154491919.46009839 0 -154491919.46009839 128398237.36979485 0 0 0 0 66544309.068023682 -76912615.907490879 0 -76912615.907490879 555013.62109188654 0 0 0 0 649356127.53585815 472787619.35181344 0 472787619.35181344 414915909.6216644 0 0 0 0 547007.05712557584 -374775.85644865781 0 -374775.85644865781 -1320569.879395854 0 0 0 0 1637673109.7794418 352915366.1502353 0 352915366.1502353 -462772235.85012043 0 0 0 0 296251941.76422119 188889602.20854187 0 188889602.20854187 321107287.81199002 0 0 0 0 -139341841.68658447 88321750.432029277 0 88321750.432029277 30684861.910574317 0 0 0 0 92246260.29675293 148195227.52583653 0 148195227.52583653 -90921776.312928498 0 0 0 0 95217207.18451786 95064776.143551603 0 95064776.143551603 122402164.61174735 0 0 0 0 72364102.691986084 42918292.406027108 0 42918292.406027108 -39832620.288177311 0 0 0 0 36850940.399780273 24483385.714707375 0 24483385.714707375 -36096016.070877865 0 0 0 0 997421250.53018188 79622171.41374588 0 79622171.41374588 -78951749.337399483 0 0 0 0 166264193.59487915 -227904574.74744034 0 -227904574.74744034 18648571.591541767 0 0 0 0 1812174.9430712759 -883667.73398744315 0 -883667.73398744315 -4626236.0964257745 0 0 0 0 -102111781.07395554 -83731673.12141037 0 -83731673.12141037 93547846.999763489 0 0 0 0 31506152.788692474 22061399.359281383 0 22061399.359281383 -19654715.639154434 0 0 0 0 15609901.088287354 -32719086.068849564 0 -32719086.068849564 -50692050.733952045 0 0 0 0 27007194.77746582 9917610.4769519567 0 9917610.4769519567 -49088191.090801001 0 0 0 0 26645635.996353149 8131916.594375968 0 8131916.594375968 -37826825.731665611 0 0 0 0 -123511.91626423597 -95821.807587623596 0 -95821.807587623596 -177104.18782679632 0 0 0 0 2436674.7737568319 -2199824.950749062 0 -2199824.950749062 212388.56715901091 0 0 0 0 -23429832.407501221 -50824106.070144057 0 -50824106.070144057 -59512952.294958115 0 0 0 0 -28426481.418579102 -35991574.36533761 0 -35991574.36533761 -28673397.89841342 0 0 0 0 -24530130.71585083 6744858.4035401344 0 6744858.4035401344 -10761505.388299704 0 0 0 0 16383250.867477417 -15277770.749572337 0 -15277770.749572337 -65896892.571521282 0 0 0 0 24381003.883850098 -39896393.786229968 0 -39896393.786229968 -97449680.974863768 0 0 0 0 -10308474.168212891 -22703945.50034821 0 -22703945.50034821 -84600713.311861992 0 0 0 0 -66084301.815887451 -18739302.465806127 0 -18739302.465806127 -76645740.853484154 0 0 0 0 -7329888.7481384277 -58418084.436938405 0 -58418084.436938405 -74865904.056086063 0 0 0 0 15915856.999664307 -13207434.764514804 0 -13207434.764514804 -62214655.347391963 0 0 0 0 691341.97647558153 -98495.306207116693 0 -98495.306207116693 -485734.24726180499 0 0 0 0 -272995.86761474609 -6356311.0601701736 0 -6356311.0601701736 7796116.1105279922 0 0 0 0 119420666.93423462 199816339.58159757 0 199816339.58159757 124587090.54964161 0 0 0 0 36081716.635742188 -6772993.4408659935 0 -6772993.4408659935 31018881.395171642 0 0 0 0 -26992105.684387207 21337288.374353886 0 21337288.374353886 22486670.994710922 0 0 0 0 63948988.706466675 -53634961.387997866 0 -53634961.387997866 21846022.360896587 0 0 0 0 127286465.43208313 -64334574.810832381 0 -64334574.810832381 15623878.031853676 0 0 0 0 150228655.83361816 -15137503.136372209 0 -15137503.136372209 215124.73218429089 0 0 0 0 -88746242.73525238 -152517421.57328165 0 -152517421.57328165 -49034539.392444372 0 0 0 0 1125256.7301677391 -1233834.1492508799 0 -1233834.1492508799 637920.82580084889 0 0 0 0 -106569954.69784546 -34089633.991125524 0 -34089633.991125524 -49680789.759519577 0 0 0 0 -7910019.0055770874 -140528612.9871223 0 -140528612.9871223 -78378466.21982789 0 0 0 0 47338161.9610672 90602.678610444069 0 90602.678610444069 -76942489.477315187 0 0 0 0 -69598500.193939209 -56060326.042376161 0 -56060326.042376161 -61810720.532255411 0 0 0 0 67381059.817047119 -75357450.011417031 0 -75357450.011417031 -69843392.125709116 0 0 0 0 -16039554.830936432 -91168033.36178413 0 -91168033.36178413 -45613915.174330235 0 0 0 0 42945996.03414917 15678946.803345919 0 15678946.803345919 -50824504.619604349 0 0 0 0 50324954.591827393 15841840.268317521 0 15841840.268317521 -52015968.559189677 0 0 0 0 154603983.18893433 -214562284.43430763 0 -214562284.43430763 119844790.2076135 0 0 0 0 140930762.14660645 30933503.466092229 0 30933503.466092229 -53593977.284586787 0 0 0 0 397123361.2166748 -26778319.002169877 0 -26778319.002169877 -40761147.312843792 0 0 0 0 168791563.66073608 -133054140.32491836 0 -133054140.32491836 -36185319.079345092 0 0 0 0 -51175365.155761719 -69862155.264748007 0 -69862155.264748007 -32653156.010210335 0 0 0 0 -101294883.40245056 -151838148.90542594 0 -151838148.90542594 262507243.20641565 0 0 0 0 -30082626.312713623 -129189978.427127 0 -129189978.427127 101165727.33831689 0 0 0 0 -148152988.60585022 -67445624.518402666 0 -67445624.518402666 145379477.2204257 0 0 0 0 -224299253.41918945 -28597787.623448968 0 -28597787.623448968 139064976.89205849 0 0 0 0 78422773.192710876 14801299.754716434 0 14801299.754716434 -69410200.791887701 0 0 0 0 686255.21740612388 -265415.5190172256 0 -265415.5190172256 18651.833336675925 0 0 0 0 265149764.59082031 -102542526.80300887 0 -102542526.80300887 -251513.28815081014 0 0 0 0 -102598372.99264526 32086620.080892466 0 32086620.080892466 319542.54921336309 0 0 0 0 426483351.06945801 -112471907.30468798 0 -112471907.30468798 -248666534.25502151 0 0 0 0 -71612425.453292847 22848166.796583965 0 22848166.796583965 -57486177.657355919 0 0 0 0 1655201.3849570453 -285726.40859076008 0 -285726.40859076008 -39246.488529353337 0 0 0 0 -26300930.067024231 -33324394.536758449 0 -33324394.536758449 -69533.042916086823 0 0 0 0 319810.20079776645 -390868.64795266837 0 -390868.64795266837 314489.58189495903 0 0 0 0 -162552855.78613663 5695893.75301525 0 5695893.75301525 112726800.17047244 0 0 0 0 319757.2443455644 -256668.1631090045 0 -256668.1631090045 -4781.917211268621 0 0 0 0 661552658.37854004 -16131703.022953987 0 -16131703.022953987 -213750111.15935755 0 0 0 0 501102896.6675415 -379667907.20199037 0 -379667907.20199037 235774374.65029466 0 0 0 0 261649910.83557129 151675965.31208336 0 151675965.31208336 22240799.032274723 0 0 0 0 130802713.18196106 -141353066.82788244 0 -141353066.82788244 81565334.650806665 0 0 0 0 128557324.40530396 32447810.339094937 0 32447810.339094937 107856487.08356786 0 0 0 0 -227466830.84599304 51498696.273674831 0 51498696.273674831 88439182.195141077 0 0 0 0 -271761295.35015869 -336030727.48188758 0 -336030727.48188758 96731498.711906135 0 0 0 0 22030968.734161377 -240454735.50571966 0 -240454735.50571966 116297559.0047605 0 0 0 0 -375023555.81369019 45623944.610278249 0 45623944.610278249 169676273.91640258 0 0 0 0 79328901.031860352 27344618.632274866 0 27344618.632274866 169844040.45288506 0 0 0 0 -99789259.413391113 -127515097.1055221 0 -127515097.1055221 193817122.67721963 0 0 0 0 18902825.775085449 -52095299.014431477 0 -52095299.014431477 197499338.66904664 0 0 0 0 38570130.62802887 -62967809.74896726 0 -62967809.74896726 19328485.251877785 0 0 0 0 3639323.0954589844 63551955.147073388 0 63551955.147073388 34361354.439431146 0 0 0 0 142084500.61190796 15298783.068797946 0 15298783.068797946 -113465481.58426738 0 0 0 0 214778161.66467285 -81104182.934571743 0 -81104182.934571743 -60319309.069665909 0 0 0 0 188050791.15338135 175644934.29546243 0 175644934.29546243 25212566.625997305 0 0 0 0 1010526.299038237 -646119.2762382254 0 -646119.2762382254 -453802.99714383739 0 0 0 0 -34752886.413192749 24869699.253296554 0 24869699.253296554 -2363530.4546906948 0 0 0 0 59033669.485198975 -34230196.604735851 0 -34230196.604735851 249930656.70847273 0 0 0 0 218539555.60210419 172668647.10870576 0 172668647.10870576 -98126388.196098328 0 0 0 0 28210512.087722778 6577724.2650614977 0 6577724.2650614977 40271821.223864555 0 0 0 0 12112330.309936523 -22018372.392778039 0 -22018372.392778039 -103328780.4614442 0 0 0 0 3500590.5595363602 -2140350.4090017341 0 -2140350.4090017341 466038.69243601151 0 0 0 0 10198054.756066322 10238286.336999573 0 10238286.336999573 -4098624.5223696232 0 0 0 0 48571836.789535522 -183157411.80029917 0 -183157411.80029917 -161217524.95342255 0 0 0 0 110332882.11837769 103070328.24339628 0 103070328.24339628 -24433768.592182159 0 0 0 0 2247784.86272371 -1488847.5820921063 0 -1488847.5820921063 -1765989.0800996295 0 0 0 0 4091845.815353781 -2963119.7386903614 0 -2963119.7386903614 727048.67043128842 0 0 0 0 8613810.2791137695 -702472.31305754185 0 -702472.31305754185 -17777232.726400614 0 0 0 0 19369794.23072052 -7435355.0350705385 0 -7435355.0350705385 9694023.0126485825 0 0 0 0 97754677.412658691 -15819933.425352097 0 -15819933.425352097 -50443909.860064387 0 0 0 0 76632139.822631836 29648927.646076202 0 29648927.646076202 81764562.686650991 0 0 0 0 105114834.17242432 51916637.106474876 0 51916637.106474876 16450120.045014381 0 0 0 0 1394504.8770620525 -698568.65943733975 0 -698568.65943733975 -889253.09826794511 0 0 0 0 67139724.970092773 34216341.260565281 0 34216341.260565281 19004319.007791519 0 0 0 0 -1712690.8390960693 -1517393.5648196936 0 -1517393.5648196936 -7450161.6846642494 0 0 0 0 -1827442.4722290039 -5475591.6710619926 0 -5475591.6710619926 -5481586.81594944 0 0 0 0 80135586.294906616 22367846.162303686 0 22367846.162303686 16446466.850594521 0 0 0 0 3108801.7394666821 -566187.22662661225 0 -566187.22662661225 -3189729.2847591708 0 0 0 0 72121399.56060791 35988397.454202652 0 35988397.454202652 -4876282.3908023834 0 0 0 0 33403729.442077637 28642029.2392416 0 28642029.2392416 19986801.864018083 0 0 0 0 73151312.873788834 27872139.615648776 0 27872139.615648776 2187581.7946605682 0 0 0 0 41059104.613628387 23271984.848423958 0 23271984.848423958 610086.12093353271 0 0 0 0 64258537.927597046 26580994.43611598 0 26580994.43611598 3415491.879026413 0 0 0 0 80683411.302947998 15856751.741091251 0 15856751.741091251 -221085.7717795372 0 0 0 0 85756762.104003906 36490316.720468521 0 36490316.720468521 7561124.9184687138 0 0 0 0 6691122.9372558594 -32032530.764597893 0 -32032530.764597893 -244940410.77596664 0 0 0 0 3974125.2484940961 -2048733.4691549763 0 -2048733.4691549763 -407307.52994382754 0 0 0 0 73205161.656814575 28756379.575211048 0 28756379.575211048 1525135.0144019127 0 0 0 0 73752577.658172607 26987703.901878357 0 26987703.901878357 3200125.8169728518 0 0 0 0 69627733.349464417 62475510.083444953 0 62475510.083444953 46378319.078252792 0 0 0 0 66562467.357650757 27571696.596952915 0 27571696.596952915 21409885.72254467 0 0 0 0 68464330.792015553 36314341.226623945 0 36314341.226623945 1001899.2610836029 0 0 0 0 -118828357.45600128 -221226315.3762064 0 -221226315.3762064 -117935146.61573792 0 0 0 0 207647653.41809082 94038657.177290916 0 94038657.177290916 20740743.54595089 0 0 0 0 2185426.6142985076 -1100048.389369674 0 -1100048.389369674 -201570.68895051256 0 0 0 0 -158647947.47323608 -177109860.46151495 0 -177109860.46151495 -16337763.985569954 0 0 0 0 -125326190.94708252 -251804073.1404953 0 -251804073.1404953 -200181900.66666317 0 0 0 0 -198450748.56195068 -161126798.7076149 0 -161126798.7076149 74266619.304585695 0 0 0 0 163158983.56575775 15796459.988799095 0 15796459.988799095 -232270520.62134743 0 0 0 0 155249018.70932007 22789626.86879921 0 22789626.86879921 -21309228.250739098 0 0 0 0 491226231.88946533 -98663180.008789539 0 -98663180.008789539 -11393695.923834801 0 0 0 0 71602100.779418945 -36080301.021095276 0 -36080301.021095276 -106123165.01051188 0 0 0 0 288310191.59423828 -200440565.9000597 0 -200440565.9000597 -214780566.83338737 0 0 0 0 -297317466.00268555 -332708510.09137392 0 -332708510.09137392 -239137415.26660728 0 0 0 0 985888.43755401671 -943422.01030001789 0 -943422.01030001789 -682941.42347490415 0 0 0 0 417082115.15541077 227091862.40225887 0 227091862.40225887 207612998.16873789 0 0 0 0 50897122.595397949 -60554012.827272415 0 -60554012.827272415 428242443.88685322 0 0 0 0 25126046.338272095 33148292.20336771 0 33148292.20336771 126263331.80856776 0 0 0 0 -71683746.617523193 -104323039.24706841 0 -104323039.24706841 -20633116.878647447 0 0 0 0 -71486136.501533508 -141479560.17988515 0 -141479560.17988515 53336251.246952057 0 0 0 0 -93680573.708114624 -119710444.22628117 0 -119710444.22628117 -176053108.10102844 0 0 0 0 -140241062.36904907 -33283263.419858932 0 -33283263.419858932 -64132948.81684494 0 0 0 0 -121245703.78016663 -143228343.50119352 0 -143228343.50119352 -18055038.495914459 0 0 0 0 -138125526.51351929 -49030172.253829002 0 -49030172.253829002 1681118.3697841167 0 0 0 0 -112812411.19378662 -74664626.744491577 0 -74664626.744491577 25200098.685624123 0 0 0 0 -137731240.82357335 -85294135.031705767 0 -85294135.031705767 -168535.65774154663 0 0 0 0 -147364549.6521759 -30038896.272389412 0 -30038896.272389412 92842778.800773621 0 0 0 0 -142582860.49938583 -39330080.873226285 0 -39330080.873226285 29264792.106657028 0 0 0 0 -133808464.22338867 -41232981.336250305 0 -41232981.336250305 29483134.589793205 0 0 0 0 -117657401.31777954 -47125783.409495354 0 -47125783.409495354 201226826.60276508 0 0 0 0 -21750512.083328247 104139148.79367161 0 104139148.79367161 146604662.94387746 0 0 0 0 -59910055.648277283 15726229.197932482 0 15726229.197932482 -9254998.7476463318 0 0 0 0 16574731.159065247 137761653.79545188 0 137761653.79545188 89139052.926904678 0 0 0 0 275514.90881134931 270286.11425408721 0 270286.11425408721 -162352.62362954114 0 0 0 0 12916987.570217609 -6613268.4412167519 0 -6613268.4412167519 -29493945.187244415 0 0 0 0 -117856175.00741577 78317058.247831345 0 78317058.247831345 44896714.105353594 0 0 0 0 -18499942.852020264 66974741.04542923 0 66974741.04542923 -45738745.774085999 0 0 0 0 -6801197.2980041504 18895201.418505669 0 18895201.418505669 -31428198.975894451 0 0 0 0 230442712.21768188 98501414.219025612 0 98501414.219025612 -216273110.98659003 0 0 0 0 51990145.729446411 -65288410.567304611 0 -65288410.567304611 -243274532.45842957 0 0 0 0 95454308.723114014 58631924.466466904 0 58631924.466466904 56839902.437345505 0 0 0 0 97518039.687194824 79553850.684747994 0 79553850.684747994 238315144.12795067 0 0 0 0 351321964.82038879 282550043.24644423 0 282550043.24644423 37348264.588372231 0 0 0 0 440460691.45735168 154800569.40113544 0 154800569.40113544 50503732.368512392 0 0 0 0 548622553.42764282 318879792.39394903 0 318879792.39394903 -2040671.491844058 0 0 0 0 501213104.90689087 251842074.16446257 0 251842074.16446257 -95895604.632291794 0 0 0 0 363293648.88981628 379138744.77421391 0 379138744.77421391 263865596.2821064 0 0 0 0 19927.745812430978 73138.165086068213 0 73138.165086068213 44465.229255698156 0 0 0 0 201258952.18452454 167051787.61079407 0 167051787.61079407 160423019.80822277 0 0 0 0 279732628.3379364 167783682.80111265 0 167783682.80111265 75925746.365401268 0 0 0 0 274623829.84707642 78729557.740449905 0 78729557.740449905 57871712.42264843 0 0 0 0 790514655.79443359 221681272.76351929 0 221681272.76351929 495762940.46914673 0 0 0 0 1227176109.8596954 202188190.25824642 0 202188190.25824642 -204287455.05677795 0 0 0 0 253683703.08456421 148527487.75734186 0 148527487.75734186 72608267.912874222 0 0 0 0 -29973.715753704309 177175.7434617728 0 177175.7434617728 412891.62364571495 0 0 0 0 713546244.67570496 450810364.02024674 0 450810364.02024674 -101022401.81827736 0 0 0 0 376760944.49411011 -218944695.44547844 0 -218944695.44547844 20564947.256209135 0 0 0 0 778264.81022524834 -750939.04986634851 0 -750939.04986634851 141182.47803779732 0 0 0 0 127190876.72357178 -141243767.6038692 0 -141243767.6038692 20002876.760375023 0 0 0 0 479424570.93562317 30067693.959268332 0 30067693.959268332 -182677115.3899579 0 0 0 0 -177362.81979081035 357770.52500019968 0 357770.52500019968 658895.13632438984 0 0 0 0 365571595.01645279 122730854.54679707 0 122730854.54679707 -135065109.18846536 0 0 0 0 366604761.39358521 121589551.8254528 0 121589551.8254528 -192832673.04452372 0 0 0 0 250354064.37854004 164355790.18702793 0 164355790.18702793 80247693.361584663 0 0 0 0 327466236.69361877 88020203.82333982 0 88020203.82333982 -91852080.764628649 0 0 0 0 240009296.71002197 2047277.5826940536 0 2047277.5826940536 -154453971.07531488 0 0 0 0 262927515.98069763 -13625226.3792063 0 -13625226.3792063 -191797596.96532321 0 0 0 0 223113815.26553345 94900768.102669477 0 94900768.102669477 132298678.51500893 0 0 0 0 198593051.45683289 49658871.593976974 0 49658871.593976974 74355804.989888191 0 0 0 0 82723579.149414062 100935911.48118496 0 100935911.48118496 154499726.80648804 0 0 0 0 105662420.35211182 21801558.341313839 0 21801558.341313839 66750830.494429111 0 0 0 0 243476909.08956909 93296017.739720821 0 93296017.739720821 92673684.796349168 0 0 0 0 245895183.76802063 127064490.60430682 0 127064490.60430682 53327055.984794617 0 0 0 0 300277665.0294342 173179268.20213413 0 173179268.20213413 61518296.685165405 0 0 0 0 238334387.20562744 149020176.41114283 0 149020176.41114283 64493403.531011581 0 0 0 0 297653423.23716736 114763219.3611114 0 114763219.3611114 77613519.655334949 0 0 0 0 262465230.45394897 156804289.85209346 0 156804289.85209346 57192047.61507988 0 0 0 0 234692749.1574707 126894111.79584217 0 126894111.79584217 58956107.57447648 0 0 0 0 232463945.31188965 135307303.47744513 0 135307303.47744513 33912533.433569908 0 0 0 0 130821843.64862061 92785502.321295738 0 92785502.321295738 44884765.202478409 0 0 0 0 147201167.75427246 9011897.0939302444 0 9011897.0939302444 -12714488.269116402 0 0 0 0 187733007.82473755 83863985.685666084 0 83863985.685666084 32554198.484573364 0 0 0 0 228672498.73980713 98992981.719613075 0 98992981.719613075 -3016034.2700033188 0 0 0 0 207877558.71881104 127746025.96357298 0 127746025.96357298 59539066.644429207 0 0 0 0 222720947.4393158 136368758.52718043 0 136368758.52718043 136385201.92101574 0 0 0 0 -68049776.521989822 -23842557.49537681 0 -23842557.49537681 87058046.224039078 0 0 0 0 355557873.16070557 77674843.314235687 0 77674843.314235687 11883106.632751465 0 0 0 0 -180642.21676846885 526304.01446743309 0 526304.01446743309 89736.290549321566 0 0 0 0 318719095.06500244 161969633.40752316 0 161969633.40752316 37617680.790378571 0 0 0 0 -1499529.4343154132 1367102.5788652822 0 1367102.5788652822 206133.44706852129 0 0 0 0 294890277.98901367 85762584.632980347 0 85762584.632980347 -132607739.37010574 0 0 0 0 -7826.2798437178135 48958.732113622129 0 48958.732113622129 -69293.386464293115 0 0 0 0 1232064.890417278 806850.43461131305 0 806850.43461131305 -1648688.120117188 0 0 0 0 1392904.0723855495 636971.96987268329 0 636971.96987268329 -850018.0103931427 0 0 0 0 168812380.49240112 91050895.698810101 0 91050895.698810101 55709650.55643183 0 0 0 0 42606675.475006104 59534498.850748062 0 59534498.850748062 70432178.587905884 0 0 0 0 3101092.0596975833 583387.35757395625 0 583387.35757395625 -1526734.480233246 0 0 0 0 117485351.33572388 115344003.2796526 0 115344003.2796526 60423359.633452415 0 0 0 0 185130403.2401123 87367981.0564394 0 87367981.0564394 32010466.45000124 0 0 0 0 214102986.57781982 130834133.03415585 0 130834133.03415585 63353682.598679304 0 0 0 0 180095489.55348969 106188593.78388238 0 106188593.78388238 56892150.201114655 0 0 0 0 216995331.60641479 127567629.84577227 0 127567629.84577227 61818189.173739433 0 0 0 0 168045842.66989136 85357177.251908779 0 85357177.251908779 74930644.63512814 0 0 0 0 165068063.63293457 120717252.17740774 0 120717252.17740774 111970779.0338552 0 0 0 0 247823860.3885498 160440356.0213449 0 160440356.0213449 80322497.771671295 0 0 0 0 10498821.49065876 3181614.1752225608 0 3181614.1752225608 -245603.81279182434 0 0 0 0 1033258.7813499807 616436.23167683184 0 616436.23167683184 -462672.50845554844 0 0 0 0 716297.5584795773 451681.60295496508 0 451681.60295496508 -621443.14482717449 0 0 0 0 -6354670.5761032104 18392460.513835803 0 18392460.513835803 -32170405.041114807 0 0 0 0 1297584.8593223095 3933119.101707872 0 3933119.101707872 -339665.85699749365 0 0 0 0 3603562.2946472168 1367105.6952924728 0 1367105.6952924728 1365460.5060200691 0 0 0 0 7356214.9346313477 3045737.5638570786 0 3045737.5638570786 1301649.7376320958 0 0 0 0 18165924.304443359 23043936.348790646 0 23043936.348790646 3488709.5213088989 0 0 0 0 -1098228.1187591553 -5027978.684388876 0 -5027978.684388876 19737369.226268768 0 0 0 0 -7557527.7127532959 1951403.1807537079 0 1951403.1807537079 25823888.538417816 0 0 0 0 113645852.36532593 53732121.973143101 0 53732121.973143101 -37837795.847454071 0 0 0 0 2339479.0219116211 -57996028.492476463 0 -57996028.492476463 -43512598.407793045 0 0 0 0 -107589775.96148682 -24315241.263480186 0 -24315241.263480186 18970932.434248924 0 0 0 0 -41798847.539154053 128355658.72409987 0 128355658.72409987 -40363152.988918304 0 0 0 0 -11015596.787334442 -11104891.320522785 0 -11104891.320522785 1688067.4156036377 0 0 0 0 4858831.5447998047 1396759.5985469818 0 1396759.5985469818 260677.90966796875 0 0 0 0 5064644.4410400391 2521940.6745233536 0 2521940.6745233536 235754.15981674194 0 0 0 0 6697269.2802429199 186853.58198547363 0 186853.58198547363 -680836.47829055786 0 0 0 0 4860043.9002685547 1522897.0726604462 0 1522897.0726604462 572915.68670654297 0 0 0 0 328874.4685363397 -22579.345965750515 0 -22579.345965750515 -122330.2983825691 0 0 0 0 53138823.439880371 12060194.32291317 0 12060194.32291317 -2945497.9653167725 0 0 0 0 844586.26868419349 1574058.6217618138 0 1574058.6217618138 -1177911.4619001951 0 0 0 0 484274.67189782858 2893486.5128857568 0 2893486.5128857568 -2132840.4417135105 0 0 0 0 1935004.605682373 752785.32109975815 0 752785.32109975815 -961273.12669754028 0 0 0 0 -1301944.1881717443 2656602.1624592394 0 2656602.1624592394 -469343.30793365091 0 0 0 0 -11206463.069732666 38550384.724357605 0 38550384.724357605 -9034735.3568668365 0 0 0 0 2162762.1308364868 -17052083.147985697 0 -17052083.147985697 -47170082.340216637 0 0 0 0 15169409.618469238 50225991.197460175 0 50225991.197460175 -5235269.3186178207 0 0 0 0 36669054.332027435 59868302.098299623 0 59868302.098299623 119606413.08492088 0 0 0 0 12443514.51184082 80231794.75350666 0 80231794.75350666 171855362.26450348 0 0 0 0 6886767.6187667847 15346052.727953911 0 15346052.727953911 87739720.881583214 0 0 0 0 -14143754.027923584 9076379.8591216803 0 9076379.8591216803 154564784.11801052 0 0 0 0 755691.74151611328 23602675.303575516 0 23602675.303575516 84958800.60627389 0 0 0 0 36150337.815856934 45294851.758586884 0 45294851.758586884 -17211011.569374084 0 0 0 0 54994.58011931181 3641244.558317326 0 3641244.558317326 -4352057.2989055365 0 0 0 0 1353918.4028162658 1153885.590337541 0 1153885.590337541 -1869512.0863762069 0 0 0 0 -240700408.07107544 -19493693.905972481 0 -19493693.905972481 -11806583.618962288 0 0 0 0 -282630868.96389771 159744912.5242691 0 159744912.5242691 -90338283.779321671 0 0 0 0 -431393601.13613892 218953175.51012182 0 218953175.51012182 -25958836.993667603 0 0 0 0 -198948573.74269104 -383988566.83030701 0 -383988566.83030701 115034274.58747292 0 0 0 0 80826785.980255127 -282227295.91535568 0 -282227295.91535568 10968086.637184143 0 0 0 0 -567610094.91098022 -7793948.288611412 0 -7793948.288611412 312347107.68274689 0 0 0 0 220651551.87130737 -233451578.41838646 0 -233451578.41838646 -33298846.595511436 0 0 0 0 111958894.99465942 10016618.472259283 0 10016618.472259283 80416336.866818666 0 0 0 0 4928743.1665039062 -9820876.2637557983 0 -9820876.2637557983 111229467.14586496 0 0 0 0 63300800.831069946 30829101.580341518 0 30829101.580341518 139267938.45051575 0 0 0 0 690297.52893066406 34840174.027208328 0 34840174.027208328 189970494.59414768 0 0 0 0 -13600417.618133545 -17233189.333082676 0 -17233189.333082676 225655498.09240556 0 0 0 0 699226054.26054382 496871800.97549343 0 496871800.97549343 101854018.15174103 0 0 0 0 192607934.96621704 224565043.15906405 0 224565043.15906405 45532588.639831543 0 0 0 0 468108172.90252686 281931158.15050316 0 281931158.15050316 -14014213.662169456 0 0 0 0 433008640.33111572 -86292109.603429794 0 -86292109.603429794 -137502676.24695349 0 0 0 0 266920651.393013 -554692808.88828897 0 -554692808.88828897 290621419.75143433 0 0 0 0 1100132245.7219849 -69768328.185627937 0 -69768328.185627937 -144102897.20128822 0 0 0 0 2530164810.5691147 -396862540.3160243 0 -396862540.3160243 -567082119.71528721 0 0 0 0 488520846.38638306 535368737.15700626 0 535368737.15700626 932068755.46784878 0 0 0 0 226493131.82244873 -29879675.063062191 0 -29879675.063062191 -282316586.24580765 0 0 0 0 -471127093.23348999 281685991.23951149 0 281685991.23951149 505754551.51666641 0 0 0 0 118464.22399038076 468729.14091871679 0 468729.14091871679 2389313.4556208332 0 0 0 0 -514768255.72746277 180164763.27065182 0 180164763.27065182 114513081.25978661 0 0 0 0 80139428.373382568 395374667.34498692 0 395374667.34498692 152331920.20998979 0 0 0 0 -16182555.969390869 29367387.584309578 0 29367387.584309578 -250713652.85176706 0 0 0 0 777765730.97579956 306451273.70682716 0 306451273.70682716 191700876.61393273 0 0 0 0 63481498.064056396 258423854.17922783 0 258423854.17922783 -313966417.78604507 0 0 0 0 829811.73467935808 382474.70879872143 0 382474.70879872143 -1234705.9556927728 0 0 0 0 -455305365.9536438 180980112.74715567 0 180980112.74715567 378457245.99527454 0 0 0 0 1013129230.7578888 236594812.30072021 0 236594812.30072021 -943312855.76125336 0 0 0 0 792653724.77471924 -541181911.4530983 0 -541181911.4530983 346739766.34771538 0 0 0 0 290472708.99105835 219213385.43635941 0 219213385.43635941 -60411789.188907623 0 0 0 0 342141134.27893066 -193745729.00125456 0 -193745729.00125456 -119891305.04593849 0 0 0 0 2715277.0347647686 1987040.0485858843 0 1987040.0485858843 -4065061.6297209971 0 0 0 0 -183906131.7151947 43101382.044196129 0 43101382.044196129 131385233.85467911 0 0 0 0 723897979.14105225 -67047253.712713242 0 -67047253.712713242 -89457772.154430389 0 0 0 0 1357585494.6069565 -316004284.04404926 0 -316004284.04404926 -134659569.04631996 0 0 0 0 1029712.1234764084 2884036.3756453469 0 2884036.3756453469 6569460.5083095934 0 0 0 0 -241029076.44535828 311032003.78578269 0 311032003.78578269 211883402.81808245 0 0 0 0 618792823.45620728 -175011086.3317585 0 -175011086.3317585 181385581.940485 0 0 0 0 653683671.27020264 14454918.9597435 0 14454918.9597435 50952937.65486908 0 0 0 0 614233008.04147339 -58394392.425356865 0 -58394392.425356865 -75362780.513549805 0 0 0 0 642826475.02825928 -2510108.0680656433 0 -2510108.0680656433 -83792447.920902491 0 0 0 0 661060018.43989944 -74884284.233928323 0 -74884284.233928323 -110161636.48691368 0 0 0 0 363130970.52587891 -89195036.641888618 0 -89195036.641888618 17277228.750923157 0 0 0 0 710131895.19636536 -79242712.147578239 0 -79242712.147578239 -110187760.14962387 0 0 0 0 608282546.57341766 -208962829.98726654 0 -208962829.98726654 57909861.036262512 0 0 0 0 2325404.8944474757 4037682.8916071653 0 4037682.8916071653 -596153.36613330804 0 0 0 0 -6102016.9000549316 -14120368.393645287 0 -14120368.393645287 -59935667.177009583 0 0 0 0 322771121.82154655 68192592.342566848 0 68192592.342566848 -39152523.484771729 0 0 0 0 282171318.31695557 -60235739.162856579 0 -60235739.162856579 -55979283.041736603 0 0 0 0 456055184.12680054 100186829.49790192 0 100186829.49790192 -35390054.480466366 0 0 0 0 2770760.2819541991 5709295.8015742972 0 5709295.8015742972 -588488.9625872313 0 0 0 0 6413384.7680358887 -520314.15721082687 0 -520314.15721082687 -3230848.132642746 0 0 0 0 2816516.5265350342 -5730567.1042199135 0 -5730567.1042199135 -4967882.5740954876 0 0 0 0 6322115.1092681885 4152102.175110817 0 4152102.175110817 2745739.0782766342 0 0 0 0 935923.68016052246 -823574.8830780983 0 -823574.8830780983 2126900.2606259584 0 0 0 0 -30091584.478988647 68547243.658823967 0 68547243.658823967 -77737659.136930466 0 0 0 0 24969294.274932861 2611342.8196105957 0 2611342.8196105957 -24329822.79229641 0 0 0 0 2858441.2165298164 3505298.9128242806 0 3505298.9128242806 -6143321.5207985658 0 0 0 0 252839358.33728027 -254806091.75684166 0 -254806091.75684166 267935055.67292595 0 0 0 0 204771162.53756714 57500912.816995621 0 57500912.816995621 -200504716.07562923 0 0 0 0 -11149377.480041504 -45016305.006255627 0 -45016305.006255627 -82381529.90437603 0 0 0 0 -34903255.243927002 -936835.97732686996 0 -936835.97732686996 -19042327.740469933 0 0 0 0 -87132346.670654297 -103888211.17194748 0 -103888211.17194748 -12222921.723492146 0 0 0 0 151385515.84192657 -146012050.26754999 0 -146012050.26754999 -25437924.040220261 0 0 0 0 -130723223.99819946 -97596158.672899246 0 -97596158.672899246 -11425991.770485878 0 0 0 0 667206.67094884813 -307812.47536691278 0 -307812.47536691278 -76524.735376095865 0 0 0 0 -36361181.984893799 301265988.82181931 0 301265988.82181931 189691702.4945488 0 0 0 0 101888909.29644775 176339867.17804146 0 176339867.17804146 50310990.802271843 0 0 0 0 18062327.150764465 18678219.767614841 0 18678219.767614841 128821960.41831589 0 0 0 0 199745929.73202515 199772002.68658733 0 199772002.68658733 -4909303.3718681335 0 0 0 0 2250210.0372001976 2252020.3273239806 0 2252020.3273239806 -6248040.8589962861 0 0 0 0 159176909.64645386 68674259.643467903 0 68674259.643467903 -69162576.15862608 0 0 0 0 -69003895.103937149 -24850813.897120714 0 -24850813.897120714 123105951.74027252 0 0 0 0 73838821.919555664 -28447612.112604141 0 -28447612.112604141 5081150.9313720465 0 0 0 0 84563875.860240936 11834073.159850597 0 11834073.159850597 22954766.198612213 0 0 0 0 894850115.04165649 163872299.17642784 0 163872299.17642784 -2138034.5828456879 0 0 0 0 1376524421.5067444 -17920387.337070465 0 -17920387.337070465 -349557395.59318542 0 0 0 0 997431299.9342804 165995572.87492752 0 165995572.87492752 -417078777.13420105 0 0 0 0 88201708.266937256 201666910.39024162 0 201666910.39024162 80954458.43391037 0 0 0 0 1042651784.6159821 -424288070.16194153 0 -424288070.16194153 -50720617.096926212 0 0 0 0 -20832557.849243164 138714111.54064941 0 138714111.54064941 51356563.634124756 0 0 0 0 1031903.2150205746 1314990.6816649809 0 1314990.6816649809 -220865.07410271652 0 0 0 0 14099461.447906494 -24721269.166423798 0 -24721269.166423798 -54581308.412542343 0 0 0 0 151384519.33303833 40705031.010751724 0 40705031.010751724 -32089480.587730408 0 0 0 0 -18343838.18661499 1316449.6288332939 0 1316449.6288332939 8158138.4456729889 0 0 0 0 956247946.79112053 266773435.0924353 0 266773435.0924353 -117723665.81733131 0 0 0 0 2900429.6961219385 6703027.9095433652 0 6703027.9095433652 9792249.2971591521 0 0 0 0 -444857570.26678467 40928498.849205971 0 40928498.849205971 320960680.10537338 0 0 0 0 277897082.32080078 -314650459.46833038 0 -314650459.46833038 280883943.84301758 0 0 0 0 827492310.05776978 701096535.23801804 0 701096535.23801804 -494849530.68946457 0 0 0 0 -1876229.7953322604 2495303.8771796525 0 2495303.8771796525 10844685.586952917 0 0 0 0 -5183676.856628418 14083625.599682808 0 14083625.599682808 7204719.2123985589 0 0 0 0 -20037669.915641785 16605569.409309149 0 16605569.409309149 20680427.302358627 0 0 0 0 -4617177.0412902832 3910857.4869570732 0 3910857.4869570732 13448200.863090754 0 0 0 0 34399039.259384155 26331415.309286118 0 26331415.309286118 16485558.272364616 0 0 0 0 36214271.260643959 50602728.737965956 0 50602728.737965956 26273104.000291824 0 0 0 0 5695544.1481794119 360422.30756750703 0 360422.30756750703 -5168614.6536928657 0 0 0 0 31537177.69720459 8156121.1898903847 0 8156121.1898903847 11277773.668521881 0 0 0 0 14114023.355426788 38101536.416495562 0 38101536.416495562 36137110.469691277 0 0 0 0 -16334493.655639648 15245110.112172127 0 15245110.112172127 16148922.462038994 0 0 0 0 -1571208.6716003418 7513742.8562045097 0 7513742.8562045097 16004694.253755763 0 0 0 0 -22867651.849433899 10812159.609047055 0 10812159.609047055 -793295.53949022293 0 0 0 0 -18760751.01940918 4204409.5894174576 0 4204409.5894174576 9693750.702154398 0 0 0 0 -1989008.2945137024 40986794.426161587 0 40986794.426161587 -20871815.068996429 0 0 0 0 43856905.71812439 29371164.809328854 0 29371164.809328854 -27451325.871464878 0 0 0 0 -71913711.946445465 -3994566.3751598597 0 -3994566.3751598597 -4594732.2110204697 0 0 0 0 -25936608.692825317 78858307.031570882 0 78858307.031570882 -45579405.915271997 0 0 0 0 52732860.194503784 -31818267.870676875 0 -31818267.870676875 -139801307.17267561 0 0 0 0 10904831.237609863 -42398445.863107204 0 -42398445.863107204 -59872264.38914156 0 0 0 0 25234964.498970032 51501208.110362291 0 51501208.110362291 14984925.71963501 0 0 0 0 -33565021.876190186 2148354.4420576096 0 2148354.4420576096 12472930.142252684 0 0 0 0 3697350.9170261249 3866365.6907621622 0 3866365.6907621622 -1058341.0078370087 0 0 0 0 710194.43674669415 7926057.0465813465 0 7926057.0465813465 16503226.858374517 0 0 0 0 109101233.90266418 197654695.79925346 0 197654695.79925346 55158102.989384651 0 0 0 0 717343646.65887451 -39186774.07302618 0 -39186774.07302618 -88448047.349653244 0 0 0 0 1556452.8196606189 5736576.0275277272 0 5736576.0275277272 11245894.648008473 0 0 0 0 -65084481.384368896 35549289.554079533 0 35549289.554079533 38812893.36431241 0 0 0 0 -69704753.529312134 59530143.460894108 0 59530143.460894108 -84704725.54740715 0 0 0 0 -9654283.6910095215 18647051.541527867 0 18647051.541527867 -175388014.09110451 0 0 0 0 -185240141.51428223 -6184538.9370512366 0 -6184538.9370512366 -138272651.50974873 0 0 0 0 24616373.502151489 82533463.216408134 0 82533463.216408134 -109337713.50895202 0 0 0 0 -8623344.7422790527 11630874.88239646 0 11630874.88239646 -137560853.28053188 0 0 0 0 37726686.499107361 -96095201.093696073 0 -96095201.093696073 -206949637.3075068 0 0 0 0 1883371.6777459942 -182651.30555213988 0 -182651.30555213988 -1467059.9803691602 0 0 0 0 176858566.0315094 76310055.768458366 0 76310055.768458366 -213936124.22392675 0 0 0 0 43667835.236633301 9030696.5231444836 0 9030696.5231444836 -219325463.70118952 0 0 0 0 309635322.82662964 -54947913.411253273 0 -54947913.411253273 -435181285.63359952 0 0 0 0 62004607.399475098 43102715.434411049 0 43102715.434411049 136691728.28652811 0 0 0 0 72506194.365875244 109196532.25650692 0 109196532.25650692 -41625790.328494072 0 0 0 0 55788571.622955322 13908360.756732702 0 13908360.756732702 28657149.257292747 0 0 0 0 1733647.0900520086 2136734.0280588446 0 2136734.0280588446 -812793.50882959215 0 0 0 0 -10006592.508850098 179545086.27459526 0 179545086.27459526 210621025.07214618 0 0 0 0 62976188.030426025 276628874.47753048 0 276628874.47753048 -133721205.90851116 0 0 0 0 30330670.465118408 210594616.42803478 0 210594616.42803478 147199616.65419674 0 0 0 0 -15376956.196502686 58565459.764448166 0 58565459.764448166 21778319.487576485 0 0 0 0 63978636.489624023 28083117.947292328 0 28083117.947292328 -55847920.519477844 0 0 0 0 64114520.641363621 32407675.527476415 0 32407675.527476415 20244623.970380783 0 0 0 0 -123241244.5372467 52801899.781310558 0 52801899.781310558 98006295.496871948 0 0 0 0 84428858.490343094 33693109.755894989 0 33693109.755894989 28538254.056489944 0 0 0 0 85835308.004348755 54218083.943122864 0 54218083.943122864 41488852.943599701 0 0 0 0 88400853.718688965 41938940.283874512 0 41938940.283874512 62407182.501993179 0 0 0 0 78572016.773544312 54597474.913176537 0 54597474.913176537 46665115.14010334 0 0 0 0 91841331.898849487 107530503.75418568 0 107530503.75418568 63986621.640752792 0 0 0 0 121618167.13372803 54551384.720874786 0 54551384.720874786 36264974.798622131 0 0 0 0 193784846.49642944 211794872.88691103 0 211794872.88691103 154687802.24922562 0 0 0 0 37348149.105697632 39935105.758478165 0 39935105.758478165 35657732.856203079 0 0 0 0 38359543.989392757 14729768.693823278 0 14729768.693823278 18804111.53837204 0 0 0 0 72462867.313766479 31167790.416966438 0 31167790.416966438 35344964.909778595 0 0 0 0 40543378.728424072 44513235.467633247 0 44513235.467633247 35417547.672269821 0 0 0 0 30736219.231750488 38771974.61567831 0 38771974.61567831 14454498.894156933 0 0 0 0 58567758.855529785 23445197.105041504 0 23445197.105041504 21328336.407049179 0 0 0 0 67512190.471817017 40996801.169829369 0 40996801.169829369 30809847.675011635 0 0 0 0 -11502996.146217346 13084353.454205036 0 13084353.454205036 31388961.572415352 0 0 0 0 56142395.375881195 4733669.6846747398 0 4733669.6846747398 -21011464.261196613 0 0 0 0 4519173.5164565891 3754490.1534362379 0 3754490.1534362379 -767714.97030975681 0 0 0 0 58066694.593589783 22012519.3211236 0 22012519.3211236 3829809.6309595108 0 0 0 0 72049782.58026123 2107325.2407032251 0 2107325.2407032251 -169300393.07566673 0 0 0 0 -368734848.39981079 -107831705.423527 0 -107831705.423527 122250045.29746854 0 0 0 0 -164917756.97369385 24164803.874599934 0 24164803.874599934 4277706.0022772551 0 0 0 0 -85473135.878639221 130592151.35468829 0 130592151.35468829 -133884080.5761708 0 0 0 0 37969790.948791504 8659998.0347530246 0 8659998.0347530246 -24162097.852861643 0 0 0 0 132530710.53518677 78454811.227782071 0 78454811.227782071 -122165602.73187971 0 0 0 0 37404461.928695679 -79981115.071703434 0 -79981115.071703434 -180094341.14088964 0 0 0 0 1421114.1774080023 1139725.4750395268 0 1139725.4750395268 -661529.99108094885 0 0 0 0 63164709.911483765 77975615.651133537 0 77975615.651133537 110642778.53959584 0 0 0 0 331945157.82661438 -48159232.196892224 0 -48159232.196892224 -113439388.82675953 0 0 0 0 19605482.423034668 -4461270.5354162455 0 -4461270.5354162455 -71780449.145172894 0 0 0 0 25590313.090118408 -1666853.604798317 0 -1666853.604798317 -12418365.709659815 0 0 0 0 3386764.6246525198 2932745.773486156 0 2932745.773486156 -892174.44031603751 0 0 0 0 -1159031.2311325073 66873562.583182573 0 66873562.583182573 40217730.263189316 0 0 0 0 4487456.5048217773 -5388868.1591701508 0 -5388868.1591701508 -5833867.1923055649 0 0 0 0 64944866.380996704 -9415832.1720762253 0 -9415832.1720762253 -34689228.344470978 0 0 0 0 41023430.286483765 9422232.61945647 0 9422232.61945647 -30881905.668253899 0 0 0 0 -14781236.430389404 27360288.605243683 0 27360288.605243683 -36642109.720527172 0 0 0 0 8551034.3847735226 6277206.3092581583 0 6277206.3092581583 -222508.70718353568 0 0 0 0 11827685.333526611 -4894500.5270318985 0 -4894500.5270318985 -6142919.1432266235 0 0 0 0 1389664.9473309247 201460.72532230243 0 201460.72532230243 -8192.5195626500063 0 0 0 0 19785278.482788086 -653269.35008811951 0 -653269.35008811951 -6202523.2024745941 0 0 0 0 6619472.6363201607 4072774.5900859348 0 4072774.5900859348 5222909.10243682 0 0 0 0 22766879.539154053 -18027240.32442899 0 -18027240.32442899 27784690.748697281 0 0 0 0 27484687.164733887 22011545.29636085 0 22011545.29636085 118403505.02907884 0 0 0 0 22639906.894546509 13601712.94009304 0 13601712.94009304 3517067.2774295807 0 0 0 0 -8017186.0718069077 4722198.4615267515 0 4722198.4615267515 19006484.982925415 0 0 0 0 3710299675.2341614 -1530884729.2809737 0 -1530884729.2809737 85162320.812634647 0 0 0 0 2643718784.8699951 -1697629751.8733525 0 -1697629751.8733525 541800096.17756414 0 0 0 0 3367894085.7058716 -1273485253.1293755 0 -1273485253.1293755 -104414927.89389059 0 0 0 0 3474741.0207570083 -184576.10648741573 0 -184576.10648741573 -1775205.2514614922 0 0 0 0 42537386.046379089 21166245.309484959 0 21166245.309484959 976013.21078705788 0 0 0 0 2492875813.2020874 -1311336713.5899277 0 -1311336713.5899277 201010581.6611318 0 0 0 0 52200358.603462219 -9768042.5954031944 0 -9768042.5954031944 -9711771.5193853378 0 0 0 0 17621547.28371276 72345.993460915983 0 72345.993460915983 80202.789696045686 0 0 0 0 23276104.411865234 1083940.081076622 0 1083940.081076622 -5908100.8574655056 0 0 0 0 -14107356.006591797 -298773.67092418671 0 -298773.67092418671 -1833812.1755204201 0 0 0 0 29112983.134765625 1416100.6186628342 0 1416100.6186628342 -9818134.4679069519 0 0 0 0 31861400.432617188 11195274.306232452 0 11195274.306232452 1340375.6784625053 0 0 0 0 9746454.1370239258 2498170.3126916885 0 2498170.3126916885 -944978.92064356804 0 0 0 0 6907659.1598715596 3301462.6959459372 0 3301462.6959459372 4231802.9286154173 0 0 0 0 1448121997.4758911 -1100573626.4760869 0 -1100573626.4760869 1713588804.6623516 0 0 0 0 2474437.3923492432 12579684.144729018 0 12579684.144729018 11318715.093894005 0 0 0 0 4719638107.8756027 -2852364325.8826752 0 -2852364325.8826752 622025723.10759759 0 0 0 0 2276788378.3833618 -2334191674.7717857 0 -2334191674.7717857 1056124770.0703348 0 0 0 0 3414830539.8330231 -2220083092.4496169 0 -2220083092.4496169 888344708.08756185 0 0 0 0 7683329.9893593751 -332611.37677425146 0 -332611.37677425146 -4017101.4216071954 0 0 0 0 1203059821.0727577 -2625149069.2603345 0 -2625149069.2603345 3731708058.8348594 0 0 0 0 7018560.8468242288 5316568.6687803715 0 5316568.6687803715 884095.4750933781 0 0 0 0 4710756504.1483154 801782.66209835 0 801782.66209835 -2794015.734368383 0 0 0 0 7937964.4680175781 59634339.541218877 0 59634339.541218877 1895934300.0298071 0 0 0 0 2949627.511588648 369538.05805563182 0 369538.05805563182 1521955.1416388599 0 0 0 0 1405114812.2904663 2259175499.895112 0 2259175499.895112 1775147180.8909752 0 0 0 0 4504307.4618894085 5835802.5652554017 0 5835802.5652554017 -862515.13962020108 0 0 0 0 15461983.565567017 19843616.776299238 0 19843616.776299238 12270354.140874535 0 0 0 0 38295913.046020508 7865391.7692861557 0 7865391.7692861557 -8314616.2075203657 0 0 0 0 35597300.818115234 14948630.793702126 0 14948630.793702126 -1892959.9071698189 0 0 0 0 4718762334.4626617 2206765380.0531988 0 2206765380.0531988 -60911445.838092692 0 0 0 0 4033212775.5778465 1382641099.1045837 0 1382641099.1045837 87093070.504474074 0 0 0 0 2894341.6923138052 -276817.34073428065 0 -276817.34073428065 -1914077.6871419437 0 0 0 0 70602001.927154541 5012898.0706255436 0 5012898.0706255436 -85512513.091705322 0 0 0 0 48266147.501636505 28747279.6250211 0 28747279.6250211 -115290467.02222395 0 0 0 0 5565304.9938659668 -8657123.9236013889 0 -8657123.9236013889 13851607.466940403 0 0 0 0 5548427.4281542748 -428277.33118940145 0 -428277.33118940145 -4031182.7803562977 0 0 0 0 61752821.102600098 59931985.594449997 0 59931985.594449997 7902410.3258115947 0 0 0 0 2825111849.2659016 585306786.98045325 0 585306786.98045325 -6320743.3177863359 0 0 0 0 477242690.14739919 -365413129.22874975 0 -365413129.22874975 38763304.381582856 0 0 0 0 487733030.50061035 176287762.66521674 0 176287762.66521674 50693631.238616802 0 0 0 0 2180419513.5858765 607206065.19105315 0 607206065.19105315 -6736586.4292844757 0 0 0 0 2653779630.790123 111641956.21019879 0 111641956.21019879 -77799841.126348078 0 0 0 0 2897546438.437788 738169453.8201251 0 738169453.8201251 -203194978.25991333 0 0 0 0 4158932443.9758949 938784891.11717176 0 938784891.11717176 -266388256.21538609 0 0 0 0 3622399110.8786469 846122531.47545469 0 846122531.47545469 -202188981.30967763 0 0 0 0 66440410.207893372 -907267170.08717489 0 -907267170.08717489 1340343359.4325981 0 0 0 0 3147044.4170908011 2116855.5252348483 0 2116855.5252348483 -676126.64139640494 0 0 0 0 3175604498.0046844 -1598935141.1909463 0 -1598935141.1909463 279818489.32276535 0 0 0 0 2929633158.328537 -2619860570.4478102 0 -2619860570.4478102 1551438305.1157141 0 0 0 0 386131173.55958557 -492715587.72944546 0 -492715587.72944546 1078074206.4612389 0 0 0 0 2024640355.6656799 -586374915.26600504 0 -586374915.26600504 -168053423.63547611 0 0 0 0 641842542.77942657 -952463895.89357877 0 -952463895.89357877 262140950.30444908 0 0 0 0 465179290.09103394 -820857018.52689362 0 -820857018.52689362 1573861183.3804853 0 0 0 0 1323136251.0702744 -1757226558.788415 0 -1757226558.788415 1793154190.3210173 0 0 0 0 1225464092.9275894 -1693489909.4412665 0 -1693489909.4412665 2030628495.4719849 0 0 0 0 1061127855.388916 -1891896017.8273277 0 -1891896017.8273277 2182872929.8370943 0 0 0 0 3116503590.9765549 -3511583221.4604011 0 -3511583221.4604011 3178164989.900526 0 0 0 0 4063472730.4451752 -2900847465.1206574 0 -2900847465.1206574 1445021485.0203841 0 0 0 0 4814118719.6771851 -3955671883.9406896 0 -3955671883.9406896 1751128594.0112934 0 0 0 0 4727559684.1075897 -2556239067.009891 0 -2556239067.009891 1543745290.2215111 0 0 0 0 6320781845.1565475 -1152096472.7343631 0 -1152096472.7343631 2761750415.9696331 0 0 0 0 4502284315.2057877 -2480686801.2189293 0 -2480686801.2189293 2015276403.4297013 0 0 0 0 4251599333.1569481 -3079856380.3425961 0 -3079856380.3425961 1012519465.7926693 0 0 0 0 3876833380.3202019 -2652719471.1380501 0 -2652719471.1380501 2439567731.6470752 0 0 0 0 5246231178.9283638 -2602716786.3542547 0 -2602716786.3542547 1328490779.0519438 0 0 0 0 3424938595.7387466 -3016288553.2143908 0 -3016288553.2143908 2440140402.6088643 0 0 0 0 4379993012.8055954 -2489556601.5813298 0 -2489556601.5813298 27255518.535142481 0 0 0 0 2497300722.882019 -684271115.06591606 0 -684271115.06591606 40235978.349111557 0 0 0 0 727611005.47139359 1225954578.5957463 0 1225954578.5957463 2473181534.1461105 0 0 0 0 2642093.911185794 549651.40072916355 0 549651.40072916355 7988499.6876772661 0 0 0 0 773491587.38252544 1404163362.0760064 0 1404163362.0760064 1006668608.5969238 0 0 0 0 307483502.37026978 595398015.11503983 0 595398015.11503983 642148422.62387657 0 0 0 0 713033316.89858246 303423637.40262985 0 303423637.40262985 -423841939.31397629 0 0 0 0 881724975.59053421 932376946.93973017 0 932376946.93973017 294026854.61671448 0 0 0 0 -211523494.20984364 1314463626.426795 0 1314463626.426795 2824895827.2745247 0 0 0 0 101005597.6785965 901161451.33960724 0 901161451.33960724 1170558531.1845131 0 0 0 0 405479605.4950943 718853968.85235596 0 718853968.85235596 585963823.05662537 0 0 0 0 -434944605.97317886 536385123.02768707 0 536385123.02768707 1640311510.1488924 0 0 0 0 -436696686.99901581 558250857.76036453 0 558250857.76036453 1582207470.713912 0 0 0 0 -171138345.33357811 232174723.1607132 0 232174723.1607132 603983714.03723145 0 0 0 0 -13590301.57636261 224425225.04258347 0 224425225.04258347 375005365.63194275 0 0 0 0 -25870661.984394073 468260472.89345932 0 468260472.89345932 979332974.77812576 0 0 0 0 122334153.15468407 195861031.60389137 0 195861031.60389137 347084880.88170624 0 0 0 0 15634486.562381744 -22512793.033718109 0 -22512793.033718109 125197434.54889297 0 0 0 0 -25008721.745594978 -64553118.451766968 0 -64553118.451766968 204966099.34497833 0 0 0 0 -19183169.448413849 128607072.78098679 0 128607072.78098679 626587059.60690212 0 0 0 0 -42527263.636146545 -46656616.671474636 0 -46656616.671474636 113767016.55929422 0 0 0 0 213906593.02108383 448632802.52496827 0 448632802.52496827 129631504.69181365 0 0 0 0 8617553.5699816421 31327.888779804111 0 31327.888779804111 19959919.019833047 0 0 0 0 -600527769.33191681 -167463342.23961258 0 -167463342.23961258 230206855.71553802 0 0 0 0 -19981429.773704529 -350302826.81655121 0 -350302826.81655121 -105027247.21274948 0 0 0 0 -146197011.63959503 -184113074.6700592 0 -184113074.6700592 -57088144.927078247 0 0 0 0 18395473.88148696 -2456011.8952123486 0 -2456011.8952123486 27257184.727412298 0 0 0 0 113219638.25834274 96973457.502753735 0 96973457.502753735 -44780797.379671097 0 0 0 0 -131049312.7530098 14318716.627422333 0 14318716.627422333 -59692111.884094238 0 0 0 0 -57076621.627677917 -172965507.31066895 0 -172965507.31066895 -101804354.81906319 0 0 0 0 -30704903.841481209 -71480196.398372173 0 -71480196.398372173 206760798.09426117 0 0 0 0 -130622766.73635864 -18947277.250167847 0 -18947277.250167847 177070432.44946289 0 0 0 0 -64846196.960800171 -199739900.99581146 0 -199739900.99581146 31495695.584571838 0 0 0 0 51908495.023071356 -7158444.491945684 0 -7158444.491945684 11504511.586611604 0 0 0 0 85911273.611633301 57062747.198631287 0 57062747.198631287 -42514070.871906281 0 0 0 0 33888448.126431465 -136883550.08635902 0 -136883550.08635902 -239448572.58740997 0 0 0 0 27094719.398082733 16337251.490346789 0 16337251.490346789 33274428.554661751 0 0 0 0 12837856.978484202 6292013.6608288595 0 6292013.6608288595 9064613.1024897248 0 0 0 0 14163510.490509272 5934274.470804112 0 5934274.470804112 12280681.293720666 0 0 0 0 13052694.200164795 -87999556.345489502 0 -87999556.345489502 -40488042.869171143 0 0 0 0 29559372.997946039 -4436573.9805344846 0 -4436573.9805344846 17235580.970607586 0 0 0 0 3756601.6113891602 717799.52126693726 0 717799.52126693726 -3066965.2246704102 0 0 0 0 25789089.089710668 93803.259110126644 0 93803.259110126644 1428152.4234179016 0 0 0 0 21683793.152487114 6448240.9879222596 0 6448240.9879222596 13135536.805513101 0 0 0 0 -925940.66116333008 -1000016.2142715454 0 -1000016.2142715454 6246602.1855621338 0 0 0 0 19442184.461302422 1157896.5492183771 0 1157896.5492183771 20874469.750812914 0 0 0 0 -753371.02054023743 -2996939.100871563 0 -2996939.100871563 5419956.3941383362 0 0 0 0 674038222.91786194 362677687.64454597 0 362677687.64454597 -17072417.340034902 0 0 0 0 9706974.8306186572 3870080.207353225 0 3870080.207353225 17721818.545500565 0 0 0 0 139451960.86169434 38114678.743922174 0 38114678.743922174 -52144529.868327051 0 0 0 0 -80748017.782659531 57623301.180843398 0 57623301.180843398 43698522.15747714 0 0 0 0 10123976.393467827 7051083.3992319107 0 7051083.3992319107 -2957767.4468402313 0 0 0 0 11522177.510133661 -677128.65756378882 0 -677128.65756378882 7093929.6059620483 0 0 0 0 -175370976.81077194 354518982.65604496 0 354518982.65604496 -524949903.06274414 0 0 0 0 80860988.858474731 -110673009.4799712 0 -110673009.4799712 32769028.535648569 0 0 0 0 11888278.011327744 -16974985.007887542 0 -16974985.007887542 496142143.97433978 0 0 0 0 -270193431.77745438 238746296.04696226 0 238746296.04696226 1389480703.3799305 0 0 0 0 318827010.9777298 791364819.73946238 0 791364819.73946238 -162432859.18395615 0 0 0 0 4719937996.722805 -1340768192.5054224 0 -1340768192.5054224 -319142005.08833164 0 0 0 0 5038123696.558403 -2479810399.7896852 0 -2479810399.7896852 3120551132.801743 0 0 0 0 5059910848.9066086 51818514.064826965 0 51818514.064826965 -242631299.42755514 0 0 0 0 3845956.7533586733 -871912.26861770172 0 -871912.26861770172 3204355.6168107623 0 0 0 0 637600414.05817413 -1512422580.1658001 0 -1512422580.1658001 3032717132.5572114 0 0 0 0 4117591.8215695843 2673766.4742030976 0 2673766.4742030976 14999877.605222164 0 0 0 0 3527786083.563385 -2184140575.2983136 0 -2184140575.2983136 846742705.14102173 0 0 0 0 364382404.08044052 307459529.82799959 0 307459529.82799959 241683267.26118869 0 0 0 0 1513331231.2626724 2548283604.0769706 0 2548283604.0769706 2741436949.3093305 0 0 0 0 4717045047.7155838 2045328230.7995446 0 2045328230.7995446 -209263141.35444221 0 0 0 0 80335226.182243347 127028627.21024755 0 127028627.21024755 420665696.0159117 0 0 0 0 635254208.72602844 270237752.42898118 0 270237752.42898118 366982203.39172435 0 0 0 0 1105696791.4022522 955525891.99865091 0 955525891.99865091 749995267.20287049 0 0 0 0 952692818.95572948 -30746820.187892132 0 -30746820.187892132 -170640899.31742287 0 0 0 0 2818821467.8146439 878602333.40975475 0 878602333.40975475 -326051244.91674161 0 0 0 0 1411067625.7639236 630520411.41881824 0 630520411.41881824 -150825659.53802073 0 0 0 0 1647555182.7061195 323402437.01642025 0 323402437.01642025 -311535634.0991888 0 0 0 0 4725355200.1996613 805018570.78726137 0 805018570.78726137 -1019337348.6190403 0 0 0 0 2809033195.3744965 1113392354.8824902 0 1113392354.8824902 -612235612.46354568 0 0 0 0 2961978845.4265594 -120687436.48133942 0 -120687436.48133942 -950654765.64016533 0 0 0 0 1830486127.0335312 -281970539.64325011 0 -281970539.64325011 -303782100.05013847 0 0 0 0 2769278527.225647 517254373.98889482 0 517254373.98889482 -430266752.95251584 0 0 0 0 2687793748.468483 -1322279358.3826928 0 -1322279358.3826928 194565293.97524017 0 0 0 0 1270603174.536972 66460191.010772049 0 66460191.010772049 10204517.700378895 0 0 0 0 4723721333.026535 -514491339.68688262 0 -514491339.68688262 -923514632.85143566 0 0 0 0 2795939767.6894684 -1085600211.2904899 0 -1085600211.2904899 -124578517.88952211 0 0 0 0 20754839.888137817 11218158.388361931 0 11218158.388361931 24112763.488140106 0 0 0 0 49072149.624229431 41234104.843254566 0 41234104.843254566 25449400.172813416 0 0 0 0 5296051.8289776994 4429533.4626061097 0 4429533.4626061097 11393310.389407104 0 0 0 0 2691696.2823181152 12839692.579199791 0 12839692.579199791 26491853.891353607 0 0 0 0 754429473.45095062 -380852969.38544947 0 -380852969.38544947 134673793.52580166 0 0 0 0 28604877.276275635 12857920.236858368 0 12857920.236858368 7475749.0143699646 0 0 0 0 57734956.660461426 40916943.418167114 0 40916943.418167114 21074125.497444153 0 0 0 0 59997323.085456848 42776504.640812874 0 42776504.640812874 16260853.381286621 0 0 0 0 97583062.288818359 69437549.740631104 0 69437549.740631104 34168411.087574005 0 0 0 0 9221270.4465713501 553143.31346130371 0 553143.31346130371 29231840.380279541 0 0 0 0 614556726.35137177 161388783.89226061 0 161388783.89226061 233556533.17863655 0 0 0 0 6837151.1418372504 4118659.222824201 0 4118659.222824201 16304340.886724353 0 0 0 0 128675787.41539383 -22569358.786857128 0 -22569358.786857128 1156708.583190918 0 0 0 0 64580684.645675659 28907810.652227402 0 28907810.652227402 14009732.316518486 0 0 0 0 7631669.1578249745 2764799.5742340237 0 2764799.5742340237 811881.39334570989 0 0 0 0 37967510.863037109 57263718.056484222 0 57263718.056484222 48065093.379074097 0 0 0 0 95442036.712608337 19144380.037399292 0 19144380.037399292 -1968268.8637795448 0 0 0 0 11747389.097759042 4320680.1241494678 0 4320680.1241494678 19475738.965500478 0 0 0 0 19185959.882467709 10979788.401659068 0 10979788.401659068 -2718162.6182624735 0 0 0 0 65707305.48269558 20624937.64034009 0 20624937.64034009 21965773.36989212 0 0 0 0 51316142.58984375 47584229.188220978 0 47584229.188220978 57697604.385299683 0 0 0 0 5827091.7179670632 3307578.6912476718 0 3307578.6912476718 -920326.48515482806 0 0 0 0 -5468248.9492034912 14761711.480239868 0 14761711.480239868 31412335.988066196 0 0 0 0 130367460.1683197 151926240.82307243 0 151926240.82307243 51655633.034833908 0 0 0 0 86554363.426025391 18610440.948224545 0 18610440.948224545 -1568657.7577590942 0 0 0 0 41760369.363265991 76130713.66053772 0 76130713.66053772 -48173987.006954193 0 0 0 0 64633635.770126343 104676047.41703415 0 104676047.41703415 57300970.249828339 0 0 0 0 44782151.724193573 28786679.746529102 0 28786679.746529102 25052714.924259186 0 0 0 0 59461292.097837448 46484252.781456947 0 46484252.781456947 26159385.083507538 0 0 0 0 89596748.65284729 61083129.639352798 0 61083129.639352798 28494181.990501404 0 0 0 0 51586448.234451294 36618107.350416183 0 36618107.350416183 33908677.699515581 0 0 0 0 93033373.694922447 90947544.886184573 0 90947544.886184573 59087276.854034424 0 0 0 0 70081528.455856323 60455173.576969147 0 60455173.576969147 52978232.386318684 0 0 0 0 57922839.233039856 57217617.842342854 0 57217617.842342854 67991523.247959137 0 0 0 0 78720289.004798889 61275446.102602005 0 61275446.102602005 41428243.226699829 0 0 0 0 49592329.974685669 32523308.599223852 0 32523308.599223852 31640982.367328644 0 0 0 0 74445804.611831665 60542383.95973587 0 60542383.95973587 40649884.909275055 0 0 0 0 191951968.8952179 76734572.511920929 0 76734572.511920929 60860503.529006958 0 0 0 0 141177062.95883179 62502005.529015541 0 62502005.529015541 65228234.428672791 0 0 0 0 294138065.30825806 142572518.97519112 0 142572518.97519112 60908401.395661831 0 0 0 0 138454826.6824646 68215880.68769455 0 68215880.68769455 54081523.277345657 0 0 0 0 78717850.592694312 60555551.045147084 0 60555551.045147084 86827027.560695648 0 0 0 0 103491609.60031128 84819930.926649094 0 84819930.926649094 72491301.323883057 0 0 0 0 129364533.72688293 35315252.209131241 0 35315252.209131241 80102931.199356079 0 0 0 0 315380750.57437134 54036464.200717926 0 54036464.200717926 61263237.756534576 0 0 0 0 246892113.38204193 19103596.54526329 0 19103596.54526329 85732599.791538239 0 0 0 0 135881809.26211548 -7646503.1525745392 0 -7646503.1525745392 88376339.204055786 0 0 0 0 253254217.15713501 10869929.397716522 0 10869929.397716522 21141517.779453278 0 0 0 0 122647996.91053772 72393182.675149918 0 72393182.675149918 34065211.109329224 0 0 0 0 61481067.357879639 51426511.715230942 0 51426511.715230942 45948804.476543427 0 0 0 0 47438424.731826782 -5329911.724111557 0 -5329911.724111557 -124569074.53027534 0 0 0 0 83818556.287414551 109852811.71114731 0 109852811.71114731 -11893910.902791977 0 0 0 0 120102171.80989075 3575452.6832742691 0 3575452.6832742691 -94920331.465789795 0 0 0 0 18417070.668319702 55471509.956678391 0 55471509.956678391 -101962923.88714981 0 0 0 0 -89741443.624076843 190308812.36795998 0 190308812.36795998 -219486561.02267456 0 0 0 0 423450617.55690002 408908122.60184479 0 408908122.60184479 112917568.89388275 0 0 0 0 254484657.40406418 137326459.68618011 0 137326459.68618011 -215024245.36395264 0 0 0 0 662117445.6155262 -102655488.36846924 0 -102655488.36846924 -296161501.68504238 0 0 0 0 -78407821.518965721 105284797.4028511 0 105284797.4028511 -279444343.23217773 0 0 0 0 322351190.05807471 -200210635.94676185 0 -200210635.94676185 129264356.18544769 0 0 0 0 447660907.87216568 16686284.604005814 0 16686284.604005814 -1056939175.0657921 0 0 0 0 79714207.815600663 -3991739.7660851814 0 -3991739.7660851814 -1333323.3647288668 0 0 0 0 126080697.65037537 56580718.073831558 0 56580718.073831558 -272438958.79446411 0 0 0 0 66571333.270235017 -5312709.9138001893 0 -5312709.9138001893 3739121.1352563649 0 0 0 0 111782995.82102776 -452409774.68284607 0 -452409774.68284607 -258988121.24173737 0 0 0 0 129256868.97802734 27418200.15130806 0 27418200.15130806 -178415916.57381439 0 0 0 0 262377268.83146715 -93934318.196285248 0 -93934318.196285248 -817210218.81292772 0 0 0 0 -61773456.202611923 -206691838.89715576 0 -206691838.89715576 -66205892.429138184 0 0 0 0 89490124.124340057 -203729011.97262192 0 -203729011.97262192 -66260848.060169518 0 0 0 0 -75764111.870888472 -352414323.25945091 0 -352414323.25945091 440330768.27726364 0 0 0 0 199551725.70680094 -220908743.70481873 0 -220908743.70481873 -172922319.13792992 0 0 0 0 82263905.416639328 -397485097.31306076 0 -397485097.31306076 384302292.65872955 0 0 0 0 374772740.07053947 -480211945.65134811 0 -480211945.65134811 380342501.22209167 0 0 0 0 -160050751.95478749 -470711302.56449986 0 -470711302.56449986 1226871068.0473633 0 0 0 0 -150171472.98296976 -390410179.92691445 0 -390410179.92691445 1033308988.1406708 0 0 0 0 193105942.62050629 -706374852.88076401 0 -706374852.88076401 1176030215.0238953 0 0 0 0 -121407704.41877937 -133164313.62027359 0 -133164313.62027359 524023217.41039371 0 0 0 0 -131610608.08421087 -80983076.621824265 0 -80983076.621824265 809385723.99716949 0 0 0 0 -529262622.52127874 -195795924.24960327 0 -195795924.24960327 1237358054.9652293 0 0 0 0 -208357379.88175607 277071501.55720758 0 277071501.55720758 1080041379.8612366 0 0 0 0 -850500184.30087662 472523699.48860502 0 472523699.48860502 2110380465.4538155 0 0 0 0 -571612302.02957153 142451071.29033661 0 142451071.29033661 1300469473.8622742 0 0 0 0 -549392144.71141648 31537266.34587431 0 31537266.34587431 1848156559.6184387 0 0 0 0 -1133961316.800159 134291566.64255524 0 134291566.64255524 1837071774.1776686 0 0 0 0 -735479057.05227184 -263887997.97516632 0 -263887997.97516632 1943237745.6213589 0 0 0 0 -370855688.74899685 -584945177.11818123 0 -584945177.11818123 2088605404.6692734 0 0 0 0 -906864466.42614627 -232539343.63784981 0 -232539343.63784981 2178258614.5650711 0 0 0 0 -706229980.54911256 -604655922.37261796 0 -604655922.37261796 2953016087.0671234 0 0 0 0 2760805683.8630257 -213196828.12228203 0 -213196828.12228203 331028367.15211868 0 0 0 0 -102912224.63180923 -1228042985.0676098 0 -1228042985.0676098 3596628470.9002686 0 0 0 0 1431769488.846611 -2089558832.0978584 0 -2089558832.0978584 2583522656.3313904 0 0 0 0 885112805.5982933 -1327280923.8600273 0 -1327280923.8600273 1549922071.9251518 0 0 0 0 436040764.39523125 615468329.59756088 0 615468329.59756088 659341677.10330391 0 0 0 0 1294675421.2619095 -2219704411.5712624 0 -2219704411.5712624 -514423854.535532 0 0 0 0 559207995.78829575 200256356.18902016 0 200256356.18902016 483991070.32045746 0 0 0 0 586616717.16517258 108209002.83437729 0 108209002.83437729 175735465.15872192 0 0 0 0 1358687243.0084457 -49810087.201301575 0 -49810087.201301575 122907827.54926872 0 0 0 0 662982486.40691566 -876585532.53320122 0 -876585532.53320122 914213724.75824738 0 0 0 0 185600974.35707092 -678218983.93034887 0 -678218983.93034887 1162732851.6564026 0 0 0 0 -139191856.34524155 69786840.610023499 0 69786840.610023499 106477971.42012787 0 0 0 0 -59686558.149978638 72885878.851848602 0 72885878.851848602 26265073.287940979 0 0 0 0 107947646.42748451 469387106.90465355 0 469387106.90465355 535021915.59888077 0 0 0 0 -258646137.6235466 136374301.07196808 0 136374301.07196808 232606799.26974249 0 0 0 0 -206804473.46178055 -254894305.26864052 0 -254894305.26864052 -174506654.78902054 0 0 0 0 4143485.1101317666 -4991306.8738839123 0 -4991306.8738839123 1644550.7430067407 0 0 0 0 -558615219.88609695 -99778558.955991745 0 -99778558.955991745 567893102.58810389 0 0 0 0 -69305933.978843689 -14808525.214233398 0 -14808525.214233398 130333520.92783737 0 0 0 0 6534165.3941387385 1210523.1574590933 0 1210523.1574590933 -745187.13734032633 0 0 0 0 -62364420.683143616 -8520440.372010231 0 -8520440.372010231 4419757.1061782837 0 0 0 0 718781969.32162476 153729614.97391701 0 153729614.97391701 -827376686.54784298 0 0 0 0 183689301.32125854 88108745.263427734 0 88108745.263427734 54863113.631942749 0 0 0 0 602098880.98846436 -99028317.693569183 0 -99028317.693569183 -546301516.58703613 0 0 0 0 -136410746.99636078 -205192138.16251373 0 -205192138.16251373 -211587751.69789124 0 0 0 0 3098949.7532822853 -536178.02900532447 0 -536178.02900532447 -1034777.8222871982 0 0 0 0 769451962.42596436 -675817132.5838356 0 -675817132.5838356 -618744068.6750412 0 0 0 0 -2027730.8797520064 -5564781.0163437985 0 -5564781.0163437985 1873729.571758097 0 0 0 0 361554771.56643772 -1006708893.5978565 0 -1006708893.5978565 585888733.69906235 0 0 0 0 -304811582.41027069 25099.007780075073 0 25099.007780075073 667581500.06539536 0 0 0 0 35859257.888601586 -5894352.5768419374 0 -5894352.5768419374 -1239272.0609470122 0 0 0 0 1329063734.2198753 2003849231.0104666 0 2003849231.0104666 2228070074.561142 0 0 0 0 880313592.00087738 930033654.70620346 0 930033654.70620346 153218535.87387085 0 0 0 0 -6942320.5994186401 27240261.734306335 0 27240261.734306335 27213699.041969299 0 0 0 0 9319013.7726325989 35024362.581394196 0 35024362.581394196 11591540.321105957 0 0 0 0 -5738463.1036872864 47779090.886011124 0 47779090.886011124 7829114.9459228516 0 0 0 0 -35751518.859535217 35530497.592453003 0 35530497.592453003 25002048.036781311 0 0 0 0 64203974.871016614 -12337542.880349763 0 -12337542.880349763 -10594612.348982014 0 0 0 0 -17779174.182182312 60905437.072883606 0 60905437.072883606 3247576.2090053558 0 0 0 0 84513756.796947479 46061428.963794708 0 46061428.963794708 -75413891.170063019 0 0 0 0 -458872443.11479187 -412185904.37535477 0 -412185904.37535477 -213287885.85866165 0 0 0 0 864495457.21725655 384492123.65715504 0 384492123.65715504 -376333440.94583893 0 0 0 0 2019810565.7683563 907420366.19254303 0 907420366.19254303 -768667969.18648529 0 0 0 0 780676556.95251465 73424728.967529297 0 73424728.967529297 -1024903160.2787285 0 0 0 0 368634517.60107422 -1103012966.9982948 0 -1103012966.9982948 -1153337049.1837997 0 0 0 0 2641106328.3354034 -503383619.17942429 0 -503383619.17942429 -2117508106.8528824 0 0 0 0 366086429.91319275 136469464.30267334 0 136469464.30267334 -442391650.26740265 0 0 0 0 567752108.2686615 13156140.947647095 0 13156140.947647095 -471042743.27943039 0 0 0 0 593075040.5678978 -37403931.601789474 0 -37403931.601789474 -593398592.54098511 0 0 0 0 20144249.722222753 -4735530.6304848632 0 -4735530.6304848632 -10533550.018981431 0 0 0 0 162080724.76667786 -89239035.130096436 0 -89239035.130096436 -404529070.79639435 0 0 0 0 50970809.785087585 2180891.72438097 0 2180891.72438097 13305349.143115997 0 0 0 0 63135892.703486733 -9713498.6535188183 0 -9713498.6535188183 -6849717.0903420541 0 0 0 0 74033956.187759399 1125509.6024873839 0 1125509.6024873839 -14693436.570331303 0 0 0 0 35550487.863891602 -2138410.7063417435 0 -2138410.7063417435 -14401135.894865721 0 0 0 0 100937661.52017415 -649077.31620330736 0 -649077.31620330736 -14439994.525121221 0 0 0 0 112759090.19256592 -44667094.962215424 0 -44667094.962215424 -163731706.83771729 0 0 0 0 49208937.671714783 100939546.40442848 0 100939546.40442848 -154135963.50749207 0 0 0 0 91972347.108031154 -23002238.295458514 0 -23002238.295458514 -16623427.827717265 0 0 0 0 -21841295.768796921 119341182.50455284 0 119341182.50455284 -46210034.006626129 0 0 0 0 -12761106.230224609 80096256.090015411 0 80096256.090015411 26358345.548080385 0 0 0 0 12265924.351585388 398463810.40452957 0 398463810.40452957 185819180.83677721 0 0 0 0 -18207793.22281003 149867768.27736521 0 149867768.27736521 -166817211.56254578 0 0 0 0 90946793.753780484 -2781179.6784020495 0 -2781179.6784020495 -6397019.22355993 0 0 0 0 184783822.58491516 -34144567.40599823 0 -34144567.40599823 -323190767.58000314 0 0 0 0 203724529.82957077 256666056.67702103 0 256666056.67702103 -599383286.11712313 0 0 0 0 127146133.33769226 45757152.463102341 0 45757152.463102341 -155878530.74628448 0 0 0 0 215254254.03109741 -97927691.464004517 0 -97927691.464004517 -78914180.914459229 0 0 0 0 97549860.312408447 -132995685.22080803 0 -132995685.22080803 -57623745.243469238 0 0 0 0 77742510.806976318 -121548118.09296417 0 -121548118.09296417 -27496811.993484497 0 0 0 0 93389245.421844482 -91673977.0539608 0 -91673977.0539608 -1520353.5869102478 0 0 0 0 17940451.075744629 -73971928.012641907 0 -73971928.012641907 177885777.50297546 0 0 0 0 192552054.72665405 -199139955.64081383 0 -199139955.64081383 77800329.121620178 0 0 0 0 523384.6934999451 -935525.10215990245 0 -935525.10215990245 -974858.02817224711 0 0 0 0 104936207.7336731 7261798.299823761 0 7261798.299823761 -19883857.280184269 0 0 0 0 17379858.648924351 -8751041.508557342 0 -8751041.508557342 -7981780.9177972665 0 0 0 0 269046147.17678833 -2384066.8784713745 0 -2384066.8784713745 27892319.849887848 0 0 0 0 450701910.74371338 -173088682.65815544 0 -173088682.65815544 62634280.788146973 0 0 0 0 357702689.08581543 -194680426.37014771 0 -194680426.37014771 165658667.66259003 0 0 0 0 248407831.36839294 10696688.48154068 0 10696688.48154068 32229582.588180542 0 0 0 0 505752003.69650269 -100584330.83011436 0 -100584330.83011436 72864052.275939941 0 0 0 0 7777575.1703186035 83488714.593717575 0 83488714.593717575 -68746693.735363007 0 0 0 0 484781904.0358696 -191175078.71848345 0 -191175078.71848345 59620911.580406189 0 0 0 0 1276188.3124047667 321527.72109483555 0 321527.72109483555 -1314538.9126448333 0 0 0 0 167605194.43981934 14318858.421053648 0 14318858.421053648 -25568639.1485309 0 0 0 0 6704887.2893284038 5035505.761737898 0 5035505.761737898 -15886707.120265121 0 0 0 0 -25961775.937387466 -111917371.99990427 0 -111917371.99990427 -107931637.383255 0 0 0 0 202907237.50552368 -54408814.298999786 0 -54408814.298999786 -225004494.11177254 0 0 0 0 49586864.137702942 90691313.593604565 0 90691313.593604565 -135290528.20976639 0 0 0 0 308746104.03232574 155701707.46597052 0 155701707.46597052 -113270845.03011322 0 0 0 0 460548297.66493225 37708151.966341972 0 37708151.966341972 -72785996.486700058 0 0 0 0 335434774.73205566 170780445.72262192 0 170780445.72262192 -132925728.08799362 0 0 0 0 191759050.13887787 30208243.057613641 0 30208243.057613641 -115288636.65004659 0 0 0 0 1053400.3455505371 162551297.12476158 0 162551297.12476158 -123607767.02566528 0 0 0 0 137510605.03799438 -57969991.584839582 0 -57969991.584839582 -22724036.204969406 0 0 0 0 7629995.9719705377 -1324734.5333697498 0 -1324734.5333697498 -700534.80419995356 0 0 0 0 84480540.443748474 97661959.437475562 0 97661959.437475562 -333959412.03338766 0 0 0 0 1840166.8253728151 4648057.9004336968 0 4648057.9004336968 -9324319.7640707586 0 0 0 0 11762516.841028214 255984138.88007715 0 255984138.88007715 -265565614.1333437 0 0 0 0 -22225142.855834961 366257781.58688736 0 366257781.58688736 -485544962.37282181 0 0 0 0 -217841723.01771545 212637582.58726197 0 212637582.58726197 -53145949.715562522 0 0 0 0 97087355.463775635 -9810307.0022894144 0 -9810307.0022894144 193815975.63431048 0 0 0 0 165316485.96031761 -25678790.278285235 0 -25678790.278285235 -28183139.468310356 0 0 0 0 23678854.216690063 90146445.80244562 0 90146445.80244562 -93357921.613214135 0 0 0 0 -37734059.84173584 45883696.952776387 0 45883696.952776387 -40575846.026107766 0 0 0 0 31996113.840187073 43661051.123455822 0 43661051.123455822 -58539253.210611105 0 0 0 0 39707455.862762451 29170735.164366841 0 29170735.164366841 -44953494.123372629 0 0 0 0 53169021.942169189 32304010.769310951 0 32304010.769310951 -61266017.525270462 0 0 0 0 27483595.812938288 -7800004.3538779989 0 -7800004.3538779989 -1367036.8071253933 0 0 0 0 100385769.37890625 -51782296.928041816 0 -51782296.928041816 -332078.67684698105 0 0 0 0 97985009.75412178 -40500546.76971972 0 -40500546.76971972 -28945385.364888191 0 0 0 0 96483272.142578125 -99196296.990791321 0 -99196296.990791321 13698211.270095825 0 0 0 0 33128484.88000004 -14445350.381179929 0 -14445350.381179929 -17571639.885077648 0 0 0 0 109910208.01005554 -105004907.131217 0 -105004907.131217 -46600861.022041321 0 0 0 0 42971378.148277283 -75172708.888486862 0 -75172708.888486862 6768934.7144927979 0 0 0 0 -2133219.9740507454 -3760572.0677930368 0 -3760572.0677930368 604465.29795027804 0 0 0 0 35310815.210700989 84383655.12916702 0 84383655.12916702 -6962615.0195200443 0 0 0 0 44906872.333679199 38013068.346757174 0 38013068.346757174 -62818483.14562273 0 0 0 0 24575896.381697044 14664032.154396916 0 14664032.154396916 -14105646.683004379 0 0 0 0 94397579.649108887 3962326.0672948062 0 3962326.0672948062 -165661210.50935817 0 0 0 0 63040647.232978821 65842037.081108868 0 65842037.081108868 -78674602.907418966 0 0 0 0 20166130.548492432 158114612.98474264 0 158114612.98474264 133033050.27496123 0 0 0 0 147754728.97409821 -4688854.207865715 0 -4688854.207865715 -159657133.98245382 0 0 0 0 10831180.95607236 2585381.0329775959 0 2585381.0329775959 -3970091.4394850032 0 0 0 0 -8990341.1513214111 -34257627.405639619 0 -34257627.405639619 -65222929.059870332 0 0 0 0 160037822.44129944 -165802940.50987813 0 -165802940.50987813 -162786272.33223569 0 0 0 0 92157643.205291748 -183421232.24063739 0 -183421232.24063739 -141894162.35410166 0 0 0 0 -232562.68963581324 265533.07654902339 0 265533.07654902339 372033.75502923946 0 0 0 0 337794402.0663147 209211501.16247982 0 209211501.16247982 69157806.048123866 0 0 0 0 317242447.48750305 118630159.1659615 0 118630159.1659615 -66494548.682724178 0 0 0 0 265803591.79628754 2032282.0942750871 0 2032282.0942750871 -252308306.98014331 0 0 0 0 505243469.76075745 -26004849.999005735 0 -26004849.999005735 -250780769.9774648 0 0 0 0 125489988.58859253 -26048077.854171634 0 -26048077.854171634 -178426125.60717192 0 0 0 0 110586484.31307983 -115766045.16906792 0 -115766045.16906792 -148793304.2552104 0 0 0 0 264495865.67208862 -28956273.465171576 0 -28956273.465171576 -128036179.65329862 0 0 0 0 289568949.33747864 -115282209.84184101 0 -115282209.84184101 -198243288.72134793 0 0 0 0 255342398.45709229 -87370725.647278801 0 -87370725.647278801 -153117380.60344511 0 0 0 0 -2485141.6315307617 176893913.854159 0 176893913.854159 -114082468.78555173 0 0 0 0 827267016.06292725 -221473179.46356308 0 -221473179.46356308 -178538159.22883457 0 0 0 0 736897081.78252029 357908866.17214668 0 357908866.17214668 -80580427.660002306 0 0 0 0 802941862.03733444 -694451959.96925795 0 -694451959.96925795 -562501183.84353948 0 0 0 0 997375990.52093506 174066318.30910742 0 174066318.30910742 -48507225.068560123 0 0 0 0 3346360.5738631338 466834.45452205837 0 466834.45452205837 -920366.27186811517 0 0 0 0 193704606.00352478 -258145441.48530209 0 -258145441.48530209 24526379.876650691 0 0 0 0 323301825.32077026 599404275.61724591 0 599404275.61724591 696612986.21373796 0 0 0 0 32280165.484680176 147982019.86699677 0 147982019.86699677 431735527.40471673 0 0 0 0 269655190.61679077 283447016.98306584 0 283447016.98306584 -178848095.98231602 0 0 0 0 -41190060.3800354 -3562711.1819391251 0 -3562711.1819391251 -302216976.24304914 0 0 0 0 -106439734.94219208 -830688796.37230587 0 -830688796.37230587 -215513842.16509467 0 0 0 0 22168912.070719317 7705152.6750822887 0 7705152.6750822887 -6611680.8248041058 0 0 0 0 -373044162.72140503 -96092088.507496834 0 -96092088.507496834 -107120835.22047806 0 0 0 0 20632143.601953417 5828568.2095514536 0 5828568.2095514536 -7225273.6326697432 0 0 0 0 72318278.314178467 -294549728.46437263 0 -294549728.46437263 -237959788.40345883 0 0 0 0 82034684.407717705 -14366480.144226894 0 -14366480.144226894 -178722.70207729339 0 0 0 0 58846132.984970212 -87101234.721639633 0 -87101234.721639633 244354931.06633186 0 0 0 0 73131057.228744507 -10724998.165025711 0 -10724998.165025711 -145963730.71176875 0 0 0 0 -50450160.817321777 122816240.16387033 0 122816240.16387033 -948406544.90234756 0 0 0 0 66786623.25080049 36331667.974404283 0 36331667.974404283 -35393323.365058802 0 0 0 0 120212329.64512634 38352485.909612656 0 38352485.909612656 489734992.58971405 0 0 0 0 132819396.25072765 77800547.863592148 0 77800547.863592148 -131721686.43509674 0 0 0 0 18227179.797683954 -4965678.2383651733 0 -4965678.2383651733 182777161.86610985 0 0 0 0 -39458946.565383911 144842175.7639389 0 144842175.7639389 -108941486.15032053 0 0 0 0 139047230.13758087 -60158416.450050354 0 -60158416.450050354 107638846.20935059 0 0 0 0 95366758.771007538 135239138.33702087 0 135239138.33702087 35113985.475730896 0 0 0 0 126909675.54270935 84815249.567987442 0 84815249.567987442 -103089381.86429977 0 0 0 0 -48957668.517951965 51917930.930397034 0 51917930.930397034 98023845.711429596 0 0 0 0 94024758.422119901 12286074.0502804 0 12286074.0502804 -3383993.9591461751 0 0 0 0 160759767.79269028 -25591606.557887077 0 -25591606.557887077 201236077.10507584 0 0 0 0 106988257.45604706 160755650.38525009 0 160755650.38525009 141875153.6006279 0 0 0 0 221532393.82346344 173467589.17606282 0 173467589.17606282 -452238253.57275724 0 0 0 0 290946198.36344147 -118377038.37602997 0 -118377038.37602997 113741421.99807405 0 0 0 0 305079543.39918518 54005482.731575012 0 54005482.731575012 60024892.595877647 0 0 0 0 10664481.038473491 5721349.8661356065 0 5721349.8661356065 -7820777.5415767245 0 0 0 0 -11027130.603660583 77530334.989891052 0 77530334.989891052 233590537.74534512 0 0 0 0 141084313.96605682 94938914.668833733 0 94938914.668833733 34291796.423549652 0 0 0 0 99012650.346083418 -1605070.871570976 0 -1605070.871570976 -2945309.0448904657 0 0 0 0 204983423.94729614 -4314120.6339797974 0 -4314120.6339797974 -56728781.106459498 0 0 0 0 131370863.81427765 145750278.93036461 0 145750278.93036461 -163035680.9887352 0 0 0 0 91755331.146591187 82184856.418084741 0 82184856.418084741 -178504823.75756454 0 0 0 0 89190181.598258972 326180684.32130814 0 326180684.32130814 -41881528.96149826 0 0 0 0 380903637.41349792 214988477.50995636 0 214988477.50995636 -169182160.6349144 0 0 0 0 312420685.21591187 306328394.97762299 0 306328394.97762299 -186324597.4753933 0 0 0 0 337206001.70708466 468172686.08164215 0 468172686.08164215 -224388103.00968933 0 0 0 0 11545681.977851868 207469528.30455017 0 207469528.30455017 -38057696.913719177 0 0 0 0 -166234097.08488464 140207336.73661804 0 140207336.73661804 -57638322.796192169 0 0 0 0 13164017.052416049 6424387.78605993 0 6424387.78605993 665554.2857596837 0 0 0 0 78493110.260908127 100650808.08910751 0 100650808.08910751 -362621061.49846649 0 0 0 0 160006791.89797401 176428400.83300781 0 176428400.83300781 -683273648.90668106 0 0 0 0 -423155900.15127563 13682939.710382462 0 13682939.710382462 -86284787.243473053 0 0 0 0 4123948.6942840405 2830761.1023113886 0 2830761.1023113886 801473.92036163807 0 0 0 0 219761272.15215302 -336936841.62062454 0 -336936841.62062454 380977524.98995209 0 0 0 0 345654454.33482361 529490129.24748993 0 529490129.24748993 251245968.75349426 0 0 0 0 507425275.86026001 -248460775.52758789 0 -248460775.52758789 -145206541.7866478 0 0 0 0 266385512.92188263 -125634885.41475677 0 -125634885.41475677 58633244.704006195 0 0 0 0 267810820.97708988 -127302620.01200247 0 -127302620.01200247 -22966842.563796997 0 0 0 0 106674839.56433868 -62378617.130960464 0 -62378617.130960464 -41545377.810400009 0 0 0 0 21969229.842075989 8693770.9807639997 0 8693770.9807639997 -1042558.9812136255 0 0 0 0 47792712.573947906 21974968.594657898 0 21974968.594657898 -82151405.175312042 0 0 0 0 89553137.778674126 126502270.40956497 0 126502270.40956497 -507814650.37560272 0 0 0 0 154259683.44036865 -21314988.671367645 0 -21314988.671367645 -261493157.05867386 0 0 0 0 -74863399.735507965 4414719.7564048767 0 4414719.7564048767 -262629584.0410881 0 0 0 0 -57650007.168682098 267348663.95736313 0 267348663.95736313 -349709605.79848099 0 0 0 0 174277735.06217194 58208935.304315567 0 58208935.304315567 -38570245.969959259 0 0 0 0 59211116.301010132 50180779.584842682 0 50180779.584842682 -2665833.6006469727 0 0 0 0 19072308.111190796 30747990.589313507 0 30747990.589313507 -279891.68417549133 0 0 0 0 59489791.8907547 20583925.316310883 0 20583925.316310883 -22923070.18706131 0 0 0 0 18356050.715894699 24040046.556512594 0 24040046.556512594 -28261132.453437805 0 0 0 0 59803951.081127167 49973593.493882179 0 49973593.493882179 -28131361.216133118 0 0 0 0 89969032.14182663 11339233.324069977 0 11339233.324069977 -34915226.161327362 0 0 0 0 344398512.17746353 -20647580.048080444 0 -20647580.048080444 -136510815.34181213 0 0 0 0 330103288.78382874 -44865719.91563797 0 -44865719.91563797 -73833461.480792999 0 0 0 0 395616972.50708008 -38683767.372333527 0 -38683767.372333527 -280275215.79937744 0 0 0 0 394236351.67665863 26273760.877475739 0 26273760.877475739 -131952940.67662048 0 0 0 0 372320945.39826202 -38703596.077857971 0 -38703596.077857971 -39476760.024101257 0 0 0 0 376488973.65344763 11835967.015647769 0 11835967.015647769 -117996114.86209869 0 0 0 0 460946337.42564392 22673291.582126617 0 22673291.582126617 -80961265.572944641 0 0 0 0 312083063.29264069 -54851427.590358734 0 -54851427.590358734 -39676207.978143692 0 0 0 0 182904589.17915154 1019875.4938137531 0 1019875.4938137531 -63167847.425247192 0 0 0 0 354941089.77718353 -4843195.566991806 0 -4843195.566991806 -73479828.920524597 0 0 0 0 350834820.74334717 67028674.358301163 0 67028674.358301163 -61458633.273387909 0 0 0 0 209345566.71608734 47571499.730041504 0 47571499.730041504 -10545576.937833786 0 0 0 0 441338355.40489197 137440311.1318264 0 137440311.1318264 -18949383.823028564 0 0 0 0 547483462.21065521 -54485275.877358437 0 -54485275.877358437 -20948410.933357239 0 0 0 0 247484074.09249878 -5535967.0988731384 0 -5535967.0988731384 99717799.011606216 0 0 0 0 429276317.74977875 -658151065.81437302 0 -658151065.81437302 73680979.001686096 0 0 0 0 803418340.8480072 -276518530.13521576 0 -276518530.13521576 -33171000.641699791 0 0 0 0 451968173.59356689 -157625311.19947052 0 -157625311.19947052 25005163.599098206 0 0 0 0 635051872.01730347 -60702552.857398987 0 -60702552.857398987 -185439708.83903503 0 0 0 0 3397635.4186451677 3062280.8542547803 0 3062280.8542547803 3073829.7499810662 0 0 0 0 1096910862.861969 -707019132.69618416 0 -707019132.69618416 -2846157.9804153442 0 0 0 0 384239378.02992249 471054120.92957687 0 471054120.92957687 1033519439.1624222 0 0 0 0 1675411353.3740311 -129540952.53159714 0 -129540952.53159714 -199230732.66926956 0 0 0 0 449493025.4336853 -215314830.86102295 0 -215314830.86102295 84775670.214749336 0 0 0 0 773693672.71312714 865840851.16551208 0 865840851.16551208 338699997.45188904 0 0 0 0 1041400.3301790096 -1128000.8405475654 0 -1128000.8405475654 -673330.52766717179 0 0 0 0 297312792.03443909 -1054672311.2397385 0 -1054672311.2397385 1462125892.9864578 0 0 0 0 223214508.05467224 60384016.091609001 0 60384016.091609001 -42622990.892433167 0 0 0 0 870605.31043099612 -7372488.925768612 0 -7372488.925768612 -2830760.1647911798 0 0 0 0 4919009.1831329055 3218263.1176679041 0 3218263.1176679041 -2703779.3208959335 0 0 0 0 2113116.7315368652 -3411188.3211650848 0 -3411188.3211650848 -20849045.416906834 0 0 0 0 -1933978.4244308472 62616207.198184967 0 62616207.198184967 39330137.542881012 0 0 0 0 200604097.50616837 80339630.778669834 0 80339630.778669834 -20439927.091640472 0 0 0 0 -5263427.8792419434 -33655656.689170837 0 -33655656.689170837 -79544818.258701324 0 0 0 0 5501839.375211738 1866158.68599906 0 1866158.68599906 -4700145.9906593608 0 0 0 0 -9344584.780216217 -18466700.724337101 0 -18466700.724337101 -38398869.282440186 0 0 0 0 -58374.802825927734 19983389.182395935 0 19983389.182395935 3135003.5650177002 0 0 0 0 -15639625.898344517 -45653705.441838741 0 -45653705.441838741 -56052655.918476105 0 0 0 0 5203934.2956161499 -3892073.8000631332 0 -3892073.8000631332 -18969036.192507744 0 0 0 0 1788313.2752094269 -3686310.0474309921 0 -3686310.0474309921 -16871590.006624222 0 0 0 0 3764030.6280200034 -7008574.5417903252 0 -7008574.5417903252 -4718597.190126691 0 0 0 0 104293031.81142235 35603689.081979513 0 35603689.081979513 43868807.977680206 0 0 0 0 -55043783.857673645 -45410133.092432022 0 -45410133.092432022 363175475.25148964 0 0 0 0 24755827.42108345 -147216315.84839582 0 -147216315.84839582 388742315.4159584 0 0 0 0 668119385.0958252 95446437.976697922 0 95446437.976697922 479247352.06744957 0 0 0 0 215583882.59347725 -368630410.73401833 0 -368630410.73401833 1007152403.8523083 0 0 0 0 138673396.82463455 -126697766.240201 0 -126697766.240201 370832433.79922867 0 0 0 0 -15258732.443786621 -217972600.31824303 0 -217972600.31824303 366772857.32088852 0 0 0 0 16549506.131164551 -252655357.38803482 0 -252655357.38803482 501431247.65432024 0 0 0 0 577388762.50473785 -415816519.40460825 0 -415816519.40460825 147280800.60183334 0 0 0 0 572992992.78482819 -340183158.61407757 0 -340183158.61407757 52107889.163514137 0 0 0 0 201121075.73116374 -195673604.06469351 0 -195673604.06469351 6630383.8046722412 0 0 0 0 787500404.60845184 -44468317.588004112 0 -44468317.588004112 5448458.2025449276 0 0 0 0 834893150.59553432 -453728396.51991701 0 -453728396.51991701 -63962984.64487648 0 0 0 0 1060532770.7099075 -728366005.60089779 0 -728366005.60089779 311253349.72180271 0 0 0 0 540068799.26611328 -383131018.23479939 0 -383131018.23479939 258544923.78929996 0 0 0 0 1063385107.3787429 164916475.47895142 0 164916475.47895142 829073294.44912148 0 0 0 0 1883673.4476244822 1375634.4106453527 0 1375634.4106453527 851997.94832921959 0 0 0 0 1060096328.8815956 -1071914604.3735909 0 -1071914604.3735909 744988061.1764431 0 0 0 0 1010340830.4805775 -213156636.46241283 0 -213156636.46241283 -105079070.03753281 0 0 0 0 821834453.58999634 -640735647.72999191 0 -640735647.72999191 -193885071.61862183 0 0 0 0 157413320.41326141 -526132718.45967484 0 -526132718.45967484 400601642.05388641 0 0 0 0 1225857037.1339417 -982095847.57639599 0 -982095847.57639599 37434602.350379944 0 0 0 0 1783349755.3847618 -1067627401.9342294 0 -1067627401.9342294 262373113.55487442 0 0 0 0 733093415.65852356 -658117117.62690926 0 -658117117.62690926 591683991.54647541 0 0 0 0 -516641986.49404144 46469388.615007401 0 46469388.615007401 792344877.73338699 0 0 0 0 364272.57996235351 897617.26397580281 0 897617.26397580281 3586494.8321899716 0 0 0 0 891117.75858879776 612995.96173969842 0 612995.96173969842 8225798.7911060248 0 0 0 0 -69276909.046974182 -164393385.5821209 0 -164393385.5821209 613162601.15748882 0 0 0 0 948381294.88299179 -440718822.31395388 0 -440718822.31395388 -49896519.719197273 0 0 0 0 589346064.04795837 -33372748.373892546 0 -33372748.373892546 -165171846.76855278 0 0 0 0 1971689635.8679771 -972074148.0359143 0 -972074148.0359143 -354124129.44864392 0 0 0 0 -544415030.82431805 5201428.6144972788 0 5201428.6144972788 844132694.00444734 0 0 0 0 724081177.45036316 -1226640334.3950319 0 -1226640334.3950319 1154949195.2990346 0 0 0 0 2069977.9680647764 -829702.34614174254 0 -829702.34614174254 7086605.9129373683 0 0 0 0 357001141.00791168 51444372.419193208 0 51444372.419193208 17106841.186389208 0 0 0 0 -184590252.35696411 8015441.8561701775 0 8015441.8561701775 142978246.73967743 0 0 0 0 -58075552.630004883 105955086.91444874 0 105955086.91444874 122750884.98313522 0 0 0 0 285647535.4499588 122136022.67950249 0 122136022.67950249 11560658.782308578 0 0 0 0 4462133.2562287748 -4117059.5197340213 0 -4117059.5197340213 97161.974214038317 0 0 0 0 3536551852.7477112 -2129782935.9701748 0 -2129782935.9701748 1270664184.667629 0 0 0 0 1705099874.5460205 250476441.10619712 0 250476441.10619712 -766813398.8568505 0 0 0 0 2644097975.1774445 -2562200824.6633115 0 -2562200824.6633115 1425717270.8103905 0 0 0 0 2078811187.1953087 -508733243.83484179 0 -508733243.83484179 1480049598.3724742 0 0 0 0 2619217958.9858284 -85562184.050569654 0 -85562184.050569654 795070763.28686213 0 0 0 0 3352331141.4528828 -2215809416.5408244 0 -2215809416.5408244 1495789363.689137 0 0 0 0 1369563594.2990608 -693739047.92681766 0 -693739047.92681766 597779559.24392271 0 0 0 0 1567364794.8387566 -218303306.24586463 0 -218303306.24586463 -294183185.30681705 0 0 0 0 465981593.40556335 378741865.21301365 0 378741865.21301365 35272640.423502922 0 0 0 0 2076196942.5329514 -581703076.7660346 0 -581703076.7660346 41048474.433579445 0 0 0 0 1052963360.3790855 -569358348.28330922 0 -569358348.28330922 120441581.03299999 0 0 0 0 886963643.30966377 -714942962.41836023 0 -714942962.41836023 204291534.39422798 0 0 0 0 1184969137.7375603 -682575548.16918325 0 -682575548.16918325 207567651.07241583 0 0 0 0 906514015.134058 -669743060.16384792 0 -669743060.16384792 308707910.10606575 0 0 0 0 549214097.20615387 -709002014.76387215 0 -709002014.76387215 305357402.07610416 0 0 0 0 498913636.60409927 -546302979.91642189 0 -546302979.91642189 440604713.92665863 0 0 0 0 521570198.14851379 -627615997.20946503 0 -627615997.20946503 458581873.71202135 0 0 0 0 615186831.11836624 -444740286.86212921 0 -444740286.86212921 292947330.31207085 0 0 0 0 1211884963.8802071 -345220930.56364727 0 -345220930.56364727 308426789.78557396 0 0 0 0 486653399.75495148 -673090588.336483 0 -673090588.336483 1167203321.0205708 0 0 0 0 675904486.79012299 -1495841107.0989323 0 -1495841107.0989323 1011986048.0708084 0 0 0 0 261492319.2204895 -619174771.24399376 0 -619174771.24399376 640086401.88641357 0 0 0 0 456754702.39246368 636910699.46863174 0 636910699.46863174 532775785.38950539 0 0 0 0 238259721.04132652 -420420963.30940294 0 -420420963.30940294 271541122.13460922 0 0 0 0 3474427.6622874252 3081454.0692978092 0 3081454.0692978092 2535633.2520377208 0 0 0 0 856588280.61135864 -777445229.00262642 0 -777445229.00262642 232777879.99202538 0 0 0 0 765427376.25799561 -462935797.65368462 0 -462935797.65368462 -192751547.0060463 0 0 0 0 1950583.8035222143 1412758.5660550818 0 1412758.5660550818 295784.39234406874 0 0 0 0 722841967.43855667 -809747563.48182392 0 -809747563.48182392 236555369.69054031 0 0 0 0 249989705.50533676 -28672006.069609642 0 -28672006.069609642 56042825.68932724 0 0 0 0 284687659.28112125 -203381676.4771539 0 -203381676.4771539 372626275.64328384 0 0 0 0 326881487.82171631 -71506869.594875336 0 -71506869.594875336 178228814.90990067 0 0 0 0 37187146.782714844 9948165.6592693329 0 9948165.6592693329 250069208.53495789 0 0 0 0 371416182.8340683 117347734.33927441 0 117347734.33927441 -421968536.31283569 0 0 0 0 -341492927.58344269 417213429.4720993 0 417213429.4720993 -144930958.91600037 0 0 0 0 340389329.65266132 101377707.43245268 0 101377707.43245268 -1143329091.9026184 0 0 0 0 324654474.9449234 24872743.845993042 0 24872743.845993042 -250007780.36725616 0 0 0 0 -325359990.22050059 -594979754.9598726 0 -594979754.9598726 511063352.97766876 0 0 0 0 -228035761.49694729 518513213.30176187 0 518513213.30176187 -321241062.48410797 0 0 0 0 145788387.2561264 -619964487.19786835 0 -619964487.19786835 -214961251.66217422 0 0 0 0 326750837.36005402 -217953465.66148758 0 -217953465.66148758 520991856.21080959 0 0 0 0 -249777371.87047195 -402997062.1395874 0 -402997062.1395874 521871957.12669373 0 0 0 0 47886616.100593567 -178890958.76175499 0 -178890958.76175499 384059365.8417778 0 0 0 0 -81874229.333289146 -499424577.73392296 0 -499424577.73392296 1312342167.0530434 0 0 0 0 405871179.88167191 -859845015.05603695 0 -859845015.05603695 356557274.87346649 0 0 0 0 301956981.50292969 -777048947.61589241 0 -777048947.61589241 742409164.05418777 0 0 0 0 826701817.40851212 -919055210.68984509 0 -919055210.68984509 362498509.46048355 0 0 0 0 575989046.01075363 -653450903.92604446 0 -653450903.92604446 372573458.37733078 0 0 0 0 112270085.92294312 -449332940.45009995 0 -449332940.45009995 409191263.7659874 0 0 0 0 -568464461.47635841 188001317.4058094 0 188001317.4058094 -369151973.14813995 0 0 0 0 1293304966.9038162 -1086778503.3250618 0 -1086778503.3250618 -192028971.1584692 0 0 0 0 896514611.62348175 -707893617.4463501 0 -707893617.4463501 -962662.10336637497 0 0 0 0 1000244598.432251 -1528117153.9136982 0 -1528117153.9136982 1099556996.3640862 0 0 0 0 180211427.12885094 -1342649330.1759644 0 -1342649330.1759644 3040722508.4166908 0 0 0 0 1955826438.1120834 -2225502803.6259022 0 -2225502803.6259022 943918904.58005524 0 0 0 0 1499753.4892293774 -3144117.3280261252 0 -3144117.3280261252 1167462.1176588456 0 0 0 0 1638583971.1045468 -748906924.27440405 0 -748906924.27440405 -1315335703.3142128 0 0 0 0 -1298644.9754316341 -3334968.2592639895 0 -3334968.2592639895 7087093.873032867 0 0 0 0 1200733071.1575751 -2493873411.1065292 0 -2493873411.1065292 618296392.22424316 0 0 0 0 -996621773.41482413 690089373.16232204 0 690089373.16232204 1906899279.6397514 0 0 0 0 -861663211.04364729 149272245.14271164 0 149272245.14271164 3029857928.1211243 0 0 0 0 -623726925.64659357 137202895.80548096 0 137202895.80548096 -39962418.229096323 0 0 0 0 -1002082637.2758198 -143733328.73568535 0 -143733328.73568535 2061981697.2622757 0 0 0 0 -1141408.3040600391 -6981299.8274467252 0 -6981299.8274467252 12931285.413145732 0 0 0 0 -1486886321.5331545 -1888873260.4724436 0 -1888873260.4724436 -81137339.60151659 0 0 0 0 -1217999883.6838527 -1112998930.9000576 0 -1112998930.9000576 -94920267.488739014 0 0 0 0 -152865283.84288597 -621191827.99375057 0 -621191827.99375057 -185762910.23042333 0 0 0 0 -690898410.17000127 -102443019.10428202 0 -102443019.10428202 1011524233.0918312 0 0 0 0 -499273834.21221447 -1303815510.8837342 0 -1303815510.8837342 2146650653.4479623 0 0 0 0 423299099.69194031 -851564037.37275791 0 -851564037.37275791 866036939.87221336 0 0 0 0 -336718790.33857679 -200350222.45875287 0 -200350222.45875287 412308949.15153313 0 0 0 0 959736999.37840652 -518255039.65171337 0 -518255039.65171337 -190178414.22002602 0 0 0 0 956617480.16624355 -798477354.6702857 0 -798477354.6702857 123505819.09305763 0 0 0 0 899668793.99500656 -694329420.14014816 0 -694329420.14014816 115784542.7563194 0 0 0 0 424390189.24293804 -823596583.33542538 0 -823596583.33542538 416266266.55463219 0 0 0 0 911537825.08573914 -1073029238.6610589 0 -1073029238.6610589 539639816.05447769 0 0 0 0 1399701760.6399155 -1538889643.1723862 0 -1538889643.1723862 467036758.78889656 0 0 0 0 782348722.21057892 -1190069395.3175931 0 -1190069395.3175931 476007505.26197016 0 0 0 0 440260980.61186314 -1546338981.6439967 0 -1546338981.6439967 1170466032.2548833 0 0 0 0 -220169875.18851471 -1445295840.7797081 0 -1445295840.7797081 1261797375.0965505 0 0 0 0 2896006806.4624519 -1755063387.8417721 0 -1755063387.8417721 399808615.95022464 0 0 0 0 923910704.13960838 -2489274532.6742654 0 -2489274532.6742654 1623873028.8420975 0 0 0 0 -633710791.49529266 -506414536.19246101 0 -506414536.19246101 1724663311.7748086 0 0 0 0 190976271.56817055 -736735756.85467768 0 -736735756.85467768 -974408523.63889503 0 0 0 0 7172160.1538039353 -14316979.130609758 0 -14316979.130609758 2047152.2100875592 0 0 0 0 2050530.9808883052 -2912291.3502506493 0 -2912291.3502506493 2343365.254131488 0 0 0 0 374686746.63957214 -948787713.44904065 0 -948787713.44904065 -2253926974.4242077 0 0 0 0 10104036.980617994 -11376498.978866685 0 -11376498.978866685 109405.86329604103 0 0 0 0 -401190918.98311257 -563213102.17651165 0 -563213102.17651165 264267274.2997613 0 0 0 0 -174845903.32602644 -1760386081.783917 0 -1760386081.783917 1294286166.8628235 0 0 0 0 5898344.9550170898 -1503939230.8182933 0 -1503939230.8182933 164759418.9670696 0 0 0 0 -475613964.25811291 -1046245879.0089447 0 -1046245879.0089447 967074804.35206723 0 0 0 0 -127224446.34077948 -1575048132.6993978 0 -1575048132.6993978 1295662054.2006049 0 0 0 0 375323682.47918463 -2630222032.7669935 0 -2630222032.7669935 2882632234.1370177 0 0 0 0 2561166998.1796904 -357040595.83491611 0 -357040595.83491611 565296386.75297451 0 0 0 0 2365846653.9920273 -2258514698.6700196 0 -2258514698.6700196 939687189.86848569 0 0 0 0 2876455522.2226448 -934993079.15836382 0 -934993079.15836382 -181984726.83512095 0 0 0 0 411428709.41176319 -964896301.96413112 0 -964896301.96413112 88232765.964519024 0 0 0 0 -329143704.86998129 -145192036.27125847 0 -145192036.27125847 -1438925123.3405643 0 0 0 0 1021186332.0819287 -1536716275.1394327 0 -1536716275.1394327 -742046265.98839474 0 0 0 0 640014516.55159485 265255322.36913657 0 265255322.36913657 -824185928.70514631 0 0 0 0 2006085945.8001118 -171401673.39441895 0 -171401673.39441895 -1664248847.5773039 0 0 0 0 -1025781044.4296222 304072690.75867796 0 304072690.75867796 -1670081881.066268 0 0 0 0 818365283.66676617 -1007233779.5438955 0 -1007233779.5438955 -4048484309.7246723 0 0 0 0 10335826.312812228 -7841307.3476375388 0 -7841307.3476375388 -817958.65000090376 0 0 0 0 4556246818.405407 -412866748.80590534 0 -412866748.80590534 -1206366904.8660812 0 0 0 0 4566590011.978138 121807677.94155622 0 121807677.94155622 -2903533008.8392334 0 0 0 0 2597829334.7574358 1437834168.2791314 0 1437834168.2791314 -3761762454.2194104 0 0 0 0 4834257.7607181203 -2752312.0612193346 0 -2752312.0612193346 -522647.97909874929 0 0 0 0 554161478.0624733 -805070287.03379869 0 -805070287.03379869 941611374.07901013 0 0 0 0 2182749488.941793 1261507203.248508 0 1261507203.248508 -2139598834.9404464 0 0 0 0 4109645475.1953859 101899836.80492723 0 101899836.80492723 -1504356970.3167887 0 0 0 0 4725625247.5702209 341542289.40928733 0 341542289.40928733 -2213039362.1430364 0 0 0 0 3164590789.7327929 480470356.50275773 0 480470356.50275773 -1144635252.5887942 0 0 0 0 4723058257.4739437 -719698345.14568508 0 -719698345.14568508 -291551256.1690985 0 0 0 0 3398106123.6053524 -467841957.38316005 0 -467841957.38316005 443336065.2579574 0 0 0 0 4725313238.3562794 -1299122030.528933 0 -1299122030.528933 817540186.95615792 0 0 0 0 3677131804.2027721 -1656191022.3319447 0 -1656191022.3319447 1310157956.3556328 0 0 0 0 2975289867.2223339 -1227565016.2303505 0 -1227565016.2303505 1750638913.0423212 0 0 0 0 2745113149.945538 -2429191997.3746018 0 -2429191997.3746018 1566217741.0180135 0 0 0 0 2780321045.5912571 -1783023006.5827413 0 -1783023006.5827413 -1712752905.4015851 0 0 0 0 -936850731.03847146 -713295140.38330054 0 -713295140.38330054 3744673533.1111422 0 0 0 0 -623683.81703409366 -3550466.8993182597 0 -3550466.8993182597 6796734.1599449096 0 0 0 0 3745710722.7405796 -1812161081.7703781 0 -1812161081.7703781 1635143491.221499 0 0 0 0 4758217816.2698288 -1778184666.7696152 0 -1778184666.7696152 189894963.08332038 0 0 0 0 -1526244432.1288571 -561236936.5483948 0 -561236936.5483948 1912251839.2587867 0 0 0 0 891636484.58788586 -790773140.09236193 0 -790773140.09236193 2498291452.9029217 0 0 0 0 -50260580.759458542 392133447.83770466 0 392133447.83770466 1213582775.2599354 0 0 0 0 302925333.50115967 -1598184014.7711356 0 -1598184014.7711356 6009516939.232769 0 0 0 0 3435702992.4043159 -2805940630.5511456 0 -2805940630.5511456 4565429332.1542654 0 0 0 0 4404932985.8896523 -838398752.3759141 0 -838398752.3759141 3488518878.5306673 0 0 0 0 4722845400.6482067 -1968931955.831382 0 -1968931955.831382 2771885393.9858327 0 0 0 0 3885083078.5153885 -2632384739.358254 0 -2632384739.358254 2287487343.9745255 0 0 0 0 4520582436.4438057 -1289165653.0650468 0 -1289165653.0650468 1370098303.2323096 0 0 0 0 71157218.106643677 -38592064.768440247 0 -38592064.768440247 84385638.305513024 0 0 0 0 70720906.325576782 -51772348.510440826 0 -51772348.510440826 64312938.293441772 0 0 0 0 46351660.515213013 -58757289.467445374 0 -58757289.467445374 64487628.185252368 0 0 0 0 127162287.28250122 -53955376.357906342 0 -53955376.357906342 33092219.893680573 0 0 0 0 138245077.17802811 -30818498.503974915 0 -30818498.503974915 36880287.932739258 0 0 0 0 140940566.26211548 -40657410.352716446 0 -40657410.352716446 33043989.558330536 0 0 0 0 118081928.05208588 -31946583.989912033 0 -31946583.989912033 38059667.302909851 0 0 0 0 101703639.88476562 -39575892.82491684 0 -39575892.82491684 59529061.457893372 0 0 0 0 71360775.091427326 -56194482.308069885 0 -56194482.308069885 51678229.815567017 0 0 0 0 130487864.14413452 -29869583.161170959 0 -29869583.161170959 33147801.081890106 0 0 0 0 31526829.78137207 -1977333.0632858276 0 -1977333.0632858276 -13538013.129545212 0 0 0 0 59756546.075838007 -497400.35974982195 0 -497400.35974982195 -6494338.1078847926 0 0 0 0 105674453.26983643 -25095263.227500916 0 -25095263.227500916 35893410.425905228 0 0 0 0 74589561.755447388 -39620510.765899658 0 -39620510.765899658 -27136376.265457153 0 0 0 0 44664333.06212616 3762555.7560939789 0 3762555.7560939789 -36744451.508796692 0 0 0 0 -26146528.102584839 59859416.116004944 0 59859416.116004944 -47894838.381802559 0 0 0 0 -13517450.794166565 -44735848.764072418 0 -44735848.764072418 -36474875.478939056 0 0 0 0 -17974233.502544403 -24297351.490804672 0 -24297351.490804672 -122199217.76895905 0 0 0 0 -41286536.110671997 -52641534.589847565 0 -52641534.589847565 -138707425.33425903 0 0 0 0 52180174.055226803 -66180591.864825249 0 -66180591.864825249 -47626527.441398621 0 0 0 0 9076209.803527832 -99950605.389335632 0 -99950605.389335632 -284882461.83145142 0 0 0 0 17134295.814346313 90350878.903057098 0 90350878.903057098 -105900386.51055527 0 0 0 0 89371910.146194458 54631313.570705414 0 54631313.570705414 -233818395.1617527 0 0 0 0 81473919.753997803 -11377714.091732025 0 -11377714.091732025 85075742.695807099 0 0 0 0 76806187.911773682 -24145534.937160492 0 -24145534.937160492 51037580.7018013 0 0 0 0 59513804.151196934 -20580049.318435155 0 -20580049.318435155 -11853595.662748324 0 0 0 0 34004689.701236725 -26869608.699316025 0 -26869608.699316025 164279169.39649582 0 0 0 0 64933965.403714947 -7065838.043997556 0 -7065838.043997556 -15507281.613008481 0 0 0 0 50368352.095977783 -22424197.841279984 0 -22424197.841279984 -62892900.0300107 0 0 0 0 103419066.98338318 -96524441.461238384 0 -96524441.461238384 -198801553.24173832 0 0 0 0 46833903.752669975 -29660220.401974004 0 -29660220.401974004 -8342810.2069874983 0 0 0 0 77478531.178757265 -4859184.3648334406 0 -4859184.3648334406 -28918054.139714465 0 0 0 0 58768109.056667805 139440091.92404556 0 139440091.92404556 237123648.49062729 0 0 0 0 41062240.846984863 -79144779.345387459 0 -79144779.345387459 91174133.18393898 0 0 0 0 35583593.569747925 -55631625.985389709 0 -55631625.985389709 142815080.76774025 0 0 0 0 70597355.614639282 -52372724.973268509 0 -52372724.973268509 37572408.711858749 0 0 0 0 -40713184.893127441 -89182659.936531067 0 -89182659.936531067 30111076.535331726 0 0 0 0 -299444259.38789749 159752825.82167101 0 159752825.82167101 33143470.138492584 0 0 0 0 140406554.64473724 17549996.669013977 0 17549996.669013977 62725097.390758514 0 0 0 0 135106283.01961517 118343280.58546162 0 118343280.58546162 -473635527.38109016 0 0 0 0 65336764.16709137 6286110.1844806671 0 6286110.1844806671 -337247876.71611977 0 0 0 0 -146255231.94426918 -254541832.84490991 0 -254541832.84490991 -217465403.48988724 0 0 0 0 59876709.866790771 7438913.0490055084 0 7438913.0490055084 -72384742.829404831 0 0 0 0 130233807.03552246 -78120529.225976944 0 -78120529.225976944 -175829467.1398201 0 0 0 0 80640383.972187042 -93669930.165352821 0 -93669930.165352821 2473496.7043609619 0 0 0 0 165795003.55778503 -62360875.579666138 0 -62360875.579666138 -43597889.007785797 0 0 0 0 134669958.16065407 -49164445.952539921 0 -49164445.952539921 -29674612.493297577 0 0 0 0 192567839.16985321 -62950260.297060013 0 -62950260.297060013 -62346370.179515839 0 0 0 0 230195505.67469788 14552843.623414993 0 14552843.623414993 -4928688.1891736984 0 0 0 0 186201820.32561493 94670286.619653702 0 94670286.619653702 32849395.718127728 0 0 0 0 65120909.747161865 2295609.6813564301 0 2295609.6813564301 13419115.563767195 0 0 0 0 170252005.0711937 -17735930.602557182 0 -17735930.602557182 -2010301.1384925842 0 0 0 0 20656372.494430196 324223.72831618413 0 324223.72831618413 -3544259.4355819412 0 0 0 0 164788348.77832031 -26989315.737049103 0 -26989315.737049103 -17585577.467814922 0 0 0 0 177306877.00779724 -37613880.43011713 0 -37613880.43011713 -11547586.388690948 0 0 0 0 29075889.213689409 27503324.687760424 0 27503324.687760424 8558652.4637655765 0 0 0 0 9482869.3453292847 205547776.6292038 0 205547776.6292038 123287824.51296234 0 0 0 0 176202496.52139282 -55041786.977804184 0 -55041786.977804184 -85748028.816427231 0 0 0 0 222109671.29983902 -93702956.787791729 0 -93702956.787791729 -88946621.201808929 0 0 0 0 11871285.404252272 -344906.96910016239 0 -344906.96910016239 -2884023.9281123057 0 0 0 0 -10794097.554981232 80142297.73287487 0 80142297.73287487 -11746860.203788757 0 0 0 0 116816.6388168335 49615178.002357483 0 49615178.002357483 -29618142.383131027 0 0 0 0 3371251.8894805908 62951866.528522491 0 62951866.528522491 24955248.83240509 0 0 0 0 -52510948.448387146 41000453.537223816 0 41000453.537223816 42522341.440624237 0 0 0 0 -15554849.456932068 22709262.19383812 0 22709262.19383812 86998571.708145142 0 0 0 0 -14654398.644767761 33883290.635221481 0 33883290.635221481 19338909.61214447 0 0 0 0 32838124.591233887 25518613.854262587 0 25518613.854262587 5787626.5622058865 0 0 0 0 76308731.730018616 25725778.88712883 0 25725778.88712883 22005173.32843399 0 0 0 0 -53846409.475673676 55526663.909983933 0 55526663.909983933 27557049.433197021 0 0 0 0 14151706.926139832 48707671.944829941 0 48707671.944829941 -27851486.090326309 0 0 0 0 86326.894880980253 20633311.177504435 0 20633311.177504435 3170832.2051552739 0 0 0 0 -33668499.30657196 48049335.538324356 0 48049335.538324356 9554873.2377853394 0 0 0 0 25506293.126571655 25559330.78446579 0 25559330.78446579 -2818232.1558456421 0 0 0 0 20732960.807411194 33641894.182907104 0 33641894.182907104 -11065908.947299957 0 0 0 0 -12364635.869735718 46130403.681894302 0 46130403.681894302 1152846.2341060638 0 0 0 0 -2758266.6133117676 -13726745.540370941 0 -13726745.540370941 -32075830.628923416 0 0 0 0 112129542.62329865 -2061103.1449079514 0 -2061103.1449079514 -5545958.6211967468 0 0 0 0 68760072.976608276 -23372376.521242142 0 -23372376.521242142 23910669.350432396 0 0 0 0 148323263.18476868 -28546091.614498138 0 -28546091.614498138 31109951.248401642 0 0 0 0 12973170.263375968 580262.89788748696 0 580262.89788748696 -5451171.1361933853 0 0 0 0 145764809.53989029 -65500866.909825325 0 -65500866.909825325 33453912.787750244 0 0 0 0 191725381.4306488 -46037036.282089233 0 -46037036.282089233 -13684813.307824135 0 0 0 0 34034811.921927169 -5373472.426736461 0 -5373472.426736461 -276536.42175909877 0 0 0 0 71861910.942077637 10894365.805965424 0 10894365.805965424 16775914.987167358 0 0 0 0 102728691.04022217 6143202.2166442871 0 6143202.2166442871 -3509689.8942108154 0 0 0 0 37274444.30594933 5997394.299113173 0 5997394.299113173 -3414409.1499202438 0 0 0 0 16999367.646214485 765407.84411764145 0 765407.84411764145 -4087235.9294509888 0 0 0 0 25548938.599066298 7793824.6138338838 0 7793824.6138338838 399321.70272049494 0 0 0 0 15174297.772364616 -1939505.9346313477 0 -1939505.9346313477 -7258180.7031927109 0 0 0 0 16231783.84316206 2261617.6764621735 0 2261617.6764621735 -10728090.226232708 0 0 0 0 19112459.742549419 7087910.3947753906 0 7087910.3947753906 -13143661.538660049 0 0 0 0 20168217.763067245 3925062.6467132568 0 3925062.6467132568 -18230011.244007111 0 0 0 0 13112460.154885573 -2393331.933065081 0 -2393331.933065081 -702319.63544823905 0 0 0 0 35988629.986817203 36894860.882170506 0 36894860.882170506 -6180714.8843914457 0 0 0 0 18677289.554326534 8891819.4004840851 0 8891819.4004840851 -9106777.495552063 0 0 0 0 59793389.905033112 -24578302.475376129 0 -24578302.475376129 40259070.489303589 0 0 0 0 37399209.3176466 -5838049.7240305208 0 -5838049.7240305208 -7806603.5457769223 0 0 0 0 36988328.297782131 -4583133.5788221303 0 -4583133.5788221303 -10448146.796604166 0 0 0 0 80588121.499473572 -1694350.7825927734 0 -1694350.7825927734 -15744374.748138428 0 0 0 0 11765991.204410553 -975785.80752944946 0 -975785.80752944946 -10943233.526664734 0 0 0 0 38138986.752402581 -784984.47157266457 0 -784984.47157266457 -553349.98042157479 0 0 0 0 95760478.800811768 -27600032.791294098 0 -27600032.791294098 -40640546.321022034 0 0 0 0 133001424.29826927 -41757873.33503294 0 -41757873.33503294 -52019779.250083923 0 0 0 0 67955133.602638245 2507052.8266277313 0 2507052.8266277313 -7022319.8413925171 0 0 0 0 126145053.13897705 -70470734.732284546 0 -70470734.732284546 -28166423.349882126 0 0 0 0 22744935.057733063 -2436632.5494570825 0 -2436632.5494570825 -5040509.9709004574 0 0 0 0 54435767.506576538 -6062437.6722259521 0 -6062437.6722259521 -7434888.5587646961 0 0 0 0 67830413.049085736 -4116096.2948206365 0 -4116096.2948206365 -2763753.5514907837 0 0 0 0 33365875.038462967 -2220387.0923126899 0 -2220387.0923126899 -2406491.4777308479 0 0 0 0 22900233.66265038 4664416.8523123413 0 4664416.8523123413 -3713938.2301399335 0 0 0 0 111451298.02248383 -22973748.251447678 0 -22973748.251447678 -11526473.667796135 0 0 0 0 5868982.2855148297 596454.68246331066 0 596454.68246331066 -2150991.8224647231 0 0 0 0 81742569.367229462 -7969510.4525995255 0 -7969510.4525995255 -26982883.610847473 0 0 0 0 47827308.763727188 1025906.2513256073 0 1025906.2513256073 -28972298.884159088 0 0 0 0 19371080.006538391 -6128145.8626422882 0 -6128145.8626422882 12745085.194137573 0 0 0 0 121819193.41790771 -39501472.523635864 0 -39501472.523635864 -22170389.189064026 0 0 0 0 121890216.64666748 -3434385.1371002197 0 -3434385.1371002197 -66540204.671276093 0 0 0 0 79037318.389984131 -273181.70039749146 0 -273181.70039749146 -61982803.061805725 0 0 0 0 61630403.488956451 22540279.919581413 0 22540279.919581413 -87251627.736591339 0 0 0 0 26038405.322459459 22055300.914360702 0 22055300.914360702 -25465778.678825378 0 0 0 0 82699707.278541565 12012920.904361725 0 12012920.904361725 -37321937.786437988 0 0 0 0 77144661.715812683 -8453926.3520584106 0 -8453926.3520584106 -34286995.312000275 0 0 0 0 6751568.5819549561 36107645.965190887 0 36107645.965190887 42619112.818608284 0 0 0 0 14934596.468025208 32102628.897956848 0 32102628.897956848 1270735.9116363525 0 0 0 0 15921057.05695343 34111489.949365616 0 34111489.949365616 5045712.2991809845 0 0 0 0 4179672.9412689209 21993773.954004288 0 21993773.954004288 14667105.629907608 0 0 0 0 5886394.1448898315 18907989.363721848 0 18907989.363721848 6554429.6280097961 0 0 0 0 9680878.4546890259 27575869.306177139 0 27575869.306177139 650770.57734107971 0 0 0 0 8336940.7681045532 29981675.032930374 0 29981675.032930374 20028814.192222595 0 0 0 0 4793980.7041282654 45050534.781879425 0 45050534.781879425 7524571.6460876465 0 0 0 0 -6649460.3671264648 1839238.1481838226 0 1839238.1481838226 13901871.431669712 0 0 0 0 7683216.1881828308 22113952.284953117 0 22113952.284953117 11697088.647441864 0 0 0 0 14693115.140316781 4318899.3915159944 0 4318899.3915159944 -1176727.42310201 0 0 0 0 7485048.1144256592 -4095791.613910675 0 -4095791.613910675 22942026.455997467 0 0 0 0 7662464.0605316162 12181120.223360062 0 12181120.223360062 10055050.442123413 0 0 0 0 6404298.3114442825 34008689.921430111 0 34008689.921430111 47578443.135150909 0 0 0 0 -168109328.67004395 54087551.900524139 0 54087551.900524139 -41720713.205530167 0 0 0 0 262307.41066776216 3943157.224882612 0 3943157.224882612 1931708.3959045978 0 0 0 0 -37195514.935009003 137256967.70039463 0 137256967.70039463 -104255768.99993515 0 0 0 0 11556542.129932404 -24721100.567521095 0 -24721100.567521095 -148587415.46750641 0 0 0 0 13963228.64396286 -17106794.879401207 0 -17106794.879401207 -1555284.4778823853 0 0 0 0 27649379.005878448 7148816.7487325668 0 7148816.7487325668 -95679413.7929039 0 0 0 0 1363394.9046548679 311321.72848505713 0 311321.72848505713 -520345.17912821099 0 0 0 0 2017678.8628478646 -1905028.0129666324 0 -1905028.0129666324 -1625593.5878554559 0 0 0 0 -24212776.273475647 763409.11678314209 0 763409.11678314209 36560429.077805877 0 0 0 0 -61803690.368923187 67706677.157579422 0 67706677.157579422 -51807385.337947845 0 0 0 0 49001754.743896484 -37306491.113647461 0 -37306491.113647461 -1627433.9397027493 0 0 0 0 -71497593.41639781 -95981997.315175533 0 -95981997.315175533 -3013592.0528869629 0 0 0 0 -683126.83967590332 34893596.774604797 0 34893596.774604797 -149527343.53202438 0 0 0 0 -677111.47777938843 -50509607.532130837 0 -50509607.532130837 -64779461.458984375 0 0 0 0 303000673.49767685 -29522150.261711121 0 -29522150.261711121 -72317825.99307251 0 0 0 0 209869269.07987976 174397319.32189178 0 174397319.32189178 -45582969.822288513 0 0 0 0 12399607.04473877 70002993.766517162 0 70002993.766517162 28255460.53767395 0 0 0 0 121460368.54013824 -43472074.965932846 0 -43472074.965932846 -30278271.057182312 0 0 0 0 44116322.992370605 -46357804.312026978 0 -46357804.312026978 21791940.330234528 0 0 0 0 145630731.51673889 -136125870.15477467 0 -136125870.15477467 91832193.637783051 0 0 0 0 472873.16229286045 -270929.50013571512 0 -270929.50013571512 -306418.80201246683 0 0 0 0 53353915.916389465 -16300880.619981766 0 -16300880.619981766 -77046828.410762787 0 0 0 0 70389303.67622757 79124471.910036087 0 79124471.910036087 -81233364.577785492 0 0 0 0 191452317.15748596 -28201667.671005249 0 -28201667.671005249 -23269473.57736969 0 0 0 0 34365976.488646246 -12302251.897528984 0 -12302251.897528984 -10592354.887639157 0 0 0 0 50020646.546508789 -42261936.933830112 0 -42261936.933830112 3503584.449611336 0 0 0 0 70245052.045625687 56396456.000354052 0 56396456.000354052 27925189.3293612 0 0 0 0 170829571.25833893 39578856.528005481 0 39578856.528005481 -24319083.882707357 0 0 0 0 -109509829.15715027 -35838843.562999502 0 -35838843.562999502 -37173549.134786487 0 0 0 0 -93358351.896606445 -78148796.273065403 0 -78148796.273065403 28666885.039278865 0 0 0 0 -77651960.588111877 -64933411.985529065 0 -64933411.985529065 -15919698.251587152 0 0 0 0 -37600631.055480957 -73492632.651681513 0 -73492632.651681513 -28963900.315278172 0 0 0 0 35888079.198454596 -14128608.601533711 0 -14128608.601533711 -8895317.9805125855 0 0 0 0 -93186967.043121338 -78157543.816647768 0 -78157543.816647768 -3971290.0514086485 0 0 0 0 108828065.3558197 5066232.8308446407 0 5066232.8308446407 -14217797.457479596 0 0 0 0 -12107074.136383057 -51164109.252502441 0 -51164109.252502441 -46108451.530258179 0 0 0 0 24945337.718303207 6793275.3131958693 0 6793275.3131958693 736278.78710786579 0 0 0 0 26529098.792058825 40854870.08491084 0 40854870.08491084 -53129650.345901489 0 0 0 0 61066942.362060547 -142803628.06838036 0 -142803628.06838036 -2670135.3081111908 0 0 0 0 5749488.3682978675 -1317611.5059320126 0 -1317611.5059320126 -503120.61549272574 0 0 0 0 18926326.009724468 3455412.762154758 0 3455412.762154758 -20375.053846603259 0 0 0 0 -40203946.519634247 -96572674.964589119 0 -96572674.964589119 25579612.245220184 0 0 0 0 61176335.838096619 -40099681.873683929 0 -40099681.873683929 -74163612.607002258 0 0 0 0 -18896315.761817932 -102717527.26353306 0 -102717527.26353306 -55166131.283132553 0 0 0 0 47898068.202632003 -9633143.3609651662 0 -9633143.3609651662 -6870794.4882007316 0 0 0 0 90266844.567821503 -215970.83094787598 0 -215970.83094787598 -6544906.1325416565 0 0 0 0 145928467.70028973 48755565.352257252 0 48755565.352257252 -25399207.078445435 0 0 0 0 -182291030.97296906 -142986684.73278236 0 -142986684.73278236 -73215654.404930115 0 0 0 0 5944486.9082036559 1011805.8073718958 0 1011805.8073718958 -38116.948130700737 0 0 0 0 -160967955.63190842 -69595877.689160347 0 -69595877.689160347 14052429.168754578 0 0 0 0 104284887.60917664 -13444854.448501587 0 -13444854.448501587 -46236676.971931458 0 0 0 0 -18205242.833358765 -79205628.294595718 0 -79205628.294595718 82949161.694252014 0 0 0 0 -27104855.913116455 -36906461.923303604 0 -36906461.923303604 -56583677.20223999 0 0 0 0 49068366.965118408 -89731599.553356528 0 -89731599.553356528 -122210059.32738853 0 0 0 0 69376056.044891357 -133829779.86390197 0 -133829779.86390197 -111967324.81179014 0 0 0 0 -17182267.068511963 -95470592.896156073 0 -95470592.896156073 -34004680.705310106 0 0 0 0 32607665.208528519 -112979511.36164084 0 -112979511.36164084 59891718.371795893 0 0 0 0 33199289.773696899 -114212100.36309069 0 -114212100.36309069 -28761850.022631571 0 0 0 0 -36934732.870773315 -81483176.870139077 0 -81483176.870139077 54412958.361695915 0 0 0 0 26778673.113891602 -38327233.815531299 0 -38327233.815531299 3475077.919669196 0 0 0 0 41988306.102996826 -63582723.264632344 0 -63582723.264632344 29931000.484999463 0 0 0 0 74097231.204868317 -3787758.3052750491 0 -3787758.3052750491 128322519.70773758 0 0 0 0 176615022.45611572 -141678848.5473876 0 -141678848.5473876 6915854.9936800003 0 0 0 0 86760856.226257324 -159851116.83329976 0 -159851116.83329976 100458747.28119671 0 0 0 0 148349401.48350525 -31490310.261404872 0 -31490310.261404872 123497546.39228046 0 0 0 0 579655257.40722656 -117488255.1863181 0 -117488255.1863181 100729814.69564074 0 0 0 0 183666069.14028931 15241484.710177332 0 15241484.710177332 343585100.12660539 0 0 0 0 506155.39069212973 -393989.88691569492 0 -393989.88691569492 794324.60736548714 0 0 0 0 544272800.20988464 378801031.57198954 0 378801031.57198954 335769230.97372353 0 0 0 0 39494714.912712097 -293714857.33268654 0 -293714857.33268654 -27333434.114683509 0 0 0 0 166628946.85675049 226058166.94620159 0 226058166.94620159 203823949.657722 0 0 0 0 102798406.8968811 97736937.532489538 0 97736937.532489538 196864019.74114978 0 0 0 0 374529818.71144104 -47283908.16292417 0 -47283908.16292417 -60617346.385430217 0 0 0 0 45254265.638870239 -99348625.275240421 0 -99348625.275240421 -171700709.08952355 0 0 0 0 173318923.73005676 -136829623.02862716 0 -136829623.02862716 -186016907.06940755 0 0 0 0 123438532.74871826 -96975141.381589234 0 -96975141.381589234 -30608579.426724672 0 0 0 0 59386474.114452362 -131367401.93875337 0 -131367401.93875337 -36742974.559924245 0 0 0 0 95705352.660110474 13916576.556172729 0 13916576.556172729 -73952077.755352378 0 0 0 0 -700797990.78691101 -406630258.68189645 0 -406630258.68189645 38013160.345843121 0 0 0 0 -37048314.170146942 -54436439.280636445 0 -54436439.280636445 -220290439.53563717 0 0 0 0 130326489.29618835 -53767727.965992928 0 -53767727.965992928 -211353695.11989665 0 0 0 0 -307228098.52801514 -274428108.31091535 0 -274428108.31091535 -246734190.81842512 0 0 0 0 -158273220.82359314 13085020.667635176 0 13085020.667635176 -148281106.51711497 0 0 0 0 53426413.426513672 -77844477.99014926 0 -77844477.99014926 -187710027.49267864 0 0 0 0 101638628.82975769 178147059.60963202 0 178147059.60963202 90616538.129859686 0 0 0 0 97443588.182678223 -123786651.01561618 0 -123786651.01561618 -184180250.38984942 0 0 0 0 654729.11515393108 895097.65901816636 0 895097.65901816636 657713.05137192295 0 0 0 0 2183304.8434218466 -717815.23283090815 0 -717815.23283090815 1582297.1823909322 0 0 0 0 130561637.29808044 20493314.904565811 0 20493314.904565811 -5356723.0835514069 0 0 0 0 5897119.9757232666 91796805.093646169 0 91796805.093646169 -34924515.467252016 0 0 0 0 166478105.71287537 19776970.689827681 0 19776970.689827681 -28905419.135045886 0 0 0 0 -18837386.221008301 95936020.513174891 0 95936020.513174891 -56002018.019259214 0 0 0 0 81735585.126800537 237251195.74911135 0 237251195.74911135 228100452.78015423 0 0 0 0 4721378.4914636984 -297226.0167710036 0 -297226.0167710036 1718956.515294462 0 0 0 0 5170385.3268458918 2823099.0711405464 0 2823099.0711405464 238871.40533213411 0 0 0 0 122859661.15204811 191301822.2312077 0 191301822.2312077 -32855824.340756416 0 0 0 0 9838357.031137161 1747598.6897303462 0 1747598.6897303462 347000.03303608682 0 0 0 0 80421679.707836151 221212322.33153084 0 221212322.33153084 92482544.143203974 0 0 0 0 -15561858.169799805 -49477069.103556991 0 -49477069.103556991 29841957.202827245 0 0 0 0 117412290.93676758 -124110076.28110504 0 -124110076.28110504 -30500933.030310154 0 0 0 0 68606203.656860352 103695968.47628212 0 103695968.47628212 -26335335.83011961 0 0 0 0 -392083286.36499023 334741342.71805716 0 334741342.71805716 563816481.63946116 0 0 0 0 130580514.29368174 -16327071.20930481 0 -16327071.20930481 -124702375.94396973 0 0 0 0 109663629.63877869 114648651.37447917 0 114648651.37447917 -110643659.38956439 0 0 0 0 34596673.999556541 -2710775.5507602692 0 -2710775.5507602692 190734370.96251488 0 0 0 0 179832094.56362915 60206365.486950696 0 60206365.486950696 -317187443.37153232 0 0 0 0 75256015.112473473 -4381663.6574027436 0 -4381663.6574027436 -414934.81389094313 0 0 0 0 50142527.649141788 -95812026.659061432 0 -95812026.659061432 39654678.196483612 0 0 0 0 59860191.757604837 -78333515.2635144 0 -78333515.2635144 77767934.081890106 0 0 0 0 161408090.32316589 13512869.451002359 0 13512869.451002359 -401278896.41505718 0 0 0 0 68493893.135169834 -3103427.2885960592 0 -3103427.2885960592 -1004342.2073393188 0 0 0 0 71382584.651884079 -7094713.2367477417 0 -7094713.2367477417 -11013271.640954971 0 0 0 0 88157486.536371231 -17406522.670785904 0 -17406522.670785904 -93826815.124984741 0 0 0 0 46534008.807481766 -69045216.830358505 0 -69045216.830358505 -28472242.064085007 0 0 0 0 70738951.109122038 -12692246.416195869 0 -12692246.416195869 -101368253.36367798 0 0 0 0 59430706.798125267 -13616903.049982071 0 -13616903.049982071 -86419991.649831772 0 0 0 0 76568372.09529686 23052806.648687363 0 23052806.648687363 -212504517.29463959 0 0 0 0 54160562.490785599 12843680.797572136 0 12843680.797572136 -213428152.04254913 0 0 0 0 134381771.51036286 -42327860.026706696 0 -42327860.026706696 -115069732.36096573 0 0 0 0 35218795.803814888 -9296774.905040741 0 -9296774.905040741 -104512732.62947369 0 0 0 0 76645748.500312328 -18614843.934360504 0 -18614843.934360504 -248147067.29309082 0 0 0 0 84280004.591804743 24615350.405827045 0 24615350.405827045 -288099936.99742126 0 0 0 0 -16550330.922446251 51877186.885284424 0 51877186.885284424 -187422890.16405487 0 0 0 0 6469843.5875929594 102187915.06324768 0 102187915.06324768 -280311218.82333374 0 0 0 0 92823709.802639008 97142180.214370728 0 97142180.214370728 -402818075.17488098 0 0 0 0 30954604.591229629 9484936.6410731599 0 9484936.6410731599 -5575279.5153408404 0 0 0 0 5277209.2923338413 42352097.033397675 0 42352097.033397675 -114011730.86518049 0 0 0 0 87600.213225364685 -51110559.757640839 0 -51110559.757640839 -266140399.63618088 0 0 0 0 20931344.647129059 -55873061.172178268 0 -55873061.172178268 -66731287.977046013 0 0 0 0 35589052.182601929 -21642156.465093613 0 -21642156.465093613 -60397636.315434217 0 0 0 0 4738306.4189910889 -49893692.090787888 0 -49893692.090787888 -63309551.385478973 0 0 0 0 23887952.144439697 -62723343.834814787 0 -62723343.834814787 -177898254.73726264 0 0 0 0 34445155.044168472 -36771936.984357834 0 -36771936.984357834 -21966202.009592056 0 0 0 0 54012681.803780437 -8668789.3551283497 0 -8668789.3551283497 -3966755.5029183631 0 0 0 0 166882001.62761688 -49808989.214160442 0 -49808989.214160442 -394027480.76749086 0 0 0 0 187458228.07298279 21204427.470452309 0 21204427.470452309 -398952996.64048004 0 0 0 0 61402793.881478019 -4120535.9092662944 0 -4120535.9092662944 -2004737.9912034848 0 0 0 0 68123356.341424942 -51061184.198713303 0 -51061184.198713303 12267821.07790339 0 0 0 0 64179337.885028839 -16570781.310869217 0 -16570781.310869217 -42115177.425224304 0 0 0 0 67575902.110591888 -33892376.55218029 0 -33892376.55218029 -57253884.608394623 0 0 0 0 72705442.756328583 -41220662.826890945 0 -41220662.826890945 -54264505.860373497 0 0 0 0 67425992.276241302 -18398580.754001617 0 -18398580.754001617 -63455836.216926575 0 0 0 0 57576394.371894836 -26200353.194959641 0 -26200353.194959641 -68549009.193470001 0 0 0 0 54823307.003715083 -3167508.8204510412 0 -3167508.8204510412 -25601312.490254384 0 0 0 0 371533919.86808014 37587735.326617241 0 37587735.326617241 -67860116.924257278 0 0 0 0 38354255.911720276 -24558023.733100891 0 -24558023.733100891 -56562492.44777298 0 0 0 0 52191548.952567101 -38887896.374521255 0 -38887896.374521255 -68679792.052349091 0 0 0 0 225116006.342453 387618313.66812325 0 387618313.66812325 106353208.25045013 0 0 0 0 60270004.993812799 -5261128.2440136299 0 -5261128.2440136299 -24561781.057210267 0 0 0 0 356606880.16490173 120321506.91514587 0 120321506.91514587 -318813635.54753876 0 0 0 0 107813726.89740753 46719811.59103775 0 46719811.59103775 40820294.627265453 0 0 0 0 -138759833.64304733 291893671.92265034 0 291893671.92265034 94997626.974639893 0 0 0 0 113821191.66557693 12732630.309581757 0 12732630.309581757 -173041997.04062271 0 0 0 0 122834007.77336884 93852510.070068359 0 93852510.070068359 -185003244.85394287 0 0 0 0 -273444672.83961487 -549478629.94727039 0 -549478629.94727039 57649092.964035034 0 0 0 0 2191262.1325851902 1293405.1711041536 0 1293405.1711041536 -4775462.5662771035 0 0 0 0 136981866.70274353 -108749773.3903141 0 -108749773.3903141 -444731715.32731819 0 0 0 0 136575095.78415871 -170130416.14242196 0 -170130416.14242196 757279385.30335236 0 0 0 0 632787441.73152161 237398149.16653633 0 237398149.16653633 -107961453.27816743 0 0 0 0 549051824.44868469 -399559861.222332 0 -399559861.222332 -60524676.788543701 0 0 0 0 21611168.675361633 -91132059.903274536 0 -91132059.903274536 -97942987.007564545 0 0 0 0 656486272.1146636 -460738982.00458694 0 -460738982.00458694 -10332333.962306976 0 0 0 0 701410473.23997498 335647993.49485397 0 335647993.49485397 -40542394.744756699 0 0 0 0 67958509.742099762 5344494.253036499 0 5344494.253036499 -72700258.617530823 0 0 0 0 5630917.2184632048 -9471454.8327925149 0 -9471454.8327925149 -8537770.7379924115 0 0 0 0 54319148.488063671 1465591.9103001896 0 1465591.9103001896 -26044202.389821023 0 0 0 0 23890462.63344574 -60469898.882616997 0 -60469898.882616997 -37848828.783781052 0 0 0 0 73214794.948507309 8289390.9387845993 0 8289390.9387845993 -112644441.68253326 0 0 0 0 -7713175.2521896362 -37439552.375160217 0 -37439552.375160217 -67332835.406927109 0 0 0 0 3822864.3376851082 -5843516.5776155647 0 -5843516.5776155647 -10976890.055601254 0 0 0 0 31750380.710131716 12346919.572495947 0 12346919.572495947 -14660529.741850218 0 0 0 0 58247607.279891968 -18237206.642723083 0 -18237206.642723083 -53527077.592453003 0 0 0 0 83540302.553724289 -45456413.178367138 0 -45456413.178367138 -26377144.47618103 0 0 0 0 283206057.13002777 347383779.33171368 0 347383779.33171368 247403151.00685883 0 0 0 0 -206641530.93161011 -27428825.338623047 0 -27428825.338623047 -45677151.261953831 0 0 0 0 123576640.80375671 11733761.207870483 0 11733761.207870483 -182626702.15006828 0 0 0 0 1796705.5972190723 -900389.06072009355 0 -900389.06072009355 -3480350.3928153599 0 0 0 0 99336503.410064697 112636126.42603302 0 112636126.42603302 34936719.697553635 0 0 0 0 318733483.99519348 180881432.69852638 0 180881432.69852638 -42473698.56612587 0 0 0 0 310784015.33792114 109012754.36428547 0 109012754.36428547 -124015578.3301506 0 0 0 0 213577247.98330307 -77314255.191239834 0 -77314255.191239834 4445456.566078186 0 0 0 0 326998890.51698303 57652891.011781693 0 57652891.011781693 -57986324.255765915 0 0 0 0 47398980.330238342 30765498.36154747 0 30765498.36154747 -127197192.81423378 0 0 0 0 12029818.863253467 139462.40836633742 0 139462.40836633742 -12016530.643090088 0 0 0 0 36511244.263408661 14082937.124609947 0 14082937.124609947 -43594910.631717682 0 0 0 0 31469354.205978394 2309253.8833446503 0 2309253.8833446503 4576039.2732076645 0 0 0 0 143896320.64573669 844471340.14938259 0 844471340.14938259 -533274702.6281395 0 0 0 0 -234654158.96257019 -81508131.776698589 0 -81508131.776698589 115801446.4522953 0 0 0 0 490899.22551278025 -54263.64752501063 0 -54263.64752501063 -2427415.1789773521 0 0 0 0 129350614.85931396 141046078.29271507 0 141046078.29271507 94631676.777730942 0 0 0 0 327692442.56143039 152519787.6417532 0 152519787.6417532 -84376489.810466766 0 0 0 0 605958040.4520874 124344062.04604149 0 124344062.04604149 -123401760.86531067 0 0 0 0 456355904.86257935 497561327.056283 0 497561327.056283 23481953.246582031 0 0 0 0 494990462.53860474 -155299580.18265438 0 -155299580.18265438 -14676020.257487535 0 0 0 0 1716422.3259489834 239923.49158579856 0 239923.49158579856 -1540068.2684245501 0 0 0 0 140774529.34370422 112151334.81866741 0 112151334.81866741 -56401848.039520264 0 0 0 0 181171277.03192139 77853722.69865799 0 77853722.69865799 -179134446.2543211 0 0 0 0 264461277.98156738 -166036631.1472187 0 -166036631.1472187 202694190.12339258 0 0 0 0 296084955.35359192 307256421.69278812 0 307256421.69278812 233580609.90016174 0 0 0 0 4958628.7932994328 3297246.0231082998 0 3297246.0231082998 -8955254.5134152714 0 0 0 0 -139750674.84768677 25178808.097507 0 25178808.097507 162604523.78117657 0 0 0 0 -138342597.84651184 -179939551.9861722 0 -179939551.9861722 -47864501.873029232 0 0 0 0 48561454.664279938 9440114.6017301083 0 9440114.6017301083 -17355429.470920563 0 0 0 0 181967644.72932053 -22509885.194293976 0 -22509885.194293976 -98441079.532810211 0 0 0 0 4053113.1007843018 -31596698.561901093 0 -31596698.561901093 30291329.067409515 0 0 0 0 32240260.048370361 -33375670.130260468 0 -33375670.130260468 -383572.32862472534 0 0 0 0 18904340.490951538 -16908152.680562973 0 -16908152.680562973 -17649876.655971527 0 0 0 0 12618226.712516785 36766706.325487137 0 36766706.325487137 43067139.090622902 0 0 0 0 -269546181.53266907 -52761924.928640366 0 -52761924.928640366 28964589.819570541 0 0 0 0 71498490.936676025 202263014.85337448 0 202263014.85337448 -248076885.30207443 0 0 0 0 330407525.91989136 190059636.31505775 0 190059636.31505775 -180523487.3868103 0 0 0 0 138929130.44126892 92809154.866737366 0 92809154.866737366 -103507170.88176531 0 0 0 0 167122868.68174744 25917161.598575592 0 25917161.598575592 -156160574.05071259 0 0 0 0 179540269.64251709 10144226.608472824 0 10144226.608472824 -388461910.99323463 0 0 0 0 16509695.110115051 17161015.257854462 0 17161015.257854462 -37868004.858783722 0 0 0 0 1403085.3201751709 7864324.5613136292 0 7864324.5613136292 -13576979.977977753 0 0 0 0 6206605.3281612396 -2344960.8395962715 0 -2344960.8395962715 -56159167.967262268 0 0 0 0 10119769.148506165 18502318.699914932 0 18502318.699914932 -31369337.928012848 0 0 0 0 13579080.367492676 44909284.759959221 0 44909284.759959221 -25904978.594390869 0 0 0 0 9827383.1806030273 40643171.896743774 0 40643171.896743774 -30571336.887187958 0 0 0 0 -26029700.574203491 47838557.070129395 0 47838557.070129395 -47816617.390533209 0 0 0 0 7308543.7260475159 -40740127.165260792 0 -40740127.165260792 -23527307.450939178 0 0 0 0 36220552.212524414 35275866.297700882 0 35275866.297700882 -48045688.046279907 0 0 0 0 16399283.213043213 11945617.354276657 0 11945617.354276657 -102390150.31206131 0 0 0 0 -5379675.9502410889 -23678860.921842575 0 -23678860.921842575 -48989177.751398087 0 0 0 0 3581333.1221032999 4342881.6650614943 0 4342881.6650614943 -3360404.0652341992 0 0 0 0 6241336.9260864258 23618874.684696198 0 23618874.684696198 -36817814.464099884 0 0 0 0 -30952727.806106567 66644604.900239944 0 66644604.900239944 -55660215.470149994 0 0 0 0 49628183.935239792 -692758.13326358795 0 -692758.13326358795 -54348819.152786255 0 0 0 0 29856784.970031738 52212791.089626312 0 52212791.089626312 -90811610.09028244 0 0 0 0 22514026.099471204 18823884.446070649 0 18823884.446070649 -732545.96744878637 0 0 0 0 18451039.237556458 15818941.485839844 0 15818941.485839844 -46763920.224840164 0 0 0 0 24298124.257052638 -1950679.9238155149 0 -1950679.9238155149 -14620860.277467739 0 0 0 0 -54279126.676370621 -35520453.697520256 0 -35520453.697520256 -16785190.572280884 0 0 0 0 43129972.853918016 8542575.112972483 0 8542575.112972483 -15043086.627078108 0 0 0 0 8390592.8782424927 5182934.9869775772 0 5182934.9869775772 -18249151.267908096 0 0 0 0 23749945.371376038 14437857.003797531 0 14437857.003797531 -38038220.749055386 0 0 0 0 23163089.276208021 -2351136.0857937578 0 -2351136.0857937578 -20832176.244016856 0 0 0 0 25382364.740104675 -3127030.0639424324 0 -3127030.0639424324 -23910085.521800518 0 0 0 0 28345134.650566101 7751877.5538272858 0 7751877.5538272858 -34563053.218336105 0 0 0 0 16518398.111862063 4734470.9104461931 0 4734470.9104461931 -12394355.708577789 0 0 0 0 35654390.119920731 -31383463.973923564 0 -31383463.973923564 -33044055.08795166 0 0 0 0 7407399.3633728027 3200714.0835514069 0 3200714.0835514069 -8787617.3796730042 0 0 0 0 1660460.2349717841 -5066154.4933414971 0 -5066154.4933414971 -9877263.2941482961 0 0 0 0 197433463.63562012 -142854420.96522141 0 -142854420.96522141 -1165793860.4932098 0 0 0 0 -204606380.37400818 1152318979.4884405 0 1152318979.4884405 514243130.54310036 0 0 0 0 1572850239.9655685 -1161885824.851666 0 -1161885824.851666 -616957566.73894691 0 0 0 0 -940252790.97843933 -608383431.31253242 0 -608383431.31253242 1264103682.6666088 0 0 0 0 -1144948591.683197 -41591763.641178131 0 -41591763.641178131 281302173.81607056 0 0 0 0 6915288.8092346191 -2091984.2163648605 0 -2091984.2163648605 -7435563.0670318604 0 0 0 0 11383203.985079229 -4858234.3744773902 0 -4858234.3744773902 -12205556.973649282 0 0 0 0 -255393585.61694336 -101055903.48545837 0 -101055903.48545837 -366805515.88757324 0 0 0 0 1629663.3794841766 -1858748.7336621284 0 -1858748.7336621284 -12548472.542921066 0 0 0 0 13629800.268415101 157998.78705725819 0 157998.78705725819 -9413263.9510448407 0 0 0 0 4637449.3522949219 -890319.11666342616 0 -890319.11666342616 -5236156.0734187663 0 0 0 0 4414936.2754721045 -1723260.087800615 0 -1723260.087800615 -13935117.539660128 0 0 0 0 6136516.5711676106 -543610.87103036791 0 -543610.87103036791 -10247657.150608364 0 0 0 0 11586874.17065258 3186014.4103298765 0 3186014.4103298765 -7593001.0442252811 0 0 0 0 8191425.2891998291 3735461.6862578392 0 3735461.6862578392 -8860298.6013650894 0 0 0 0 7699745.5920715332 3303636.0379104614 0 3303636.0379104614 -9036988.3255243301 0 0 0 0 6218558.9922304749 7015365.018724774 0 7015365.018724774 -15622059.103788126 0 0 0 0 6074294.4116821289 3488889.9118585587 0 3488889.9118585587 -4991996.4489820004 0 0 0 0 4165726.2881177887 -3555587.0773389572 0 -3555587.0773389572 -9334421.6300697066 0 0 0 0 3693183.2775420845 2192905.234487474 0 2192905.234487474 -4812484.2498948015 0 0 0 0 3468048.1179943085 -836998.45299220085 0 -836998.45299220085 -10429910.135635376 0 0 0 0 -2029494.8244781494 -4249231.4051170349 0 -4249231.4051170349 -29982512.650865555 0 0 0 0 6038340.5941467285 -2796805.5372171402 0 -2796805.5372171402 -16803671.930716276 0 0 0 0 4738173.4141239971 -867136.40013159439 0 -867136.40013159439 -6866540.4682402052 0 0 0 0 4169547.7205181122 -3374532.691822052 0 -3374532.691822052 -13995399.516335487 0 0 0 0 866409.51488072425 -1937080.7305344213 0 -1937080.7305344213 -2655721.0201903735 0 0 0 0 8298945.4377441406 -9475661.5302562714 0 -9475661.5302562714 -51533126.825546265 0 0 0 0 9851391.2947235107 -11791731.623905182 0 -11791731.623905182 -70904156.716777802 0 0 0 0 -82898562.943222046 -176204191.60787201 0 -176204191.60787201 422654887.74027634 0 0 0 0 -41858949.035224915 -222524563.50605774 0 -222524563.50605774 214300737.24222183 0 0 0 0 -13487845.084209442 -20914335.632819653 0 -20914335.632819653 8935225.0312728882 0 0 0 0 19732257.142333984 -22883429.361122131 0 -22883429.361122131 -984249.53336334229 0 0 0 0 6202189.6038341299 -6866840.1405229885 0 -6866840.1405229885 -7691131.1187567264 0 0 0 0 -45001592.271148682 -149019444.71076584 0 -149019444.71076584 225043230.36565018 0 0 0 0 29961780.411712646 -40974694.938011169 0 -40974694.938011169 -51744583.816244125 0 0 0 0 -86311659.672393799 -105805144.72183037 0 -105805144.72183037 -78290823.715816498 0 0 0 0 1755435.6986139417 -326611.04892235249 0 -326611.04892235249 -2455378.4992654566 0 0 0 0 13972681.876571655 -62111924.241085052 0 -62111924.241085052 17693345.740188599 0 0 0 0 290061235.06184387 -170002548.95155525 0 -170002548.95155525 38207125.530742645 0 0 0 0 8643366.6913299561 -278413017.48811245 0 -278413017.48811245 243522547.30700684 0 0 0 0 293236761.08065796 -445016049.88651657 0 -445016049.88651657 290965077.86802053 0 0 0 0 68297305.683563232 64374407.65023756 0 64374407.65023756 120079750.46745491 0 0 0 0 -43691539.991210938 -14582028.558281422 0 -14582028.558281422 64763847.374601364 0 0 0 0 80738504.231185913 15042511.933084488 0 15042511.933084488 -126106767.76873016 0 0 0 0 5847174.340244323 -8213739.4430391937 0 -8213739.4430391937 -11582131.733055986 0 0 0 0 157992960.30195618 -10159666.142939568 0 -10159666.142939568 -118205889.79204178 0 0 0 0 2579681845.2892303 1231367917.9900627 0 1231367917.9900627 -1269878980.2799664 0 0 0 0 57212955.581039429 -11363695.863046646 0 -11363695.863046646 -33856311.001180172 0 0 0 0 11179734.085257471 -5275412.6054618377 0 -5275412.6054618377 -8991997.4323683754 0 0 0 0 25411854.592987061 19035519.762901306 0 19035519.762901306 64201131.450050354 0 0 0 0 5037891.2534534074 -8364312.7733591832 0 -8364312.7733591832 -21009747.055157281 0 0 0 0 1647992.545992367 -6464805.6898391359 0 -6464805.6898391359 -16153085.522696653 0 0 0 0 259187508.04487991 -78373516.360135078 0 -78373516.360135078 -115961686.8696537 0 0 0 0 137693326.81216049 -273793120.28719783 0 -273793120.28719783 165517381.66857529 0 0 0 0 361213176.83187103 -326495466.54777718 0 -326495466.54777718 128742857.23887205 0 0 0 0 341420653.18419647 -209241259.87459469 0 -209241259.87459469 -133014258.24808931 0 0 0 0 405968731.16166687 39190060.528894424 0 39190060.528894424 97096038.114228249 0 0 0 0 217926806.17532349 -407024053.30671597 0 -407024053.30671597 374726414.41938019 0 0 0 0 -131400497.03234863 -416928957.45984268 0 -416928957.45984268 522470846.79826355 0 0 0 0 -1069043.0319865234 253090.20239811018 0 253090.20239811018 2281750.9515321804 0 0 0 0 -516870574.62332153 -267692775.12175131 0 -267692775.12175131 470333933.13481355 0 0 0 0 522363706.65527725 -396643127.86451292 0 -396643127.86451292 -11410942.411499977 0 0 0 0 202371541.7399292 -211294387.32377672 0 -211294387.32377672 -224972080.08321857 0 0 0 0 -313574679.72116089 51312575.174883366 0 51312575.174883366 141345170.86806965 0 0 0 0 -261784602.85954285 -198946837.81688309 0 -198946837.81688309 439141029.64537573 0 0 0 0 4556821.6117563248 -176838349.83901775 0 -176838349.83901775 303891343.71056366 0 0 0 0 -61545517.871063232 121809102.64521027 0 121809102.64521027 -129175591.91480637 0 0 0 0 -85991012.087844849 28848484.792376518 0 28848484.792376518 -11660857.987671852 0 0 0 0 1862714.0298356339 2128467.3440834209 0 2128467.3440834209 -2463141.7327505182 0 0 0 0 7762526.428981863 71966.005810778588 0 71966.005810778588 -740084.78522372991 0 0 0 0 7517893.9675598145 1095467.1682796478 0 1095467.1682796478 -9751612.2686729431 0 0 0 0 7107355.6004180908 1470441.7133903503 0 1470441.7133903503 -7914872.6919059753 0 0 0 0 7897021.103269577 -938519.88798236847 0 -938519.88798236847 -10126698.933540344 0 0 0 0 7878243.8149795532 -1252618.9819736481 0 -1252618.9819736481 -4585816.483663559 0 0 0 0 9452568.7351184413 -3615155.0025039073 0 -3615155.0025039073 -2127868.1594582172 0 0 0 0 8133820.5910644531 -2130669.016620636 0 -2130669.016620636 -6867649.5278716087 0 0 0 0 5791033.8839111328 -1421020.0832710266 0 -1421020.0832710266 -8203503.7630653381 0 0 0 0 10184011.11364577 -2105179.8777572354 0 -2105179.8777572354 -3076816.3131205998 0 0 0 0 5552223.9475097656 608654.03723526001 0 608654.03723526001 -9184095.9101848602 0 0 0 0 4049701.8604431152 3575016.0122308731 0 3575016.0122308731 -14102415.015556335 0 0 0 0 8589662.3302612305 -4544589.6299133301 0 -4544589.6299133301 -16889924.696792603 0 0 0 0 384317.29075245559 -68160.819081310183 0 -68160.819081310183 -167833.38414437138 0 0 0 0 209468434.88021851 -64761599.4734478 0 -64761599.4734478 -267245745.70868301 0 0 0 0 5663700.0979003906 6475265.2685489655 0 6475265.2685489655 -16368250.610973358 0 0 0 0 5408616.8940429688 4068685.3697223663 0 4068685.3697223663 -16368387.860630035 0 0 0 0 10213817.04766497 -1376970.8038134631 0 -1376970.8038134631 -1414752.5954969404 0 0 0 0 6918043.1656515226 8388410.2705944441 0 8388410.2705944441 -5422473.8337646406 0 0 0 0 114726584.21995544 108349695.68138027 0 108349695.68138027 -134226439.63043213 0 0 0 0 88332873.882141113 -15657445.706075668 0 -15657445.706075668 -56713251.67275238 0 0 0 0 -424807317.3306694 35918213.722340107 0 35918213.722340107 208313619.09485245 0 0 0 0 -1097506481.8450317 1261594799.19347 0 1261594799.19347 -888812830.10399342 0 0 0 0 -156656.32991429418 816547.33879888337 0 816547.33879888337 -309000.56466051517 0 0 0 0 647285607.29876709 421603166.6039238 0 421603166.6039238 174318661.26751232 0 0 0 0 -571182832.37223053 -1050255371.2641163 0 -1050255371.2641163 43773529.971767426 0 0 0 0 1700295017.5024414 -461112737.68693542 0 -461112737.68693542 63265667.223434448 0 0 0 0 -308839032.60360718 281890091.37871552 0 281890091.37871552 754598469.27867591 0 0 0 0 117164386.03527832 -236885761.69026184 0 -236885761.69026184 549672912.93729401 0 0 0 0 4226427.0223488659 -1454628.6811096892 0 -1454628.6811096892 -2754513.6588999755 0 0 0 0 6036822.70654504 3061387.0066434909 0 3061387.0066434909 -706563.25901149353 0 0 0 0 116388607.40194702 41090205.36920166 0 41090205.36920166 44507416.81892395 0 0 0 0 -1617786086.9984665 -3502673797.5692515 0 -3502673797.5692515 1929764075.0964661 0 0 0 0 2169827720.4293823 -299020408.37626553 0 -299020408.37626553 -156366067.94596863 0 0 0 0 193363218.11584473 264530771.66227341 0 264530771.66227341 178870879.14540863 0 0 0 0 333010222.73826599 23276910.814002991 0 23276910.814002991 -59220531.245531082 0 0 0 0 727608992.70811462 86973096.286856651 0 86973096.286856651 -151616889.8901825 0 0 0 0 326469884.53527832 -208986311.27303696 0 -208986311.27303696 -155517624.12957716 0 0 0 0 344108879.47618103 -64328225.479675293 0 -64328225.479675293 -197451472.72105789 0 0 0 0 324469222.8374176 -12167944.846427917 0 -12167944.846427917 -160709861.55366349 0 0 0 0 -17196490.208618164 139378469.50987625 0 139378469.50987625 -161401995.3944912 0 0 0 0 133818695.78430176 -60950617.504206657 0 -60950617.504206657 -125611906.45256042 0 0 0 0 238234521.6305542 -49088097.958739758 0 -49088097.958739758 -134636233.51941872 0 0 0 0 228984156.80169678 -101357593.19693947 0 -101357593.19693947 -130987813.37838173 0 0 0 0 249976507.52104187 -30183706.926607132 0 -30183706.926607132 -190058852.54950905 0 0 0 0 226455967.66661072 -194798098.39931536 0 -194798098.39931536 -215484161.15088177 0 0 0 0 252993386.0621109 -106732152.65880275 0 -106732152.65880275 -23078285.408295631 0 0 0 0 117035610.40068817 -75302040.610423088 0 -75302040.610423088 40635498.65858531 0 0 0 0 163517265.97023392 6011123.311771512 0 6011123.311771512 -20250928.365673065 0 0 0 0 129104714.72496033 55784935.960018128 0 55784935.960018128 -434536778.48845291 0 0 0 0 -119072372.40859985 -220177522.86119938 0 -220177522.86119938 -201097137.88615799 0 0 0 0 57108050.995800018 134016397.68327427 0 134016397.68327427 -400416602.29014206 0 0 0 0 -12038667.128917694 144611436.75656474 0 144611436.75656474 -275114644.13878059 0 0 0 0 147073301.50718689 -100160212.82295895 0 -100160212.82295895 -621157823.09289742 0 0 0 0 232517141.37623596 329253194.23981619 0 329253194.23981619 284393434.88718641 0 0 0 0 306581952.52384949 176070269.45710802 0 176070269.45710802 98404000.464055777 0 0 0 0 94754007.715184212 124404249.27465585 0 124404249.27465585 304036896.87073898 0 0 0 0 118355859.90910339 -75503703.51568985 0 -75503703.51568985 -57783476.571229935 0 0 0 0 32366872.984207153 -18057049.198306084 0 -18057049.198306084 -45285087.174788952 0 0 0 0 20250142.260253906 10459079.47297287 0 10459079.47297287 -35207223.4324646 0 0 0 0 -5587645.84375 -32504477.303828239 0 -32504477.303828239 -33063694.16130352 0 0 0 0 284772148.69726562 -254336481.63495636 0 -254336481.63495636 4325252.9417266846 0 0 0 0 6572295.6024195552 -1205982.2904046588 0 -1205982.2904046588 -2777891.351526577 0 0 0 0 332092578.38708496 256537636.4912796 0 256537636.4912796 200063504.86071014 0 0 0 0 -21375985.79258728 10994499.063692093 0 10994499.063692093 -140093461.2493248 0 0 0 0 365990588.73623657 154982285.24523544 0 154982285.24523544 -170767941.3212471 0 0 0 0 134494.7169162631 -204153.17115726927 0 -204153.17115726927 38635.470431375783 0 0 0 0 631499894.29183578 -610070686.71634531 0 -610070686.71634531 356641752.57219696 0 0 0 0 -71362036.015777588 332447384.36374283 0 332447384.36374283 -404527443.42316628 0 0 0 0 -85073910.418731689 762836766.59168625 0 762836766.59168625 -413551666.22602081 0 0 0 0 270178569.34692383 -116902119.20167637 0 -116902119.20167637 -182533645.2973175 0 0 0 0 402827844.44151306 100958603.21734571 0 100958603.21734571 -622219240.87977219 0 0 0 0 337023744.43838501 129781293.50829506 0 129781293.50829506 -179541986.86083412 0 0 0 0 323658468.93728638 356891687.11274147 0 356891687.11274147 43638148.396331787 0 0 0 0 296659426.42483521 224986718.4996767 0 224986718.4996767 119443052.77653503 0 0 0 0 375955554.83029175 284326783.11918449 0 284326783.11918449 -130753156.91773987 0 0 0 0 57686551.519622803 29631654.752562523 0 29631654.752562523 -9879403.1610608101 0 0 0 0 7921158.7373428345 16013205.473433495 0 16013205.473433495 4887857.4968900681 0 0 0 0 8207578.5802612305 -7629412.5469608307 0 -7629412.5469608307 -1750207.7519674301 0 0 0 0 20415470.42755127 -7325367.6620597839 0 -7325367.6620597839 -35997538.304444313 0 0 0 0 -104003749.00508118 128504613.19161606 0 128504613.19161606 -136819838.56343269 0 0 0 0 18034760.823364258 -13117613.458474159 0 -13117613.458474159 -20660948.750097275 0 0 0 0 7637485.7607089281 -419239.19665555144 0 -419239.19665555144 -1559189.4803808285 0 0 0 0 7577573.9984130859 4529146.9901247025 0 4529146.9901247025 -21841637.943920135 0 0 0 0 1835830.6580960974 618964.77619516291 0 618964.77619516291 -2292465.0732838158 0 0 0 0 3748348.0341170952 2669326.1130530983 0 2669326.1130530983 -7065715.1111457692 0 0 0 0 22663908.144516945 12485952.219615757 0 12485952.219615757 -15096280.515859604 0 0 0 0 87202613.504180908 4327525.2553787231 0 4327525.2553787231 -7707648.5727844238 0 0 0 0 9190888.82199388 -428526.63498014025 0 -428526.63498014025 -2046878.6876185928 0 0 0 0 100307589.48683167 -90907429.790664673 0 -90907429.790664673 -592762326.79486847 0 0 0 0 124636512.45251465 -643665.52683448792 0 -643665.52683448792 -588658189.44441986 0 0 0 0 194944782.79147339 -22769943.307800293 0 -22769943.307800293 -584491644.86526108 0 0 0 0 156930090.91040039 31577199.776838303 0 31577199.776838303 -853710653.51230621 0 0 0 0 196790416.72558594 -87052872.341369629 0 -87052872.341369629 -638907843.20361328 0 0 0 0 136741254.93173981 31258435.230389595 0 31258435.230389595 -308317474.61364746 0 0 0 0 137769154.19221497 -112394379.79328156 0 -112394379.79328156 -627875089.44365311 0 0 0 0 -80998453.472442627 -166904988.15942001 0 -166904988.15942001 -304937187.16368484 0 0 0 0 117960230.76808929 -12095838.890226364 0 -12095838.890226364 -655388500.48557663 0 0 0 0 30125576.236236572 -253045530.37346077 0 -253045530.37346077 -522057083.62871933 0 0 0 0 187031552.72062683 161157699.88220406 0 161157699.88220406 -649592577.19944763 0 0 0 0 -110741511.2638092 301035022.89258957 0 301035022.89258957 -228299318.14713669 0 0 0 0 382184107.6565094 136671215.64478016 0 136671215.64478016 -173911397.82635498 0 0 0 0 92712936.884155273 -130474170.16155052 0 -130474170.16155052 323285938.9994812 0 0 0 0 70272022.470901489 100650538.76538849 0 100650538.76538849 -71271883.716854095 0 0 0 0 317664706.25721741 409751068.72691917 0 409751068.72691917 166488130.38509369 0 0 0 0 -79301377.231948853 397775070.8029995 0 397775070.8029995 695108928.68131447 0 0 0 0 85733918.04826355 -32655042.251029968 0 -32655042.251029968 -256173296.16559792 0 0 0 0 -11793532.649200439 129013766.89866638 0 129013766.89866638 218325206.89230347 0 0 0 0 -12296833.314483643 361690600.45949936 0 361690600.45949936 265868698.22005177 0 0 0 0 151399286.38983154 420708921.96947098 0 420708921.96947098 -20537499.59868288 0 0 0 0 26982561.977806091 73930152.473815918 0 73930152.473815918 -63121130.973640442 0 0 0 0 34281202.107772827 233833455.7935257 0 233833455.7935257 -305774277.22770119 0 0 0 0 1432706.4918057695 -1694821.5707676485 0 -1694821.5707676485 -766782.34802844562 0 0 0 0 -135187743.52746582 271490003.83263588 0 271490003.83263588 -75455116.763946533 0 0 0 0 7284578.3221693039 144197.87389099598 0 144197.87389099598 -3585763.9166069031 0 0 0 0 10172379.207414977 1509135.1137718279 0 1509135.1137718279 -4976725.7294621551 0 0 0 0 638981.6529442817 -688940.48569972627 0 -688940.48569972627 -67347.298344754148 0 0 0 0 -173539933.80952454 -5162353.8981590271 0 -5162353.8981590271 -3773093.6934680939 0 0 0 0 87721917.418212891 189838846.23824596 0 189838846.23824596 -298684072.65313721 0 0 0 0 118390073.20349884 -88848220.179088593 0 -88848220.179088593 -10216832.497516632 0 0 0 0 190403328.7175293 21857348.550952911 0 21857348.550952911 79677546.093470395 0 0 0 0 157387542.21847534 186388688.80005646 0 186388688.80005646 -142320292.88388443 0 0 0 0 341304259.82041931 -47064987.353426933 0 -47064987.353426933 -377165261.0921402 0 0 0 0 165396831.0837326 343687869.52472591 0 343687869.52472591 73308034.596948624 0 0 0 0 4794933.9483425766 -508764.47095610527 0 -508764.47095610527 -2724803.245416156 0 0 0 0 -1163251.7509155273 -2067017.7754631042 0 -2067017.7754631042 5857748.0536308289 0 0 0 0 4138262.2593688965 -6805769.8495540619 0 -6805769.8495540619 -14507096.529884338 0 0 0 0 722384.72604370117 -11138958.876251221 0 -11138958.876251221 6948269.6066989899 0 0 0 0 9854499.1653279029 -3507806.5971211568 0 -3507806.5971211568 -2495235.1944706775 0 0 0 0 8537415.7052612305 -1359813.1344804764 0 -1359813.1344804764 -6016512.9963607788 0 0 0 0 3606637.0046920776 215982.13907718658 0 215982.13907718658 -6338657.8766212463 0 0 0 0 -15405845.87399292 -11785781.473810196 0 -11785781.473810196 10984062.693241119 0 0 0 0 15801117.194129944 4309164.3255295753 0 4309164.3255295753 -32793155.222171783 0 0 0 0 4230504.9286126141 -1586229.1615598761 0 -1586229.1615598761 -247936.23754820973 0 0 0 0 1350939.3305782191 -380400.54795126244 0 -380400.54795126244 -133869.8870097138 0 0 0 0 -38746822.036827087 72881040.23169136 0 72881040.23169136 -84089179.499385834 0 0 0 0 -20761634.296646118 39112248.299854279 0 39112248.299854279 -24487981.897195816 0 0 0 0 -16807189.637939453 25101899.367630005 0 25101899.367630005 -15545303.504386902 0 0 0 0 17364448.606002808 43917391.09236908 0 43917391.09236908 -58566655.586483002 0 0 0 0 -13005636.937587738 50826267.317491531 0 50826267.317491531 -52419781.922340393 0 0 0 0 -3032884.6531677246 33036377.60697937 0 33036377.60697937 -39422790.104825974 0 0 0 0 -2205798.2602462769 35622797.971609116 0 35622797.971609116 -59740757.64037323 0 0 0 0 8628351.859315902 22913.79738100199 0 22913.79738100199 -2291938.090243537 0 0 0 0 -1262983.804107666 20568985.908016205 0 20568985.908016205 -42698154.995321274 0 0 0 0 -42016.260147094727 18151835.194923401 0 18151835.194923401 -44844698.822566986 0 0 0 0 7716646.7946472168 -15156637.433078766 0 -15156637.433078766 -16801836.085063934 0 0 0 0 1873488.4234008789 -21454026.384048462 0 -21454026.384048462 -912334.95887565613 0 0 0 0 5471942.9199284092 -120419.88547600713 0 -120419.88547600713 -968853.17829648079 0 0 0 0 28369533.110370636 19411491.561489105 0 19411491.561489105 -39473080.13684082 0 0 0 0 -1456613.7893218994 -30522689.241210938 0 -30522689.241210938 -49506074.301384926 0 0 0 0 -33820536.87802124 12185600.712263107 0 12185600.712263107 31683799.440261841 0 0 0 0 81314201.134979248 -3730129.9557189941 0 -3730129.9557189941 -153249343.52069664 0 0 0 0 2032146.6795273498 558351.89089816622 0 558351.89089816622 -1479162.0381502751 0 0 0 0 -125962550.61273193 -83273374.416950226 0 -83273374.416950226 63494542.623092651 0 0 0 0 54994186.921691895 8358331.211938858 0 8358331.211938858 -73430268.844707489 0 0 0 0 145845291.33415985 -52613318.829803467 0 -52613318.829803467 -94608319.090923309 0 0 0 0 -51367370.953475952 -11711496.004077911 0 -11711496.004077911 -102935228.58696747 0 0 0 0 49663968.368934631 25971421.730356216 0 25971421.730356216 -83381142.087341309 0 0 0 0 33753925.717849731 -13245882.943943024 0 -13245882.943943024 -123991563.15723419 0 0 0 0 -6580452.1278896332 4988479.996773243 0 4988479.996773243 -71381194.577785492 0 0 0 0 31411250.470489502 21340069.958099365 0 21340069.958099365 -84797970.149915695 0 0 0 0 16883436.744735718 57701601.712377548 0 57701601.712377548 -12980210.062679291 0 0 0 0 61986385.722335815 43383759.493335724 0 43383759.493335724 -68932881.387537003 0 0 0 0 10819465.664718628 46015891.713760376 0 46015891.713760376 -13798807.15020752 0 0 0 0 173487925.78730774 73334979.794317245 0 73334979.794317245 -50130577.248929977 0 0 0 0 113040128.94313431 -10304751.644091129 0 -10304751.644091129 -9506169.4020652771 0 0 0 0 201790388.68080139 32111704.673653603 0 32111704.673653603 -57542790.431163788 0 0 0 0 80946027.991611481 64189907.405804634 0 64189907.405804634 -111664611.89556122 0 0 0 0 -26587136.407516479 121326901.95486641 0 121326901.95486641 -159740498.22817612 0 0 0 0 -453533980.43321228 -293667241.57041073 0 -293667241.57041073 -236199433.11573076 0 0 0 0 -85885509.731132507 71400359.408403397 0 71400359.408403397 87452352.730758667 0 0 0 0 -88168818.351390839 89366218.878009677 0 89366218.878009677 6016634.3919258118 0 0 0 0 572785.85563978553 309820.30342531763 0 309820.30342531763 -1413838.8097034562 0 0 0 0 23938421.945907593 -128793959.5654068 0 -128793959.5654068 72903281.686626911 0 0 0 0 -7269348.0510635376 -14250281.203259468 0 -14250281.203259468 -148496189.97314453 0 0 0 0 -6918006.7644634247 652866.00104951859 0 652866.00104951859 -20996224.301574707 0 0 0 0 -3824483.8303222656 25485390.219074249 0 25485390.219074249 -77554049.140317917 0 0 0 0 -3886325.1142654419 32760791.579374313 0 32760791.579374313 -42925169.464176178 0 0 0 0 271528587.83850098 61825929.060211182 0 61825929.060211182 -133881314.45719528 0 0 0 0 215343684.86707306 197209200.55090857 0 197209200.55090857 9880469.1895523071 0 0 0 0 251794845.23043823 61355834.205266953 0 61355834.205266953 -131431841.9869194 0 0 0 0 32008521.891838074 78454403.697982788 0 78454403.697982788 -56787413.484098434 0 0 0 0 36740485.935943604 111696550.14264107 0 111696550.14264107 -87731278.188457489 0 0 0 0 172622471.96261597 94972235.466682434 0 94972235.466682434 -93602496.896417618 0 0 0 0 -114419757.22571564 151326246.43892002 0 151326246.43892002 -39385060.631370544 0 0 0 0 -55951185.797945023 -387156.82707977295 0 -387156.82707977295 -49294638.070144653 0 0 0 0 264203626.88442612 65162200.798696518 0 65162200.798696518 -129939361.79909515 0 0 0 0 201544999.16436005 29327956.509202957 0 29327956.509202957 -128146496.66004562 0 0 0 0 282717515.11464691 -3422056.7429618835 0 -3422056.7429618835 -101712589.89266968 0 0 0 0 9038475.036024984 1017075.6481866986 0 1017075.6481866986 -1668469.6580157951 0 0 0 0 92041990.372951508 -13497524.009731293 0 -13497524.009731293 -78608409.615619659 0 0 0 0 343569597.88416481 11103899.51679039 0 11103899.51679039 -50839860.469097137 0 0 0 0 221378897.66851807 -12186679.054634094 0 -12186679.054634094 28566737.746214867 0 0 0 0 2558913.9000232611 411833.82317080349 0 411833.82317080349 -533421.41733678058 0 0 0 0 228383221.41918755 -95813731.495441914 0 -95813731.495441914 -129174002.42301178 0 0 0 0 459744936.74905396 104511156.83054924 0 104511156.83054924 -58787080.489124298 0 0 0 0 -142775763.08452225 -248612336.75737095 0 -248612336.75737095 -98050530.921274185 0 0 0 0 484094321.91326141 334792404.04206944 0 334792404.04206944 195098601.20600128 0 0 0 0 711036877.85950661 -245611071.09631872 0 -245611071.09631872 -329156174.51992416 0 0 0 0 -47112403.138244629 -171953996.50971222 0 -171953996.50971222 39995956.198944092 0 0 0 0 -18861250.98828125 -90824495.864219666 0 -90824495.864219666 58974936.33836174 0 0 0 0 32822269.130889893 -120702740.74427414 0 -120702740.74427414 -130627452.01061106 0 0 0 0 217533838.78695679 347833726.48629761 0 347833726.48629761 646402754.71796227 0 0 0 0 2011003.1746086851 105767.68988312362 0 105767.68988312362 -279821.81310897786 0 0 0 0 288713016.03477478 429324172.87545776 0 429324172.87545776 691400598.91155243 0 0 0 0 214103036.42241669 144124650.74237442 0 144124650.74237442 287364402.61164093 0 0 0 0 145191194.74581909 207500803.22789764 0 207500803.22789764 739737271.6124506 0 0 0 0 312752373.53625488 36835628.506271362 0 36835628.506271362 345059914.72587585 0 0 0 0 732681022.71897125 35828131.778136253 0 35828131.778136253 108781556.42479324 0 0 0 0 425170991.4317627 -289664928.22251129 0 -289664928.22251129 208311555.83441162 0 0 0 0 368128818.39004517 375353237.72112656 0 375353237.72112656 546333237.46798706 0 0 0 0 363561511.77863312 -124287689.41083717 0 -124287689.41083717 -156480073.17363739 0 0 0 0 305158749.92100525 -98274484.921821594 0 -98274484.921821594 101152465.02074242 0 0 0 0 211471110.41983032 -44921823.359258652 0 -44921823.359258652 510736614.67821312 0 0 0 0 197000449.64489937 46865477.870464802 0 46865477.870464802 35741747.845039368 0 0 0 0 78724708.282028198 47731650.930873871 0 47731650.930873871 115645395.10019493 0 0 0 0 22128640.401664734 144824235.89536762 0 144824235.89536762 43370669.276729584 0 0 0 0 -22473095.382247925 88897155.835777283 0 88897155.835777283 17267022.79201889 0 0 0 0 -6407318.5013580322 50437935.32201004 0 50437935.32201004 82976474.154921532 0 0 0 0 32147975.148971558 86143479.403336525 0 86143479.403336525 -18316280.09173584 0 0 0 0 187040147.26274872 75487629.120822906 0 75487629.120822906 -42018284.44377327 0 0 0 0 555479278.00743103 143910411.57954216 0 143910411.57954216 -34537685.442296028 0 0 0 0 29888419.060577393 329313780.11353302 0 329313780.11353302 236656404.73454666 0 0 0 0 530257327.86547089 -219073019.77627277 0 -219073019.77627277 -537270449.32946396 0 0 0 0 594001772.81590271 -49704075.654405594 0 -49704075.654405594 -140655395.88746738 0 0 0 0 2222873.9712001011 1376680.7947468413 0 1376680.7947468413 -1248602.6969821658 0 0 0 0 327995149.19702148 687569472.92872238 0 687569472.92872238 1036668718.0073481 0 0 0 0 950315890.64286327 553253543.1834569 0 553253543.1834569 141414885.93535614 0 0 0 0 827461842.67773438 -118537790.36634254 0 -118537790.36634254 -31930068.348686218 0 0 0 0 115297416.0667572 58122083.006347656 0 58122083.006347656 -76201805.077186584 0 0 0 0 -80536318.562133789 -117929686.38767242 0 -117929686.38767242 140722998.27363586 0 0 0 0 219925459.76878357 -181181155.20638847 0 -181181155.20638847 352811799.78623962 0 0 0 0 101213364.91465759 19933783.891857147 0 19933783.891857147 -409719701.6475563 0 0 0 0 -68908789.868225098 178192655.87042809 0 178192655.87042809 -86053211.757209778 0 0 0 0 233125932.3863678 246337444.8067894 0 246337444.8067894 73881088.134521484 0 0 0 0 197476965.86027145 84161155.259681702 0 84161155.259681702 -52861135.469451904 0 0 0 0 80317414.348678589 64090399.837497711 0 64090399.837497711 296762941.01863337 0 0 0 0 153160148.18583679 87661863.841278076 0 87661863.841278076 -416534864.99565887 0 0 0 0 48999810.757019043 -189371699.58308411 0 -189371699.58308411 -294850923.60117722 0 0 0 0 318248473.61134338 50509902.180802345 0 50509902.180802345 -171910909.27801132 0 0 0 0 99619407.278884888 -149767181.67690277 0 -149767181.67690277 67195530.202206612 0 0 0 0 92063920.343139648 -490323021.83660698 0 -490323021.83660698 -694171605.12973022 0 0 0 0 127612426.38103771 93610093.530892551 0 93610093.530892551 -613622098.18967819 0 0 0 0 5902756.691798225 3557957.0244655893 0 3557957.0244655893 -3671409.4035221254 0 0 0 0 13338032.214447021 16123254.612010956 0 16123254.612010956 -1015353082.8154391 0 0 0 0 154421629.63441467 -176311350.32558632 0 -176311350.32558632 -1021474038.8992348 0 0 0 0 162375037.97354126 245201450.77552414 0 245201450.77552414 233963596.09335327 0 0 0 0 -312353161.23008728 46194086.321544647 0 46194086.321544647 -612343673.09214783 0 0 0 0 -72520976.842041016 -202730437.67154694 0 -202730437.67154694 -651749986.97200775 0 0 0 0 1043650.3852712587 -13734.976574994624 0 -13734.976574994624 -957334.54745058902 0 0 0 0 -242973299.65167236 -543668280.90414047 0 -543668280.90414047 -1257612413.2619629 0 0 0 0 -63363361.108322144 -30493858.777275085 0 -30493858.777275085 -592438044.26862335 0 0 0 0 -29234397.234863281 158421666.60108948 0 158421666.60108948 -1156272590.8040447 0 0 0 0 16741814.656829834 -130296935.97681808 0 -130296935.97681808 -519785620.41774368 0 0 0 0 -152432974.41265869 235339380.22544861 0 235339380.22544861 -587475747.84931946 0 0 0 0 119933757.15641785 197800808.91453505 0 197800808.91453505 193522919.1603775 0 0 0 0 181072162.57592773 193851247.4746151 0 193851247.4746151 112458943.27102661 0 0 0 0 305032491.83282471 264884616.14936447 0 264884616.14936447 59436040.993208885 0 0 0 0 280966168.6602478 295720819.98948002 0 295720819.98948002 32725604.075540543 0 0 0 0 225415410.11553955 249526858.73786926 0 249526858.73786926 179493935.68788147 0 0 0 0 194696284.03119278 275817716.74566841 0 275817716.74566841 254203551.4801178 0 0 0 0 352188318.18190002 401885498.2171669 0 401885498.2171669 173053237.89645576 0 0 0 0 293449074.56758118 245790546.33390236 0 245790546.33390236 190223765.96569824 0 0 0 0 331149784.33607483 278983020.29634094 0 278983020.29634094 37035254.006999969 0 0 0 0 290338201.23867035 274159282.08080626 0 274159282.08080626 170914481.22873878 0 0 0 0 349161801.32661438 278738187.55177689 0 278738187.55177689 16578632.337827682 0 0 0 0 214601401.30470276 218502133.66657066 0 218502133.66657066 59803075.712265015 0 0 0 0 122997964.77470398 -133446358.44605064 0 -133446358.44605064 -60091472.987144232 0 0 0 0 94674391.706512451 50817609.433656693 0 50817609.433656693 -253581788.78953362 0 0 0 0 116942721.36499023 -123093278.74645233 0 -123093278.74645233 -57746196.24861145 0 0 0 0 29548082.858337402 -205929958.53339005 0 -205929958.53339005 22582326.361694336 0 0 0 0 123048406.86376953 -237454623.41666031 0 -237454623.41666031 28810283.020374298 0 0 0 0 211989984.97306824 -166173677.53005409 0 -166173677.53005409 -47236487.686340332 0 0 0 0 174258434.35808182 -101380705.30356169 0 -101380705.30356169 100959932.5072403 0 0 0 0 95387695.431640625 276578699.66746521 0 276578699.66746521 175183505.764745 0 0 0 0 450973823.60198975 365695061.04555893 0 365695061.04555893 -132219304.27855682 0 0 0 0 330679496.67189026 -151634862.37236023 0 -151634862.37236023 -104426723.97633934 0 0 0 0 -1691409.8898835704 2106009.3989367895 0 2106009.3989367895 1522250.1285741441 0 0 0 0 133565206.11841965 149932395.95482469 0 149932395.95482469 7173162.512046814 0 0 0 0 221709318.40076447 109835813.2335453 0 109835813.2335453 -62565934.199235678 0 0 0 0 1009606.5747364983 18338143.465289105 0 18338143.465289105 -21839130.32808106 0 0 0 0 -88505792.794540405 87461732.841636658 0 87461732.841636658 -27866788.385166168 0 0 0 0 -9525157.9360961914 239102555.34731293 0 239102555.34731293 190362010.77367783 0 0 0 0 130945804.57999802 271576589.9863739 0 271576589.9863739 194014358.12785339 0 0 0 0 -2395180.5125016309 20161968.376820203 0 20161968.376820203 -18790730.538555741 0 0 0 0 47103019.988708496 161786097.90062714 0 161786097.90062714 290263938.60044861 0 0 0 0 135732010.40658808 131768656.30496597 0 131768656.30496597 -51010777.079086304 0 0 0 0 94279356.66519165 -113453124.62292099 0 -113453124.62292099 -58961075.590530396 0 0 0 0 55837997.340538025 298510888.6612854 0 298510888.6612854 -159768332.44332504 0 0 0 0 198557159.46511078 112278202.88911581 0 112278202.88911581 -278974091.33852768 0 0 0 0 64965947.655097961 -4164192.1738538742 0 -4164192.1738538742 -35650410.689407349 0 0 0 0 112192666.25167084 69397059.1095047 0 69397059.1095047 -43983699.340141296 0 0 0 0 211190399.29550171 39809434.978061676 0 39809434.978061676 -67327272.154602051 0 0 0 0 137678290.08633995 41428055.545571327 0 41428055.545571327 -49581638.980567932 0 0 0 0 146188633.01235199 8600895.4860973358 0 8600895.4860973358 -66058875.364555359 0 0 0 0 213447775.48524284 -54664656.984656334 0 -54664656.984656334 -175922365.16312408 0 0 0 0 131571217.12552643 -53147218.390102386 0 -53147218.390102386 98713613.562015533 0 0 0 0 268587433.8628006 199703077.52479744 0 199703077.52479744 413094477.51794815 0 0 0 0 379439285.64720154 257960081.55036163 0 257960081.55036163 173636958.79887342 0 0 0 0 119568966.01753235 -93140648.465901375 0 -93140648.465901375 84942764.075247765 0 0 0 0 -1721658.9154105037 12128224.234463632 0 12128224.234463632 -21723408.078934498 0 0 0 0 309745304.94208527 323812924.57651901 0 323812924.57651901 218687978.35417271 0 0 0 0 11733172.742218748 1885852.508670154 0 1885852.508670154 -9373248.6662209816 0 0 0 0 56436779.487228394 80707936.491123199 0 80707936.491123199 28137502.580493927 0 0 0 0 -265020574.03790283 -20728916.718792915 0 -20728916.718792915 332555929.17878056 0 0 0 0 -877129408.32598877 156748206.80811691 0 156748206.80811691 290184262.71555662 0 0 0 0 589601874.36399841 -81009378.953331947 0 -81009378.953331947 95188585.390935898 0 0 0 0 -358187041.14324188 222190945.84951591 0 222190945.84951591 31777025.430088043 0 0 0 0 -923223669.65702057 -488264409.87047219 0 -488264409.87047219 676488122.7198391 0 0 0 0 543459643.0025177 -58442140.831208706 0 -58442140.831208706 -213728059.92104721 0 0 0 0 757764906.9808197 44216589.314668655 0 44216589.314668655 -494986646.27444196 0 0 0 0 -260560633.02191162 708414825.72804546 0 708414825.72804546 -418398172.31036949 0 0 0 0 -1000964.1494280584 7601597.7553048786 0 7601597.7553048786 -17741681.85599155 0 0 0 0 -71530969.885772705 647980809.07809544 0 647980809.07809544 -1355767879.4741955 0 0 0 0 -7560273.1508789062 -10331334.092580795 0 -10331334.092580795 73778007.92061615 0 0 0 0 102899026.63514709 38367269.675239563 0 38367269.675239563 3624719.2574386597 0 0 0 0 127193632.43042755 178408114.04605103 0 178408114.04605103 131935002.71471405 0 0 0 0 83191016.751842499 215756989.49646854 0 215756989.49646854 327021407.49951172 0 0 0 0 123507285.04336548 201381140.55750656 0 201381140.55750656 234003433.83657074 0 0 0 0 141293181.81069946 217760201.41516113 0 217760201.41516113 133785040.58319855 0 0 0 0 159079638.57479858 215498725.5918045 0 215498725.5918045 97334179.971153259 0 0 0 0 -1086491747.8272552 -222944723.48776436 0 -222944723.48776436 296640747.60261536 0 0 0 0 -444510.41772222146 1254005.6072822288 0 1254005.6072822288 -2464121.1651325263 0 0 0 0 -609224.94473705813 4071943.0610748231 0 4071943.0610748231 -11011023.865662076 0 0 0 0 134925463.59309006 160012121.51744211 0 160012121.51744211 198026317.99244308 0 0 0 0 106451264.00188828 257640814.65671778 0 257640814.65671778 553512846.62820816 0 0 0 0 170136574.40583038 75925849.179445267 0 75925849.179445267 233455681.99927711 0 0 0 0 138698234.74936676 114760253.33947372 0 114760253.33947372 199428455.4554081 0 0 0 0 93318669.977714539 22532913.368494034 0 22532913.368494034 110864022.85845184 0 0 0 0 92513350.560709953 137134199.63843215 0 137134199.63843215 223737882.8957901 0 0 0 0 165003688.8727951 311553778.53468704 0 311553778.53468704 366707828.43915749 0 0 0 0 106071072.15062714 194641533.99863005 0 194641533.99863005 448204406.25106812 0 0 0 0 120613541.89602661 159638245.66489792 0 159638245.66489792 202421861.08172035 0 0 0 0 159957904.52069855 256978764.24217653 0 256978764.24217653 662764723.49041748 0 0 0 0 279009761.86045074 546692364.83250713 0 546692364.83250713 526469363.23112488 0 0 0 0 310302059.73181152 482184988.11176956 0 482184988.11176956 271489104.88982201 0 0 0 0 195290977.31081772 438397918.35771847 0 438397918.35771847 388562506.20418358 0 0 0 0 191358120.19934082 450098793.79818535 0 450098793.79818535 365252484.15625 0 0 0 0 191825474.12389755 425486024.05666518 0 425486024.05666518 271032722.18700504 0 0 0 0 126896440.67845154 285863220.69201565 0 285863220.69201565 425242475.89369202 0 0 0 0 155425104.14446259 295394621.50099564 0 295394621.50099564 290676116.7687459 0 0 0 0 135522682.8533783 268012292.57461643 0 268012292.57461643 277708152.86444473 0 0 0 0 193500398.82226562 246130099.03095627 0 246130099.03095627 243627076.68614483 0 0 0 0 221253675.61541748 330529468.52459145 0 330529468.52459145 315597461.66505241 0 0 0 0 176829624.83070374 211052423.54384422 0 211052423.54384422 221525827.918396 0 0 0 0 240703391.11044312 139123912.31586456 0 139123912.31586456 180808603.76690674 0 0 0 0 330368440.22521973 153544418.06483078 0 153544418.06483078 183009666.52985382 0 0 0 0 297264080.05899048 243623024.2167511 0 243623024.2167511 229939326.08503723 0 0 0 0 220753972.47488403 291941815.43835449 0 291941815.43835449 200364585.86057281 0 0 0 0 520243653.29423523 236069459.16152763 0 236069459.16152763 94300104.464618683 0 0 0 0 513181234.48250675 427952449.428339 0 427952449.428339 -61965031.453136444 0 0 0 0 386997838.65536499 464706368.58677101 0 464706368.58677101 75810332.209377289 0 0 0 0 357844136.68214035 336576460.71201515 0 336576460.71201515 183814608.50933838 0 0 0 0 275610570.89892578 439567960.93081856 0 439567960.93081856 111509165.2943573 0 0 0 0 350070621.30755615 376315430.12141228 0 376315430.12141228 -18904628.976127625 0 0 0 0 343772322.61445618 486116507.67354584 0 486116507.67354584 109358264.58660889 0 0 0 0 173594184.77528381 649553251.50587845 0 649553251.50587845 87314393.594633102 0 0 0 0 389980233.22581244 613243593.3283571 0 613243593.3283571 -285469468.67014694 0 0 0 0 205767952.29759789 458326564.0187993 0 458326564.0187993 299033727.21680737 0 0 0 0 213748284.1973114 402395948.39776039 0 402395948.39776039 256594782.98828697 0 0 0 0 275236890.06380463 418788459.77764702 0 418788459.77764702 220912212.48596573 0 0 0 0 196320985.49185181 490973865.42396069 0 490973865.42396069 191812887.25089216 0 0 0 0 133262445.84027863 512278608.54863536 0 512278608.54863536 382944093.72985291 0 0 0 0 160879920.17139053 487075315.42605543 0 487075315.42605543 289522146.49245262 0 0 0 0 73679572.919517517 583758239.7566607 0 583758239.7566607 298549401.17626631 0 0 0 0 52655108.413986206 443672667.73773456 0 443672667.73773456 578717129.18902588 0 0 0 0 181457842.67640686 696304162.89016962 0 696304162.89016962 318834704.25139236 0 0 0 0 216014193.15774536 543947864.08426714 0 543947864.08426714 301143173.19042969 0 0 0 0 119086472.50453186 344429882.29845643 0 344429882.29845643 217726403.76508236 0 0 0 0 76201336.462097168 388651445.22819662 0 388651445.22819662 465584521.78288233 0 0 0 0 223118105.68547058 404590511.94054651 0 404590511.94054651 147460874.39623237 0 0 0 0 194664724.78308105 304849515.12088728 0 304849515.12088728 194353613.05049944 0 0 0 0 241269746.03704262 460071000.58996117 0 460071000.58996117 265564729.03426838 0 0 0 0 218890782.60955048 442373575.56067181 0 442373575.56067181 313746818.00618458 0 0 0 0 686688036.8704834 370499935.03130609 0 370499935.03130609 66708049.579577088 0 0 0 0 790112823.49055099 386214720.53009617 0 386214720.53009617 -8749002.0195145607 0 0 0 0 711309066.79853821 332451869.77162135 0 332451869.77162135 -16471643.203442574 0 0 0 0 669402743.21128845 235892580.70778251 0 235892580.70778251 22329061.132147253 0 0 0 0 670327647.91764832 135279715.06415248 0 135279715.06415248 -118881119.80803394 0 0 0 0 782477848.99783325 221184859.44094229 0 221184859.44094229 -80809194.877926409 0 0 0 0 776376970.78937483 69435164.532406181 0 69435164.532406181 -230477231.96019006 0 0 0 0 823454273.99969482 246840464.95933652 0 246840464.95933652 -134732315.45637751 0 0 0 0 980964014.63882446 353143423.81613779 0 353143423.81613779 -69536889.230398893 0 0 0 0 873698115.21333313 376706385.54801989 0 376706385.54801989 9099747.2569046021 0 0 0 0 897396821.02721405 171850367.44159174 0 171850367.44159174 -116108412.63965225 0 0 0 0 1059811519.0269623 398164886.90621281 0 398164886.90621281 274898925.66232967 0 0 0 0 1140019338.4918823 255791552.1111536 0 255791552.1111536 36194711.896440029 0 0 0 0 1009329221.3757935 326431802.62724638 0 326431802.62724638 -1878654.3396904469 0 0 0 0 1161032416.6394348 415153380.67140627 0 415153380.67140627 14164306.067342401 0 0 0 0 642807927.5052669 367036430.83770835 0 367036430.83770835 66457796.53593266 0 0 0 0 1042457391.2481384 533173012.29267931 0 533173012.29267931 95125979.470161438 0 0 0 0 50120053.652755737 317437602.504493 0 317437602.504493 402607846.26454926 0 0 0 0 650627131.23721313 535940665.69841182 0 535940665.69841182 124513750.18438184 0 0 0 0 899624869.6809082 415627828.58657104 0 415627828.58657104 -18376247.615493774 0 0 0 0 1144600180.1738434 473397783.85351527 0 473397783.85351527 461640225.85992813 0 0 0 0 1308121.8140223995 145232.79875830933 0 145232.79875830933 -3457632.1021670247 0 0 0 0 492162091.82279205 214533931.95013142 0 214533931.95013142 456365000.24467373 0 0 0 0 215811724.99139404 310887511.85845327 0 310887511.85845327 674016534.83409238 0 0 0 0 312880810.12533569 512783088.66698933 0 512783088.66698933 559912832.25701666 0 0 0 0 1151903365.1973877 541897851.26008701 0 541897851.26008701 162589494.8555603 0 0 0 0 796495171.01359558 -259306489.23383284 0 -259306489.23383284 -363074822.19838142 0 0 0 0 -340649119.88458252 713659323.16189766 0 713659323.16189766 417929377.57299614 0 0 0 0 1006770.0061455555 2036710.1499273628 0 2036710.1499273628 -7780215.2053155089 0 0 0 0 668272260.38431358 405576238.15619802 0 405576238.15619802 157219025.25184107 0 0 0 0 663065827.63143921 356837974.066544 0 356837974.066544 64220291.0763731 0 0 0 0 561626923.35476685 300716760.79331565 0 300716760.79331565 167744571.16754532 0 0 0 0 600007576.13345337 293835343.70021904 0 293835343.70021904 257584560.59489942 0 0 0 0 597838054.16098785 319267749.47446227 0 319267749.47446227 115425507.93930531 0 0 0 0 -2543453452.5129852 771661702.34586716 0 771661702.34586716 1422210896.3167191 0 0 0 0 -2138009710.7889252 -1934990281.5925093 0 -1934990281.5925093 -705265122.3627243 0 0 0 0 29844242.608505249 1019613498.2266331 0 1019613498.2266331 -86955224.971843719 0 0 0 0 54342384.241973877 149168685.94509602 0 149168685.94509602 -610603122.41880798 0 0 0 0 132091.88681551814 900731.09490254521 0 900731.09490254521 -3859488.6910060197 0 0 0 0 791641337.16847801 409478148.8411085 0 409478148.8411085 48411499.782697201 0 0 0 0 -535602.96264023334 3068542.1875631511 0 3068542.1875631511 -6902069.0568023268 0 0 0 0 726461222.63537598 241448659.04181433 0 241448659.04181433 104344194.60968924 0 0 0 0 524314769.89346313 284062243.36820149 0 284062243.36820149 71109480.008254051 0 0 0 0 553031404.65838623 237898622.5184617 0 237898622.5184617 143209224.7946558 0 0 0 0 644932310.50431824 327362437.18437743 0 327362437.18437743 46412886.929800034 0 0 0 0 544475888.90258789 276550384.94547415 0 276550384.94547415 56192965.278943539 0 0 0 0 552566246.89920044 282528290.97013998 0 282528290.97013998 -18266769.234211922 0 0 0 0 424596870.89349365 227268542.85482121 0 227268542.85482121 57799694.421513557 0 0 0 0 360201407.7331543 217694878.11899328 0 217694878.11899328 61178677.328475475 0 0 0 0 434373787.84713745 204699233.41990757 0 204699233.41990757 -22448249.782682419 0 0 0 0 323961369.83462524 160394444.13389635 0 160394444.13389635 69639171.690963626 0 0 0 0 360247615.08154297 125762714.98051739 0 125762714.98051739 -27999929.4882164 0 0 0 0 519780995.90783691 122397379.3853538 0 122397379.3853538 76546005.568941116 0 0 0 0 495893338.35421753 184304098.7816028 0 184304098.7816028 64202716.308434486 0 0 0 0 620923774.66885376 227207505.65848577 0 227207505.65848577 66133520.547557831 0 0 0 0 439018656.90433502 176406009.75106275 0 176406009.75106275 108285896.55986571 0 0 0 0 711490991.24446106 1655797.9208363295 0 1655797.9208363295 -49912144.739737749 0 0 0 0 692269878.66140747 104398643.59810555 0 104398643.59810555 -77404724.125494957 0 0 0 0 506807662.57392883 -33556094.758909464 0 -33556094.758909464 106502559.34311867 0 0 0 0 348085078.86245728 -573062.03336143494 0 -573062.03336143494 100411554.02597702 0 0 0 0 372076194.01101685 37139426.601500988 0 37139426.601500988 -424626.22691249847 0 0 0 0 491219736.7141304 -430045067.27779818 0 -430045067.27779818 177717786.38857174 0 0 0 0 186647686.93611145 189338711.80178547 0 189338711.80178547 -494994859.1593523 0 0 0 0 -276105552.33409119 27619415.073423386 0 27619415.073423386 82583698.012148857 0 0 0 0 229115146.77258301 -170800797.4823494 0 -170800797.4823494 -650253059.89433193 0 0 0 0 155266815.51919556 -55769963.367142677 0 -55769963.367142677 -40233824.866357803 0 0 0 0 227645050.03894043 86230680.366962433 0 86230680.366962433 -12240231.458777666 0 0 0 0 276866791.15507507 126540921.69138145 0 126540921.69138145 -230941620.06907749 0 0 0 0 412200825.93814087 201229090.79911709 0 201229090.79911709 -142484251.33544064 0 0 0 0 264156164.14501953 211744891.34441948 0 211744891.34441948 -21330567.122910261 0 0 0 0 156440635.96200562 91982529.921309233 0 91982529.921309233 -99898511.540130615 0 0 0 0 249204925.77941895 54993131.661241055 0 54993131.661241055 -283643818.92846298 0 0 0 0 11299218.48916626 -41480153.341589928 0 -41480153.341589928 -180601563.64990354 0 0 0 0 -119883795.74026489 -35292324.941643715 0 -35292324.941643715 -181158132.39268541 0 0 0 0 139094841.5433197 -35086434.230349541 0 -35086434.230349541 -298984896.85446453 0 0 0 0 3505322.8374717683 1554474.2981043099 0 1554474.2981043099 -1547694.4793584913 0 0 0 0 -177340569.61080933 -402597162.56036091 0 -402597162.56036091 -401189768.9682641 0 0 0 0 -15600777.228790283 44514440.490771294 0 44514440.490771294 89847003.568008423 0 0 0 0 16169184.823455811 7592538.3867256641 0 7592538.3867256641 -8127185.2560338974 0 0 0 0 3093495.2678034529 945772.06958498107 0 945772.06958498107 -1216301.030779666 0 0 0 0 1141837.7870159969 669819.42830386013 0 669819.42830386013 -2003267.5162026267 0 0 0 0 564099297.08946228 128505537.41552973 0 128505537.41552973 -52716212.957250595 0 0 0 0 726952353.27493286 124650726.51858807 0 124650726.51858807 -249761138.4798584 0 0 0 0 609554526.59237671 222920660.19011211 0 222920660.19011211 105623056.24958086 0 0 0 0 602234521.36685181 368104182.9791193 0 368104182.9791193 156857256.4037571 0 0 0 0 772762185.1546936 249142324.05446053 0 249142324.05446053 -143153300.49411011 0 0 0 0 633831570.26454163 269314161.96365547 0 269314161.96365547 -125555100.7720356 0 0 0 0 347375489.74279785 243903210.95555592 0 243903210.95555592 -61879249.328732014 0 0 0 0 555887986.56015015 309150263.72738338 0 309150263.72738338 -91519428.868506432 0 0 0 0 654582220.23801422 327334149.17433858 0 327334149.17433858 -29497961.789372444 0 0 0 0 583717769.12016296 257403364.16148496 0 257403364.16148496 1967384.8912773132 0 0 0 0 375767936.06695557 227350127.22565079 0 227350127.22565079 -2013253.1133947372 0 0 0 0 376780417.57962036 226690975.91661215 0 226690975.91661215 -104922572.61785507 0 0 0 0 9228160.0121002197 -32265767.728052139 0 -32265767.728052139 -53340416.814036608 0 0 0 0 201225011.03692627 318008262.98465919 0 318008262.98465919 164786860.8785429 0 0 0 0 693493991.73855591 464751189.18903255 0 464751189.18903255 -30688261.685886383 0 0 0 0 750306419.17436981 744561858.28246689 0 744561858.28246689 448938246.36973381 0 0 0 0 845715642.06796265 280148252.00993347 0 280148252.00993347 -208793374.30901146 0 0 0 0 843633022.37498474 270228388.05734348 0 270228388.05734348 -245582675.41996384 0 0 0 0 1401414646.0838928 103272461.21173668 0 103272461.21173668 -544861793.45988274 0 0 0 0 1370300840.9557037 537325502.77828026 0 537325502.77828026 -238648981.79072976 0 0 0 0 758402146.05755615 12681000.779370308 0 12681000.779370308 -259963194.14235687 0 0 0 0 947774533.45545959 174573427.50797987 0 174573427.50797987 -262261370.15633774 0 0 0 0 1679589.9255858809 836634.0207599455 0 836634.0207599455 -610080.30630270753 0 0 0 0 3373232.9862136841 405922.99933491647 0 405922.99933491647 -2327568.6329050083 0 0 0 0 702703656.29486084 184220481.98194981 0 184220481.98194981 -768617167.7881794 0 0 0 0 1689536022.420166 87445695.353506088 0 87445695.353506088 -780352202.61210918 0 0 0 0 859118740.3454895 1007269985.2385674 0 1007269985.2385674 651269476.01737404 0 0 0 0 1694613630.6618958 501576268.68237305 0 501576268.68237305 -43995185.063858032 0 0 0 0 -369399279.54138947 32580164.301437855 0 32580164.301437855 229859288.28528976 0 0 0 0 663090088.39939117 -669651670.61318827 0 -669651670.61318827 -152675403.19529152 0 0 0 0 660280548.76748657 -61088162.62558651 0 -61088162.62558651 -102174491.27929497 0 0 0 0 27295729.908248901 -257987824.0831418 0 -257987824.0831418 29221167.33436203 0 0 0 0 2518626.5557863899 1461064.3472936749 0 1461064.3472936749 -4666749.8547247425 0 0 0 0 559410218.24499512 694503450.99976349 0 694503450.99976349 743491527.14760542 0 0 0 0 382097431.67488098 21114031.457666397 0 21114031.457666397 133698906.73337221 0 0 0 0 265277227.18592834 369124354.29186058 0 369124354.29186058 262883255.98925114 0 0 0 0 21578103.035476685 19671096.937175274 0 19671096.937175274 37643633.39922905 0 0 0 0 26848267.790878296 66246570.828436375 0 66246570.828436375 -84320858.243798256 0 0 0 0 38362540.507232666 63153737.137725353 0 63153737.137725353 2308176.8873691559 0 0 0 0 2485793.0062138066 1009063.5978613533 0 1009063.5978613533 -3519214.6982185254 0 0 0 0 -336177812.1372757 78738211.900156021 0 78738211.900156021 -21472983.546988726 0 0 0 0 36883264.459331512 -10809280.916986465 0 -10809280.916986465 -13585920.773094177 0 0 0 0 6546526.730758667 -174864.81006574631 0 -174864.81006574631 14273542.807877541 0 0 0 0 -157260.36151123047 12261165.078415871 0 12261165.078415871 -8005078.3042650223 0 0 0 0 -10774241.746463776 -51022532.987458199 0 -51022532.987458199 -111132989.52440262 0 0 0 0 3836180.5903927088 -496969.77245100215 0 -496969.77245100215 -1891971.5841002078 0 0 0 0 -39851575.371536255 80517090.523294926 0 80517090.523294926 48597760.217572212 0 0 0 0 8866383.305267334 7811537.3484010696 0 7811537.3484010696 84818722.538614511 0 0 0 0 772381467.41490936 181895626.8544383 0 181895626.8544383 108335685.91461658 0 0 0 0 14245885.145920753 -275103818.45505702 0 -275103818.45505702 -59408238.125042915 0 0 0 0 1558398.6905523613 -168823.53748010099 0 -168823.53748010099 -836330.29025041685 0 0 0 0 243347931.95794678 42055426.223656178 0 42055426.223656178 135857080.39465904 0 0 0 0 301202852.82373047 -189731677.64502525 0 -189731677.64502525 -29049316.007628262 0 0 0 0 93667793.398666382 -186998178.94078875 0 -186998178.94078875 92761142.23851347 0 0 0 0 709674.26047995687 -4458487.7483219765 0 -4458487.7483219765 -11907536.948401298 0 0 0 0 355746777.41609955 -181804866.73919559 0 -181804866.73919559 51722284.095225334 0 0 0 0 492326040.34301758 -11635627.791950226 0 -11635627.791950226 -60788216.257945538 0 0 0 0 4484792.3100509644 36071328.748014688 0 36071328.748014688 245887980.45065176 0 0 0 0 795525.0030410178 -2249077.8497082628 0 -2249077.8497082628 -7625556.6491340566 0 0 0 0 793996016.04758835 -307420625.06180167 0 -307420625.06180167 -39800913.67810154 0 0 0 0 838016216.07375336 -249455670.00582373 0 -249455670.00582373 -18364135.114890099 0 0 0 0 825732.61973119155 -625108.44514805079 0 -625108.44514805079 -3436842.7778263716 0 0 0 0 578335246.81221008 59849036.415011823 0 59849036.415011823 -6811979.0877013206 0 0 0 0 338915972.96600342 146385859.68265915 0 146385859.68265915 -19870512.025631905 0 0 0 0 321716396.02830505 107523307.42921257 0 107523307.42921257 -78826162.868840218 0 0 0 0 411978770.81747437 62454352.917821527 0 62454352.917821527 -125774665.22504807 0 0 0 0 280644218.07250977 -43744436.911069393 0 -43744436.911069393 -78705541.662082434 0 0 0 0 373381936.97756577 -339228097.02209973 0 -339228097.02209973 -221574674.91958046 0 0 0 0 724076133.10681152 -228895427.06499243 0 -228895427.06499243 -189744772.54807997 0 0 0 0 211979195.37112427 -281962870.79265499 0 -281962870.79265499 -203819188.42234731 0 0 0 0 198035538.40368652 -592436529.43706083 0 -592436529.43706083 -393366288.09735489 0 0 0 0 399030554.44274902 -629381650.57672024 0 -629381650.57672024 -577532860.92934275 0 0 0 0 282979987.43252563 -663885640.05104589 0 -663885640.05104589 -340685071.1187439 0 0 0 0 318706375.43435669 -274921942.08981752 0 -274921942.08981752 -779943079.46517229 0 0 0 0 314084402.36260986 -301422302.79299593 0 -301422302.79299593 -182307305.4740696 0 0 0 0 1011815.36325185 223736.67013883451 0 223736.67013883451 -329391.6049678179 0 0 0 0 52366126.228057861 -143650296.98095667 0 -143650296.98095667 390639871.02762222 0 0 0 0 114582104.02084351 105228531.36998343 0 105228531.36998343 174463157.73757172 0 0 0 0 387745950.08862305 -454314445.25033712 0 -454314445.25033712 34580979.828905106 0 0 0 0 22448314.072753906 7078293.0828509331 0 7078293.0828509331 -126044213.08516169 0 0 0 0 705344138.29701233 -225455398.68331146 0 -225455398.68331146 -63609949.982483327 0 0 0 0 492885309.93803632 -144234532.58725551 0 -144234532.58725551 390552679.48959923 0 0 0 0 630306977.40823364 71188093.162007332 0 71188093.162007332 -42967030.331368923 0 0 0 0 -220633699.59869766 -276902992.77173328 0 -276902992.77173328 -20869156.522540092 0 0 0 0 -1469525.1001762003 88059.426597166806 0 88059.426597166806 3810426.8626296548 0 0 0 0 -265867601.32814789 -426524796.1787641 0 -426524796.1787641 -26680973.198200226 0 0 0 0 -95392556.835018158 -107213828.60242701 0 -107213828.60242701 4821438.5138587952 0 0 0 0 -104239865.06610107 -131076919.53714085 0 -131076919.53714085 -70104022.218316555 0 0 0 0 274128977.91713715 -191756011.55045271 0 -191756011.55045271 -101632991.93467379 0 0 0 0 271968213.0975647 -255601022.57382178 0 -255601022.57382178 147345141.4053545 0 0 0 0 525285403.76153564 -233806291.74305916 0 -233806291.74305916 -89597601.065112114 0 0 0 0 592931824.62039566 -366941282.4278028 0 -366941282.4278028 83788430.104522705 0 0 0 0 600500493.16060638 -136344198.36068201 0 -136344198.36068201 41417096.771272898 0 0 0 0 504712413.0164032 -307125599.37723982 0 -307125599.37723982 -32954809.62904644 0 0 0 0 427543922.08467102 -143235068.31033492 0 -143235068.31033492 -1786672.5903124809 0 0 0 0 557818180.1832962 -397181031.12004989 0 -397181031.12004989 126710374.90457666 0 0 0 0 1855262.8870721592 604519.82212213427 0 604519.82212213427 13254.458822962421 0 0 0 0 119989606.70654297 -124932849.09225714 0 -124932849.09225714 135862137.58410501 0 0 0 0 -5729888.9284362793 -24692530.777946949 0 -24692530.777946949 -33947591.698971272 0 0 0 0 -69370371.355245113 -86642474.880536199 0 -86642474.880536199 -74796139.003398895 0 0 0 0 616849.82993161329 708367.35862910375 0 708367.35862910375 3841.6376214781776 0 0 0 0 483601553.17373657 -210746652.01471901 0 -210746652.01471901 52550712.676361561 0 0 0 0 -76231308.805358887 -252226231.67309213 0 -252226231.67309213 24021635.01186657 0 0 0 0 -3563583.4501609802 -87004816.92082715 0 -87004816.92082715 -230899577.31268024 0 0 0 0 -22733091.120567322 -29825015.530344263 0 -29825015.530344263 -24590974.907718673 0 0 0 0 4543675.9598704651 -3566854.4755183104 0 -3566854.4755183104 -1746907.911731937 0 0 0 0 294700899.28456116 -114933850.73938036 0 -114933850.73938036 118914758.8387208 0 0 0 0 -297740379.61392975 -326045934.57508922 0 -326045934.57508922 -384247974.73292565 0 0 0 0 -386647504.51622772 -247426450.02424598 0 -247426450.02424598 -80275389.736580372 0 0 0 0 700409766.92725372 -497669263.86982119 0 -497669263.86982119 413893443.57618213 0 0 0 0 757176134.61413193 -453630770.92826933 0 -453630770.92826933 176361522.54112458 0 0 0 0 658650414.48406982 -553321346.89515686 0 -553321346.89515686 335470261.11121607 0 0 0 0 47262958.890518188 -199733220.45045626 0 -199733220.45045626 279368199.0904665 0 0 0 0 182858688.28477859 25808625.805907071 0 25808625.805907071 -90929211.970823765 0 0 0 0 4288381.382718727 -5159073.8982743621 0 -5159073.8982743621 -2178590.1443786784 0 0 0 0 -53370376.969993591 -52163629.213711023 0 -52163629.213711023 236339065.41559529 0 0 0 0 3068847.1134880697 -3156497.0055998117 0 -3156497.0055998117 -2713579.172185373 0 0 0 0 -61298712.21082592 -69153353.426788986 0 -69153353.426788986 -63272689.217437983 0 0 0 0 236970134.83581543 -252239257.00487781 0 -252239257.00487781 169678370.59081662 0 0 0 0 8579748.5451654717 -1554507.9634744078 0 -1554507.9634744078 -2618481.830787458 0 0 0 0 318917097.73527527 -172195674.71573567 0 -172195674.71573567 105831125.27206445 0 0 0 0 28150107.376831055 -135922085.66797537 0 -135922085.66797537 -32621761.030656457 0 0 0 0 368590830.16329956 -89399907.74658531 0 -89399907.74658531 -82225524.045926899 0 0 0 0 -388933257.91498041 -185698755.20827928 0 -185698755.20827928 2044633.9035167694 0 0 0 0 345173430.63985443 -381777064.54791212 0 -381777064.54791212 -127327776.97999704 0 0 0 0 1453076.2876238236 -3308752.6872485131 0 -3308752.6872485131 89876.137117464648 0 0 0 0 350974200.36608481 -310225580.78250057 0 -310225580.78250057 319832008.9543364 0 0 0 0 597014750.07131958 -577662233.52346134 0 -577662233.52346134 415803270.99015665 0 0 0 0 461482476.55581665 -123196519.84504732 0 -123196519.84504732 -31431230.133493543 0 0 0 0 1056818578.3636169 -477591596.02643931 0 -477591596.02643931 83525986.54106921 0 0 0 0 1117800029.5355072 -943287973.38280022 0 -943287973.38280022 473691458.28612584 0 0 0 0 766046890.83643341 -454848651.13687027 0 -454848651.13687027 433564215.72940373 0 0 0 0 141544595.03703308 -291824077.42493004 0 -291824077.42493004 -444108461.62755668 0 0 0 0 -70853605.486633301 -92827817.176984787 0 -92827817.176984787 -346588331.41749382 0 0 0 0 600951611.09190369 121521524.80326086 0 121521524.80326086 -28802665.2942276 0 0 0 0 310032014.59194946 86988602.586271212 0 86988602.586271212 -29869253.194545142 0 0 0 0 -469505207.39945984 -898721142.29138076 0 -898721142.29138076 -284108732.77660453 0 0 0 0 1081729744.801754 72384460.771827102 0 72384460.771827102 -95228046.024188757 0 0 0 0 1165637.3965640627 -1032659.6410384737 0 -1032659.6410384737 -241486.54701768816 0 0 0 0 -618520210.01302338 -403597868.51363885 0 -403597868.51363885 20379311.873376846 0 0 0 0 -169876776.53799438 -498554646.56197786 0 -498554646.56197786 -270018199.77692556 0 0 0 0 91960649.369010925 -86173257.813641548 0 -86173257.813641548 -132914452.96617031 0 0 0 0 -496840195.36876678 -183932147.55764139 0 -183932147.55764139 -47474682.806509018 0 0 0 0 97659207.669906616 -90606813.225756645 0 -90606813.225756645 -143577814.11306655 0 0 0 0 265912859.33435059 127395226.31202602 0 127395226.31202602 73724416.127904892 0 0 0 0 -41175104.722660065 -259798249.41486716 0 -259798249.41486716 95931254.391958237 0 0 0 0 314708865.40751648 328601895.3128221 0 328601895.3128221 -11259762.368022442 0 0 0 0 1048344691.3872375 -988760419.41055465 0 -988760419.41055465 837399547.52085853 0 0 0 0 3017778.1219086647 -457899.025082835 0 -457899.025082835 -758326.44024853013 0 0 0 0 2175430091.701889 207051369.51442814 0 207051369.51442814 -681069837.41349602 0 0 0 0 371940016.60305786 -99862037.257299185 0 -99862037.257299185 -347315623.50730467 0 0 0 0 1330677609.7914429 106818120.93268818 0 106818120.93268818 -304306538.41175163 0 0 0 0 166626412.27244568 -384301947.24550766 0 -384301947.24550766 -269564579.44601393 0 0 0 0 282339174.3615303 -105275710.90455163 0 -105275710.90455163 -96850293.253038287 0 0 0 0 1041801264.0105591 -1262984960.7732933 0 -1262984960.7732933 957759396.17193484 0 0 0 0 186067.55961397663 -300116.08814934269 0 -300116.08814934269 -515953.89381460682 0 0 0 0 980749089.60959625 -365926638.66994447 0 -365926638.66994447 -490560276.76576591 0 0 0 0 -8066149.6380615234 -277719884.3928616 0 -277719884.3928616 -158002865.12851632 0 0 0 0 972090872.67619133 -375499934.4356637 0 -375499934.4356637 -276282758.16479123 0 0 0 0 1227792277.6776333 -746048246.34908295 0 -746048246.34908295 -99653026.246183157 0 0 0 0 356567002.89104462 -236943312.47630709 0 -236943312.47630709 -185166233.07991353 0 0 0 0 1372190206.8960953 162035405.67067862 0 162035405.67067862 -143789868.79859203 0 0 0 0 -414963091.88711166 -890500366.69464827 0 -890500366.69464827 127686590.03276825 0 0 0 0 1068845.5384553261 -963165.56578608975 0 -963165.56578608975 -49321.068674120936 0 0 0 0 -409092197.18367004 77140676.430260658 0 77140676.430260658 84102523.550172329 0 0 0 0 -257993253.61088562 -86990322.365987301 0 -86990322.365987301 113561295.90661335 0 0 0 0 346494687.48197174 -301763929.26922286 0 -301763929.26922286 113374956.58895183 0 0 0 0 17186367.487350464 216996901.17962813 0 216996901.17962813 -418104364.99785352 0 0 0 0 428880264.41244507 -132113221.30152321 0 -132113221.30152321 -193688656.72239399 0 0 0 0 2192160.0905295573 -1983050.4640715457 0 -1983050.4640715457 -261527.41184423212 0 0 0 0 441424417.96151733 -84592568.344685137 0 -84592568.344685137 -499922739.86039048 0 0 0 0 102742780.09483337 -280615051.55287904 0 -280615051.55287904 -217695013.39033139 0 0 0 0 -15141654.435577393 -308290482.35275412 0 -308290482.35275412 -289021480.68109012 0 0 0 0 668722144.56811523 105273594.38325 0 105273594.38325 -212102149.79047647 0 0 0 0 617095708.86634064 -999353.31202899246 0 -999353.31202899246 -198826306.60417584 0 0 0 0 403317355.37718201 -135028681.63622159 0 -135028681.63622159 -257130733.55967593 0 0 0 0 709746110.45346069 40328550.840375662 0 40328550.840375662 -336694802.32879341 0 0 0 0 884609363.44393921 210861814.57414317 0 210861814.57414317 -198790972.93342268 0 0 0 0 681933560.07435608 19755824.105446815 0 19755824.105446815 -189825078.6817503 0 0 0 0 846240033.39794922 189253975.54671621 0 189253975.54671621 -132201309.92898393 0 0 0 0 442006632.35994339 54517850.70059067 0 54517850.70059067 -165799699.28213167 0 0 0 0 758420176.47418213 193566263.46686029 0 193566263.46686029 -55040125.051620245 0 0 0 0 676337577.63253784 -43426639.036582232 0 -43426639.036582232 -153565836.5317421 0 0 0 0 896993286.75983429 107780861.861974 0 107780861.861974 -33547001.756444454 0 0 0 0 1057390324.033783 267649357.17030811 0 267649357.17030811 28285862.854346991 0 0 0 0 1250112592.635025 372970217.13082266 0 372970217.13082266 280191552.76163101 0 0 0 0 988760910.97315979 173133164.4707737 0 173133164.4707737 430838631.20578957 0 0 0 0 1049673415.3383789 190431589.41769123 0 190431589.41769123 201907846.62760013 0 0 0 0 790547714.06668091 76756167.935263634 0 76756167.935263634 194806221.57640457 0 0 0 0 1072185286.7164154 58542538.238086581 0 58542538.238086581 519329268.44556427 0 0 0 0 703544930.98426819 151103659.10289192 0 151103659.10289192 514491523.73885012 0 0 0 0 1447480399.5647583 355973453.70243692 0 355973453.70243692 430097586.92654783 0 0 0 0 1402079506.3138428 317467301.77859426 0 317467301.77859426 894479570.07362103 0 0 0 0 1296284396.3100281 445943887.90786958 0 445943887.90786958 739168767.26287746 0 0 0 0 1172943855.3236694 -151507009.19679165 0 -151507009.19679165 442558623.77962995 0 0 0 0 890768114.73444557 -9520494.1638141274 0 -9520494.1638141274 809053110.59064794 0 0 0 0 484585061.37857056 -124676007.64264107 0 -124676007.64264107 516654507.66716123 0 0 0 0 875899798.71630478 -99629765.719919562 0 -99629765.719919562 144289972.39115405 0 0 0 0 708508912.2755127 -616662321.09887934 0 -616662321.09887934 -72708157.431352854 0 0 0 0 402892294.28639984 -33401291.055501431 0 -33401291.055501431 230699399.77579427 0 0 0 0 856886414.86889648 -411007528.26502633 0 -411007528.26502633 210408945.55724216 0 0 0 0 962747965.923172 -176363810.88014975 0 -176363810.88014975 6087858.738478601 0 0 0 0 969264779.98738861 200114267.67289791 0 200114267.67289791 441502551.59962314 0 0 0 0 972658585.26982117 281122188.66677576 0 281122188.66677576 261948903.87190551 0 0 0 0 595295181.51757812 -2183507.5622860193 0 -2183507.5622860193 445602416.97725177 0 0 0 0 1085659290.5987778 -20991320.229199886 0 -20991320.229199886 229750125.95899391 0 0 0 0 1457951445.4459381 532690626.75196409 0 532690626.75196409 452491614.08635783 0 0 0 0 1590906734.8783302 592373080.64872169 0 592373080.64872169 198722689.6374054 0 0 0 0 1626507369.9547577 661868045.25158334 0 661868045.25158334 306459329.07533956 0 0 0 0 2360347540.977066 1326838601.6255603 0 1326838601.6255603 714605196.21196365 0 0 0 0 2798339045.9515686 173143989.41671467 0 173143989.41671467 898213620.74277592 0 0 0 0 1246210606.1689987 475342551.56086469 0 475342551.56086469 1542018121.2239497 0 0 0 0 1374497246.7221985 503292458.97021568 0 503292458.97021568 652302188.19332969 0 0 0 0 1365957627.6217041 -1007150061.8422201 0 -1007150061.8422201 361630588.63706535 0 0 0 0 1098536990.7266312 -940216539.64193308 0 -940216539.64193308 352867198.76712942 0 0 0 0 979753966.76687622 -861700653.85139227 0 -861700653.85139227 482932956.30565369 0 0 0 0 1299282936.9817963 -733923323.9252106 0 -733923323.9252106 268144142.83206671 0 0 0 0 359491.47491231444 -627132.30970477313 0 -627132.30970477313 677195.31220620882 0 0 0 0 1347865044.5268402 -719947755.19021022 0 -719947755.19021022 272060235.82198244 0 0 0 0 781962.49106723955 -2313177.8553164117 0 -2313177.8553164117 1267133.9783306336 0 0 0 0 -1030532913.026062 -157719317.55864513 0 -157719317.55864513 225802102.78116274 0 0 0 0 -1490161908.7596054 -162970526.06181782 0 -162970526.06181782 368410080.43439454 0 0 0 0 256290396.05800438 -472984592.72537923 0 -472984592.72537923 -190105454.62198591 0 0 0 0 929576596.36975288 -712340305.80589437 0 -712340305.80589437 171565771.25533664 0 0 0 0 1178809589.9820709 -626439701.47392106 0 -626439701.47392106 134860340.20530748 0 0 0 0 1183575230.1348267 -769079540.94983745 0 -769079540.94983745 129621645.53280163 0 0 0 0 3065074759.4471149 -1203630467.23878 0 -1203630467.23878 108478422.73891151 0 0 0 0 1203580264.8312073 -1208339246.4162476 0 -1208339246.4162476 463858150.84828448 0 0 0 0 1113099710.1664734 -797873882.10639465 0 -797873882.10639465 117898392.40605164 0 0 0 0 1055698664.6028442 -589216495.24689198 0 -589216495.24689198 -503170026.59693623 0 0 0 0 643513974.38209534 -902793245.40499341 0 -902793245.40499341 26241370.245730281 0 0 0 0 1178782851.778904 -728659505.93379271 0 -728659505.93379271 35173055.045084476 0 0 0 0 846162688.19744873 -1046446662.4053878 0 -1046446662.4053878 512334340.4570266 0 0 0 0 42117878.468156815 -20044786.43301034 0 -20044786.43301034 4461857.0775680542 0 0 0 0 3693827.2640357837 -308779.52313090488 0 -308779.52313090488 -424196.00323066954 0 0 0 0 36403746.564226151 -5021493.362039566 0 -5021493.362039566 20707569.064358711 0 0 0 0 677574781.61131859 -82909933.027665257 0 -82909933.027665257 -11415850.136721611 0 0 0 0 587007294.66867065 -368127063.47520542 0 -368127063.47520542 -51071336.469036102 0 0 0 0 1141484470.8616714 -811849300.89767671 0 -811849300.89767671 -59048107.151566505 0 0 0 0 843749792.95452118 -572169791.39840746 0 -572169791.39840746 92105683.062858582 0 0 0 0 986051133.37539673 -503003920.81928587 0 -503003920.81928587 -72513196.311270118 0 0 0 0 410266042.7141571 -360454356.15716696 0 -360454356.15716696 295326317.80997467 0 0 0 0 1062641543.6500168 -746924899.35514522 0 -746924899.35514522 166921254.96788883 0 0 0 0 1425160626.4760284 -601162145.80192041 0 -601162145.80192041 133405438.11737382 0 0 0 0 1388334513.809845 -695438197.5530014 0 -695438197.5530014 7291922.2985830307 0 0 0 0 1608875829.3021545 -546129307.92289305 0 -546129307.92289305 85272198.205463052 0 0 0 0 1388342996.317317 -623948270.50750816 0 -623948270.50750816 111306345.07672787 0 0 0 0 2223871057.0687408 -583370466.48379707 0 -583370466.48379707 57052336.308823586 0 0 0 0 1464680010.6133213 -743002499.48428988 0 -743002499.48428988 232667331.51455784 0 0 0 0 3535568171.9394836 -795587658.89272118 0 -795587658.89272118 124568912.93052101 0 0 0 0 6068849.6531325951 -1583166.9238291904 0 -1583166.9238291904 -855786.41229585186 0 0 0 0 871071974.451828 -1319631507.2461233 0 -1319631507.2461233 1402583324.4302158 0 0 0 0 764849873.74612427 -847476973.71696234 0 -847476973.71696234 502336788.41181374 0 0 0 0 10445192.640367135 698848.19463213161 0 698848.19463213161 -5223468.5554915005 0 0 0 0 8018413.0312194824 358781.42536497116 0 358781.42536497116 -2806112.0346336365 0 0 0 0 9868410.4843201712 -1885977.766096998 0 -1885977.766096998 -4645153.1702460386 0 0 0 0 13420613.210769653 -2503673.1053659916 0 -2503673.1053659916 -11279748.328818798 0 0 0 0 298150384.83839417 46114642.431347847 0 46114642.431347847 337977301.31746292 0 0 0 0 11720265.172698975 -4632360.1719307899 0 -4632360.1719307899 -9543360.3646483421 0 0 0 0 11679656.50756073 -1643795.7724033594 0 -1643795.7724033594 -5936985.9624872208 0 0 0 0 13965972.77596283 -4733106.5541286469 0 -4733106.5541286469 -4407609.4907879829 0 0 0 0 10510108.974812225 1131170.9123400971 0 1131170.9123400971 -5578772.5411771145 0 0 0 0 1249007663.1692276 388026440.40190148 0 388026440.40190148 154439204.58603024 0 0 0 0 1771161850.3360672 737798426.34388363 0 737798426.34388363 93771887.966585159 0 0 0 0 1733107314.7367287 579928990.88260114 0 579928990.88260114 -38097472.640458584 0 0 0 0 1722608873.1937256 553802638.70096445 0 553802638.70096445 199162014.63281918 0 0 0 0 1610187916.7730997 28888342.177342046 0 28888342.177342046 218816197.77139759 0 0 0 0 1947721579.8872681 68159745.969855785 0 68159745.969855785 76929520.570361137 0 0 0 0 2340220255.2383423 151906812.98572159 0 151906812.98572159 87088290.928117752 0 0 0 0 2217912527.9578857 410435249.99390221 0 410435249.99390221 131248595.10626501 0 0 0 0 1662196967.9221954 491600737.51319051 0 491600737.51319051 135793738.98139286 0 0 0 0 2011729426.1795044 186384564.93438077 0 186384564.93438077 228482526.69244671 0 0 0 0 2789019759.0974884 299435999.01159191 0 299435999.01159191 244897962.48151207 0 0 0 0 2996012672.3455467 732857525.17398953 0 732857525.17398953 1048538196.3856163 0 0 0 0 2450672731.4657745 -266587438.1009531 0 -266587438.1009531 2305479641.0780201 0 0 0 0 2093208806.1646032 359901828.29516578 0 359901828.29516578 269053932.13126564 0 0 0 0 2434414824.2994537 -34489037.978286743 0 -34489037.978286743 558322835.10316944 0 0 0 0 2066688485.1784821 228991745.83179283 0 228991745.83179283 1104196746.2004137 0 0 0 0 1893583640.5500183 86061808.754405022 0 86061808.754405022 655455942.75133324 0 0 0 0 1735575708.1186447 356029467.09805965 0 356029467.09805965 365618474.53457832 0 0 0 0 1720108279.4293747 426188005.24075794 0 426188005.24075794 499230000.24332333 0 0 0 0 1723872288.5999041 454753804.1450541 0 454753804.1450541 16599253.025663376 0 0 0 0 1957339.3210183531 1821375.9603257142 0 1821375.9603257142 11020600.560095537 0 0 0 0 1097315410.9264984 312181975.1946311 0 312181975.1946311 389742310.93514729 0 0 0 0 1993075870.7575226 562316931.78707504 0 562316931.78707504 -83231960.712982178 0 0 0 0 522087.78289794922 9446431.1998682022 0 9446431.1998682022 8272292.8094673157 0 0 0 0 8450404.4168701172 5266694.1282514334 0 5266694.1282514334 10190587.372233391 0 0 0 0 8250600.8669128418 6586980.7738003731 0 6586980.7738003731 3625854.9273939133 0 0 0 0 13148220.083450317 8178560.2496609688 0 8178560.2496609688 2373471.0520560741 0 0 0 0 20208989.933685303 11036023.723677158 0 11036023.723677158 -8281039.0720434189 0 0 0 0 14511015.885116577 10225829.743602753 0 10225829.743602753 499143.27851581573 0 0 0 0 11238523.290786743 14720749.860020161 0 14720749.860020161 7448942.2263526917 0 0 0 0 35060003.348892212 83913851.822242022 0 83913851.822242022 3913960.9808530807 0 0 0 0 -48049048.639602661 9742848.3344831467 0 9742848.3344831467 23548932.626615524 0 0 0 0 2002426.6075913906 2181018.6611672863 0 2181018.6611672863 10104661.423358778 0 0 0 0 60047057.80065918 -78883078.675617218 0 -78883078.675617218 36409392.248651505 0 0 0 0 1339585.2712907605 183700.69522652403 0 183700.69522652403 16808.847379347309 0 0 0 0 98482848.18567276 -9559693.4987614155 0 -9559693.4987614155 -7033231.4201459885 0 0 0 0 98820736.613372803 98255177.520602226 0 98255177.520602226 -64542939.947561264 0 0 0 0 2788043.4311644621 4265453.6908629015 0 4265453.6908629015 8943100.6716216523 0 0 0 0 -61331797.418449402 -81220807.566413403 0 -81220807.566413403 69572276.000246763 0 0 0 0 8087354.8333081305 12445687.92396212 0 12445687.92396212 12941882.50513448 0 0 0 0 13293765.980308533 39119691.969043732 0 39119691.969043732 -99734996.508625984 0 0 0 0 -80721591.988525391 10768300.338031769 0 10768300.338031769 72416963.412433624 0 0 0 0 -46952608.019744873 -70020533.938252449 0 -70020533.938252449 93313560.354794502 0 0 0 0 -41702219.640792847 50805953.500814915 0 50805953.500814915 -2627806.39220047 0 0 0 0 40849780.568557739 8027717.612077713 0 8027717.612077713 11195147.457673073 0 0 0 0 -21044123.788864136 6083829.0616540909 0 6083829.0616540909 33540657.966819763 0 0 0 0 -24549416.65536499 -3327583.372335434 0 -3327583.372335434 15648606.975598335 0 0 0 0 2358142.2080710903 2009177.566419214 0 2009177.566419214 1496938.8535470488 0 0 0 0 23498539.624603271 14218372.926105261 0 14218372.926105261 360009.58779525757 0 0 0 0 28442681.072948895 4585012.5617588237 0 4585012.5617588237 835599.23230815725 0 0 0 0 32115452.298843384 -4897639.584133625 0 -4897639.584133625 10209443.048030853 0 0 0 0 265659368.3170166 -154386996.56789428 0 -154386996.56789428 19905826.257650539 0 0 0 0 -16856051.862579346 41771384.393303871 0 41771384.393303871 7885226.6801395416 0 0 0 0 -21435560.678222656 -36062206.421783149 0 -36062206.421783149 -13048395.770607591 0 0 0 0 20544027.037943773 1964497.1385226212 0 1964497.1385226212 2512531.0048646554 0 0 0 0 183409372.66516113 174721503.63203311 0 174721503.63203311 -60864056.237432003 0 0 0 0 -17371680.040679932 89460361.798425496 0 89460361.798425496 28548988.505821466 0 0 0 0 28249414.530563354 1770625.6295702457 0 1770625.6295702457 -2841346.4186229706 0 0 0 0 35981374.192855835 -10159685.33163929 0 -10159685.33163929 -6373863.5157108307 0 0 0 0 5372872.3094563223 1302916.6766280904 0 1302916.6766280904 -888489.94734089449 0 0 0 0 5882462.9803262874 3129214.8324849419 0 3129214.8324849419 4456219.9202917218 0 0 0 0 5140684.8894577026 -866982.8330193162 0 -866982.8330193162 -2082634.007027626 0 0 0 0 12642820.274993896 826103.41187047958 0 826103.41187047958 -1122857.8583955765 0 0 0 0 11567104.051393956 -4103756.3022560999 0 -4103756.3022560999 -6731055.2970419871 0 0 0 0 167518385.6362915 44671282.004004955 0 44671282.004004955 -45741369.751911998 0 0 0 0 172990585.4336319 78571847.973015606 0 78571847.973015606 -48776310.656858444 0 0 0 0 174336814.8273716 48672224.355312109 0 48672224.355312109 -44169840.141193628 0 0 0 0 42393556.85333252 8198346.0921738148 0 8198346.0921738148 -9219590.4206939936 0 0 0 0 29046787.234771729 -40566226.01683116 0 -40566226.01683116 -1590359.8486089706 0 0 0 0 -6777603.929107666 2607450.4480831623 0 2607450.4480831623 5190102.1989810467 0 0 0 0 16800645.695739746 -75180942.666594982 0 -75180942.666594982 9547843.3607667089 0 0 0 0 74300723.347396851 -29029709.691992998 0 -29029709.691992998 -23588814.706495285 0 0 0 0 64355733.454162598 -29802263.033675194 0 -29802263.033675194 -23642794.682947159 0 0 0 0 191890700.66430664 5720963.5429849625 0 5720963.5429849625 -108963508.56310463 0 0 0 0 282681001.61682129 -9368360.2674489021 0 -9368360.2674489021 -117074390.17724395 0 0 0 0 312696663.14306641 -82611288.303630829 0 -82611288.303630829 -171326706.90431213 0 0 0 0 198420644.03826904 -120707761.17959857 0 -120707761.17959857 7572874.1490135193 0 0 0 0 321032696.88244629 36868022.024227977 0 36868022.024227977 -163594063.923352 0 0 0 0 30434167.225524902 -94142290.823994279 0 -94142290.823994279 -137613555.02933991 0 0 0 0 326158109.21236229 109163585.31283519 0 109163585.31283519 -89481328.487424374 0 0 0 0 3996193.6571337879 2319150.3549900129 0 2319150.3549900129 622053.93342155346 0 0 0 0 412479187.54199219 -348493146.78455162 0 -348493146.78455162 -153085563.87705708 0 0 0 0 317980714.46405029 -70832118.539278507 0 -70832118.539278507 -281063180.9912405 0 0 0 0 286545758.06335449 -8131030.5027213097 0 -8131030.5027213097 -218979153.19003439 0 0 0 0 264136868.48654175 80270278.622465253 0 80270278.622465253 -62730967.930711031 0 0 0 0 72271804.3800354 5843994.0307570696 0 5843994.0307570696 -43331942.732679844 0 0 0 0 245701311.73809814 26851693.130587101 0 26851693.130587101 -244051506.92180729 0 0 0 0 120880481.65985107 90120850.611685753 0 90120850.611685753 19897277.066026688 0 0 0 0 42188306.961639404 28776899.107499719 0 28776899.107499719 -28611309.755798817 0 0 0 0 76081986.64616394 65615697.05322957 0 65615697.05322957 4487917.6490995884 0 0 0 0 105055976.87258911 40203038.574189425 0 40203038.574189425 -86165105.504541636 0 0 0 0 42341821.389053345 32702780.042600632 0 32702780.042600632 -21589314.495812178 0 0 0 0 58311432.221569061 25214390.857150599 0 25214390.857150599 -28243554.295480013 0 0 0 0 60805873.818328857 18056922.75898385 0 18056922.75898385 -24718523.827679634 0 0 0 0 59636021.286302567 17130735.82643269 0 17130735.82643269 -23942671.762862206 0 0 0 0 12837541.382055573 7688943.6529057324 0 7688943.6529057324 2344518.4079499883 0 0 0 0 108220375.62283325 -9342201.3994709849 0 -9342201.3994709849 65260771.773462415 0 0 0 0 7381371.0647016615 4707199.4635631479 0 4707199.4635631479 -917420.00211902731 0 0 0 0 276697346.02258301 32988253.206789672 0 32988253.206789672 -23188307.890814781 0 0 0 0 264007387.47946167 21083930.717370093 0 21083930.717370093 27380098.245857477 0 0 0 0 257157695.07958984 110745763.86280024 0 110745763.86280024 -70682878.704663277 0 0 0 0 260711155.39603424 84364874.042489454 0 84364874.042489454 18258892.496996284 0 0 0 0 17524593.944908142 25315215.620506287 0 25315215.620506287 2601631.8699908257 0 0 0 0 -6830484.9033842087 32531734.425240584 0 32531734.425240584 -11601814.719848156 0 0 0 0 16904816.522026062 16898688.469179213 0 16898688.469179213 -66432.438381195068 0 0 0 0 16027465.647045821 11570217.26570899 0 11570217.26570899 4423138.0923666358 0 0 0 0 -4850118.7671127319 50832776.676980592 0 50832776.676980592 18504138.760851383 0 0 0 0 24294337.971153259 10933660.509444021 0 10933660.509444021 1820800.4344870457 0 0 0 0 15441888.870140076 22350500.953215599 0 22350500.953215599 25986498.518180847 0 0 0 0 6886371.4443969727 6863039.2104520798 0 6863039.2104520798 7131901.539036274 0 0 0 0 -3677308.426361084 -3719320.6867580414 0 -3719320.6867580414 25505188.020301819 0 0 0 0 800752.62711334229 -8322477.2928872108 0 -8322477.2928872108 2116202.4580307007 0 0 0 0 2442638.1124725342 -5430086.8359680176 0 -5430086.8359680176 4370386.9430541992 0 0 0 0 2376157.2210950851 3816760.7543253899 0 3816760.7543253899 -5405077.0827083588 0 0 0 0 2752304.0702285767 7842956.2227687836 0 7842956.2227687836 14797222.678085327 0 0 0 0 210728.95531463623 -12496441.968759537 0 -12496441.968759537 -2746698.0189228058 0 0 0 0 131478742.9749527 93269799.733444214 0 93269799.733444214 1115030.0668621063 0 0 0 0 10939259.190190226 4993107.0007410571 0 4993107.0007410571 -1946571.6483580265 0 0 0 0 33843446.006430767 4767042.890139563 0 4767042.890139563 -3942272.4266951736 0 0 0 0 -3385498.1205749512 -10219930.038948059 0 -10219930.038948059 4830252.8368034363 0 0 0 0 -13599837.962005615 -62461029.711532593 0 -62461029.711532593 -47070687.6472435 0 0 0 0 -1985895.0784454346 -7480077.2333459854 0 -7480077.2333459854 6821954.6117973328 0 0 0 0 32173151.38245362 -2533902.0154308081 0 -2533902.0154308081 -8331263.5156133352 0 0 0 0 48123791.960403442 12910996.156894684 0 12910996.156894684 2213495.6766052246 0 0 0 0 72198381.169830322 11943444.596595407 0 11943444.596595407 45480903.391709082 0 0 0 0 36877829.239402771 26625337.264608383 0 26625337.264608383 19191890.746082306 0 0 0 0 20443567.816757202 159893843.60619992 0 159893843.60619992 46924665.451763749 0 0 0 0 27445695.279067166 10184613.756515473 0 10184613.756515473 -2628303.8800632469 0 0 0 0 41314696.088409424 12636693.262737751 0 12636693.262737751 4340518.1677155495 0 0 0 0 28909321.483965486 5580796.9733657371 0 5580796.9733657371 -5823293.0848695282 0 0 0 0 64643009.405578613 38930698.086540341 0 38930698.086540341 21112416.991277218 0 0 0 0 58113356.55178833 26532514.896530151 0 26532514.896530151 19139929.527938843 0 0 0 0 16099739.393230535 16415401.480560903 0 16415401.480560903 9518239.0976260938 0 0 0 0 13474086.066009521 4562428.5730781555 0 4562428.5730781555 -3794834.2598800659 0 0 0 0 26849765.403383687 13697099.138765175 0 13697099.138765175 4710713.451475421 0 0 0 0 25142316.27002801 15180187.200477064 0 15180187.200477064 2410391.6098820278 0 0 0 0 17207924.176756244 3169686.1409733407 0 3169686.1409733407 264401.21181022003 0 0 0 0 50431301.608703613 27088711.276062012 0 27088711.276062012 24028247.618209839 0 0 0 0 87371608.896286011 27748622.222999573 0 27748622.222999573 23462796.053817749 0 0 0 0 3582869.9863679036 282982.11426146328 0 282982.11426146328 -2826276.2585353106 0 0 0 0 58582208.261413574 29684999.234786987 0 29684999.234786987 33538975.649284363 0 0 0 0 121989998.26123047 50919384.984142303 0 50919384.984142303 7523265.3671264648 0 0 0 0 16160157.568328857 3348236.1121559143 0 3348236.1121559143 -5059408.8248825073 0 0 0 0 19885728.164002541 13344445.979900599 0 13344445.979900599 9185043.1475334112 0 0 0 0 32297789.40568161 5461153.4647381194 0 5461153.4647381194 -8026227.6470775623 0 0 0 0 12506964.493704744 6739530.657855615 0 6739530.657855615 -551183.88102209941 0 0 0 0 48187377.626159668 21072193.784841537 0 21072193.784841537 22970664.164674759 0 0 0 0 47118164.422363281 25379692.765417099 0 25379692.765417099 17988513.142190933 0 0 0 0 17044986.630324841 -24570954.4564991 0 -24570954.4564991 -88468177.87505722 0 0 0 0 67979240.86971283 61346675.931174278 0 61346675.931174278 29765945.105644226 0 0 0 0 88616665.30090332 34035184.072631836 0 34035184.072631836 5990307.8654880524 0 0 0 0 -28717975.125305176 5371007.1812934875 0 5371007.1812934875 -10526451.759336472 0 0 0 0 52663285.416282654 -16541431.839166641 0 -16541431.839166641 -99952091.136253357 0 0 0 0 122892407.14824677 22398904.139657021 0 22398904.139657021 63894169.654666901 0 0 0 0 99484364.902679443 71241622.333425522 0 71241622.333425522 16750636.242149353 0 0 0 0 117592520.88589478 37969755.093099594 0 37969755.093099594 30002470.769338608 0 0 0 0 122613701.47267056 60139764.876102805 0 60139764.876102805 17925808.225616455 0 0 0 0 10041279.14746746 1015205.7144394852 0 1015205.7144394852 -4746173.639018612 0 0 0 0 69403309.360809326 -11769328.380996704 0 -11769328.380996704 -97933561.302229881 0 0 0 0 -57630531.757041931 -142435743.54850197 0 -142435743.54850197 -3666638.3046035767 0 0 0 0 28298884.652290344 -44949183.922525406 0 -44949183.922525406 184107717.72603607 0 0 0 0 103640264.28974152 25517524.470101357 0 25517524.470101357 80053697.851150513 0 0 0 0 34680705.41317749 -62398683.772303581 0 -62398683.772303581 58861025.975875854 0 0 0 0 119455903.83401489 58872977.90499115 0 58872977.90499115 -10979813.318174362 0 0 0 0 35122705.432966575 -3551669.4713547863 0 -3551669.4713547863 -3320009.0221370552 0 0 0 0 43006757.284965515 -39312581.255340099 0 -39312581.255340099 13648878.304409027 0 0 0 0 73702363.411991119 32980649.146513939 0 32980649.146513939 21859314.863891602 0 0 0 0 141351909.21609497 30909564.236125946 0 30909564.236125946 16496003.981972694 0 0 0 0 6095568.8632694371 -241149.53170638531 0 -241149.53170638531 -1012786.0275879353 0 0 0 0 193520289.86239052 139888340.87646103 0 139888340.87646103 2897271.6259021759 0 0 0 0 136228110.04989624 39131950.995484352 0 39131950.995484352 7319073.2281494141 0 0 0 0 139263770.76945496 45509590.724726677 0 45509590.724726677 -1583857.9129180908 0 0 0 0 142406821.5111208 39143174.967047095 0 39143174.967047095 1937944.2316436768 0 0 0 0 125394541.48993492 45612852.433365822 0 45612852.433365822 -27153268.316864014 0 0 0 0 136600651.58410263 87313470.983952761 0 87313470.983952761 53735926.466983795 0 0 0 0 133550730.58455658 110294016.9154129 0 110294016.9154129 34263500.687635422 0 0 0 0 140624564.14087296 97874628.69137001 0 97874628.69137001 55055933.827659607 0 0 0 0 7520259.6493546739 -1021367.8172574453 0 -1021367.8172574453 -5141101.1281796219 0 0 0 0 188580413.74066162 102304556.09148359 0 102304556.09148359 19011977.410645485 0 0 0 0 197682169.53315735 61522972.247749805 0 61522972.247749805 76206157.978800297 0 0 0 0 189077477.13536358 274617654.16340899 0 274617654.16340899 277674221.98461103 0 0 0 0 3694303.4477634802 -959564.4599529393 0 -959564.4599529393 -2995208.6539292121 0 0 0 0 119651927.84080887 164169994.51100683 0 164169994.51100683 28242593.689729691 0 0 0 0 38803789.625427246 56974333.398406982 0 56974333.398406982 415628901.11092502 0 0 0 0 36366311.839355469 143297197.3731575 0 143297197.3731575 195705874.44413757 0 0 0 0 -63522706.124038696 27415903.329174995 0 27415903.329174995 215139581.35919952 0 0 0 0 -35577770.614738464 126613825.36088371 0 126613825.36088371 117876592.83681965 0 0 0 0 10561756.628816605 46766460.591015339 0 46766460.591015339 240499973.24855804 0 0 0 0 57390810.430458069 215037614.52317452 0 215037614.52317452 337445446.20257163 0 0 0 0 46446431.789772034 101760814.72535896 0 101760814.72535896 137679965.02595448 0 0 0 0 81273519.213249207 358562770.14481449 0 358562770.14481449 405200295.40291452 0 0 0 0 80913827.863168895 414808867.47874302 0 414808867.47874302 618791511.04242229 0 0 0 0 3254202.9272003174 208177755.6326828 0 208177755.6326828 465086123.9378376 0 0 0 0 67624905.425750732 244822286.39237404 0 244822286.39237404 413526507.8849768 0 0 0 0 72510356.813011169 167854097.21737146 0 167854097.21737146 613765904.06935978 0 0 0 0 399201796.96899414 502788231.56927633 0 502788231.56927633 650455856.27653599 0 0 0 0 157949238.71942139 242838674.46978378 0 242838674.46978378 872360346.04260445 0 0 0 0 205501076.29774475 250611298.91922379 0 250611298.91922379 552402091.94748688 0 0 0 0 102025670.19126892 60996654.327371597 0 60996654.327371597 559878681.45149565 0 0 0 0 95777350.325408936 164650124.48668671 0 164650124.48668671 763847446.55759621 0 0 0 0 303670732.81303406 300943667.12987852 0 300943667.12987852 681535833.24791908 0 0 0 0 191869063.37973022 152813417.7658844 0 152813417.7658844 469175211.39587021 0 0 0 0 201797207.70108032 -19508315.868509293 0 -19508315.868509293 332385078.69113541 0 0 0 0 105843553.69289398 140690934.56799412 0 140690934.56799412 334543755.18471146 0 0 0 0 -10114447.465118408 -125389158.66820335 0 -125389158.66820335 791792218.45466709 0 0 0 0 191855140.84335327 -139355899.9552021 0 -139355899.9552021 219748755.7016449 0 0 0 0 106784299.23504639 10849980.293125153 0 10849980.293125153 569320106.94140625 0 0 0 0 151917110.40577698 101715590.45906639 0 101715590.45906639 602314046.20237541 0 0 0 0 139621347.9515686 419558776.24142361 0 419558776.24142361 1083810063.8055549 0 0 0 0 -13686955.819458008 369842.76969528198 0 369842.76969528198 950133751.78195572 0 0 0 0 -355403367.31323242 -16168393.796100616 0 -16168393.796100616 1366122883.6170368 0 0 0 0 60770283.037155151 117234582.01979589 0 117234582.01979589 916964656.31669617 0 0 0 0 -110100607.50454712 592877744.53106689 0 592877744.53106689 1961352986.1543846 0 0 0 0 44263530.111877441 1173438411.3657646 0 1173438411.3657646 1337706248.1281395 0 0 0 0 287583589.54911804 987772962.58182454 0 987772962.58182454 1243373665.9197149 0 0 0 0 1320102235.1070709 1213851799.3755498 0 1213851799.3755498 803320978.68066978 0 0 0 0 696506088.699646 642378071.61648941 0 642378071.61648941 843203303.66854668 0 0 0 0 98665584.855117798 378771636.08884621 0 378771636.08884621 1047652742.8537769 0 0 0 0 351938707.87449646 571599293.02953529 0 571599293.02953529 980736205.07192612 0 0 0 0 369870819.8041687 968870537.94035745 0 968870537.94035745 665902431.65852833 0 0 0 0 1734941830.7844238 1223266650.2115912 0 1223266650.2115912 302979220.129076 0 0 0 0 1091175190.2355194 482882951.56885672 0 482882951.56885672 1231548789.3457775 0 0 0 0 1256074747.3847656 836536935.74022198 0 836536935.74022198 1467433725.2601895 0 0 0 0 2800265276.416687 45664961.519704819 0 45664961.519704819 628582215.71623755 0 0 0 0 508718471.06921387 2057181675.7105532 0 2057181675.7105532 2948535854.5822201 0 0 0 0 1212825826.9608459 536308108.21801567 0 536308108.21801567 614906137.22513151 0 0 0 0 978599126.76022339 233401675.28069735 0 233401675.28069735 272100852.93902016 0 0 0 0 984176704.26557922 424380527.06495988 0 424380527.06495988 306625214.490201 0 0 0 0 1160503756.3941956 281149650.2800355 0 281149650.2800355 335157239.46564722 0 0 0 0 1255743277.5713806 586805541.10252428 0 586805541.10252428 403486017.58519936 0 0 0 0 1400909736.7316589 888006723.32140398 0 888006723.32140398 1148797720.403862 0 0 0 0 1272507380.105011 700341860.53014946 0 700341860.53014946 1148183722.4203396 0 0 0 0 1218007343.2095337 325551922.15297079 0 325551922.15297079 594122603.38460064 0 0 0 0 1198742564.2326355 603834254.24100876 0 603834254.24100876 1323729859.3844423 0 0 0 0 1202736389.6116257 376248555.66330504 0 376248555.66330504 880391725.94548512 0 0 0 0 1296270813.6486969 657039386.56244433 0 657039386.56244433 810399749.06097507 0 0 0 0 1132977561.999939 320617772.43492413 0 320617772.43492413 550865732.85137177 0 0 0 0 1638869866.9580383 1544074034.9433606 0 1544074034.9433606 803332719.75434518 0 0 0 0 1251701307.0536499 639160397.83956289 0 639160397.83956289 853460408.22315979 0 0 0 0 2147669152.5222473 1158509321.242383 0 1158509321.242383 1042053383.9718609 0 0 0 0 1146313005.3450317 975838050.36896038 0 975838050.36896038 2028009195.9346533 0 0 0 0 1662383364.7782745 1804288774.6951318 0 1804288774.6951318 1429881743.3036246 0 0 0 0 1197950.8153750189 -1386261.2567169592 0 -1386261.2567169592 3202632.1854622355 0 0 0 0 1732409846.4550476 2126693840.3796504 0 2126693840.3796504 2350411523.5629497 0 0 0 0 -674159890.88097382 -483247248.29808712 0 -483247248.29808712 1094829539.0049515 0 0 0 0 -485337209.56982422 207851470.85547447 0 207851470.85547447 2737026491.5368552 0 0 0 0 1287188153.4980164 344823614.21030712 0 344823614.21030712 3071595545.1864128 0 0 0 0 13908576.031188965 -249376328.22543907 0 -249376328.22543907 -71760507.499206543 0 0 0 0 2138880.6010851264 -1918871.1963143088 0 -1918871.1963143088 9244038.0288142152 0 0 0 0 -23740766.66394043 248572727.0868082 0 248572727.0868082 -112991567.87893677 0 0 0 0 -346809484.59528351 88653616.170129776 0 88653616.170129776 1836261.5124664307 0 0 0 0 133391564.69961548 446357167.51353359 0 446357167.51353359 1529434081.6344066 0 0 0 0 2230588285.5724716 1489952504.0029619 0 1489952504.0029619 728706747.70504904 0 0 0 0 648951.90522095561 1613846.6549947448 0 1613846.6549947448 3472398.0988562154 0 0 0 0 2724742842.1876488 14832697.10521853 0 14832697.10521853 -92019665.508963048 0 0 0 0 954640588.61962891 -145829087.10337001 0 -145829087.10337001 163190329.21223176 0 0 0 0 -46498390.326835632 127367869.73548794 0 127367869.73548794 -50219595.147930145 0 0 0 0 1008888.6373408586 7508788.3043516334 0 7508788.3043516334 14649658.553483469 0 0 0 0 53778058.423233032 9617256.0577030182 0 9617256.0577030182 -53031949.826646805 0 0 0 0 -23751164.026329041 161750941.53653622 0 161750941.53653622 -33344371.712783813 0 0 0 0 82209144.281814575 31116299.999847412 0 31116299.999847412 -99185145.025864601 0 0 0 0 35595892.992652893 -1647275.4870357513 0 -1647275.4870357513 -50847958.378250122 0 0 0 0 135179689.48370361 -5974524.1090393066 0 -5974524.1090393066 -52781466.767717361 0 0 0 0 91179681.045761108 65374322.295807362 0 65374322.295807362 13609453.364093781 0 0 0 0 97234161.296768188 -51077913.353206635 0 -51077913.353206635 251182355.61350632 0 0 0 0 130873929.01295853 79176618.568735123 0 79176618.568735123 268077733.59152603 0 0 0 0 184226047.66381836 -47759069.809364319 0 -47759069.809364319 72014601.687246323 0 0 0 0 120193550.46461487 106991164.32542801 0 106991164.32542801 177077055.57393026 0 0 0 0 95594932.112293243 12915335.540405273 0 12915335.540405273 -18271724.046089172 0 0 0 0 2276969994.4644928 -1531009843.1680007 0 -1531009843.1680007 -705241980.60723209 0 0 0 0 1211582917.3409958 -1511989671.7301013 0 -1511989671.7301013 253955589.10690549 0 0 0 0 4712500930.7049561 -2361160504.3786669 0 -2361160504.3786669 -669374209.06391513 0 0 0 0 2229426996.0882568 -1300805017.9832485 0 -1300805017.9832485 -1117169139.6137357 0 0 0 0 2926628668.9778175 -1381428302.4685311 0 -1381428302.4685311 -1290896041.2320614 0 0 0 0 2400827044.9846077 -814652497.52772141 0 -814652497.52772141 -1901519217.9102569 0 0 0 0 4726601239.8034248 794062219.07108283 0 794062219.07108283 -2721881885.5719609 0 0 0 0 1575696816.5848312 -1042274148.0906837 0 -1042274148.0906837 -770312358.57462311 0 0 0 0 1579439148.8913612 -1005127241.5109615 0 -1005127241.5109615 -889023426.67520618 0 0 0 0 1132587558.0505371 -921047075.90443563 0 -921047075.90443563 -279779377.32391965 0 0 0 0 1565925944.2291489 -965667163.32365561 0 -965667163.32365561 -452953969.81106949 0 0 0 0 1083206088.5713122 -479931270.82919621 0 -479931270.82919621 -319572299.53324842 0 0 0 0 553751632.34828949 -895408733.48632836 0 -895408733.48632836 133224565.6324169 0 0 0 0 1156599106.2118759 -1132981759.487951 0 -1132981759.487951 1839999.2140114158 0 0 0 0 174751587.66764832 -424270407.63119686 0 -424270407.63119686 619994281.74843836 0 0 0 0 896720324.25268555 -1266857139.4864335 0 -1266857139.4864335 445562592.17454219 0 0 0 0 264193324.55121613 -210086961.68988371 0 -210086961.68988371 -207867846.95050788 0 0 0 0 900686959.94962311 -669555689.94340396 0 -669555689.94340396 -155508455.46198678 0 0 0 0 276711830.54348755 -94407164.658203304 0 -94407164.658203304 -164941486.78445414 0 0 0 0 236001778.65985489 -69179157.661839247 0 -69179157.661839247 -666794361.46825314 0 0 0 0 238681985.04284668 -392507922.28964829 0 -392507922.28964829 -573299219.26965141 0 0 0 0 86581839.070892334 -286404925.28910732 0 -286404925.28910732 -407784739.38442945 0 0 0 0 601337407.16956329 -491022293.80596399 0 -491022293.80596399 -419753386.23698139 0 0 0 0 285201969.50550652 -180300878.4111681 0 -180300878.4111681 -445415625.56347561 0 0 0 0 547955294.07038879 -429553218.2178545 0 -429553218.2178545 -833862658.24484158 0 0 0 0 891348172.12174225 -1353084925.7995501 0 -1353084925.7995501 209635272.30237573 0 0 0 0 1963818681.9621458 -3118689966.3436327 0 -3118689966.3436327 1444274755.2563894 0 0 0 0 4720413555.7406654 2565417509.1162033 0 2565417509.1162033 1004413754.9524903 0 0 0 0 -784615765.96167374 -1449971111.4417868 0 -1449971111.4417868 2139438076.9607193 0 0 0 0 4482730.0595614202 -2584254.5921328785 0 -2584254.5921328785 2725551.8495702399 0 0 0 0 2443396988.9036713 1097294538.1504893 0 1097294538.1504893 75624479.113089919 0 0 0 0 -261797917.62327194 -672647340.11867094 0 -672647340.11867094 -751212253.20103359 0 0 0 0 10657473.900090072 -8076083.539594505 0 -8076083.539594505 4665112.42225058 0 0 0 0 2452394643.9826503 659367476.82951641 0 659367476.82951641 11286381.623166084 0 0 0 0 788154977.23159504 567859989.8502605 0 567859989.8502605 202587472.00253862 0 0 0 0 4724774694.1475449 1003961399.995831 0 1003961399.995831 -737683609.32532704 0 0 0 0 3280777914.6410389 275335370.01301652 0 275335370.01301652 -662301643.2440089 0 0 0 0 3294169316.5536919 195582648.82325917 0 195582648.82325917 -312894867.44883114 0 0 0 0 833431492.22388554 -486329536.17517292 0 -486329536.17517292 -28248618.70678699 0 0 0 0 3788422708.7239618 -1203370697.4303055 0 -1203370697.4303055 102748258.14684987 0 0 0 0 2956071.5982352742 -2295603.6540498203 0 -2295603.6540498203 -1840472.4007307868 0 0 0 0 480425257.07452202 129483220.88062859 0 129483220.88062859 -420821709.54088372 0 0 0 0 3844477523.3857546 -2019011580.0095654 0 -2019011580.0095654 -729616819.33348036 0 0 0 0 4072927001.1929917 258560288.25750822 0 258560288.25750822 -666181420.11597347 0 0 0 0 4724424720.2471342 440211811.4550215 0 440211811.4550215 -331593186.75068957 0 0 0 0 6363591755.6981163 -584677549.55194592 0 -584677549.55194592 -1210651108.3711886 0 0 0 0 25329625.420310974 -9643452.0487780571 0 -9643452.0487780571 -100170896.29001664 0 0 0 0 45930280.923120499 -71939162.823699951 0 -71939162.823699951 -3055328.4478597641 0 0 0 0 -103354422.58961201 -27187478.538249969 0 -27187478.538249969 57896194.865960121 0 0 0 0 -116291259.40046787 -42143017.08007431 0 -42143017.08007431 368809780.65327978 0 0 0 0 -6882858.2544975281 -64791727.75161171 0 -64791727.75161171 72368542.51363802 0 0 0 0 482443693.89336634 304843750.80702084 0 304843750.80702084 12901017.680451155 0 0 0 0 7472896.9318929976 -7572558.1861765925 0 -7572558.1861765925 -5239037.826185164 0 0 0 0 8803976.1317543983 13935376.866405606 0 13935376.866405606 115518573.95962906 0 0 0 0 58844361.503124237 6874370.2765865326 0 6874370.2765865326 -16178654.376760483 0 0 0 0 3331846.3763409872 86848.85071205697 0 86848.85071205697 -2934594.3521284591 0 0 0 0 19335942.266247988 -35258158.961679786 0 -35258158.961679786 -166004100.56324959 0 0 0 0 20836850.587606341 -5242970.6319879219 0 -5242970.6319879219 -9219037.2420633957 0 0 0 0 10401011.017707825 258790800.70563889 0 258790800.70563889 -529691722.30143833 0 0 0 0 462938352.28204632 -309971080.81731206 0 -309971080.81731206 102377738.294305 0 0 0 0 18352810.318258405 -56111135.121519566 0 -56111135.121519566 -463028489.51485252 0 0 0 0 15237085.7533819 -11898867.323115049 0 -11898867.323115049 3283283.250593862 0 0 0 0 187586211.17190552 -137201161.0730629 0 -137201161.0730629 -473172836.7509408 0 0 0 0 233294226.3034668 30696689.751893044 0 30696689.751893044 -675909829.46250725 0 0 0 0 197796220.46155548 -30002059.369613171 0 -30002059.369613171 -729766054.8461895 0 0 0 0 359976619.92406845 -176467094.72471762 0 -176467094.72471762 -711225516.12826061 0 0 0 0 144443619.15925598 -227691470.68046427 0 -227691470.68046427 -920102044.89430761 0 0 0 0 215642894.70916748 135246955.83357525 0 135246955.83357525 -853961763.44604921 0 0 0 0 -339249521.90686035 -127220004.06321526 0 -127220004.06321526 -987163812.33052254 0 0 0 0 -399547987.89565277 681060589.48776579 0 681060589.48776579 -485092031.7269268 0 0 0 0 2915849.9368012734 -384543.91504660994 0 -384543.91504660994 -2567713.488924385 0 0 0 0 202042670.99562073 50809368.334075928 0 50809368.334075928 -1330035553.7164888 0 0 0 0 -1202227669.915596 -347798654.23882103 0 -347798654.23882103 -3570512.6969981194 0 0 0 0 -382117946.32557678 404437779.27239847 0 404437779.27239847 -1112274876.6672945 0 0 0 0 -143877032.85328674 -78767573.834510803 0 -78767573.834510803 -1941843105.3129082 0 0 0 0 2694756.6224649176 -2566345.907583667 0 -2566345.907583667 -1842522.1699709131 0 0 0 0 8536635.6438827515 158142149.14992499 0 158142149.14992499 -1901382963.9411173 0 0 0 0 -348109371.31677246 -556984463.63279986 0 -556984463.63279986 -1379808713.1247425 0 0 0 0 -541393326.63674927 -186705289.67426634 0 -186705289.67426634 -95951808.469104767 0 0 0 0 7334943.0948162079 -28294530.367819667 0 -28294530.367819667 5165662.4342632294 0 0 0 0 6923064.2405085415 -11938583.36218499 0 -11938583.36218499 8277975.7821901813 0 0 0 0 12302701.148796082 58087588.394325256 0 58087588.394325256 -344759922.21950722 0 0 0 0 18402091.216390826 -4865832.5454097651 0 -4865832.5454097651 -8442589.2666420583 0 0 0 0 9890812.0529441833 -16102149.98452425 0 -16102149.98452425 -5383991.5105857849 0 0 0 0 21493873.84564209 -23311310.197174072 0 -23311310.197174072 -3022312.972799778 0 0 0 0 -30982.339347839355 -31021771.625556946 0 -31021771.625556946 62472639.654540539 0 0 0 0 43580673.118778229 -45836445.577055693 0 -45836445.577055693 18737002.738414764 0 0 0 0 -9785556.8670940399 -8276518.3772062063 0 -8276518.3772062063 8318405.3679704666 0 0 0 0 -13795043.377529144 -7656517.8343229294 0 -7656517.8343229294 23549095.836410522 0 0 0 0 13839845.604644775 -34405862.309998751 0 -34405862.309998751 8969660.9064903259 0 0 0 0 -3534673.5590705872 4055033.3886533976 0 4055033.3886533976 7722522.537332058 0 0 0 0 16601584.1347332 45687899.519296318 0 45687899.519296318 25134158.639373302 0 0 0 0 16018621.857402802 2837548.6543362141 0 2837548.6543362141 -62035223.235804334 0 0 0 0 -769245116.70883179 -524877369.31185937 0 -524877369.31185937 36909656.344287753 0 0 0 0 649375275.11003876 22817973.248143494 0 22817973.248143494 -239404108.65283358 0 0 0 0 9717176.5965999905 -5297086.964726083 0 -5297086.964726083 -1019223.2062300965 0 0 0 0 4574083.6002197266 -1450392.1777596474 0 -1450392.1777596474 -20622471.298662141 0 0 0 0 6970614.0101633985 -8234028.1858673571 0 -8234028.1858673571 5464493.4775687251 0 0 0 0 -738353134.96261597 -539159761.58099318 0 -539159761.58099318 -113467240.50786638 0 0 0 0 -608748239.46962929 -147249090.73966572 0 -147249090.73966572 106769838.88858318 0 0 0 0 674539179.11124039 -416127156.55952048 0 -416127156.55952048 -230328854.93249178 0 0 0 0 -59146941.360717773 93270354.447388172 0 93270354.447388172 -99214059.137753963 0 0 0 0 -601436261.0353241 -275384342.47882748 0 -275384342.47882748 -119718343.03187695 0 0 0 0 -220564733.65520668 -472205818.08852541 0 -472205818.08852541 -303980425.66422939 0 0 0 0 176593394.25385666 -128589591.4918797 0 -128589591.4918797 -970031191.22582626 0 0 0 0 -148395339.54269409 -81965382.888298988 0 -81965382.888298988 -250913044.25154918 0 0 0 0 267629074.6354208 196686564.31630978 0 196686564.31630978 -219043368.38521481 0 0 0 0 858158076.43408966 -89311621.464746475 0 -89311621.464746475 -449888949.78498834 0 0 0 0 710658897.90197372 447780362.05880457 0 447780362.05880457 -421717998.65909505 0 0 0 0 485907041.05067444 553505240.36507344 0 553505240.36507344 109585759.78201483 0 0 0 0 254829802.03291512 97720136.169203714 0 97720136.169203714 -528102872.22943389 0 0 0 0 160346.60506513715 -654267.75345995836 0 -654267.75345995836 158406.69697629823 0 0 0 0 57478984.418773651 353149698.94985002 0 353149698.94985002 -540071362.4974103 0 0 0 0 -198625856.13780975 48978223.180375576 0 48978223.180375576 -424023370.45471621 0 0 0 0 -1110534910.2524414 -372604785.45849109 0 -372604785.45849109 -851664497.85886288 0 0 0 0 -284674874.7700119 161078484.53987122 0 161078484.53987122 -592449631.73664808 0 0 0 0 24253199.906936646 -27761437.381695747 0 -27761437.381695747 -365530070.95530605 0 0 0 0 108682518.37997723 -25392541.849300265 0 -25392541.849300265 -991867993.23864365 0 0 0 0 -443798353.88471222 -398535187.64919138 0 -398535187.64919138 -649165244.69145823 0 0 0 0 -104267147.00780487 -276055370.66371322 0 -276055370.66371322 -207716727.51498309 0 0 0 0 -280253924.19389725 -107582958.17482942 0 -107582958.17482942 -275904592.92831945 0 0 0 0 452407.15141308308 -1546044.704242768 0 -1546044.704242768 371573.44088168396 0 0 0 0 -237630726.89437866 106235574.26992697 0 106235574.26992697 -27101297.137204871 0 0 0 0 276547870.23913574 2763783.2332341671 0 2763783.2332341671 -530434431.32296848 0 0 0 0 568987512.8975563 -724329887.871526 0 -724329887.871526 -232288034.20255211 0 0 0 0 172687.55575484037 -1206562.9415862537 0 -1206562.9415862537 320289.36214915599 0 0 0 0 207104581.20367432 237131284.46499214 0 237131284.46499214 -56121237.719411135 0 0 0 0 434073239.29376984 351866037.11058331 0 351866037.11058331 -58402222.033128023 0 0 0 0 492089318.80050087 336285143.09879553 0 336285143.09879553 -124777544.9789238 0 0 0 0 498571365.05580902 364737182.03990281 0 364737182.03990281 -55833683.963524938 0 0 0 0 773725180.28423309 402243865.94130063 0 402243865.94130063 -111368756.13795629 0 0 0 0 164286241.99125957 401387709.05728132 0 401387709.05728132 65349114.301521063 0 0 0 0 644884310.63328552 193146280.51866251 0 193146280.51866251 -143526926.95884863 0 0 0 0 629003971.02266312 213552324.93933991 0 213552324.93933991 -167706572.17296255 0 0 0 0 496966210.79551697 297277584.07419276 0 297277584.07419276 -77318861.512545586 0 0 0 0 474511112.8571167 116688782.57099032 0 116688782.57099032 -177807781.85289645 0 0 0 0 20150599.727043152 -133754395.47478771 0 -133754395.47478771 -97922158.816508532 0 0 0 0 542949496.00938034 -225635887.68107808 0 -225635887.68107808 -95834904.614028931 0 0 0 0 614849457.73907089 -196815241.30555433 0 -196815241.30555433 -84719772.446479321 0 0 0 0 471399305.82067108 -178724305.66932514 0 -178724305.66932514 -36186047.754112542 0 0 0 0 1096073803.5476227 -376374311.58896595 0 -376374311.58896595 81764690.011029959 0 0 0 0 552267685.02395248 -140710850.76402611 0 -140710850.76402611 -19596300.126268148 0 0 0 0 931338429.48653126 -950326558.56888556 0 -950326558.56888556 365717747.1116221 0 0 0 0 999998042.64926481 -483044177.17799193 0 -483044177.17799193 2866816.9590497017 0 0 0 0 1307717744.3810577 -662891955.65813112 0 -662891955.65813112 107093152.02095652 0 0 0 0 1497911130.1474686 -146519337.18387437 0 -146519337.18387437 -241363335.23430634 0 0 0 0 807917907.35059547 18447394.445931017 0 18447394.445931017 -113671835.48932242 0 0 0 0 999088573.06253815 142241914.05365825 0 142241914.05365825 -204191689.1791845 0 0 0 0 1121363563.3730087 256348228.07364672 0 256348228.07364672 -106177682.18485165 0 0 0 0 1489163349.8714752 -316468064.68830663 0 -316468064.68830663 -43502347.369280338 0 0 0 0 1659737697.3040714 -735822835.85821509 0 -735822835.85821509 950957661.46934843 0 0 0 0 1939986776.0596695 -118267696.41763306 0 -118267696.41763306 -10263592.128545284 0 0 0 0 1707712189.6712341 -495568179.03807604 0 -495568179.03807604 -67604606.012378722 0 0 0 0 1156479175.1260223 -720723709.80774367 0 -720723709.80774367 202105554.00290966 0 0 0 0 955578589.89600563 39990714.292417467 0 39990714.292417467 -25417576.454908609 0 0 0 0 2288283190.1798172 -731963608.917377 0 -731963608.917377 507504253.22004426 0 0 0 0 2629863318.0239105 -2061110483.5444932 0 -2061110483.5444932 1125850196.4030938 0 0 0 0 2883391626.8772202 -1918205068.650733 0 -1918205068.650733 600531260.61541772 0 0 0 0 2202909893.279377 -1977218754.0546248 0 -1977218754.0546248 650092921.83664906 0 0 0 0 2364277247.8712788 -563947667.48530459 0 -563947667.48530459 -445826758.6914975 0 0 0 0 4602127847.9894676 -1539668005.6583714 0 -1539668005.6583714 -285739870.88187325 0 0 0 0 4710309.3714235835 -3013101.1072636396 0 -3013101.1072636396 -1031517.7549973864 0 0 0 0 204061108.53209686 59485413.382180214 0 59485413.382180214 -105697000.22864008 0 0 0 0 24014451.6120224 -60378161.554969311 0 -60378161.554969311 -53414346.957663536 0 0 0 0 244290.48550440744 -332206.81478474475 0 -332206.81478474475 123993.12040338933 0 0 0 0 2305993114.7144351 -1055379725.7584094 0 -1055379725.7584094 -245614855.92043805 0 0 0 0 3584784456.1427917 -1997146934.9573159 0 -1997146934.9573159 210101889.62714052 0 0 0 0 3068628302.3693542 -1140980314.0055416 0 -1140980314.0055416 922750840.56189442 0 0 0 0 5106596588.7472477 -2060004002.0618482 0 -2060004002.0618482 269641596.7952137 0 0 0 0 -129136.76187603088 -158970.01566850394 0 -158970.01566850394 3347778.3241216778 0 0 0 0 2739198886.5281677 -2090940613.9072771 0 -2090940613.9072771 3090785595.7801523 0 0 0 0 48876848.69763732 211897982.78227079 0 211897982.78227079 987677097.55727196 0 0 0 0 151425079.04420471 -1240225956.1469989 0 -1240225956.1469989 1637291422.8396873 0 0 0 0 1860226684.1749554 -1641376694.1403728 0 -1641376694.1403728 709821456.8188405 0 0 0 0 2589748507.2441483 -571649209.08015037 0 -571649209.08015037 471567662.36149597 0 0 0 0 2025422316.0579987 -951701487.04267454 0 -951701487.04267454 220811450.69456577 0 0 0 0 1475456757.4918404 -667439942.30387747 0 -667439942.30387747 74139793.893456459 0 0 0 0 1396744957.9472961 -1256541923.4344144 0 -1256541923.4344144 387451974.66274834 0 0 0 0 676435454.62928772 -918424732.18617439 0 -918424732.18617439 417773699.32435942 0 0 0 0 662066735.01454926 -1021578617.2022953 0 -1021578617.2022953 522265016.45671535 0 0 0 0 922766339.11752319 -430993669.01199389 0 -430993669.01199389 379514686.82733995 0 0 0 0 251676440.31472397 -984865716.72122991 0 -984865716.72122991 484827400.55754089 0 0 0 0 -91615007.182910919 -342957704.42409933 0 -342957704.42409933 449430884.66932774 0 0 0 0 638862560.07945251 -1247071280.4476643 0 -1247071280.4476643 606955624.76537275 0 0 0 0 322724056.33043671 -365576446.53061342 0 -365576446.53061342 122276298.84949207 0 0 0 0 5495367.3138470687 -2135925.0372135378 0 -2135925.0372135378 -1952782.4948119719 0 0 0 0 581202628.90373993 -345209530.0961194 0 -345209530.0961194 122326078.47420835 0 0 0 0 549823173.54454041 -395278979.41573751 0 -395278979.41573751 129335550.80721664 0 0 0 0 432418904.53830147 -211634774.24959648 0 -211634774.24959648 20218018.104284286 0 0 0 0 59008704.944019318 -93644691.28915 0 -93644691.28915 57852770.165484428 0 0 0 0 854371564.71646881 -290850081.70210218 0 -290850081.70210218 -196237737.28406811 0 0 0 0 782460060.15484619 -485629322.66305733 0 -485629322.66305733 -30688162.993149281 0 0 0 0 157248770.92964172 9856533.1141097546 0 9856533.1141097546 -63635591.033061028 0 0 0 0 1379003572.1975555 -400363580.81200171 0 -400363580.81200171 -241477167.72280407 0 0 0 0 -333114444.28076553 -39366356.132344306 0 -39366356.132344306 -89936832.560224533 0 0 0 0 -745690.76895900816 108562.374487333 0 108562.374487333 1907536.7536365371 0 0 0 0 797354385.69392395 -230203876.85688424 0 -230203876.85688424 76523377.982434273 0 0 0 0 2590429.9036901072 -903855.88083552942 0 -903855.88083552942 -1064325.210346275 0 0 0 0 1007620746.9842834 -1160731903.8798609 0 -1160731903.8798609 896481235.46563959 0 0 0 0 1387832736.2668915 105957756.59462309 0 105957756.59462309 -1880552049.3789253 0 0 0 0 1773132721.3620033 -1041800968.970908 0 -1041800968.970908 411866887.21049595 0 0 0 0 1675824606.1899872 -118125100.55970621 0 -118125100.55970621 -1711456881.8731785 0 0 0 0 1197655276.6775818 -1373467083.6839485 0 -1373467083.6839485 1365263952.6437254 0 0 0 0 2008185337.6282654 463280680.9105382 0 463280680.9105382 -1745025261.5870538 0 0 0 0 -1217741934.4030457 150664413.42558122 0 150664413.42558122 -124391786.97237682 0 0 0 0 2334959.6193473563 -1523458.9462528704 0 -1523458.9462528704 -797121.28731642105 0 0 0 0 654110860.3018074 -575462891.35714948 0 -575462891.35714948 278695105.10758209 0 0 0 0 1455915421.520874 -1024742805.9878898 0 -1024742805.9878898 513782863.11862421 0 0 0 0 373591363.51361179 -632763950.43346429 0 -632763950.43346429 821446018.73597574 0 0 0 0 1172193874.9894409 -770072052.5390501 0 -770072052.5390501 294910097.44529206 0 0 0 0 1386328845.5146122 -772248820.06798685 0 -772248820.06798685 332523317.00980902 0 0 0 0 1054306388.9827614 -948342022.2985152 0 -948342022.2985152 261283558.21529111 0 0 0 0 885139388.52799225 -866372215.44473112 0 -866372215.44473112 453967429.50480366 0 0 0 0 840493614.08489227 -977063489.68577087 0 -977063489.68577087 511273095.78452229 0 0 0 0 828016503.30055237 -1037440389.7407777 0 -1037440389.7407777 311732433.94861162 0 0 0 0 219873191.09342194 -725628370.96376169 0 -725628370.96376169 459451143.91562933 0 0 0 0 881244154.85336304 -894037172.29086459 0 -894037172.29086459 317625054.32913363 0 0 0 0 1588931796.2079391 -906529210.59848058 0 -906529210.59848058 197111751.59418058 0 0 0 0 795555141.85470581 -1203094356.3825059 0 -1203094356.3825059 370166455.35309517 0 0 0 0 -1128737849.4605408 -823042650.48465014 0 -823042650.48465014 325150377.01707512 0 0 0 0 1247006.0727337897 -1550028.1206317879 0 -1550028.1206317879 1971920.7901365911 0 0 0 0 1851686426.566246 -1323815149.0284066 0 -1323815149.0284066 743806723.52231765 0 0 0 0 1312768132.8737984 -751448979.98025584 0 -751448979.98025584 447458103.10183835 0 0 0 0 1145512506.183754 -723954445.71395433 0 -723954445.71395433 438678396.72312433 0 0 0 0 1113250008.8341236 -738514164.97019815 0 -738514164.97019815 853500989.39143527 0 0 0 0 1400312855.7285538 -569168155.09236979 0 -569168155.09236979 452866746.23432553 0 0 0 0 1273242319.1538544 -142346791.56140614 0 -142346791.56140614 120907959.25207853 0 0 0 0 1077196463.3437576 -904584526.06328845 0 -904584526.06328845 416557135.07071638 0 0 0 0 1067337165.7952061 -839914153.71456158 0 -839914153.71456158 512125307.98100233 0 0 0 0 3094302785.3314896 79721844.235682607 0 79721844.235682607 143966703.45329356 0 0 0 0 229176450.07145309 -362708182.23190117 0 -362708182.23190117 -533260746.75080776 0 0 0 0 -736862739.65813065 -639386333.24150443 0 -639386333.24150443 -326588265.85010338 0 0 0 0 3828449.9640451074 -4485065.9837617688 0 -4485065.9837617688 3795301.5455304948 0 0 0 0 1012105763.1197834 342451004.65968704 0 342451004.65968704 273303809.69861221 0 0 0 0 873896257.08875275 80569874.680381656 0 80569874.680381656 144367402.83738637 0 0 0 0 559236924.59711742 267704326.01915756 0 267704326.01915756 321208821.57508707 0 0 0 0 659783619.82608986 -74043809.576226741 0 -74043809.576226741 -236126975.1016202 0 0 0 0 405988459.74345398 -111397976.85222149 0 -111397976.85222149 -33007425.159809589 0 0 0 0 658681227.66474152 23305917.676792771 0 23305917.676792771 -517743258.26960081 0 0 0 0 590703855.4905014 101321815.06016886 0 101321815.06016886 -825306233.09806919 0 0 0 0 411922999.58895111 404513333.19956499 0 404513333.19956499 -929166433.2788465 0 0 0 0 503609563.80554199 -129318606.56259388 0 -129318606.56259388 -254998661.83756638 0 0 0 0 629971198.34483337 149595595.48887205 0 149595595.48887205 -413580254.56482482 0 0 0 0 426603970.7875824 57747609.903698325 0 57747609.903698325 -449276712.84839475 0 0 0 0 555680026.90151978 -8218892.9437829256 0 -8218892.9437829256 -740162530.90160847 0 0 0 0 393236042.61930847 -154323196.70064354 0 -154323196.70064354 -594581599.96887302 0 0 0 0 369111947.53767395 58176816.421629429 0 58176816.421629429 -432465244.48051214 0 0 0 0 -24431283.749023438 -278967753.8929646 0 -278967753.8929646 -194390723.93258953 0 0 0 0 688142687.09053802 -224073580.50360632 0 -224073580.50360632 -203300831.95362115 0 0 0 0 394431037.56186676 -177215779.35028279 0 -177215779.35028279 133822794.25119162 0 0 0 0 416892842.66300964 -756860738.50726295 0 -756860738.50726295 161132732.19385898 0 0 0 0 915031922.89704895 -665593545.20735395 0 -665593545.20735395 138648673.77845168 0 0 0 0 670457593.29974842 -451251363.93515193 0 -451251363.93515193 -377331342.94826698 0 0 0 0 203818062.49546814 -856669076.08548832 0 -856669076.08548832 -717359712.94147921 0 0 0 0 -251757405.69395447 -84296022.604070663 0 -84296022.604070663 -349322728.05665493 0 0 0 0 -79322473.783874512 -308084900.12461948 0 -308084900.12461948 -1021638080.6957326 0 0 0 0 2336955.5789152458 355679.49136609957 0 355679.49136609957 -1549922.6404731674 0 0 0 0 -514485318.35162354 -410276381.04795122 0 -410276381.04795122 -101211858.27761936 0 0 0 0 1819999.2159095779 -575569.21581261978 0 -575569.21581261978 -1705939.5173514681 0 0 0 0 85263091.426254272 -487413955.13244009 0 -487413955.13244009 -1176521257.7861457 0 0 0 0 72685241.879234314 150332348.81428659 0 150332348.81428659 -884126517.79708862 0 0 0 0 266857428.37520599 -130932100.37732708 0 -130932100.37732708 -482966253.93941665 0 0 0 0 -19824774.539156914 -231570129.54456797 0 -231570129.54456797 -421601223.44583988 0 0 0 0 18983048.678756714 -74534700.985770285 0 -74534700.985770285 -75973387.238510013 0 0 0 0 12805086.090126038 -2301783.6834979057 0 -2301783.6834979057 -325734.08590888977 0 0 0 0 6864031.3078310825 -5166634.0159613676 0 -5166634.0159613676 -1814342.8661846251 0 0 0 0 -39357687.763504028 12832541.266625643 0 12832541.266625643 -89735080.24603276 0 0 0 0 10221466.853351787 2577705.3433348835 0 2577705.3433348835 -3973585.532240897 0 0 0 0 10021445.845611572 -2015750.5946872234 0 -2015750.5946872234 -354541.01258689165 0 0 0 0 11229238.906852722 -2656293.0600821972 0 -2656293.0600821972 -4040590.4676101208 0 0 0 0 16931804.480560303 31007514.313490272 0 31007514.313490272 -62803179.536126375 0 0 0 0 6926919.1654221565 -4863416.0039272867 0 -4863416.0039272867 -2248458.8798532258 0 0 0 0 8129317.3775787354 -4195741.8827693462 0 -4195741.8827693462 -4225725.2500031292 0 0 0 0 9434895.0163664818 -5506863.7573362738 0 -5506863.7573362738 -8649056.8382773399 0 0 0 0 12631932.687026978 -3530909.942054987 0 -3530909.942054987 -12022267.225317955 0 0 0 0 5468089.5175950713 514345.27676343918 0 514345.27676343918 -3657531.9882952496 0 0 0 0 948931416.11198425 -29981293.076876402 0 -29981293.076876402 160206023.99720001 0 0 0 0 799762347.15858459 173603737.67107534 0 173603737.67107534 45787388.091771126 0 0 0 0 20168769.383140564 -9169160.596873641 0 -9169160.596873641 13302894.432051852 0 0 0 0 7665994.9532003403 -5152168.682233382 0 -5152168.682233382 -3669973.1761021148 0 0 0 0 9555405.5877776146 -3295597.8885829598 0 -3295597.8885829598 -5922288.4875359535 0 0 0 0 -19461228.157745361 -15204481.921560168 0 -15204481.921560168 12759503.642589688 0 0 0 0 2722890.2645930331 -292140.17191242799 0 -292140.17191242799 -3268531.9519443819 0 0 0 0 1698436597.5077057 -209921589.74985945 0 -209921589.74985945 -617124051.2900238 0 0 0 0 7793021.0099029541 14475504.97857976 0 14475504.97857976 -114083255.65824771 0 0 0 0 43085120.542427063 19566455.490879714 0 19566455.490879714 -116381691.03528357 0 0 0 0 56417983.094558716 17030144.839274645 0 17030144.839274645 -465460516.16889334 0 0 0 0 307957178.46897888 50182401.491190434 0 50182401.491190434 -462782207.492347 0 0 0 0 215651119.13639832 244476217.16870204 0 244476217.16870204 -699308203.07411337 0 0 0 0 262933576.93923569 -80154409.981355906 0 -80154409.981355906 -726703243.57077551 0 0 0 0 731312.02675766684 -434382.82521814108 0 -434382.82521814108 -1421407.8048538119 0 0 0 0 -489771585.08065796 646634689.90748298 0 646634689.90748298 -521578374.97448069 0 0 0 0 -174529558.73168945 256342496.42704868 0 256342496.42704868 -274674604.37613595 0 0 0 0 181169900.72174072 224860807.44801569 0 224860807.44801569 -679333165.29091704 0 0 0 0 189073996.17853498 586851211.07816613 0 586851211.07816613 -932909748.65179157 0 0 0 0 606443468.6781311 -242580498.78612566 0 -242580498.78612566 -381986831.55493343 0 0 0 0 1170859891.6886444 -989039410.37226069 0 -989039410.37226069 -447372588.9147886 0 0 0 0 345180176.5912323 -1041374435.0868865 0 -1041374435.0868865 -267173397.02904171 0 0 0 0 7109871.7814488038 -9119382.1024863813 0 -9119382.1024863813 7163477.9235363603 0 0 0 0 -39531890.766405106 -215470126.45162404 0 -215470126.45162404 -165473695.78738403 0 0 0 0 754207802.0398407 -300626266.60304689 0 -300626266.60304689 580113940.84173393 0 0 0 0 754615546.5920105 -342459147.07035613 0 -342459147.07035613 -1293771211.1932416 0 0 0 0 916309294.28437805 -104279548.04252148 0 -104279548.04252148 -399477233.88937426 0 0 0 0 914033343.23646545 102343727.98089457 0 102343727.98089457 38859758.676603317 0 0 0 0 -477362809.95022583 465768732.69697952 0 465768732.69697952 -328559443.64850569 0 0 0 0 -1608040558.7231293 -931342701.69291043 0 -931342701.69291043 -43759662.133880615 0 0 0 0 -1349798666.695755 -2398046635.7111864 0 -2398046635.7111864 14935921.353282928 0 0 0 0 1595080924.3743286 -658876603.81479788 0 -658876603.81479788 -263957029.41164434 0 0 0 0 676959288.71218491 -2445228681.0860229 0 -2445228681.0860229 -601539193.16609097 0 0 0 0 888949120.62444305 -121117937.39336443 0 -121117937.39336443 29247829.958628654 0 0 0 0 961456014.31613159 -418151080.54502559 0 -418151080.54502559 891214463.11905193 0 0 0 0 820303892.79824829 329225370.09831405 0 329225370.09831405 410854328.1103735 0 0 0 0 3158808.5516614988 -869104.4493350978 0 -869104.4493350978 -417096.76758635021 0 0 0 0 2461601215.6938057 764292755.60019517 0 764292755.60019517 -916079854.39660645 0 0 0 0 2073806192.8035736 839975216.77096033 0 839975216.77096033 -850690834.33349419 0 0 0 0 -157728614.29862976 148995053.31770134 0 148995053.31770134 -194815958.54151344 0 0 0 0 3066463733.9206696 706689599.03782415 0 706689599.03782415 -985969234.61461258 0 0 0 0 -2105735539.055191 15811129.242097139 0 15811129.242097139 1127743110.7644005 0 0 0 0 2627309105.2976074 539462125.91782188 0 539462125.91782188 -664742170.80484009 0 0 0 0 604041004.6115799 -155363684.08566427 0 -155363684.08566427 68678412.249328613 0 0 0 0 1087575906.7320404 1436669932.2533188 0 1436669932.2533188 2008140048.1949482 0 0 0 0 5445898.5857446268 -8521771.1003494672 0 -8521771.1003494672 9756017.9944806322 0 0 0 0 286554519.25967407 -535334817.69837666 0 -535334817.69837666 876055771.16832638 0 0 0 0 1389899451.6506424 -757495834.11335278 0 -757495834.11335278 10044657.994065285 0 0 0 0 621805304.14159477 -596702246.86910355 0 -596702246.86910355 -253483386.78640747 0 0 0 0 628182278.95394468 -366702708.70828855 0 -366702708.70828855 -189064572.81206131 0 0 0 0 749005780.57368469 -446947860.28388596 0 -446947860.28388596 -340754481.69385529 0 0 0 0 720383475.15428162 145801238.35986519 0 145801238.35986519 -157380326.80456448 0 0 0 0 451008726.02210236 -176174926.26179743 0 -176174926.26179743 -272703096.90233707 0 0 0 0 34821850.499547958 -76579197.15995574 0 -76579197.15995574 -183496001.1205368 0 0 0 0 494309763.94657135 -400787944.99002504 0 -400787944.99002504 -321787018.12483978 0 0 0 0 471533716.50444651 -586260092.04072452 0 -586260092.04072452 -409495776.60692787 0 0 0 0 390040352.45172119 -378532893.30165672 0 -378532893.30165672 -256224294.94526577 0 0 0 0 279913880.06429648 -356706237.05538577 0 -356706237.05538577 -234244113.57296944 0 0 0 0 255852315.35738373 -283654132.90489101 0 -283654132.90489101 -91318748.252427578 0 0 0 0 260974703.56590271 -112219661.25311375 0 -112219661.25311375 -155496271.42808318 0 0 0 0 239518325.28617859 -133404796.94462752 0 -133404796.94462752 -48504542.934599876 0 0 0 0 235226768.51027679 -181895469.07072306 0 -181895469.07072306 -277563832.51682854 0 0 0 0 221799695.76821899 -199664313.16657162 0 -199664313.16657162 -282448247.50764847 0 0 0 0 97524351.183280945 -255947462.49075317 0 -255947462.49075317 -242205970.8503418 0 0 0 0 -283970578.62908173 -184114275.50885916 0 -184114275.50885916 -176138017.79707479 0 0 0 0 58488157.54722023 -151357474.81338584 0 -151357474.81338584 -214908294.89459801 0 0 0 0 6006681.7593992278 -6914268.4172106683 0 -6914268.4172106683 4526078.0931925727 0 0 0 0 177493163.12174225 914646940.75622272 0 914646940.75622272 -151381859.52240014 0 0 0 0 -400468862.75466156 -470977427.82333994 0 -470977427.82333994 -259783472.43339729 0 0 0 0 86595919.340110779 -248351526.00121498 0 -248351526.00121498 -355099779.02736282 0 0 0 0 87705753.913238525 -179728353.59362507 0 -179728353.59362507 -181482496.34458923 0 0 0 0 -104562265.7186203 -198031972.33918977 0 -198031972.33918977 -215308086.36609459 0 0 0 0 141175631.95261383 -237102078.25003195 0 -237102078.25003195 -367283232.8011694 0 0 0 0 -75759133.339111328 -292651121.39854836 0 -292651121.39854836 -418733129.31385493 0 0 0 0 362039810.58342743 -33072608.466674805 0 -33072608.466674805 -343081441.01314163 0 0 0 0 314655638.76025677 108822322.64412677 0 108822322.64412677 -124547666.74054956 0 0 0 0 369922975.3109436 110884464.62715936 0 110884464.62715936 -48188126.120399475 0 0 0 0 290049763.61113739 -21230198.875946045 0 -21230198.875946045 -220017604.78478432 0 0 0 0 234084579.23823166 -26276688.05726862 0 -26276688.05726862 -165462092.60814762 0 0 0 0 423657255.99214554 178281386.70426083 0 178281386.70426083 224902068.36515045 0 0 0 0 363068251.98600769 228122533.24242306 0 228122533.24242306 212989393.64529806 0 0 0 0 313520234.39572525 124562169.70662022 0 124562169.70662022 34024767.777587414 0 0 0 0 459136629.26351166 314473256.65569568 0 314473256.65569568 -32904570.019567966 0 0 0 0 392087435.36696243 387211124.67333245 0 387211124.67333245 163815604.18670177 0 0 0 0 955346124.06229401 281450543.34803867 0 281450543.34803867 132850740.34209538 0 0 0 0 559918581.89172363 50164977.331246376 0 50164977.331246376 18607037.563587189 0 0 0 0 853850269.93483448 -174575015.97698879 0 -174575015.97698879 -69439058.437440872 0 0 0 0 1317213911.6703205 119627546.27627826 0 119627546.27627826 310540622.77478123 0 0 0 0 1257678940.5297775 436044602.46871233 0 436044602.46871233 391168183.43885708 0 0 0 0 1763949162.3520355 253287318.7133503 0 253287318.7133503 115067346.45653629 0 0 0 0 796102655.73685455 114829500.24070358 0 114829500.24070358 209233351.78472853 0 0 0 0 546923981.09149551 343221790.73289061 0 343221790.73289061 430652078.23631954 0 0 0 0 579401263.44231033 292666134.12883806 0 292666134.12883806 961416352.3701992 0 0 0 0 462573192.48918915 29517025.89330864 0 29517025.89330864 504065664.71281552 0 0 0 0 1617265003.0726242 -220374494.22173738 0 -220374494.22173738 1001134037.7661552 0 0 0 0 1043567076.5479584 266723255.52554989 0 266723255.52554989 1034502738.9628582 0 0 0 0 752836131.19451141 -172043367.35197067 0 -172043367.35197067 647852074.92989826 0 0 0 0 512958949.35083389 45049619.638019562 0 45049619.638019562 484136119.48076439 0 0 0 0 104598288.94271469 -235680505.17314672 0 -235680505.17314672 502799490.8772831 0 0 0 0 200112672.70967102 -224771940.13140345 0 -224771940.13140345 264511287.81872559 0 0 0 0 372682850.17891693 124504455.68520331 0 124504455.68520331 440885576.39264679 0 0 0 0 220689446.76230621 -62120367.219032764 0 -62120367.219032764 255630613.31664002 0 0 0 0 271279147.63898849 -52742287.40404129 0 -52742287.40404129 153162539.64594078 0 0 0 0 127881663.40621948 -368496298.97551346 0 -368496298.97551346 81924479.543977737 0 0 0 0 279777527.96989375 -380409803.00180042 0 -380409803.00180042 -11723334.786260605 0 0 0 0 143172575.37121964 -540364743.92717719 0 -540364743.92717719 -95429049.969697952 0 0 0 0 125812712.09947205 -607728550.50544071 0 -607728550.50544071 -165762141.30528641 0 0 0 0 -453605555.5984211 -217769480.13187981 0 -217769480.13187981 -58224564.048826218 0 0 0 0 204972358.55253983 -251706303.72755814 0 -251706303.72755814 -59338800.305496216 0 0 0 0 -90253751.84526062 -537288173.70883274 0 -537288173.70883274 202581901.71644688 0 0 0 0 -355168426.96521759 -844939830.36713886 0 -844939830.36713886 -273885375.70578957 0 0 0 0 330297465.23355865 -463310800.19146824 0 -463310800.19146824 -276210774.36150742 0 0 0 0 292060968.3046875 -651535706.34160233 0 -651535706.34160233 -955905425.19674206 0 0 0 0 20699026.073234558 -130703474.41727448 0 -130703474.41727448 261085534.24889183 0 0 0 0 54298364.540084839 -91641483.221590042 0 -91641483.221590042 -73108478.346704483 0 0 0 0 86064399.994262695 63954410.271687508 0 63954410.271687508 -327483621.53716946 0 0 0 0 78362465.48625946 84914924.77280426 0 84914924.77280426 -35811119.365682602 0 0 0 0 773472.7756915167 735179.63504144177 0 735179.63504144177 -2151154.8440015363 0 0 0 0 3776318.2332115173 -26984084.755152225 0 -26984084.755152225 -17136607.421794891 0 0 0 0 7035318.3211021796 -2541927.9238448138 0 -2541927.9238448138 -1414323.8160438747 0 0 0 0 -1513499.2535247803 -29336254.144941807 0 -29336254.144941807 28738897.477371216 0 0 0 0 -115047961.03024292 -540439760.36103821 0 -540439760.36103821 -747027358.05564642 0 0 0 0 -114870388.59496284 -943701803.98271728 0 -943701803.98271728 204530534.16794395 0 0 0 0 1554784.9359552488 -49670.458757057786 0 -49670.458757057786 -704911.60815195739 0 0 0 0 923447544.17147064 -477566166.61812615 0 -477566166.61812615 240661923.25314772 0 0 0 0 154524727.88656807 285778043.56123853 0 285778043.56123853 -805889900.1357646 0 0 0 0 -447105.73651130497 -240549.86947097722 0 -240549.86947097722 -316148.30476836383 0 0 0 0 9267857.5839867294 -2149592.9073906094 0 -2149592.9073906094 -3811622.8825706644 0 0 0 0 -53231194.339988708 -341426549.97213817 0 -341426549.97213817 -673758554.65011024 0 0 0 0 3953653.3022838309 2097068.9069701042 0 2097068.9069701042 -7817606.9604816251 0 0 0 0 45309852.317184448 -4404485.6750106812 0 -4404485.6750106812 -26663607.008275986 0 0 0 0 -554198928.04335022 -1042049667.4968293 0 -1042049667.4968293 -941165686.93064117 0 0 0 0 260570982.35944366 -200224274.38638783 0 -200224274.38638783 -636729038.2661097 0 0 0 0 1199294575.746582 261466984.42093587 0 261466984.42093587 -822104395.2125392 0 0 0 0 318346672.11391449 -260947818.86985254 0 -260947818.86985254 -629995326.37818813 0 0 0 0 1259452932.2074013 219192503.32417798 0 219192503.32417798 -553206319.1790123 0 0 0 0 1300163039.8041382 -119533320.67311859 0 -119533320.67311859 -770881086.43735361 0 0 0 0 350050396.98511124 -318419103.16881943 0 -318419103.16881943 -135391662.86833954 0 0 0 0 430416800.64521027 -203489691.68425369 0 -203489691.68425369 -985633873.41440058 0 0 0 0 946307112.41275406 -115237042.45180607 0 -115237042.45180607 -160670250.20749474 0 0 0 0 159926100.30354309 -403781648.41023827 0 -403781648.41023827 501519691.9723767 0 0 0 0 1325152914.379734 -658383269.60988569 0 -658383269.60988569 611174560.48487663 0 0 0 0 1661377506.1136551 -84159577.215419769 0 -84159577.215419769 -331250411.68732762 0 0 0 0 2107125504.07724 220465180.9519043 0 220465180.9519043 -211919639.18873167 0 0 0 0 1645364043.0247269 705535340.0760951 0 705535340.0760951 -131339236.78462982 0 0 0 0 2022747117.1476898 694634344.05344009 0 694634344.05344009 -137916932.41743851 0 0 0 0 1667284258.7483521 214022842.59364414 0 214022842.59364414 -754790672.70922494 0 0 0 0 2156412839.9404488 240390465.22599196 0 240390465.22599196 -768413617.65982437 0 0 0 0 1629172085.1064529 10284735.852507591 0 10284735.852507591 -887786878.87275362 0 0 0 0 1480928489.2294159 357826075.95994854 0 357826075.95994854 -600812574.48923922 0 0 0 0 1706207355.2576809 467741384.30897361 0 467741384.30897361 -801713638.0810194 0 0 0 0 1753148949.058342 336085111.66913724 0 336085111.66913724 -604783414.35139227 0 0 0 0 1276458608.0484924 725525878.21530902 0 725525878.21530902 -382145675.29818171 0 0 0 0 1628886645.7622604 508499054.50821221 0 508499054.50821221 -511100829.35786629 0 0 0 0 1192523203.4129639 456167356.69491577 0 456167356.69491577 -8321527.3390088677 0 0 0 0 1247496958.0839539 286883748.60740781 0 286883748.60740781 -189669133.13048387 0 0 0 0 1487797776.4697418 214450737.62905633 0 214450737.62905633 -375042910.14706945 0 0 0 0 1538736399.2891312 -10884337.377399564 0 -10884337.377399564 -277412801.65517759 0 0 0 0 1302199475.4957581 290783890.02611458 0 290783890.02611458 -297382268.53125167 0 0 0 0 3105918979.3154984 575720393.72624552 0 575720393.72624552 -1576091065.3842559 0 0 0 0 4711800327.1554108 1668744187.1812611 0 1668744187.1812611 -1165910512.0564663 0 0 0 0 1416497447.3792114 972909131.62104571 0 972909131.62104571 -11002002.047174692 0 0 0 0 1586052336.3441172 -412478669.58246666 0 -412478669.58246666 -1795478770.7345676 0 0 0 0 1671874450.2219391 599303744.89661598 0 599303744.89661598 -645159418.98185539 0 0 0 0 4723608418.9873047 694708184.50442731 0 694708184.50442731 -527135747.38383794 0 0 0 0 6516673.7033842616 -427996.05456863716 0 -427996.05456863716 -3107076.0567505625 0 0 0 0 -225528622.48480225 -806223437.01435852 0 -806223437.01435852 -883205830.50048876 0 0 0 0 4715453811.4986877 699299275.88543725 0 699299275.88543725 -529450682.91147238 0 0 0 0 1169735217.8249435 276073920.55115652 0 276073920.55115652 -474965863.13636684 0 0 0 0 1155758547.9992828 105298043.68853331 0 105298043.68853331 -283488177.98540401 0 0 0 0 6308859.4483188801 1002549.1762665715 0 1002549.1762665715 -5104480.5953331087 0 0 0 0 640949588.41960144 -946773648.40996909 0 -946773648.40996909 852149091.59540272 0 0 0 0 773357903.41387939 -143900964.02084237 0 -143900964.02084237 52868234.235758543 0 0 0 0 10938200.834563266 -19153271.667466126 0 -19153271.667466126 598465.6729248038 0 0 0 0 -339391880.92366791 -164568856.06741261 0 -164568856.06741261 228038347.72393966 0 0 0 0 81343523.770935059 119078715.75758934 0 119078715.75758934 20695154.027426779 0 0 0 0 -11680007.928016663 -58461740.334920168 0 -58461740.334920168 -84467104.251666546 0 0 0 0 9040475.4213465378 -2257149.498516487 0 -2257149.498516487 1869426.9739459299 0 0 0 0 4658120758.194149 -380929043.31605124 0 -380929043.31605124 29106182.724768713 0 0 0 0 209438463.67050171 -12334909.808132172 0 -12334909.808132172 -117241216.51549911 0 0 0 0 32088902.87966156 -11489256.717864037 0 -11489256.717864037 -34593670.773718834 0 0 0 0 57682342.598945618 -72525044.284836292 0 -72525044.284836292 107841663.90494728 0 0 0 0 6106303.655322792 1196193.6279734075 0 1196193.6279734075 -6872819.887170352 0 0 0 0 4522146962.5374374 980816273.50609565 0 980816273.50609565 212308277.9915655 0 0 0 0 2179399.2018065602 -7124517.4318452375 0 -7124517.4318452375 -5795371.7955294596 0 0 0 0 15040917.194610335 -5150855.1834618784 0 -5150855.1834618784 -6409062.4396757893 0 0 0 0 102831590.05384827 25338771.562384605 0 25338771.562384605 -89377704.252759933 0 0 0 0 310328490.56243134 -504190961.05204201 0 -504190961.05204201 431762736.57670593 0 0 0 0 399712189.01367188 -274401418.00390434 0 -274401418.00390434 137739602.86491299 0 0 0 0 -92815732.483528137 -207301413.41363525 0 -207301413.41363525 327120467.1068058 0 0 0 0 13220408.797100969 -6248990.8628520854 0 -6248990.8628520854 -5757282.2177110007 0 0 0 0 387498199.44695282 -88574946.719974518 0 -88574946.719974518 -32778415.271287918 0 0 0 0 14911351.352310181 13486533.481617928 0 13486533.481617928 -20114212.9678936 0 0 0 0 -19282962.433727264 30044270.927122235 0 30044270.927122235 -28113468.434694052 0 0 0 0 7570962.1223176941 3390625.2202595286 0 3390625.2202595286 -9348477.8987599462 0 0 0 0 3182950462.0899429 1508196478.4762344 0 1508196478.4762344 34127017.188234329 0 0 0 0 377225847.74384308 317996228.31923103 0 317996228.31923103 707599536.95196819 0 0 0 0 1472946200.0191956 1717229282.8076363 0 1717229282.8076363 1504870183.6110878 0 0 0 0 4761373.8969966508 667466.60784363933 0 667466.60784363933 -1511792.2974858412 0 0 0 0 3345467463.3569489 -854726585.0440836 0 -854726585.0440836 712514374.3643074 0 0 0 0 1984220610.0101624 649175275.11199474 0 649175275.11199474 2768211080.4171524 0 0 0 0 3954314584.4652405 1038740117.0608873 0 1038740117.0608873 846211758.63715935 0 0 0 0 2092678996.6914139 -91772240.991851807 0 -91772240.991851807 225881773.52079487 0 0 0 0 2210233058.8905716 852993832.26884747 0 852993832.26884747 886207595.9389739 0 0 0 0 -339429469.09005737 -84212109.572137833 0 -84212109.572137833 904427964.77388668 0 0 0 0 1701096.3947225343 -853537.71438548714 0 -853537.71438548714 -1432177.161310575 0 0 0 0 1075614994.3925629 -1499492586.0716572 0 -1499492586.0716572 2096109975.6457863 0 0 0 0 4354126539.3888893 -1481108854.9005296 0 -1481108854.9005296 475954279.02759361 0 0 0 0 1460938094.2210083 -663817228.76702881 0 -663817228.76702881 319104469.1332798 0 0 0 0 1094593432.9302216 -963942700.63849449 0 -963942700.63849449 641533038.94225073 0 0 0 0 1489133949.8332443 -647104112.3685894 0 -647104112.3685894 164466943.33209229 0 0 0 0 1670686375.7386627 -560316365.05029249 0 -560316365.05029249 -228739394.24369806 0 0 0 0 1453262990.572113 -824177556.39007282 0 -824177556.39007282 153462415.42832053 0 0 0 0 1242050383.7373543 -605036687.3077054 0 -605036687.3077054 13348039.758037567 0 0 0 0 1467013813.2940369 -780549194.89337444 0 -780549194.89337444 284935306.11086178 0 0 0 0 1730148533.8048248 -538305136.76521969 0 -538305136.76521969 -524410279.10766888 0 0 0 0 2920567968.3843994 -425305516.58460379 0 -425305516.58460379 -217879709.63706684 0 0 0 0 1998024383.3208504 -423922751.27429223 0 -423922751.27429223 -418426517.19922352 0 0 0 0 1524512670.758522 -417845832.51083326 0 -417845832.51083326 -317238723.3337484 0 0 0 0 1436812912.2545242 -506939785.6669879 0 -506939785.6669879 -397623207.88000774 0 0 0 0 1563647224.5657959 -725326820.1134634 0 -725326820.1134634 -518409166.2578373 0 0 0 0 1596314431.64575 -749923495.03871632 0 -749923495.03871632 -610502403.09105301 0 0 0 0 1515582204.4159546 -599457204.56744623 0 -599457204.56744623 -817567354.77114499 0 0 0 0 1637771116.5200119 -495713074.76497579 0 -495713074.76497579 -788842785.36167431 0 0 0 0 938821217.61837769 -156019633.00640488 0 -156019633.00640488 -778632369.67640221 0 0 0 0 -44912271.21289444 346909582.18335438 0 346909582.18335438 -469071009.6554594 0 0 0 0 2026924.3021903234 1244609.0182767902 0 1244609.0182767902 -2327318.325607202 0 0 0 0 938150976.77975464 353065090.50602293 0 353065090.50602293 -1794906266.6371751 0 0 0 0 4877825109.0354462 241734552.52852616 0 241734552.52852616 -1129236360.9764605 0 0 0 0 401115084.68647766 -111182609.69128132 0 -111182609.69128132 -14915834.722988129 0 0 0 0 4722831092.6223803 496964957.5488196 0 496964957.5488196 427032819.92049706 0 0 0 0 176967580.76450348 -46074463.817270279 0 -46074463.817270279 -1565661.5800228119 0 0 0 0 286509005.76774597 -311451006.16171074 0 -311451006.16171074 192534471.12513733 0 0 0 0 791412151.39718628 -467842103.33141136 0 -467842103.33141136 -27006344.004152775 0 0 0 0 1534559357.3679237 -670762780.43506002 0 -670762780.43506002 -354827735.82553864 0 0 0 0 403106326.9912262 -86481654.50614357 0 -86481654.50614357 -232613325.13150215 0 0 0 0 800756311.0163455 -320179860.48212934 0 -320179860.48212934 -101531499.25811005 0 0 0 0 3748436631.0446091 -812627587.98988175 0 -812627587.98988175 79163843.936609656 0 0 0 0 3920902629.5183258 -369187350.00845134 0 -369187350.00845134 -478785760.91581661 0 0 0 0 4723792530.014473 195098156.17960584 0 195098156.17960584 -884841605.79739952 0 0 0 0 3545926126.640152 -198932872.68785465 0 -198932872.68785465 -481773584.37389439 0 0 0 0 3568876318.968811 -370133848.40014112 0 -370133848.40014112 -352856103.64953506 0 0 0 0 108139925.95219421 -181093011.26900858 0 -181093011.26900858 -20746278.548173904 0 0 0 0 3246891253.2588043 -395776478.19530749 0 -395776478.19530749 -263974833.63265023 0 0 0 0 -60547949.474876404 -50641616.935247302 0 -50641616.935247302 7385327.4207105637 0 0 0 0 1324029.1123845261 -973231.23978253454 0 -973231.23978253454 -500199.55499012349 0 0 0 0 33878012.518318176 -29235883.014144897 0 -29235883.014144897 -11123613.446391821 0 0 0 0 46477163.116195679 -44403285.115511417 0 -44403285.115511417 6422316.4714122564 0 0 0 0 3753370.4562564604 -2721238.1468993351 0 -2721238.1468993351 -1350288.4138200504 0 0 0 0 89146581.828216553 -28905896.091781735 0 -28905896.091781735 -22435007.645400763 0 0 0 0 81942943.351287842 237103.48126077652 0 237103.48126077652 -107847339.68679571 0 0 0 0 23660052.369578712 10706318.010056462 0 10706318.010056462 -1181711.2694840576 0 0 0 0 18234177.553283691 20056952.921385765 0 20056952.921385765 -53802105.094763041 0 0 0 0 49801246.800048828 51399999.213459134 0 51399999.213459134 -31186143.06009531 0 0 0 0 33481830.882156372 -21380834.488127232 0 -21380834.488127232 -1415996.7113348246 0 0 0 0 3928926581.868988 -1240404969.2560349 0 -1240404969.2560349 -29095142.813422322 0 0 0 0 3382342026.0160637 -920039619.61348975 0 -920039619.61348975 63860518.78004986 0 0 0 0 4723418466.2051544 -894081454.48110569 0 -894081454.48110569 -400846293.56773287 0 0 0 0 4727623924.7038422 -1492045512.8608699 0 -1492045512.8608699 -160763779.00893778 0 0 0 0 4043420576.9722137 -993475969.32983267 0 -993475969.32983267 -331147259.31056887 0 0 0 0 4019577365.2178364 -1425678807.3969243 0 -1425678807.3969243 953293956.80438781 0 0 0 0 3829208940.7037678 -2508285871.8494973 0 -2508285871.8494973 1336400269.0716538 0 0 0 0 6416003342.722168 -1308254128.3476329 0 -1308254128.3476329 931223074.49397802 0 0 0 0 7590376.7568025067 -3019504.283202365 0 -3019504.283202365 -3169326.5471533118 0 0 0 0 2085798858.4253998 -1077065680.1602447 0 -1077065680.1602447 654026441.86241031 0 0 0 0 149752901.82760239 323793169.39222109 0 323793169.39222109 840261833.4903264 0 0 0 0 -1289518611.4427643 354092799.02835321 0 354092799.02835321 -1166896463.9228287 0 0 0 0 -2302823372.7838593 503240190.76729822 0 503240190.76729822 748812204.72716486 0 0 0 0 2847569.0643574838 506464.94240513444 0 506464.94240513444 248666.62499195454 0 0 0 0 -1243545946.1318054 1927606800.2327645 0 1927606800.2327645 2008434312.2038846 0 0 0 0 5574848168.6134644 1616714107.9069571 0 1616714107.9069571 -906051567.64534497 0 0 0 0 4718562903.5519943 140800741.63933012 0 140800741.63933012 2741997817.5766912 0 0 0 0 4816078272.5358124 -2586937628.875483 0 -2586937628.875483 1325244692.2528882 0 0 0 0 6405327.208013989 256708.4450869076 0 256708.4450869076 -346156.63268450386 0 0 0 0 1810855868.2521362 -679250498.05401158 0 -679250498.05401158 -2277591105.5573568 0 0 0 0 2549082202.3740845 3026156359.8685489 0 3026156359.8685489 1415687907.5664916 0 0 0 0 276826654.35647583 1777149940.7866597 0 1777149940.7866597 1581089326.6923726 0 0 0 0 326114.50945862383 4202859.5163142532 0 4202859.5163142532 2643396.9481640272 0 0 0 0 -1374068133.7101517 60400861.672557175 0 60400861.672557175 617523360.68993235 0 0 0 0 -698354835.50158691 -1010868717.0842028 0 -1010868717.0842028 -1016756148.5665102 0 0 0 0 287285607.26423645 -195746815.61515069 0 -195746815.61515069 -551475319.53147602 0 0 0 0 817308498.90454102 1202333624.8923523 0 1202333624.8923523 884019657.47938836 0 0 0 0 -1144380574.8266602 491053525.77521634 0 491053525.77521634 1013699476.9737072 0 0 0 0 1162416734.3976364 963276984.80990505 0 963276984.80990505 -10695527.411189914 0 0 0 0 -99986948.476272583 388448449.22125447 0 388448449.22125447 410765863.07988989 0 0 0 0 937893465.58248138 834145994.12966073 0 834145994.12966073 506857813.19559038 0 0 0 0 4719487349.0957584 2754393007.5319824 0 2754393007.5319824 -299050149.90927565 0 0 0 0 2340268307.5288925 2051518261.054656 0 2051518261.054656 510003334.92002952 0 0 0 0 3052573152.1840515 1503592377.5002053 0 1503592377.5002053 -1030358218.492189 0 0 0 0 496814304.40019989 1591280286.1712399 0 1591280286.1712399 639515574.68588161 0 0 0 0 985658341.34481812 268036923.31450355 0 268036923.31450355 60083487.307639241 0 0 0 0 1108515290.4140015 -5548309.8372250795 0 -5548309.8372250795 -233633624.43092817 0 0 0 0 1293341803.4491653 261443880.12461224 0 261443880.12461224 -190469851.20570683 0 0 0 0 1307102184.1360168 266007531.74499226 0 266007531.74499226 -188956606.75631297 0 0 0 0 1330760665.2708588 205535878.80485192 0 205535878.80485192 -160466817.41943967 0 0 0 0 653228976.76748657 385859949.15836966 0 385859949.15836966 8260171.9568983912 0 0 0 0 1151711533.9750671 149627366.28080553 0 149627366.28080553 33102007.130516529 0 0 0 0 1280455029.3928986 234426475.51566935 0 234426475.51566935 -363562669.4886384 0 0 0 0 705633816.96954346 66283590.394677162 0 66283590.394677162 17939135.551790833 0 0 0 0 230927296.30615234 -62534056.80614996 0 -62534056.80614996 -103342833.68866777 0 0 0 0 812094115.61613464 228374952.56346893 0 228374952.56346893 20144919.577681541 0 0 0 0 957217300.35960388 -121479422.9074955 0 -121479422.9074955 -726243366.30438852 0 0 0 0 1028054309.1339264 1078314826.7402735 0 1078314826.7402735 -650210356.21609151 0 0 0 0 1624257.0272985175 -1279314.6668511312 0 -1279314.6668511312 -242586.12971255137 0 0 0 0 1906855954.3408318 593630400.20455074 0 593630400.20455074 -9070901.9619368315 0 0 0 0 1409585297.7716599 -21403606.058094501 0 -21403606.058094501 131789887.91492701 0 0 0 0 561189861.7389679 -355641344.0716939 0 -355641344.0716939 186037574.04220247 0 0 0 0 1029145675.0876007 1013748998.4452894 0 1013748998.4452894 583127169.95630574 0 0 0 0 1031240310.5020161 894732743.35471296 0 894732743.35471296 785867658.4107275 0 0 0 0 440099546.71754456 -203946655.88486958 0 -203946655.88486958 255374689.49465847 0 0 0 0 1029688173.6276703 491619432.16419697 0 491619432.16419697 -1900366986.9264259 0 0 0 0 -1639821685.2773743 1168834505.483285 0 1168834505.483285 681467972.76525116 0 0 0 0 1518774.5202494264 2941687.2911830461 0 2941687.2911830461 1734708.1721672907 0 0 0 0 2153114946.1375809 1100811280.3743079 0 1100811280.3743079 -915231793.63517094 0 0 0 0 485627856.11955261 2121802455.0131679 0 2121802455.0131679 539813750.45236158 0 0 0 0 415606375.49949646 1859353180.9699273 0 1859353180.9699273 -1513101222.4457045 0 0 0 0 21290235.458369203 10191989.755416393 0 10191989.755416393 261645.0292431924 0 0 0 0 42321191.063480377 1739681.2804629207 0 1739681.2804629207 -31726499.333245277 0 0 0 0 -672663529.70024109 1328422748.1896386 0 1328422748.1896386 -834417460.27132571 0 0 0 0 321627154.31903076 -272146828.31728745 0 -272146828.31728745 -1767042570.2054791 0 0 0 0 313647387.99669647 -489737046.04304552 0 -489737046.04304552 -548741774.01826572 0 0 0 0 414975162.15148926 308990300.40991974 0 308990300.40991974 -539311467.29448318 0 0 0 0 -516875144.58584595 -309857453.27616978 0 -309857453.27616978 -883930307.34986782 0 0 0 0 128775497.48415756 -170277278.74825191 0 -170277278.74825191 -972763668.1376338 0 0 0 0 -86655465.21333313 58395866.831771851 0 58395866.831771851 -398140050.46376896 0 0 0 0 -14828679.729858398 75381758.118737459 0 75381758.118737459 -846829554.15583992 0 0 0 0 294431571.45729828 369780072.44764996 0 369780072.44764996 -950340508.74993622 0 0 0 0 -6492112.5048828125 -225367981.74484372 0 -225367981.74484372 -369314492.52835345 0 0 0 0 247435992.05565429 -67762566.813559026 0 -67762566.813559026 -273077277.02981043 0 0 0 0 -11466383.941253662 -205621975.27524328 0 -205621975.27524328 -103000356.16601086 0 0 0 0 -57716235.501777649 -157847541.2919898 0 -157847541.2919898 106129625.84116507 0 0 0 0 102513103.1939621 -88429475.105925083 0 -88429475.105925083 17448701.683083534 0 0 0 0 17121667.734779358 -260467490.55471182 0 -260467490.55471182 -258081609.69125772 0 0 0 0 -38658648.149391174 -64119572.626920462 0 -64119572.626920462 82303548.410791397 0 0 0 0 -7674162.8646087646 -6215163.5334556103 0 -6215163.5334556103 52574540.553910732 0 0 0 0 -10817293.252174377 21265866.481523991 0 21265866.481523991 333229628.0967406 0 0 0 0 19656799.481781006 -38203317.311753988 0 -38203317.311753988 25944685.205025673 0 0 0 0 -11566726.727203369 -42939932.132734299 0 -42939932.132734299 122712623.84151918 0 0 0 0 -14317941.419816971 -60809043.440688968 0 -60809043.440688968 10928770.063106537 0 0 0 0 6502567.6559181213 -7707931.1826090217 0 -7707931.1826090217 20678678.705597401 0 0 0 0 8794736.2949295044 -17624466.270709753 0 -17624466.270709753 11274781.609967232 0 0 0 0 3800896.3034520075 -6472108.3325103074 0 -6472108.3325103074 -2869746.3305092165 0 0 0 0 -271781372.12181854 -30798632.506597996 0 -30798632.506597996 -12729019.159745812 0 0 0 0 595955692.82772827 78139129.150233984 0 78139129.150233984 4944949.9140095115 0 0 0 0 5244845.8536872864 -10388306.632124484 0 -10388306.632124484 28802779.478737831 0 0 0 0 4914656.5501954854 -4144063.8338715956 0 -4144063.8338715956 -1289505.9866762985 0 0 0 0 7011065.7344608307 -19340849.921673596 0 -19340849.921673596 38977232.811392784 0 0 0 0 615317847.00759888 13138618.514144063 0 13138618.514144063 -7412453.2640733719 0 0 0 0 -486258103.94268036 -185313075.41737652 0 -185313075.41737652 155924379.92232227 0 0 0 0 -445429879.04603577 -577085747.00623608 0 -577085747.00623608 1055305823.5549164 0 0 0 0 -592940414.90834427 -192678112.79439425 0 -192678112.79439425 257621149.59015465 0 0 0 0 -243152417.30227661 -258561109.2939496 0 -258561109.2939496 62333479.948287964 0 0 0 0 15077603.838072777 -13590657.136888117 0 -13590657.136888117 -619276.62606191635 0 0 0 0 -1089325125.8233752 -102511500.41111687 0 -102511500.41111687 1617974734.2318897 0 0 0 0 3992619.9134921432 -6174518.033960022 0 -6174518.033960022 -2424147.0670632417 0 0 0 0 -1060920030.844841 1048080408.1008325 0 1048080408.1008325 119025335.74750945 0 0 0 0 -85747367.659347534 210968714.61102343 0 210968714.61102343 96244867.284181356 0 0 0 0 503078.67565390468 -2495480.1234959066 0 -2495480.1234959066 216683.41845135973 0 0 0 0 39762204.613937378 -17732455.355828762 0 -17732455.355828762 -760918.66105872393 0 0 0 0 48826345.516609192 -22128590.749115348 0 -22128590.749115348 -31765658.927990437 0 0 0 0 239914224.25958085 107617983.00883543 0 107617983.00883543 -12130027.644949436 0 0 0 0 -163474128.19433594 -402682985.11495614 0 -402682985.11495614 -678448818.67286968 0 0 0 0 -194040.80742714182 -778546.85268665664 0 -778546.85268665664 347263.37732411665 0 0 0 0 82117251.782608032 234748360.42426658 0 234748360.42426658 -410089639.25918293 0 0 0 0 -158183650.27081299 167429885.12877989 0 167429885.12877989 -847536011.55485964 0 0 0 0 -14715827.754140854 -262292625.09766373 0 -262292625.09766373 -389497931.46740198 0 0 0 0 -59156511.752689362 115615380.40107894 0 115615380.40107894 200482968.03416538 0 0 0 0 148905191.04467773 72175645.873734474 0 72175645.873734474 -58429883.132069588 0 0 0 0 -47486687.937145233 -5017616.0885803699 0 -5017616.0885803699 -82575299.796283722 0 0 0 0 64032760.983631134 172206320.7362783 0 172206320.7362783 -156759265.27228928 0 0 0 0 28239369.670123555 1398479.5605595093 0 1398479.5605595093 -5549048.8739299485 0 0 0 0 -12037317.770339966 89492241.360126972 0 89492241.360126972 -72891543.164843559 0 0 0 0 -3542964.4303168654 1020193.1491685563 0 1020193.1491685563 -52075.969839032157 0 0 0 0 34173517.715362549 -51824032.820588112 0 -51824032.820588112 -58325891.344447374 0 0 0 0 256297899.68708038 -249241531.51274592 0 -249241531.51274592 -1748849311.1079416 0 0 0 0 -4345988.3989256695 12745237.111673025 0 12745237.111673025 -1987808.4147816454 0 0 0 0 160537221.09446716 -48552076.274658799 0 -48552076.274658799 -1428129015.9111991 0 0 0 0 -35130119.253090858 115712734.91076231 0 115712734.91076231 1049100.7870893478 0 0 0 0 31937385.390254196 5335821.3785641249 0 5335821.3785641249 -4710131.4269260596 0 0 0 0 2069882.7674863935 7823312.7826966345 0 7823312.7826966345 -1598577.4634686308 0 0 0 0 216594432.01445007 490414496.67224145 0 490414496.67224145 -1933304913.644166 0 0 0 0 65695868.828033447 -24664177.429947376 0 -24664177.429947376 -142155584.53174371 0 0 0 0 -269011241.82640076 343807859.8592422 0 343807859.8592422 -988514213.9109441 0 0 0 0 72001879.955551147 -20336092.031008363 0 -20336092.031008363 -72006701.640749931 0 0 0 0 8032445.6711044312 27216152.258597612 0 27216152.258597612 -106664308.95287037 0 0 0 0 126658441.58349609 25452614.071751833 0 25452614.071751833 -108576945.27269608 0 0 0 0 60725941.28894043 79331688.721892834 0 79331688.721892834 -141591860.93617964 0 0 0 0 19129648.646087646 17870828.258434534 0 17870828.258434534 -106743444.89685941 0 0 0 0 53059489.447174072 78210484.271180272 0 78210484.271180272 -29075543.361588717 0 0 0 0 48564879.332931519 36496913.091747046 0 36496913.091747046 -23170175.559544593 0 0 0 0 6937665.0052261353 80933419.718574643 0 80933419.718574643 30144335.050617695 0 0 0 0 262991188.70861816 13522198.888291597 0 13522198.888291597 -66150093.708621681 0 0 0 0 113803014.63711548 129743389.19857389 0 129743389.19857389 109748457.78560257 0 0 0 0 5080937.4796142578 -6524400.7045130134 0 -6524400.7045130134 197360072.53202313 0 0 0 0 7988411.4715881348 -11666845.194023609 0 -11666845.194023609 45083872.948466748 0 0 0 0 -12828675.369232178 24278213.416772246 0 24278213.416772246 6240958.9716768265 0 0 0 0 -22234952.290237427 20897284.937136292 0 20897284.937136292 84821449.951998353 0 0 0 0 -22587112.14982605 20681179.665041566 0 20681179.665041566 25422864.722374022 0 0 0 0 -20685170.190799713 27309072.012612849 0 27309072.012612849 7598829.9520123005 0 0 0 0 -15236783.264030457 40461996.067065239 0 40461996.067065239 -22090766.299865007 0 0 0 0 13984335.394226074 44533540.434279323 0 44533540.434279323 -58543542.665090859 0 0 0 0 18747367.069573782 -6199938.3961800821 0 -6199938.3961800821 -5650495.5897744847 0 0 0 0 -94149185.905639648 198068180.40131187 0 198068180.40131187 -275239223.93232536 0 0 0 0 -117940463.37973022 183526970.98255157 0 183526970.98255157 -270363142.9648037 0 0 0 0 -95852401.955993652 217683553.78834915 0 217683553.78834915 -259756031.83524418 0 0 0 0 -51748429.16028595 122686624.73285103 0 122686624.73285103 -246934422.17955351 0 0 0 0 23472707.734583683 -2197844.129051039 0 -2197844.129051039 -5853920.4161087535 0 0 0 0 -8130357.5759429932 16357726.858224869 0 16357726.858224869 -3394096.751647085 0 0 0 0 -1783991.1575546265 2313858.2042725086 0 2313858.2042725086 12441541.945607185 0 0 0 0 -4057161.1763000488 2265303.0304102898 0 2265303.0304102898 14208490.062488437 0 0 0 0 -1143739.9391174316 1875531.9137533307 0 1875531.9137533307 9889299.6952033043 0 0 0 0 -5219610.9128990173 -1934245.3998378813 0 -1934245.3998378813 12148920.183344126 0 0 0 0 6674921.6006164551 -366053.88160562515 0 -366053.88160562515 9995953.7900490761 0 0 0 0 21117699.506958008 -8203590.1046185493 0 -8203590.1046185493 5791978.3263168335 0 0 0 0 2271352.9170532227 -3425825.0308417082 0 -3425825.0308417082 11844271.893183589 0 0 0 0 5366969.0232543945 -10274149.481052876 0 -10274149.481052876 7951878.3011162281 0 0 0 0 2766824.3465232849 -9492833.4824502319 0 -9492833.4824502319 7934501.8016805649 0 0 0 0 53721903.057983398 132564255.76203156 0 132564255.76203156 -531979053.64794159 0 0 0 0 11854744.496612549 -13973227.802718163 0 -13973227.802718163 6069959.5519948006 0 0 0 0 2834868.9505615234 -14650407.033293962 0 -14650407.033293962 6265588.6867614985 0 0 0 0 11283906.626877904 -9547685.8707691897 0 -9547685.8707691897 -5840319.3183825286 0 0 0 0 13483796.262268066 -18633215.848955393 0 -18633215.848955393 6921518.4026498795 0 0 0 0 13287241.087463379 -18810711.632634401 0 -18810711.632634401 6822074.1410152912 0 0 0 0 1369461.3297984079 -1590495.1614112034 0 -1590495.1614112034 1264119.8841360291 0 0 0 0 65296267.81628418 193949251.94561005 0 193949251.94561005 -520811776.15234375 0 0 0 0 18118809.494995117 -7543488.2041974068 0 -7543488.2041974068 6201782.028249383 0 0 0 0 6382330.9338378906 -8155257.0406239033 0 -8155257.0406239033 6271212.1606616974 0 0 0 0 12392919.170837402 -14633024.926825285 0 -14633024.926825285 6175365.624666214 0 0 0 0 14265099.632446289 -15955533.694687366 0 -15955533.694687366 6259971.0836312771 0 0 0 0 8710170.2208862305 -16134867.615175247 0 -16134867.615175247 6471397.8099013567 0 0 0 0 10626896.10836792 -17841407.760912657 0 -17841407.760912657 6887450.284318924 0 0 0 0 10181648.393844604 -18860861.249819756 0 -18860861.249819756 6344876.0160369873 0 0 0 0 9163061.5323486328 -19110925.48969698 0 -19110925.48969698 7298915.7752375305 0 0 0 0 10045177.146850586 -18192919.67834115 0 -18192919.67834115 5899910.0926814079 0 0 0 0 10601010.231323242 -19806251.248849392 0 -19806251.248849392 7246295.6439445913 0 0 0 0 12021595.4324646 -19901384.392855048 0 -19901384.392855048 6952429.1053879261 0 0 0 0 9699636.7400512695 -18728497.369455814 0 -18728497.369455814 6757391.0848388672 0 0 0 0 11868874.123626709 -19285034.87876153 0 -19285034.87876153 6814067.5538935661 0 0 0 0 89304154.641906738 173261208.13795471 0 173261208.13795471 -509381185.85416555 0 0 0 0 89619163.286254883 188053914.8881073 0 188053914.8881073 -492078850.05649567 0 0 0 0 78689597.998779297 165770767.70370483 0 165770767.70370483 -455415343.80326843 0 0 0 0 75573497.502624512 165063203.68008423 0 165063203.68008423 -468316696.70106506 0 0 0 0 80948606.265075684 159430918.46159363 0 159430918.46159363 -497976261.2798214 0 0 0 0 50253609.699829102 127758835.71405029 0 127758835.71405029 -510127944.6484046 0 0 0 0 36658219.379638672 135550958.19702148 0 135550958.19702148 -478095503.71656799 0 0 0 0 -16997690.831359863 88930280.657554626 0 88930280.657554626 -511353976.45580292 0 0 0 0 -52721609.404052734 78409390.816482544 0 78409390.816482544 -486576567.64085388 0 0 0 0 22348217.92376709 -12239390.045880616 0 -12239390.045880616 6407899.6280498505 0 0 0 0 17034786.604370117 -17103788.739509106 0 -17103788.739509106 6950616.8604059219 0 0 0 0 35844178.852783203 -48521566.176828384 0 -48521566.176828384 36687873.507732391 0 0 0 0 -93593712.955566406 23972619.401893616 0 23972619.401893616 -348463270.13894653 0 0 0 0 -30074114.971679688 4851207.133740589 0 4851207.133740589 48770404.600397348 0 0 0 0 -37135962.103088379 -20160516.255230188 0 -20160516.255230188 97348550.745887518 0 0 0 0 -116411539.07366943 193222167.95399475 0 193222167.95399475 -416792772.48077393 0 0 0 0 -162531385.70123291 116581694.08100128 0 116581694.08100128 -362398720.63900757 0 0 0 0 15649000.276977539 -18390048.233975887 0 -18390048.233975887 6875413.1527881622 0 0 0 0 22692289.904174805 -16645004.736209869 0 -16645004.736209869 7195923.5198475122 0 0 0 0 12135914.926300049 -19720908.22685492 0 -19720908.22685492 7153709.3370633125 0 0 0 0 -31083538.936157227 219883197.14147949 0 219883197.14147949 -453460137.82254028 0 0 0 0 81302663.860977888 164870393.873523 0 164870393.873523 -449600775.21218872 0 0 0 0 81511352.340515137 188629589.22763062 0 188629589.22763062 -483254595.59851074 0 0 0 0 23828003.765319824 159223506.3983078 0 159223506.3983078 -432914274.39794922 0 0 0 0 84707783.092773438 169408380.74951935 0 169408380.74951935 -459324978.40888977 0 0 0 0 17961735.393676758 210214378.02894592 0 210214378.02894592 -467266306.00159454 0 0 0 0 801879.37905883789 147890817.69677162 0 147890817.69677162 -402349612.49981689 0 0 0 0 -6002341.966583252 74408099.355049133 0 74408099.355049133 -366616120.46499634 0 0 0 0 -45198745.456115723 128615787.70352936 0 128615787.70352936 -400690752.85440063 0 0 0 0 70376765.385742188 94666345.017974854 0 94666345.017974854 -400040400.03124297 0 0 0 0 34193436.804077148 64537792.756774902 0 64537792.756774902 -398470027.80489349 0 0 0 0 101839459.05316162 14453015.451293945 0 14453015.451293945 -381622586.23327446 0 0 0 0 60550399.828063965 -30498353.250747681 0 -30498353.250747681 -355996576.91252136 0 0 0 0 -38823095.819458008 43759400.502334595 0 43759400.502334595 -383478874.49533176 0 0 0 0 182915116.62942505 44269834.083518982 0 44269834.083518982 -403404400.32882309 0 0 0 0 162609172.95632935 45325974.286972046 0 45325974.286972046 -393662225.96770477 0 0 0 0 143292211.25939941 33269932.019332886 0 33269932.019332886 -391759598.49345398 0 0 0 0 85695137.521011353 112266322.26116943 0 112266322.26116943 -417098551.21113586 0 0 0 0 190251001.49737549 75537699.616882324 0 75537699.616882324 -404337980.18851471 0 0 0 0 131342047.56736755 143143978.15064049 0 143143978.15064049 -388061273.68635559 0 0 0 0 86466137.420043945 167321902.26541901 0 167321902.26541901 -448464042.02386856 0 0 0 0 100601915.56323242 120476284.86302185 0 120476284.86302185 -413998117.48707581 0 0 0 0 86745601.354064941 146262086.17475891 0 146262086.17475891 -416207767.12106323 0 0 0 0 95530358.190437317 170218765.36053085 0 170218765.36053085 -454533916.9044342 0 0 0 0 109407130.80922699 176387390.78538895 0 176387390.78538895 -400616380.44338989 0 0 0 0 128867881.93835449 131888949.5843277 0 131888949.5843277 -419386679.77911282 0 0 0 0 155131878.73405457 212504555.50985909 0 212504555.50985909 -338316586.00901794 0 0 0 0 213283032.07614136 117343557.31172562 0 117343557.31172562 -383062541.57595444 0 0 0 0 305401992.83525085 39681826.472017288 0 39681826.472017288 -397811182.15309906 0 0 0 0 200532113.8633728 109763060.70855522 0 109763060.70855522 -373166507.36097336 0 0 0 0 -132189613.52342224 135873806.02168655 0 135873806.02168655 -340185203.21582031 0 0 0 0 -20647988.576171875 161530979.66821289 0 161530979.66821289 -361897662.42463684 0 0 0 0 -65523055.16015625 148442858.73558044 0 148442858.73558044 -329719085.60973358 0 0 0 0 -82645256.437683105 190646674.84416962 0 190646674.84416962 -279705491.53544998 0 0 0 0 -95523152.574676514 82934374.117977142 0 82934374.117977142 -427677769.9541626 0 0 0 0 -68492107.28112793 119112378.04088593 0 119112378.04088593 -383994291.30259705 0 0 0 0 -16016953.209350586 127405501.27411652 0 127405501.27411652 -426389738.30693054 0 0 0 0 -2972154.4735412598 109446351.00194168 0 109446351.00194168 -459541013.53736877 0 0 0 0 34754437.680938721 131355626.13671494 0 131355626.13671494 -456039009.88633728 0 0 0 0 26809659.711364746 148578143.91745758 0 148578143.91745758 -413358100.72125244 0 0 0 0 66604908.648864746 149182773.75917816 0 149182773.75917816 -417805508.60597229 0 0 0 0 69718454.010803223 162057504.41964722 0 162057504.41964722 -432196797.53502655 0 0 0 0 10897079.925872803 154440144.22785568 0 154440144.22785568 -377122760.58352661 0 0 0 0 62982042.135681152 176284700.30958557 0 176284700.30958557 -370713100.17444801 0 0 0 0 -4973897.4736785889 131686183.2384758 0 131686183.2384758 -409576563.41676331 0 0 0 0 -20604019.629821777 192254419.82212067 0 192254419.82212067 -308683802.43090057 0 0 0 0 122052317.10943604 179215503.24632263 0 179215503.24632263 -358324513.12675667 0 0 0 0 54663644.359649658 165062895.77574921 0 165062895.77574921 -361294917.00959015 0 0 0 0 36412064.94342041 214538543.22854233 0 214538543.22854233 -314138600.28681946 0 0 0 0 39747411.934997559 221760654.17158318 0 221760654.17158318 -298774315.7497406 0 0 0 0 -33903137.552062988 227368012.84163284 0 227368012.84163284 -270488562.90488052 0 0 0 0 -95664695.697296143 219342884.45618057 0 219342884.45618057 -247027453.92295074 0 0 0 0 -29682737.822631836 182590410.8152771 0 182590410.8152771 -313581432.82590103 0 0 0 0 -47404432.508544922 222429440.88963318 0 222429440.88963318 -272462717.97668839 0 0 0 0 -144491405.00268555 269283629.21042252 0 269283629.21042252 -197984092.88787079 0 0 0 0 -42255797.091384888 266216477.07143998 0 266216477.07143998 -205935301.90982056 0 0 0 0 41501781.731658936 273198297.5173893 0 273198297.5173893 -261496610.02207184 0 0 0 0 128628507.77700806 221785129.05213165 0 221785129.05213165 -313569215.94724512 0 0 0 0 67671470.906951904 267052391.99958229 0 267052391.99958229 -260219289.034338 0 0 0 0 109512253.27432251 296103956.05509853 0 296103956.05509853 -289089819.29708099 0 0 0 0 315483982.10882568 288828131.33284569 0 288828131.33284569 -301815501.38124561 0 0 0 0 -21252558.937576294 353644770.66665649 0 353644770.66665649 -194145346.76521683 0 0 0 0 -72294217.072296143 346304327.85719872 0 346304327.85719872 -193493867.36684108 0 0 0 0 318855730.07662201 2191229.2112798691 0 2191229.2112798691 -355016193.7324295 0 0 0 0 395721792.80575562 130561403.04079628 0 130561403.04079628 -375412102.15481567 0 0 0 0 277682459.10168457 228225427.22491646 0 228225427.22491646 -328653723.29016113 0 0 0 0 239215700.13230896 171099615.92671013 0 171099615.92671013 -314199299.13575745 0 0 0 0 115358475.164505 199419361.68244743 0 199419361.68244743 -320638338.61616516 0 0 0 0 469047296.51837158 182219813.02864647 0 182219813.02864647 -337914777.92645454 0 0 0 0 280245507.44598389 239912132.0879097 0 239912132.0879097 -305353548.46148872 0 0 0 0 410296554.08838654 97292344.969886303 0 97292344.969886303 -282028267.69884109 0 0 0 0 901103864.65275574 36762925.080429077 0 36762925.080429077 -348949635.83548355 0 0 0 0 574093626.71519852 -13688077.643833756 0 -13688077.643833756 -257097883.22249985 0 0 0 0 610286950.39564514 115093320.34635925 0 115093320.34635925 -299556482.75178719 0 0 0 0 542728983.88229561 240434852.53452736 0 240434852.53452736 -377410217.71527672 0 0 0 0 628444680.90936279 133271359.22820902 0 133271359.22820902 -281559788.29319286 0 0 0 0 -41690045.598754883 426471193.74601078 0 426471193.74601078 -259988642.02588463 0 0 0 0 -42218336.982971191 427825804.58404386 0 427825804.58404386 -250338022.99741936 0 0 0 0 108714798.91882324 440038286.75792599 0 440038286.75792599 -264334918.61132812 0 0 0 0 102617600.72886658 383740018.5099926 0 383740018.5099926 -392912315.05846417 0 0 0 0 464257600.36122131 506773016.8515408 0 506773016.8515408 -481607573.8915596 0 0 0 0 -425411284.7947998 604355056.4083147 0 604355056.4083147 -326685710.53627872 0 0 0 0 -335932323.08157349 418938402.16738033 0 418938402.16738033 -679917195.76724923 0 0 0 0 -292637136.31567383 193545695.66718936 0 193545695.66718936 -15583367.194160461 0 0 0 0 -591350702.23445129 457858315.06612825 0 457858315.06612825 -58879036.110872269 0 0 0 0 -188697928.15959167 459553713.66142321 0 459553713.66142321 -216092544.97168541 0 0 0 0 -164713131.78712654 132282486.08421493 0 132282486.08421493 -81214145.469799042 0 0 0 0 -363826726.1505127 314944175.81290913 0 314944175.81290913 -99168116.315849304 0 0 0 0 -154853598.84347343 218308452.40246344 0 218308452.40246344 -177226417.01921082 0 0 0 0 -144846992.08691406 262807019.28991699 0 262807019.28991699 -88696076.050477028 0 0 0 0 -58408183.557624817 102534735.79782295 0 102534735.79782295 -182850507.2597084 0 0 0 0 -300981596.55427551 163147863.47851276 0 163147863.47851276 -78627702.264715552 0 0 0 0 -145422308.1856842 -37965003.276510239 0 -37965003.276510239 156227155.42575264 0 0 0 0 -411581463.73539734 160237392.53114414 0 160237392.53114414 364411816.96780539 0 0 0 0 -1446653.9676589742 -1223799.9324692613 0 -1223799.9324692613 236886.01375465823 0 0 0 0 245783343.34851074 -48974453.488470182 0 -48974453.488470182 -1987293823.5596313 0 0 0 0 -175415716.72245216 -374732698.39737839 0 -374732698.39737839 -1132598159.051754 0 0 0 0 45616857.583358765 -454936629.81345129 0 -454936629.81345129 -723674961.511814 0 0 0 0 -7443219.9533538818 391597949.36909676 0 391597949.36909676 -418738148.82519436 0 0 0 0 -531909650.55812073 734828453.34955943 0 734828453.34955943 -856834266.08980727 0 0 0 0 -1213321706.7586365 88073191.235835895 0 88073191.235835895 -648927515.79927182 0 0 0 0 -1206874498.1952362 122644451.15766795 0 122644451.15766795 -826093214.99663007 0 0 0 0 558979.49144702405 -1654429.3712646179 0 -1654429.3712646179 -1391338.9253827254 0 0 0 0 -1529609058.4249115 -240253677.40689683 0 -240253677.40689683 70359663.866239071 0 0 0 0 -254910551.9198761 -183022320.93733454 0 -183022320.93733454 -1324234655.2931497 0 0 0 0 -767728338.38665771 214511068.08152628 0 214511068.08152628 254016682.38728666 0 0 0 0 -1429054721.7640123 759473863.49634409 0 759473863.49634409 -138624033.30618906 0 0 0 0 -652902778.26023865 229431048.45172453 0 229431048.45172453 -8618671.8930323124 0 0 0 0 -940190282.92608643 69969385.503340006 0 69969385.503340006 453347137.95820045 0 0 0 0 -288099731.74658203 -163411489.95595646 0 -163411489.95595646 274588016.05541468 0 0 0 0 -372216686.10255432 3349324.7150390148 0 3349324.7150390148 -5700633.8465037346 0 0 0 0 -110785871.46025133 -201887099.84141114 0 -201887099.84141114 169428370.43905163 0 0 0 0 1157353.489112094 -4489661.2657496035 0 -4489661.2657496035 -2243840.4896048852 0 0 0 0 -699054944.39021301 -195197145.30170012 0 -195197145.30170012 15739706.210090101 0 0 0 0 2779571.8663099483 -7832487.5164778549 0 -7832487.5164778549 6007536.045325934 0 0 0 0 3661279157.9859314 -2346063181.7652626 0 -2346063181.7652626 425368413.86187363 0 0 0 0 -699330438.1003418 -75795145.647025585 0 -75795145.647025585 292847552.87511253 0 0 0 0 -359442427.96685791 -277813909.3898263 0 -277813909.3898263 380680561.77984381 0 0 0 0 596858.45655439794 -3449293.9474668354 0 -3449293.9474668354 3705048.7018331084 0 0 0 0 12841943.014862061 -151113748.23033762 0 -151113748.23033762 -377925860.49330807 0 0 0 0 -2352964343.1248245 748362917.33961296 0 748362917.33961296 -851868711.12403488 0 0 0 0 1967212.4743675627 -3405982.5044945367 0 -3405982.5044945367 5201381.3746497538 0 0 0 0 3298791221.8909149 301512731.80443239 0 301512731.80443239 -1089141750.0284691 0 0 0 0 3308777992.3414764 -1116745080.5667696 0 -1116745080.5667696 -121801006.13231659 0 0 0 0 2637000903.2606812 -697839509.05829048 0 -697839509.05829048 39050717.514455795 0 0 0 0 1596688368.7934723 -1608817702.8853388 0 -1608817702.8853388 1464506851.2936621 0 0 0 0 1409239648.0827789 -250216254.13086414 0 -250216254.13086414 9546994.6655578613 0 0 0 0 1580018076.1504974 -851449908.91908741 0 -851449908.91908741 -95231641.046434402 0 0 0 0 1584836587.3325467 -309080634.52690816 0 -309080634.52690816 -369606310.13157082 0 0 0 0 668531203.90299225 -927693348.15994525 0 -927693348.15994525 189624212.15929079 0 0 0 0 694996177.97303772 -989630579.21177101 0 -989630579.21177101 -434635006.70653677 0 0 0 0 665193644.67823029 -1063609382.2629124 0 -1063609382.2629124 505670707.59560776 0 0 0 0 1229952743.121109 -822896647.73657608 0 -822896647.73657608 -50054117.904295921 0 0 0 0 533437788.75180054 -646400977.22521687 0 -646400977.22521687 76715204.636968613 0 0 0 0 -145979342.68811035 -99421214.380111694 0 -99421214.380111694 294936176.49161911 0 0 0 0 117586628.0386734 -558966013.56733513 0 -558966013.56733513 755549784.41955566 0 0 0 0 554231393.6900177 -465313478.01350307 0 -465313478.01350307 519725292.62540007 0 0 0 0 2254186620.0849152 -1718900477.462956 0 -1718900477.462956 729975011.95606995 0 0 0 0 688834484.55075073 -983195090.91701508 0 -983195090.91701508 2233060171.7490363 0 0 0 0 3068670942.8415222 -758757288.52900171 0 -758757288.52900171 -526797928.33012486 0 0 0 0 3008694262.084465 -180602662.61598182 0 -180602662.61598182 26482315.566172838 0 0 0 0 1282844293.2868652 552142829.19202948 0 552142829.19202948 1390970662.2026472 0 0 0 0 -320875574.90478516 -296851952.42771053 0 -296851952.42771053 903446683.6368227 0 0 0 0 603743031.578125 -259558666.62060797 0 -259558666.62060797 464793329.19096327 0 0 0 0 -216628846.39834595 -342144165.92151213 0 -342144165.92151213 -53426320.454846144 0 0 0 0 332834470.39002991 143562755.57393575 0 143562755.57393575 351404408.17683983 0 0 0 0 40992693.162200928 393981066.06559074 0 393981066.06559074 -256241931.7980963 0 0 0 0 496972399.74040222 -63015904.381134331 0 -63015904.381134331 -440214132.89466238 0 0 0 0 1276202592.4442444 488804497.9863891 0 488804497.9863891 -64368230.704493999 0 0 0 0 762265825.43084717 451500963.43489361 0 451500963.43489361 -591723582.90776372 0 0 0 0 104276363.16593933 358955620.80663204 0 358955620.80663204 -785998477.14387703 0 0 0 0 1197191301.69487 -164712824.77371836 0 -164712824.77371836 -272679673.2672143 0 0 0 0 1450654083.486167 -491417700.2931217 0 -491417700.2931217 -33131620.991569757 0 0 0 0 1031400761.8042755 -220132738.39756989 0 -220132738.39756989 -261662393.15237713 0 0 0 0 1491462134.4929886 -778886669.34596109 0 -778886669.34596109 51873308.725805283 0 0 0 0 1164902554.3728943 -882975301.49498272 0 -882975301.49498272 457215087.48055792 0 0 0 0 1082385372.694046 -696299457.60920334 0 -696299457.60920334 295388160.35819483 0 0 0 0 436326186.28871918 -492001988.7929244 0 -492001988.7929244 607808526.78563607 0 0 0 0 -573694146.73981476 -295937904.34652305 0 -295937904.34652305 -102771951.52702713 0 0 0 0 6081798.4601561725 -1473434.2309706062 0 -1473434.2309706062 -2217703.3098310251 0 0 0 0 1186484071.751194 -1274810978.372551 0 -1274810978.372551 1365815917.5828772 0 0 0 0 1589685765.8519554 686882220.88175559 0 686882220.88175559 283182000.54267788 0 0 0 0 4602729.8675437719 -4436875.5993342493 0 -4436875.5993342493 -241841.50213891338 0 0 0 0 10876914.917839579 -6264420.3438457698 0 -6264420.3438457698 -4502091.7792987991 0 0 0 0 6795609.7667694092 -6146507.6831328869 0 -6146507.6831328869 -8327130.0027823448 0 0 0 0 -5581929.3724212646 -7790076.9246585369 0 -7790076.9246585369 9710365.1150252819 0 0 0 0 -687419.72880693525 -127050.01386561245 0 -127050.01386561245 -1128172.25362471 0 0 0 0 1392826942.2655301 171736604.91128048 0 171736604.91128048 20204806.568566322 0 0 0 0 10105348.491311789 -9179104.8691029064 0 -9179104.8691029064 -17431831.503379345 0 0 0 0 14298922.42675215 -9685429.8070898186 0 -9685429.8070898186 -4122270.3126181429 0 0 0 0 9925281.578125 -5370100.7560374737 0 -5370100.7560374737 -8980422.6951479912 0 0 0 0 6412925.1799621582 -160764589.8703475 0 -160764589.8703475 -123957447.89437079 0 0 0 0 8802082.1540756226 -7290100.5700885057 0 -7290100.5700885057 -10871333.993412971 0 0 0 0 8438374.3528553024 -11213031.983775698 0 -11213031.983775698 -604872.23371529183 0 0 0 0 106780377.42605591 -33590063.612543583 0 -33590063.612543583 -290354614.42253304 0 0 0 0 23403391.666213989 -172123396.30511665 0 -172123396.30511665 -471539501.6590867 0 0 0 0 645620805.00195312 -238903766.86481184 0 -238903766.86481184 -467662741.65079963 0 0 0 0 292221146.52747345 103923711.7474609 0 103923711.7474609 -343448720.88729298 0 0 0 0 9151207.7950744629 -615111753.38022161 0 -615111753.38022161 -284749818.45769668 0 0 0 0 1012704422.1664581 -667664689.33696055 0 -667664689.33696055 -284884893.85742748 0 0 0 0 1300407532.2448959 340089465.50500095 0 340089465.50500095 -290136496.58067465 0 0 0 0 1525339005.2166595 -1310988869.6689825 0 -1310988869.6689825 1190999070.3009453 0 0 0 0 3912942280.2482758 533052402.05950952 0 533052402.05950952 -172866935.41833115 0 0 0 0 283763.07918538153 -1533498.0061611757 0 -1533498.0061611757 4572921.2683390602 0 0 0 0 3499820484.1899567 -881796144.55243599 0 -881796144.55243599 -29237634.339802742 0 0 0 0 1867202107.1734009 439159356.77359056 0 439159356.77359056 197798965.29280615 0 0 0 0 1549139250.3681641 -627404211.57240224 0 -627404211.57240224 215506562.61357307 0 0 0 0 2341498932.4952393 -367803331.43858767 0 -367803331.43858767 -233071621.00963306 0 0 0 0 -824084233.5983429 -263604846.0214901 0 -263604846.0214901 410048343.52379417 0 0 0 0 -530922096.4888916 -266620989.47902584 0 -266620989.47902584 -129872706.58955002 0 0 0 0 2604124.7436410487 1168744.1384258717 0 1168744.1384258717 -1352064.1823360026 0 0 0 0 -2179920645.0627594 -833366054.66066456 0 -833366054.66066456 1176658404.5446434 0 0 0 0 215696329.32473755 -938553142.96166039 0 -938553142.96166039 503142588.96920872 0 0 0 0 1691657881.5520706 -1218575502.1037102 0 -1218575502.1037102 181683469.64285088 0 0 0 0 772143810.78076172 -365244594.56188202 0 -365244594.56188202 17627570.025660515 0 0 0 0 1274983182.7685471 -502660131.68068862 0 -502660131.68068862 -169081742.94371033 0 0 0 0 480543940.38110352 -201213094.2687664 0 -201213094.2687664 -216898077.88632011 0 0 0 0 687677742.8155365 -132045602.17826271 0 -132045602.17826271 -198794072.83426857 0 0 0 0 425814259.49436951 -94152427.450086117 0 -94152427.450086117 -346465726.34284973 0 0 0 0 585529035.88711548 35412997.858606339 0 35412997.858606339 -370951276.27472305 0 0 0 0 -364820674.66693115 -580577919.94112587 0 -580577919.94112587 290649747.20663071 0 0 0 0 847328821.59566498 -585904934.99038649 0 -585904934.99038649 -119064442.3623848 0 0 0 0 236850594.89364624 -369071107.9545536 0 -369071107.9545536 -188684392.07490635 0 0 0 0 477922522.70506287 -207551814.61515808 0 -207551814.61515808 -409247564.40444946 0 0 0 0 287278309.65977478 -426339620.62372971 0 -426339620.62372971 -284116368.86694336 0 0 0 0 -88842730.503143311 -371054147.18819237 0 -371054147.18819237 -278629759.65816879 0 0 0 0 -245643576.44328308 -197497140.50949287 0 -197497140.50949287 -402009813.13876343 0 0 0 0 201020835.8046875 -206629155.8217082 0 -206629155.8217082 -400903754.59284973 0 0 0 0 231914727.98034668 -306737404.38694763 0 -306737404.38694763 -483870816.18231201 0 0 0 0 -13804837.623931885 -332684550.13158798 0 -332684550.13158798 -390679018.50973129 0 0 0 0 104544514.40847778 -221334931.50141525 0 -221334931.50141525 -370614322.63343048 0 0 0 0 107781708.59194946 -274134612.70901108 0 -274134612.70901108 -366817331.22954559 0 0 0 0 1878803.3368110657 -380396930.42571354 0 -380396930.42571354 -517266757.4509201 0 0 0 0 -289165832.87876892 -450243069.91647148 0 -450243069.91647148 -317159212.11499023 0 0 0 0 274980955.91247559 29995536.476165771 0 29995536.476165771 -368779306.66826057 0 0 0 0 388269746.19328308 -86351190.815107346 0 -86351190.815107346 -418310326.69103241 0 0 0 0 362805599.15042114 -242564535.69973755 0 -242564535.69973755 -418572380.93436813 0 0 0 0 288954054.83676147 -128632091.4033432 0 -128632091.4033432 -352521375.14779186 0 0 0 0 256487195.07942963 -122984970.15228271 0 -122984970.15228271 -409388296.35704803 0 0 0 0 221586801.81497192 -230952112.51554871 0 -230952112.51554871 -428569033.44342422 0 0 0 0 204642310.41964722 -80382937.243148804 0 -80382937.243148804 -417098189.79865074 0 0 0 0 224341956.60086823 -62706363.271823883 0 -62706363.271823883 -404002923.04879761 0 0 0 0 6226750.8783255592 -16914688.816346329 0 -16914688.816346329 -3665477.6826886353 0 0 0 0 41979791.979736328 -65570922.001693726 0 -65570922.001693726 -309027420.80977249 0 0 0 0 -2266661.6513061523 -24086.057508468628 0 -24086.057508468628 -8967594.6651127934 0 0 0 0 44054892.805236816 -55754678.140045166 0 -55754678.140045166 -307914198.38000774 0 0 0 0 102160718.05673218 -67711218.843490601 0 -67711218.843490601 -365397055.92274475 0 0 0 0 71021963.284851074 -30985642.481433868 0 -30985642.481433868 -382036985.7947998 0 0 0 0 96348283.768356323 -41874876.099501133 0 -41874876.099501133 -378045890.1315918 0 0 0 0 129432580.3381958 -44684396.176628113 0 -44684396.176628113 -407166392.78103256 0 0 0 0 169375882.38195801 -90467818.092803955 0 -90467818.092803955 -392122222.62818909 0 0 0 0 85073149.61315918 -68463616.928756714 0 -68463616.928756714 -364413327.27913284 0 0 0 0 100026735.17874146 -78732663.601303101 0 -78732663.601303101 -389853094.29216003 0 0 0 0 81263060.658081055 -78522993.056015015 0 -78522993.056015015 -351109682.81432343 0 0 0 0 102878725.66991425 -117650000.50895119 0 -117650000.50895119 -339279613.29498291 0 0 0 0 64603243.665527344 -110759006.28645325 0 -110759006.28645325 -340422931.29898071 0 0 0 0 109267699.32299805 -97132979.825012207 0 -97132979.825012207 -360505345.52294922 0 0 0 0 139443897.75250244 -125684568.18685913 0 -125684568.18685913 -407010111.26200104 0 0 0 0 124355845.72689819 -132296087.24106598 0 -132296087.24106598 -369020081.35938263 0 0 0 0 114542008.86713791 -188421847.22795963 0 -188421847.22795963 -343410153.93502808 0 0 0 0 50650883.958129883 -105763834.33431244 0 -105763834.33431244 -271568467.88366699 0 0 0 0 49111537.012695312 -130787550.03596878 0 -130787550.03596878 -272248724.63362122 0 0 0 0 65954361.434204102 -122078030.78296661 0 -122078030.78296661 -307346188.40213013 0 0 0 0 49709562.906494141 -94019549.982284546 0 -94019549.982284546 -298575325.38952637 0 0 0 0 62750999.487854004 -85413027.934494019 0 -85413027.934494019 -331139396.56187439 0 0 0 0 89598507.986083984 -93262011.4402771 0 -93262011.4402771 -330453587.99858093 0 0 0 0 9108867.3905029297 -32809766.823135376 0 -32809766.823135376 -318659024.89245605 0 0 0 0 -22718256.253356934 -25835539.231052399 0 -25835539.231052399 -67693582.398986816 0 0 0 0 -141697943.11444092 -17098409.574834347 0 -17098409.574834347 13293472.150146484 0 0 0 0 -26310987.524925232 -126382124.90164518 0 -126382124.90164518 -127984601.23304749 0 0 0 0 -109788652.77227783 -183701813.91671753 0 -183701813.91671753 -166838709.79491043 0 0 0 0 -56744580.327972412 -239958981.08512115 0 -239958981.08512115 -126915693.83017731 0 0 0 0 -39542628.636535645 -280178304.81488037 0 -280178304.81488037 -304033723.46163177 0 0 0 0 39741446.925964355 -179565505.89340973 0 -179565505.89340973 -302062140.07498932 0 0 0 0 38593216.771911621 -195028109.99719238 0 -195028109.99719238 -225963602.38147736 0 0 0 0 -16400322.012077332 -175611352.77675152 0 -175611352.77675152 -226928877.17449951 0 0 0 0 15001205.787231445 -120730226.66545868 0 -120730226.66545868 -186619853.54411316 0 0 0 0 13959450.99206543 -18669691.348312378 0 -18669691.348312378 -241161703.84230042 0 0 0 0 7346472.4510498047 -108844767.42018127 0 -108844767.42018127 -194769288.92835236 0 0 0 0 16804773.443603516 -119627999.213974 0 -119627999.213974 -276100932.29760742 0 0 0 0 14984009.62008667 -131009857.07485962 0 -131009857.07485962 -231817055.57723999 0 0 0 0 25928287.41583252 -82970537.385299683 0 -82970537.385299683 -280169854.5828743 0 0 0 0 7903844.9992675781 -73084572.023391724 0 -73084572.023391724 -227297748.58935165 0 0 0 0 561352.10803222656 -98848745.217502594 0 -98848745.217502594 -138883134.34231567 0 0 0 0 5143915.9424438477 -7908691.4310531616 0 -7908691.4310531616 -177089346.38585663 0 0 0 0 3711034.3699951172 5960145.5971603394 0 5960145.5971603394 -65236989.438690186 0 0 0 0 7194042.7308959961 -81051711.649280548 0 -81051711.649280548 -141893423.87567139 0 0 0 0 -27500061.894622803 -81643300.057815552 0 -81643300.057815552 -24812555.709625244 0 0 0 0 24671237.885421753 -75488208.329933167 0 -75488208.329933167 -147268694.25416565 0 0 0 0 -760774.27878546342 -8921905.7328276187 0 -8921905.7328276187 12154870.840952963 0 0 0 0 1416475226.2996368 49359729.723671913 0 49359729.723671913 -218051643.87728882 0 0 0 0 2864474.4355227202 -5722000.0495561585 0 -5722000.0495561585 4974617.0941621289 0 0 0 0 628057786.54666138 -88228688.400578737 0 -88228688.400578737 203561004.43126571 0 0 0 0 765297010.78285217 -233762988.23848158 0 -233762988.23848158 -7516596.516746521 0 0 0 0 1454616379.4973078 -548667657.28430057 0 -548667657.28430057 -77439973.381840229 0 0 0 0 965817864.88497925 -199291340.49824929 0 -199291340.49824929 -182965912.81808662 0 0 0 0 630545.80584682524 -294652.63018088788 0 -294652.63018088788 286815.06994653342 0 0 0 0 1378052766.1064453 -181258867.37791348 0 -181258867.37791348 -262660241.18785369 0 0 0 0 1413918897.9940948 -308380087.56980968 0 -308380087.56980968 -215947676.78831387 0 0 0 0 1116804710.1908035 72481349.00647223 0 72481349.00647223 43751312.384252548 0 0 0 0 1665212775.5247192 -200743658.37845421 0 -200743658.37845421 -264804648.25517321 0 0 0 0 1585286.7037349492 -6174476.3532888182 0 -6174476.3532888182 11765180.872638645 0 0 0 0 1074174122.2038116 -66768454.299640656 0 -66768454.299640656 79670754.983478546 0 0 0 0 -388368634.77807617 -401554818.1860218 0 -401554818.1860218 -354736576.51102448 0 0 0 0 -397324519.29428101 -522413823.02256393 0 -522413823.02256393 -103953141.19306111 0 0 0 0 -541238307.64733887 -214341108.86136627 0 -214341108.86136627 52199622.704784393 0 0 0 0 -35111.345064282417 -2159477.0986971036 0 -2159477.0986971036 1374690.7033979744 0 0 0 0 6231936.4273681641 -6864474.3049961329 0 -6864474.3049961329 3273793.0387182236 0 0 0 0 5319860.9217071533 -10164954.811398983 0 -10164954.811398983 75179.654793739319 0 0 0 0 5456231.5522766113 -5965751.8379688263 0 -5965751.8379688263 3098203.1514091492 0 0 0 0 5530380.49974823 -5352356.3266370296 0 -5352356.3266370296 7365085.2696399689 0 0 0 0 6186350.6353759766 -12817936.568523407 0 -12817936.568523407 12804393.528366089 0 0 0 0 6875295.0038452148 -9291688.7688202858 0 -9291688.7688202858 -1963218.1345500946 0 0 0 0 7336143.8812255859 -5831106.1943368912 0 -5831106.1943368912 6274828.0800409317 0 0 0 0 1429374509.6177297 -309793695.96967036 0 -309793695.96967036 221983096.02725917 0 0 0 0 5443416.4679458663 -5087318.7299771383 0 -5087318.7299771383 4456533.0604365664 0 0 0 0 1136666389.4944534 -650912751.65259373 0 -650912751.65259373 109465379.69968069 0 0 0 0 983469162.39401245 92094306.144841254 0 92094306.144841254 18050356.472812288 0 0 0 0 1777124.6716047637 -85361.667035706341 0 -85361.667035706341 530119.1860584002 0 0 0 0 1417569324.2525864 -737048750.83434224 0 -737048750.83434224 344233884.9500649 0 0 0 0 1285140.8340619951 -1549620.5767252762 0 -1549620.5767252762 213955.79851986145 0 0 0 0 904249040.00250244 -374511683.02660471 0 -374511683.02660471 89005581.843604803 0 0 0 0 693963759.80831909 -735499386.48338604 0 -735499386.48338604 408391686.17218733 0 0 0 0 3238937.5407409668 -5301960.0260469913 0 -5301960.0260469913 397096.41024971008 0 0 0 0 8545640.705291748 -3888186.4548273087 0 -3888186.4548273087 -1236680.4894638062 0 0 0 0 5287978.9381016791 -6171449.1971618161 0 -6171449.1971618161 2263324.6418909049 0 0 0 0 8763917.8242492676 -2510224.5740981102 0 -2510224.5740981102 1941129.0562381744 0 0 0 0 26353586.697311401 8802467.3558590412 0 8802467.3558590412 -3912361.0239245892 0 0 0 0 11223817.954630196 -6120488.6149304993 0 -6120488.6149304993 -4776107.3636730537 0 0 0 0 14421681.60243398 -12230238.727354605 0 -12230238.727354605 -7909893.2295110254 0 0 0 0 -53423537.100372314 -35063150.932571411 0 -35063150.932571411 178547538.9723053 0 0 0 0 3508116.4968261719 -21659104.928255856 0 -21659104.928255856 -10405290.126186537 0 0 0 0 1205419.9720001221 -23715209.329413235 0 -23715209.329413235 -6926699.6779372096 0 0 0 0 4569604.1078338623 -19335800.581022792 0 -19335800.581022792 -6199073.0645433366 0 0 0 0 1285705.7681503296 -23284394.546904985 0 -23284394.546904985 -4680135.3796570599 0 0 0 0 11193880.105438232 -20187897.53709808 0 -20187897.53709808 -14119282.417723149 0 0 0 0 2576022.7608234435 -690184.04096326977 0 -690184.04096326977 -868221.61766417976 0 0 0 0 8427021.3180847168 -3412274.313529551 0 -3412274.313529551 7925765.7244501114 0 0 0 0 32534278.095993042 -27477074.521589756 0 -27477074.521589756 -8507.2633438110352 0 0 0 0 52505896.460571289 30156380.496320724 0 30156380.496320724 -1796555.9047950804 0 0 0 0 38717789.86517334 -27848368.165454865 0 -27848368.165454865 11791571.887119532 0 0 0 0 8049000.0751647949 -9237606.659992218 0 -9237606.659992218 16126476.677488327 0 0 0 0 16981443.921600342 -10164086.865011215 0 -10164086.865011215 -2558681.2262077332 0 0 0 0 21443536.379623413 -373390.19718313217 0 -373390.19718313217 -18819450.584136009 0 0 0 0 2097849.0221405029 -6428442.5646128654 0 -6428442.5646128654 -3382524.1248283386 0 0 0 0 -4243276.3484344482 2133488.0429763794 0 2133488.0429763794 -6007454.3067150116 0 0 0 0 26069439.655311584 -14716876.899340481 0 -14716876.899340481 -21538150.097087502 0 0 0 0 16188537.534774832 -4839394.6877145469 0 -4839394.6877145469 -4885763.7717698412 0 0 0 0 11719494.276039585 -5310178.0819927929 0 -5310178.0819927929 225421.64552509843 0 0 0 0 15124640.855865479 -6447905.3902673516 0 -6447905.3902673516 284616.71008761227 0 0 0 0 13795715.687011719 -3498176.4521462657 0 -3498176.4521462657 787273.70936484169 0 0 0 0 17080302.949859619 -4017266.2806782462 0 -4017266.2806782462 -1116325.5448786523 0 0 0 0 16515347.178833008 -2837450.0750780329 0 -2837450.0750780329 1012794.7914148103 0 0 0 0 11013388.636703491 -11519786.409120083 0 -11519786.409120083 -12201060.646533966 0 0 0 0 13132236.621017456 -3053511.6384711275 0 -3053511.6384711275 -925517.23936244485 0 0 0 0 8478694.2094421387 -16400331.684664726 0 -16400331.684664726 -1933545.7053785324 0 0 0 0 872198529.81062317 -194457189.19258249 0 -194457189.19258249 187349242.5205155 0 0 0 0 6662548.5812983178 -3806533.5005621687 0 -3806533.5005621687 3048353.605250217 0 0 0 0 8755200.1382751465 -2731245.6645946503 0 -2731245.6645946503 -2262732.5388195515 0 0 0 0 15014724.128890991 -483620.84825297259 0 -483620.84825297259 1580590.2576349527 0 0 0 0 13613849.779296875 -1541969.7074395283 0 -1541969.7074395283 964745.43746061251 0 0 0 0 15290079.053771973 -4914720.4374827594 0 -4914720.4374827594 1655190.8539136872 0 0 0 0 7537964.5419849977 -411034.27731584013 0 -411034.27731584013 1728176.4902498485 0 0 0 0 19949518.866790771 -2572539.8969922168 0 -2572539.8969922168 -287775.47293102741 0 0 0 0 18655192.073364258 -1975577.0307974257 0 -1975577.0307974257 314068.4597569406 0 0 0 0 9464.5882535949349 -1171.463282674551 0 -1171.463282674551 3883.5837009440829 0 0 0 0 20625275.09589386 -4275351.7132530343 0 -4275351.7132530343 -51726.310527939349 0 0 0 0 18483487.854522705 -3765891.894167874 0 -3765891.894167874 660520.33593003824 0 0 0 0 17459296.012237549 -3036755.7677911194 0 -3036755.7677911194 787035.32207309105 0 0 0 0 18220959.10244751 -4249664.3941251505 0 -4249664.3941251505 1369870.8838232104 0 0 0 0 16934038.737312317 -3204953.6008396363 0 -3204953.6008396363 467934.33381893672 0 0 0 0 16531880.236376762 -3961504.7826148216 0 -3961504.7826148216 251060.8852423951 0 0 0 0 17193604.11907959 -3419908.9275026694 0 -3419908.9275026694 260037.8199511487 0 0 0 0 17317560.696495056 -2936246.6616052426 0 -2936246.6616052426 -765865.87842281628 0 0 0 0 17331440.598617554 -2712612.885723907 0 -2712612.885723907 301957.46448658779 0 0 0 0 16801292.948989868 -2982164.7874345677 0 -2982164.7874345677 419136.97663177643 0 0 0 0 16878585.770507812 -3178157.6808783701 0 -3178157.6808783701 898135.92525999271 0 0 0 0 17471732.062286377 -2773955.1947960164 0 -2773955.1947960164 140291.75233802851 0 0 0 0 16531524.649078369 -2439386.5001737205 0 -2439386.5001737205 133950.19586663583 0 0 0 0 16647973.377248764 -3027392.8733208543 0 -3027392.8733208543 431776.94976964965 0 0 0 0 17198404.287689209 -2081744.1819661413 0 -2081744.1819661413 -279934.90838094708 0 0 0 0 17683122.130584717 -2370396.1936966204 0 -2370396.1936966204 -477817.7683372898 0 0 0 0 17394041.436004639 -1527499.1064583638 0 -1527499.1064583638 -2811.1684571795427 0 0 0 0 16400070.481910706 -2282207.9838096607 0 -2282207.9838096607 -310875.91718734009 0 0 0 0 15894111.335136414 -1717796.8662473541 0 -1717796.8662473541 1137.5970039398107 0 0 0 0 19889648.642631531 -907137.27556335938 0 -907137.27556335938 9461.2374024547735 0 0 0 0 18808584.063179016 -2192215.0594676402 0 -2192215.0594676402 -1028344.1066385719 0 0 0 0 17534250.780883789 -2707874.10279962 0 -2707874.10279962 -1195297.7600004175 0 0 0 0 18587529.732009888 -3437942.0266257119 0 -3437942.0266257119 -4305655.6429408425 0 0 0 0 18391850.244247437 -3053273.3355214898 0 -3053273.3355214898 -1138087.7149712634 0 0 0 0 16818603.658484459 -4572153.5723360404 0 -4572153.5723360404 -2427256.9514714424 0 0 0 0 16740311.546051025 -3486528.6586199543 0 -3486528.6586199543 74622.471959372051 0 0 0 0 17565283.000518799 -6368310.6624402888 0 -6368310.6624402888 -346929.37353082886 0 0 0 0 38793948.05128479 6091728.9974461496 0 6091728.9974461496 -19121755.997892305 0 0 0 0 17679315.451461792 -6767927.6919117719 0 -6767927.6919117719 -3594078.6736737262 0 0 0 0 9268306.8238097876 -183553.49915644526 0 -183553.49915644526 -1674335.9456141228 0 0 0 0 24395634.467666626 4655256.4686314166 0 4655256.4686314166 3503184.9915696681 0 0 0 0 2104031.3656386733 320483.16769082099 0 320483.16769082099 -61049.313650798038 0 0 0 0 75187663.90209198 16768367.741156641 0 16768367.741156641 -4912217.1085482761 0 0 0 0 8590415.4377670288 -9127702.0395094901 0 -9127702.0395094901 -1764767.2311927383 0 0 0 0 47441464.419204712 209394.77238788074 0 209394.77238788074 -12040.275005460764 0 0 0 0 32796993.617462158 -11358584.204375163 0 -11358584.204375163 -1769876.0935205501 0 0 0 0 36041153.382680893 -2758386.883064894 0 -2758386.883064894 5817.8834959577007 0 0 0 0 38176345.209152222 3943852.0871531204 0 3943852.0871531204 6430368.2342000147 0 0 0 0 38840997.322341919 -3313016.4817879628 0 -3313016.4817879628 -5015177.749115292 0 0 0 0 40530984.708862305 -8589269.6695381086 0 -8589269.6695381086 9140304.1734765042 0 0 0 0 25745445.508422852 -3262455.0315073123 0 -3262455.0315073123 5965237.2969563762 0 0 0 0 22766838.923664093 -13311419.887421621 0 -13311419.887421621 -10304871.41003146 0 0 0 0 22535719.50769043 -3932631.9383183308 0 -3932631.9383183308 -24939.77687189728 0 0 0 0 36118759.926025391 -10061532.0392025 0 -10061532.0392025 -31413330.113535866 0 0 0 0 -11434869.86920929 -38639523.395741999 0 -38639523.395741999 -35087310.295472145 0 0 0 0 -463721.69876718521 173740.02728543431 0 173740.02728543431 439563.1257563922 0 0 0 0 -56594896.386829138 6114445.2266361713 0 6114445.2266361713 13857663.963072717 0 0 0 0 -54722879.115936279 -48257062.136944652 0 -48257062.136944652 -16957394.132343292 0 0 0 0 14337924.728088379 -27521601.187335372 0 -27521601.187335372 -43084816.435869098 0 0 0 0 -5898216.5356254578 -44922773.205043584 0 -44922773.205043584 -57936969.150519609 0 0 0 0 25533366.672699466 -2139824.5530577274 0 -2139824.5530577274 -1862805.3626010849 0 0 0 0 25387856.092056893 -4344261.0421779733 0 -4344261.0421779733 -2514514.9280663123 0 0 0 0 17853478.653152466 -19224137.347262859 0 -19224137.347262859 -18880139.955952108 0 0 0 0 14127920.10887146 -15865001.49382621 0 -15865001.49382621 -21587842.865253091 0 0 0 0 -559596.36241149902 -20428166.942181312 0 -20428166.942181312 -6394008.752329886 0 0 0 0 2758597.835899353 -27642131.551899165 0 -27642131.551899165 -12197202.033458352 0 0 0 0 14723461.750183105 -22284991.780855 0 -22284991.780855 -10877371.860171489 0 0 0 0 3291755.4089508057 -19417473.665221445 0 -19417473.665221445 -6198149.1122175455 0 0 0 0 17756718.790039062 -24324211.826037407 0 -24324211.826037407 -27075533.709832311 0 0 0 0 17587782.935165405 -19555245.618487537 0 -19555245.618487537 -14420143.189248964 0 0 0 0 18596940.781433105 -26257223.87762332 0 -26257223.87762332 -9145673.1611646414 0 0 0 0 20436973.482208252 -20660406.064535022 0 -20660406.064535022 -5484127.7582333088 0 0 0 0 16201336.178119659 -19152540.143392138 0 -19152540.143392138 -4416522.2419876456 0 0 0 0 25451880.78188324 -17858749.195735499 0 -17858749.195735499 -4235606.7203667164 0 0 0 0 13636477.294311523 -19905671.664401799 0 -19905671.664401799 6606292.4313952625 0 0 0 0 25225277.86517334 -17989292.330887556 0 -17989292.330887556 5716878.443878293 0 0 0 0 29846336.225830078 -14374205.058787823 0 -14374205.058787823 5658059.8358834982 0 0 0 0 7408292.5380630493 -30002580.017520696 0 -30002580.017520696 11514735.63152051 0 0 0 0 20751449.233535767 -24525562.343290687 0 -24525562.343290687 5081890.6115577221 0 0 0 0 55260242.276275635 -29948494.410074592 0 -29948494.410074592 2743536.8083431721 0 0 0 0 21911444.145446777 -60333360.08796227 0 -60333360.08796227 54444128.960699081 0 0 0 0 10894983.838989258 -31061613.158523202 0 -31061613.158523202 11809898.197627068 0 0 0 0 2645492.5249328613 -15618318.394061461 0 -15618318.394061461 3213610.8204753399 0 0 0 0 4235298.8981246948 -17174593.677057698 0 -17174593.677057698 -872092.13335585594 0 0 0 0 6385004.0633544922 -20332377.128983736 0 -20332377.128983736 755102.70990949869 0 0 0 0 12462441.008789062 -16355820.888197869 0 -16355820.888197869 4166072.6438889503 0 0 0 0 12065032.652832031 -17165476.912809849 0 -17165476.912809849 2520173.1433439255 0 0 0 0 10554752.139953613 -17655720.878598452 0 -17655720.878598452 7399557.1294295788 0 0 0 0 9687625.2715148926 -19501196.442595482 0 -19501196.442595482 3476228.8552849293 0 0 0 0 7488138.6147460938 -15779197.807338297 0 -15779197.807338297 4636152.7942795753 0 0 0 0 1553019.6959533691 -17322586.258446455 0 -17322586.258446455 4678681.7160071135 0 0 0 0 5788137.4079589844 -18003106.18144846 0 -18003106.18144846 6397582.5049115419 0 0 0 0 -11942540.546646118 -6843704.506806314 0 -6843704.506806314 11539205.755396888 0 0 0 0 -4322132.3691711426 -12071593.586901784 0 -12071593.586901784 7895867.8181542158 0 0 0 0 -2118182.5308380127 -8062234.8956354111 0 -8062234.8956354111 8392112.3592835665 0 0 0 0 -15436840.224517822 -10845917.115253314 0 -10845917.115253314 7824137.4481936693 0 0 0 0 -6749348.5140380859 -21236805.020343527 0 -21236805.020343527 -145906.53573355079 0 0 0 0 -9310280.7363586426 -6883034.1531429887 0 -6883034.1531429887 10825984.969805777 0 0 0 0 -24407111.471435547 -2693399.2744881399 0 -2693399.2744881399 14240778.615941077 0 0 0 0 -17546930.457832336 13042155.849621162 0 13042155.849621162 10885617.413756609 0 0 0 0 -9668568.9654541016 1228845.5244047046 0 1228845.5244047046 14574478.007132322 0 0 0 0 -26757644.813941956 12344319.886616915 0 12344319.886616915 14217628.779638708 0 0 0 0 -54602340.521751404 -14713974.271453023 0 -14713974.271453023 10482401.231002048 0 0 0 0 -5877354.8665924072 -25367184.752946243 0 -25367184.752946243 -7131926.698702082 0 0 0 0 -691483.81147188693 379361.37122732773 0 379361.37122732773 816545.21202764963 0 0 0 0 -87851688.114349365 -52642488.266901135 0 -52642488.266901135 133935826.71115911 0 0 0 0 -5465225.8196868896 -1093454.3037115335 0 -1093454.3037115335 24543415.808174379 0 0 0 0 -9949800.6035499573 -5092289.3892845884 0 -5092289.3892845884 44563725.953545094 0 0 0 0 -324059.11431889236 253266.68445352465 0 253266.68445352465 475453.12792245386 0 0 0 0 202432719.69421387 161157576.91508776 0 161157576.91508776 4805126.6556520462 0 0 0 0 134949709.37756348 65475390.605406284 0 65475390.605406284 279768101.13794917 0 0 0 0 143595141.99563599 -107541836.76705405 0 -107541836.76705405 186517015.5284391 0 0 0 0 20763238.218948364 -86903306.163954645 0 -86903306.163954645 96812198.679330051 0 0 0 0 -84243585.330688477 -38954645.103574991 0 -38954645.103574991 184369342.64865935 0 0 0 0 -18956335.537194461 -117624004.79990833 0 -117624004.79990833 65101158.205412745 0 0 0 0 -19165764.844223022 -40647828.121545076 0 -40647828.121545076 197366147.52983737 0 0 0 0 143226455.87091064 -65506784.289425492 0 -65506784.289425492 -14255649.584409237 0 0 0 0 58940050.008773804 -181726924.74573064 0 -181726924.74573064 -413080.19104409218 0 0 0 0 30604360.368041992 -68589704.451126814 0 -68589704.451126814 -233861482.81190252 0 0 0 0 -88126643.665054321 -69019891.420658708 0 -69019891.420658708 38543209.992441773 0 0 0 0 -26339699.348098755 -206881998.17129254 0 -206881998.17129254 -102523591.37908196 0 0 0 0 -13749148.470687866 -62609150.009627342 0 -62609150.009627342 -343939250.54061365 0 0 0 0 6443011.3726348877 -57013022.750562906 0 -57013022.750562906 -107184214.94618058 0 0 0 0 -41366040.116092682 -130922570.46461025 0 -130922570.46461025 -42505197.077877998 0 0 0 0 -70789515.312774658 -109330953.76406789 0 -109330953.76406789 -107667159.87193656 0 0 0 0 -17964842.185897827 -107114932.26259685 0 -107114932.26259685 -108004596.05813369 0 0 0 0 22425301.883956909 -133446284.7125361 0 -133446284.7125361 17489109.589490771 0 0 0 0 45453851.549316406 -29941586.67401135 0 -29941586.67401135 22726154.703861952 0 0 0 0 51679534.973022461 -86209795.342139363 0 -86209795.342139363 -167159830.89306307 0 0 0 0 24837656.589638248 -1891400.2746249679 0 -1891400.2746249679 -1509822.6663564409 0 0 0 0 26259136.152648926 -9802307.4544755928 0 -9802307.4544755928 -23867919.512677226 0 0 0 0 26325563.099868774 -9350230.9774239846 0 -9350230.9774239846 -13998121.380667701 0 0 0 0 23219599.681568101 -3674015.2064537574 0 -3674015.2064537574 -1087088.3322852536 0 0 0 0 375980.30879211426 -98858942.510630488 0 -98858942.510630488 -260839811.81267643 0 0 0 0 21762199.763534546 -8109834.3362808172 0 -8109834.3362808172 -8489533.2539867647 0 0 0 0 23931262.786514282 -8445077.7135504186 0 -8445077.7135504186 -8482163.4437671565 0 0 0 0 20093841.614074707 -5842689.5194090297 0 -5842689.5194090297 1133439.2872540178 0 0 0 0 26547474.306106567 -3216626.3709572335 0 -3216626.3709572335 -1100683.4813940099 0 0 0 0 25141211.151397705 -5889901.198583927 0 -5889901.198583927 -2925074.3982563373 0 0 0 0 23331799.038406372 -6984750.399699863 0 -6984750.399699863 -3230057.3325576186 0 0 0 0 23496943.301040649 -5391723.9773472678 0 -5391723.9773472678 1095.2444630943623 0 0 0 0 41820995.588150024 -17571057.47864601 0 -17571057.47864601 1125932.6712403232 0 0 0 0 8223498.9337453172 -3115033.7718628272 0 -3115033.7718628272 458929.03823147586 0 0 0 0 24399852.16343689 -6081032.5873679174 0 -6081032.5873679174 740741.96273019724 0 0 0 0 31126335.206802368 -4348022.7599278325 0 -4348022.7599278325 12652.951266788179 0 0 0 0 22363433.893753052 -10980615.158460796 0 -10980615.158460796 1500975.8328312756 0 0 0 0 23131745.048583984 -5490089.350290684 0 -5490089.350290684 -6488729.412156905 0 0 0 0 32353638.572311401 -7443810.5553767607 0 -7443810.5553767607 -6261982.5126597891 0 0 0 0 24978658.809581444 -1167646.7337641865 0 -1167646.7337641865 -1799922.341226608 0 0 0 0 26677528.684417725 -7888051.0705491398 0 -7888051.0705491398 -11299972.99036807 0 0 0 0 33497955.261138916 -78546481.462833405 0 -78546481.462833405 -8802620.8057117462 0 0 0 0 27156600.156677246 -6598069.4728674013 0 -6598069.4728674013 -10799861.42593134 0 0 0 0 39279640.21484375 38711351.880697727 0 38711351.880697727 -189033538.46817207 0 0 0 0 -74912274.459917068 -259345968.3277123 0 -259345968.3277123 -427498020.25383234 0 0 0 0 3621504.7064203992 2149018.5565367825 0 2149018.5565367825 -2173872.9161215313 0 0 0 0 87367301.644866943 -211122012.07514 0 -211122012.07514 -539066752.74295998 0 0 0 0 -1568593.6261737496 -3679591.9374846853 0 -3679591.9374846853 477475.89851014526 0 0 0 0 -19251267.463562012 -222563642.77795887 0 -222563642.77795887 -364109949.22278214 0 0 0 0 -53775385.005184174 -77587310.594824195 0 -77587310.594824195 -382185638.47024155 0 0 0 0 -9962083.8065490723 -190431821.29344082 0 -190431821.29344082 -229461562.61071107 0 0 0 0 145645243.65093994 -152378268.4293623 0 -152378268.4293623 -390596567.785182 0 0 0 0 87236408.206390381 -79390298.259463072 0 -79390298.259463072 -315267522.36738682 0 0 0 0 170668145.47836304 -161163168.23223782 0 -161163168.23223782 -244978163.85872507 0 0 0 0 249174920.45941162 -41117222.155077934 0 -41117222.155077934 -365542753.34507155 0 0 0 0 157198695.85333252 -56441397.483409405 0 -56441397.483409405 -362456065.52707863 0 0 0 0 126914157.72068787 -37923123.310412884 0 -37923123.310412884 -356174975.45832443 0 0 0 0 118875310.82870483 -124041174.99323082 0 -124041174.99323082 -334419195.60699272 0 0 0 0 45447307.553207397 -91423117.175816298 0 -91423117.175816298 -298767871.84419823 0 0 0 0 211603452.2098999 70745443.708585262 0 70745443.708585262 -555969583.71621847 0 0 0 0 220899581.29598999 -132957830.82264376 0 -132957830.82264376 -429835428.90815163 0 0 0 0 6325676.2573478371 285310.54066209495 0 285310.54066209495 -1067839.0463147429 0 0 0 0 -28001887.833786011 201974327.09864473 0 201974327.09864473 -391830112.08012009 0 0 0 0 11562424.277877808 -4859766.5671479702 0 -4859766.5671479702 6695594.5173079967 0 0 0 0 67787419.303848267 5992668.8562784195 0 5992668.8562784195 7613168.5509467125 0 0 0 0 11301212.446349271 3384367.3960361518 0 3384367.3960361518 3715631.1386670657 0 0 0 0 22811313.747175634 -868893.7854206115 0 -868893.7854206115 -980779.62965298083 0 0 0 0 -36589936.675201416 58898333.724687576 0 58898333.724687576 -116081867.58491907 0 0 0 0 21359523.881158829 -13173943.19453897 0 -13173943.19453897 -6718749.3501156289 0 0 0 0 -31448003.059051514 71752281.55747366 0 71752281.55747366 -181892004.24028015 0 0 0 0 35899853.711486816 -56284877.867541313 0 -56284877.867541313 -115282302.31348801 0 0 0 0 27978766.968193054 -152894757.52609226 0 -152894757.52609226 -289021142.96899605 0 0 0 0 17615652.012390137 16926059.68046093 0 16926059.68046093 -367840836.61248291 0 0 0 0 23253749.97177124 -9212634.8891796395 0 -9212634.8891796395 -4818887.4175847471 0 0 0 0 30140262.902023315 5791157.6883911276 0 5791157.6883911276 -3523271.1156329103 0 0 0 0 12679170.346801519 -3072167.8491948545 0 -3072167.8491948545 -1632781.3496757254 0 0 0 0 19635879.307357788 4571243.4008951765 0 4571243.4008951765 3042500.8721531928 0 0 0 0 4254753.2748565674 1289204.2857045531 0 1289204.2857045531 -1624905.2847611904 0 0 0 0 16446345.100011185 -219954.71244045347 0 -219954.71244045347 2067738.1693094063 0 0 0 0 34641042.785003662 -17568962.109512042 0 -17568962.109512042 -9864044.0728313923 0 0 0 0 20253639.430175781 12548644.392103493 0 12548644.392103493 1502689.3852672242 0 0 0 0 878673.14757436514 -546762.11297136545 0 -546762.11297136545 -647128.98834101181 0 0 0 0 11657614.951212212 2958037.975190483 0 2958037.975190483 -189299.83316369 0 0 0 0 21851682.546020508 288196.19524545968 0 288196.19524545968 -1525130.3080733344 0 0 0 0 29800044.478210449 5735272.6576774623 0 5735272.6576774623 -3365580.8639023267 0 0 0 0 27681180.928100586 1242819.4216342568 0 1242819.4216342568 -1744508.7088969187 0 0 0 0 30344481.608276367 6195480.9924643449 0 6195480.9924643449 -3068305.6528809369 0 0 0 0 33837681.343261719 -341430.63637948531 0 -341430.63637948531 -5510002.0338126477 0 0 0 0 11289976.877710477 -728343.80473168939 0 -728343.80473168939 -648596.47319391533 0 0 0 0 24119721.832275391 6311861.3475632453 0 6311861.3475632453 -8039.8757719572532 0 0 0 0 10963915.826690674 1790286.4039836936 0 1790286.4039836936 -1101619.6295511127 0 0 0 0 30077147.111663818 5594414.43949176 0 5594414.43949176 -3649190.9933925178 0 0 0 0 3069109632.3876953 94472238.577585757 0 94472238.577585757 941278.76860893308 0 0 0 0 4717026756.6103287 -505324520.77345365 0 -505324520.77345365 -733105040.69191003 0 0 0 0 4447612908.2532806 -503030145.25062382 0 -503030145.25062382 251399745.41264659 0 0 0 0 3214963957.421051 1780373465.5293603 0 1780373465.5293603 318565553.03977948 0 0 0 0 2092114.0584949255 38590.191081438214 0 38590.191081438214 -27752.722124903565 0 0 0 0 13208263.858642578 -45408.033529724926 0 -45408.033529724926 2163763.9796261489 0 0 0 0 8488472.5282287598 1227616.7659040689 0 1227616.7659040689 5344064.7615868691 0 0 0 0 5166285.8471712619 353254.50155489519 0 353254.50155489519 -132601.44023838485 0 0 0 0 9489809.8327399231 -446199.28629875183 0 -446199.28629875183 508232.44948551187 0 0 0 0 1191454514.9378967 -375320282.54334784 0 -375320282.54334784 176134892.91593909 0 0 0 0 350045303.98074341 325907084.90490592 0 325907084.90490592 209344902.05362734 0 0 0 0 987137060.23956299 29174868.910404801 0 29174868.910404801 -116457303.68872708 0 0 0 0 531531733.37844849 4782160.2673232183 0 4782160.2673232183 340673284.59333795 0 0 0 0 2455875926.3239613 -2485957134.7486143 0 -2485957134.7486143 1258562562.3154533 0 0 0 0 2327837043.9777222 -407656003.1224075 0 -407656003.1224075 -234168063.24228591 0 0 0 0 10302638.966789603 2263563.2310771421 0 2263563.2310771421 1788566.2229843824 0 0 0 0 3311647.2296127491 -870684.18138992041 0 -870684.18138992041 -3356561.050784504 0 0 0 0 222843669.31097794 -392374011.05789971 0 -392374011.05789971 471148354.73351938 0 0 0 0 774128355.80715942 214224502.68208578 0 214224502.68208578 51727454.000802755 0 0 0 0 16194276.262954712 1111551152.4640148 0 1111551152.4640148 2290296594.8836126 0 0 0 0 4555677.821570918 172200.91273504123 0 172200.91273504123 1756018.4456003411 0 0 0 0 3763809134.1607513 2260833337.9079866 0 2260833337.9079866 740264390.62183619 0 0 0 0 4717504045.5119839 2176353396.8649712 0 2176353396.8649712 -318638751.79265267 0 0 0 0 3566702883.5725098 1222967781.1701989 0 1222967781.1701989 334918979.45997864 0 0 0 0 3568112721.6362915 1186834588.7352586 0 1186834588.7352586 -252475784.25019753 0 0 0 0 2481985561.7196198 1478411727.0146677 0 1478411727.0146677 396834292.27586031 0 0 0 0 -525261184.4276123 679947487.42192829 0 679947487.42192829 328234823.19070339 0 0 0 0 2332120444.9307861 -254367589.80029303 0 -254367589.80029303 -521499927.19123363 0 0 0 0 2904668.4579894766 1165550.6639850885 0 1165550.6639850885 2156024.3152152179 0 0 0 0 727365556.9546814 1165597373.2687533 0 1165597373.2687533 509147153.14876181 0 0 0 0 134454955.71200562 -86237443.165400743 0 -86237443.165400743 -133002720.15257168 0 0 0 0 346066312.26620483 27448521.521077633 0 27448521.521077633 -97999021.170680344 0 0 0 0 34870486.544563293 4541001.6620414853 0 4541001.6620414853 293584429.06676364 0 0 0 0 166575821.53219604 -32342074.196671009 0 -32342074.196671009 -180663746.74070454 0 0 0 0 176944475.78218079 -162923184.87264955 0 -162923184.87264955 87645796.833597898 0 0 0 0 123533326.44607544 -108022003.73033482 0 -108022003.73033482 194818800.68827295 0 0 0 0 278155736.62350464 51306261.056509495 0 51306261.056509495 165611231.02648973 0 0 0 0 436109598.3809967 -70071791.023828447 0 -70071791.023828447 255398411.9976728 0 0 0 0 297774749.18518066 70395464.07547313 0 70395464.07547313 205110331.62567258 0 0 0 0 660959062.00109863 609485373.58573759 0 609485373.58573759 361979860.63633025 0 0 0 0 788772314.05223083 487642611.24401438 0 487642611.24401438 452613048.1638658 0 0 0 0 2065961455.6610718 762212204.26855016 0 762212204.26855016 218740501.76133588 0 0 0 0 815340210.03290558 160041924.15931815 0 160041924.15931815 304652170.83595049 0 0 0 0 742164091.93249512 241383912.27758276 0 241383912.27758276 263383926.52459216 0 0 0 0 295406058.16693115 -33325823.228993058 0 -33325823.228993058 232620164.93312681 0 0 0 0 254263319.17488098 73023190.557214141 0 73023190.557214141 422434356.527933 0 0 0 0 784748618.89793396 -112516270.34587985 0 -112516270.34587985 -22003762.928069115 0 0 0 0 201002656.91444397 190423523.81372166 0 190423523.81372166 270013442.50160038 0 0 0 0 1432781104.4862823 407874150.37190163 0 407874150.37190163 56649984.777706742 0 0 0 0 1939736934.1455841 -271422679.83216029 0 -271422679.83216029 -163052366.54941368 0 0 0 0 3495342168.372879 444928205.07944202 0 444928205.07944202 -816554133.41774464 0 0 0 0 4725761211.1462603 1066902852.8906677 0 1066902852.8906677 -697119879.34192038 0 0 0 0 2221330269.7138824 656834232.28734708 0 656834232.28734708 -126693530.71066582 0 0 0 0 3378666580.8856697 700774509.29680681 0 700774509.29680681 -372196501.95821571 0 0 0 0 23155436.076450348 8993687.6439626813 0 8993687.6439626813 63949752.26474762 0 0 0 0 8728154.8022855297 -8886547.8521488272 0 -8886547.8521488272 5876388.8899665996 0 0 0 0 134443835.94384766 87959302.672834396 0 87959302.672834396 -26302428.595900059 0 0 0 0 63587789.846618652 -79316352.631186485 0 -79316352.631186485 19888765.022775173 0 0 0 0 281307123.05078125 6147837.7377240658 0 6147837.7377240658 53430753.252806544 0 0 0 0 311683189.92959595 43238013.649418831 0 43238013.649418831 7388587.340945363 0 0 0 0 307701573.08048248 141099311.00748268 0 141099311.00748268 129386741.7823236 0 0 0 0 -314031982.76074982 -353846126.72372437 0 -353846126.72372437 -169688515.03735328 0 0 0 0 -256662895.39051819 32841124.354901314 0 32841124.354901314 41615668.100918293 0 0 0 0 1864427.7692404427 -1630805.9129314572 0 -1630805.9129314572 -611048.96758790244 0 0 0 0 -405347819.93305969 -221270978.27539158 0 -221270978.27539158 197494362.00906324 0 0 0 0 5481050.4509277344 28158253.442836761 0 28158253.442836761 -5129566.9028339386 0 0 0 0 6577681.4326477051 850446.57457447052 0 850446.57457447052 283532607.71794796 0 0 0 0 470908114.38288879 103017171.65625405 0 103017171.65625405 280942827.40017128 0 0 0 0 453352388.9047699 9619079.2001180649 0 9619079.2001180649 64072237.618517876 0 0 0 0 403727273.8237915 -167201950.04455185 0 -167201950.04455185 -325602162.66897321 0 0 0 0 294825670.20439529 125653655.86470079 0 125653655.86470079 -196955956.18268108 0 0 0 0 286628945.76695251 85618469.978575945 0 85618469.978575945 257788437.9146843 0 0 0 0 388970367.07823181 -231389406.60230732 0 -231389406.60230732 85067866.100566864 0 0 0 0 -271230995.06581116 62567972.952849865 0 62567972.952849865 209132338.92237806 0 0 0 0 33309344.201808929 -100724911.56058851 0 -100724911.56058851 -179729923.87722492 0 0 0 0 11651613.57728871 -9422099.859587539 0 -9422099.859587539 4406417.9542924762 0 0 0 0 50631429.969474792 5315075.2267166376 0 5315075.2267166376 -101359804.91139603 0 0 0 0 -356782176.16226196 -590231307.75770283 0 -590231307.75770283 41205108.429657221 0 0 0 0 -243751204.61749268 377901696.20201921 0 377901696.20201921 115293066.70327806 0 0 0 0 141301301.07296753 -53443874.547172546 0 -53443874.547172546 -214936611.19721556 0 0 0 0 163636305.74642563 40892340.365829706 0 40892340.365829706 -175031257.39252853 0 0 0 0 149754371.70367432 392336869.56309319 0 392336869.56309319 -137343839.91926497 0 0 0 0 137735406.6139679 54912667.606452942 0 54912667.606452942 -171182839.43416405 0 0 0 0 -130203898.98724365 -223556507.67202091 0 -223556507.67202091 -102784416.19325066 0 0 0 0 4211972.1427280605 31504.964960999787 0 31504.964960999787 -714581.79361961572 0 0 0 0 147330839.32025146 40943482.659266472 0 40943482.659266472 -174255139.77571249 0 0 0 0 97204650.377807617 64207305.888486862 0 64207305.888486862 -169761660.74230194 0 0 0 0 168577788.25448608 -3764981.7310283184 0 -3764981.7310283184 -92236104.075797081 0 0 0 0 147338209.39453125 39850181.827955246 0 39850181.827955246 -159119411.80498123 0 0 0 0 76344458.442565918 38553587.392888069 0 38553587.392888069 -104274632.84368324 0 0 0 0 -47818703.024353027 -8385927.3242807388 0 -8385927.3242807388 -25233354.921939373 0 0 0 0 1115944374.7549362 675485303.4632268 0 675485303.4632268 168750273.8875351 0 0 0 0 32849226.13331604 78560520.098238945 0 78560520.098238945 -132612628.31120968 0 0 0 0 -1138963004.6691284 599368413.58611774 0 599368413.58611774 2152337198.8451843 0 0 0 0 58925696.425354004 330318555.25687122 0 330318555.25687122 159191997.11301231 0 0 0 0 1260079779.8643799 907552403.67107391 0 907552403.67107391 399912535.9473381 0 0 0 0 619366589.99987793 716927955.35195923 0 716927955.35195923 359001635.13360214 0 0 0 0 1335285151.7459087 215098415.54084653 0 215098415.54084653 75992115.518280029 0 0 0 0 922653613.05725098 38469463.973403931 0 38469463.973403931 8456150.6602621078 0 0 0 0 683181813.19683838 -168256470.97979832 0 -168256470.97979832 67135670.733810425 0 0 0 0 746480114.92393494 886402171.7197113 0 886402171.7197113 49819849.068263292 0 0 0 0 2931551.553995654 1682145.8285175133 0 1682145.8285175133 397034.1874308046 0 0 0 0 32282864.781509399 -291559890.9738903 0 -291559890.9738903 -311742869.79086494 0 0 0 0 -102639044.55343628 -296181693.35469651 0 -296181693.35469651 260149845.57609844 0 0 0 0 -65139597.508483887 359227714.63044518 0 359227714.63044518 653158685.46754622 0 0 0 0 2876823.9821400195 375268.40170065686 0 375268.40170065686 -701862.83640294452 0 0 0 0 121711323.53183746 -231735577.85387599 0 -231735577.85387599 -70191921.34211731 0 0 0 0 -59756471.630813599 15326275.766888618 0 15326275.766888618 -207493363.33276844 0 0 0 0 -39539985.733154297 -33583802.387574315 0 -33583802.387574315 -278523024.16326714 0 0 0 0 -48138865.397613525 67599697.933672905 0 67599697.933672905 -140699208.22172737 0 0 0 0 108487351.98265076 3946771.8742136955 0 3946771.8742136955 -609439732.58686638 0 0 0 0 7866332.1087212861 3063392.3852720251 0 3063392.3852720251 200080.42984976666 0 0 0 0 23598521.382354736 195642316.01696646 0 195642316.01696646 82859396.903932929 0 0 0 0 -107548139.93374634 20810286.756566048 0 20810286.756566048 240395816.38535118 0 0 0 0 -62231443.386726379 -13794828.626685381 0 -13794828.626685381 -191469164.96987534 0 0 0 0 -42549386.703201294 100084395.34759414 0 100084395.34759414 -162353647.09320259 0 0 0 0 -68836678.132797241 132095951.59422672 0 132095951.59422672 51645967.336706877 0 0 0 0 -13471695.13659668 249687490.22649556 0 249687490.22649556 115209206.41970132 0 0 0 0 -44871151.286514282 114700853.16616833 0 114700853.16616833 63800848.237527132 0 0 0 0 117911382.47535706 170052374.44774693 0 170052374.44774693 -66837386.16705215 0 0 0 0 228522538.22711563 -117376068.00211167 0 -117376068.00211167 -127253940.0245564 0 0 0 0 355620754.95968628 -206312928.0300321 0 -206312928.0300321 -106118547.35957986 0 0 0 0 508934564.15693665 392993375.25997472 0 392993375.25997472 41738827.287746787 0 0 0 0 379620558.29087067 95531016.441210836 0 95531016.441210836 -205784061.17952561 0 0 0 0 413875703.95219421 210035447.50105178 0 210035447.50105178 -74181160.241558939 0 0 0 0 71907507.222297668 -142576673.34737158 0 -142576673.34737158 44070976.565642238 0 0 0 0 1182244.261497587 474491.42555944622 0 474491.42555944622 -990029.55384503223 0 0 0 0 -111893470.54499817 -63105084.870222509 0 -63105084.870222509 61099196.681069136 0 0 0 0 98345994.597702026 151423936.71923304 0 151423936.71923304 87679426.91118142 0 0 0 0 399286344.56332397 77729122.12739706 0 77729122.12739706 5840881.2795997858 0 0 0 0 109463419.0627861 172605118.83644992 0 172605118.83644992 124660830.71135628 0 0 0 0 2881279.3306590691 2222916.2340090759 0 2222916.2340090759 -2015955.7140212138 0 0 0 0 -6466980.9367370605 68322476.654377699 0 68322476.654377699 107700112.23512334 0 0 0 0 -9680069.9291534424 52332235.896509409 0 52332235.896509409 62261906.719342232 0 0 0 0 6733438.0346430019 5094918.3744235374 0 5094918.3744235374 -3357675.5939756008 0 0 0 0 22318210.050994873 -95294717.80863142 0 -95294717.80863142 70187558.867783546 0 0 0 0 -46439639.294070244 37052156.533722982 0 37052156.533722982 37448647.440279722 0 0 0 0 47369921.01675415 68414142.463712454 0 68414142.463712454 16467409.001099944 0 0 0 0 -49208581.579114914 -4035113.6250420548 0 -4035113.6250420548 17936714.951360703 0 0 0 0 -1441380.645111084 -18898220.196544647 0 -18898220.196544647 -39216172.44408226 0 0 0 0 2307812.1288583055 333011.09151415899 0 333011.09151415899 -2074758.664012149 0 0 0 0 428393271.57050323 -10004163.781145036 0 -10004163.781145036 -35934423.136685848 0 0 0 0 277125502.66937256 131318700.93914807 0 131318700.93914807 6529304.017260544 0 0 0 0 75409922.868743896 49209537.688579082 0 49209537.688579082 -2040478.0409650207 0 0 0 0 84104470.781402588 27274275.576628804 0 27274275.576628804 47427471.406202078 0 0 0 0 81481899.625839233 64929829.013001561 0 64929829.013001561 62293567.716823578 0 0 0 0 69555186.180984497 40022528.012785196 0 40022528.012785196 10291170.750407219 0 0 0 0 175818155.6685791 52085614.037446737 0 52085614.037446737 13351163.437179744 0 0 0 0 230106954.60879517 46938874.749460459 0 46938874.749460459 19427601.296570778 0 0 0 0 254699894.57798004 -12232690.460812032 0 -12232690.460812032 9922359.9040250778 0 0 0 0 294193408.20573425 13183221.771561623 0 13183221.771561623 -7803121.2806997299 0 0 0 0 410752520.76501465 -90858219.289281845 0 -90858219.289281845 31570708.324960232 0 0 0 0 151988989.25092316 -24959022.024921596 0 -24959022.024921596 259011859.23946095 0 0 0 0 300811492.61431885 307681961.11559558 0 307681961.11559558 50479424.446595669 0 0 0 0 151692704.95901489 -295982731.03901982 0 -295982731.03901982 342312968.40190411 0 0 0 0 460693.53633533418 -1603090.7609423986 0 -1603090.7609423986 -63896.796197771575 0 0 0 0 348504999.92526245 145539858.97520718 0 145539858.97520718 18363400.371353149 0 0 0 0 -5002534.6895901412 -6863346.5738917626 0 -6863346.5738917626 504950.77074686391 0 0 0 0 54987726.452255249 -29850761.440570474 0 -29850761.440570474 -22943139.521885395 0 0 0 0 3840873.2085571289 -758767.65510588884 0 -758767.65510588884 -951455.50073163211 0 0 0 0 5167520.8929672241 1749650.959792614 0 1749650.959792614 -16645281.514192581 0 0 0 0 7223119.9846626669 -1549574.7005909681 0 -1549574.7005909681 2288914.3628796297 0 0 0 0 105663801.80554199 20735405.012736559 0 20735405.012736559 46359583.159196854 0 0 0 0 2017175.2514990456 -1336294.7352774665 0 -1336294.7352774665 1948012.7805298823 0 0 0 0 -25588477.051811218 22489131.766936779 0 22489131.766936779 -20482960.78631115 0 0 0 0 3204765.8927528411 -2580160.1431933315 0 -2580160.1431933315 -650813.91480252962 0 0 0 0 -29373281.261383057 97403009.232895374 0 97403009.232895374 -85098631.591890335 0 0 0 0 -41306775.196632385 89396262.208266735 0 89396262.208266735 -9317955.7595329285 0 0 0 0 -80141632.258270264 27592343.113161087 0 27592343.113161087 -13017872.419522524 0 0 0 0 -105139197.66088867 81733795.952049255 0 81733795.952049255 -10203226.682922125 0 0 0 0 27555693.556266785 7788923.8254210949 0 7788923.8254210949 28250379.667393267 0 0 0 0 -147466651.5778656 44759362.048036098 0 44759362.048036098 19928880.521352768 0 0 0 0 2409810.7098041922 -422288.48919457942 0 -422288.48919457942 101194.37140486855 0 0 0 0 4782764.1879784949 -5366895.8344364166 0 -5366895.8344364166 6215318.4806733523 0 0 0 0 416092868.59393311 -32597643.203410827 0 -32597643.203410827 -84824719.752937675 0 0 0 0 -119575642.27064514 84020179.864271164 0 84020179.864271164 29011914.756099701 0 0 0 0 -65889062.086860657 152885965.04145432 0 152885965.04145432 60356188.441394806 0 0 0 0 -165217399.53305817 37298158.259363174 0 37298158.259363174 116588205.70296288 0 0 0 0 -145504490.6499176 -12758685.931256294 0 -12758685.931256294 -50154383.595547676 0 0 0 0 -374801758.59134293 -66070071.48987937 0 -66070071.48987937 128467667.161026 0 0 0 0 6393840.1506749354 -7461547.223026894 0 -7461547.223026894 6200367.9861865863 0 0 0 0 -21183705.785324097 -6935401.2116419375 0 -6935401.2116419375 41217020.026454985 0 0 0 0 -1881575.2305740118 -419436.81131465733 0 -419436.81131465733 2153709.3786458704 0 0 0 0 388235905.04260254 281763679.89255261 0 281763679.89255261 35631407.708611012 0 0 0 0 490370514.88017273 -48578742.503013611 0 -48578742.503013611 151070454.31322098 0 0 0 0 541586816.2297821 52583365.101584435 0 52583365.101584435 272204984.74318886 0 0 0 0 264126306.06033325 168277674.69430447 0 168277674.69430447 151542542.1420269 0 0 0 0 -53036206.012741089 103521645.449193 0 103521645.449193 97466436.91435194 0 0 0 0 -40310960.607299805 58538309.592808723 0 58538309.592808723 238361134.57502556 0 0 0 0 -240543600.45256042 -18311755.385965824 0 -18311755.385965824 195536345.68983459 0 0 0 0 177887092.36901855 94633112.915040016 0 94633112.915040016 80611206.838357925 0 0 0 0 13665966.840026855 172494071.2197485 0 172494071.2197485 117587380.77924728 0 0 0 0 161404653.85325241 71576267.929502249 0 71576267.929502249 264924547.39887619 0 0 0 0 368739258.65432739 129897262.0109129 0 129897262.0109129 79109718.731163025 0 0 0 0 156164983.58900833 144165936.47976923 0 144165936.47976923 -45984236.968982697 0 0 0 0 176485119.42053223 26405398.332305908 0 26405398.332305908 29594603.23059845 0 0 0 0 -42121320.069854736 11946119.818696976 0 11946119.818696976 -128142098.33700371 0 0 0 0 -9616481.4622802734 137792803.85003567 0 137792803.85003567 -13646686.469410747 0 0 0 0 -6065413.3564224243 117612976.79065847 0 117612976.79065847 -13286170.617757797 0 0 0 0 50633717.864303589 168323114.48573685 0 168323114.48573685 -162875154.45336533 0 0 0 0 9334521.338218838 2969078.6616527718 0 2969078.6616527718 1402556.0346530064 0 0 0 0 -35968023.493865967 31943436.743080139 0 31943436.743080139 -1133069.0933351517 0 0 0 0 25515777.859146118 22419852.023228645 0 22419852.023228645 -65882837.201643467 0 0 0 0 25539164.514989659 1080170.6419306593 0 1080170.6419306593 -249902088.82639313 0 0 0 0 125842.15960479528 1042757.1309002489 0 1042757.1309002489 1495127.1524747759 0 0 0 0 8991582.7406609431 2855799.53392528 0 2855799.53392528 1735238.9370575554 0 0 0 0 46320179.546737671 -1274430.8262848854 0 -1274430.8262848854 -62495478.208462715 0 0 0 0 191198231.64102936 13420863.207622528 0 13420863.207622528 -270513208.96648598 0 0 0 0 40410018.815307617 73602322.054936409 0 73602322.054936409 -240194241.7976265 0 0 0 0 109539167.15622711 -86921583.57114172 0 -86921583.57114172 -223443456.94474792 0 0 0 0 -58352925.789321899 -108139725.29909325 0 -108139725.29909325 -171593478.51849747 0 0 0 0 2631295.0615051426 2394841.8136962987 0 2394841.8136962987 3482796.3317314279 0 0 0 0 1657967175.5056458 -168570803.66482639 0 -168570803.66482639 172086326.18701172 0 0 0 0 2139783544.2916565 -59804052.932922363 0 -59804052.932922363 -146433936.6436944 0 0 0 0 126342.1982653141 307606.66619955935 0 307606.66619955935 750313.1795576947 0 0 0 0 1088712.7569082007 470085.20418936759 0 470085.20418936759 1146112.0054461528 0 0 0 0 -261590046.83374023 -797693211.34306479 0 -797693211.34306479 178282487.49556732 0 0 0 0 250928140.69332123 -75638316.331686854 0 -75638316.331686854 -223324898.11427975 0 0 0 0 218804911.07237244 25053574.414572716 0 25053574.414572716 -23933885.965606689 0 0 0 0 2483516558.5870361 29024305.462798119 0 29024305.462798119 16379931.608885765 0 0 0 0 3659226962.2226715 -239655428.39420414 0 -239655428.39420414 10679495.921901703 0 0 0 0 1890701879.8666382 82478204.64393425 0 82478204.64393425 191592038.53930092 0 0 0 0 1941120046.2350159 62062860.365213394 0 62062860.365213394 342968948.51061833 0 0 0 0 2293436765.2717285 -239151755.13596439 0 -239151755.13596439 457832398.39625835 0 0 0 0 2184965070.2360535 68507651.014772177 0 68507651.014772177 157629757.45291138 0 0 0 0 2505890274.3197021 -623974356.15239811 0 -623974356.15239811 1077780748.8130283 0 0 0 0 2369347469.0366821 -273035029.55733681 0 -273035029.55733681 221856059.5280323 0 0 0 0 3417795837.4436798 -1176953397.2325401 0 -1176953397.2325401 1045600944.3358727 0 0 0 0 2972869447.5220795 -516195231.50121737 0 -516195231.50121737 65043512.547338486 0 0 0 0 2593566687.0963287 -235753487.86346054 0 -235753487.86346054 -138909701.078125 0 0 0 0 2729495140.2936707 -411988274.39402676 0 -411988274.39402676 65653839.658462524 0 0 0 0 2604339783.6332874 -457198846.5535146 0 -457198846.5535146 329303337.50624657 0 0 0 0 2658033644.7227783 -533758602.61007023 0 -533758602.61007023 227495629.72565269 0 0 0 0 2514611637.7798157 -210194865.94831848 0 -210194865.94831848 -100882112.11169624 0 0 0 0 2665318551.1853638 -287454264.57904077 0 -287454264.57904077 -229560713.01235771 0 0 0 0 2824235103.1673584 -73723724.941619873 0 -73723724.941619873 -320389407.73716259 0 0 0 0 2200333081.0533447 -25956744.43303299 0 -25956744.43303299 -285478632.84727192 0 0 0 0 2821787887.9152069 -229975151.00906372 0 -229975151.00906372 -226946484.08343983 0 0 0 0 2646087970.6692047 -356750588.85077596 0 -356750588.85077596 -451813252.83445358 0 0 0 0 2370110570.9866333 21939946.874908447 0 21939946.874908447 -399934032.50098419 0 0 0 0 2095857505.547348 -74465327.923153877 0 -74465327.923153877 -362490648.58769798 0 0 0 0 1716319022.3792114 -728782298.32070899 0 -728782298.32070899 -787839250.68479156 0 0 0 0 2041962375.6082764 -3581852.8966772556 0 -3581852.8966772556 -449550824.57505608 0 0 0 0 4092663404.6074677 -349053468.66318178 0 -349053468.66318178 -824991378.19022346 0 0 0 0 2409792020.0808105 130508796.33837128 0 130508796.33837128 -166315364.44701195 0 0 0 0 2766964773.7962952 -203004724.3220005 0 -203004724.3220005 -607701430.8880291 0 0 0 0 2230209867.2232513 -292189511.76729774 0 -292189511.76729774 -141982289.84077644 0 0 0 0 2088388893.5645142 -294721920.40151978 0 -294721920.40151978 -53807878.277920723 0 0 0 0 2684377368.4518738 -409754173.5799408 0 -409754173.5799408 -206231641.57405567 0 0 0 0 1314669733.9897766 -150404513.67998314 0 -150404513.67998314 143309830.40514183 0 0 0 0 1296931358.7169037 71467951.365351677 0 71467951.365351677 82037831.006720543 0 0 0 0 2111986533.7067566 -175419241.4802351 0 -175419241.4802351 -69121994.884148598 0 0 0 0 1170077896.0101166 -82903587.915941238 0 -82903587.915941238 10995522.365062714 0 0 0 0 1174856225.4609482 -326809764.63347477 0 -326809764.63347477 92939129.784769058 0 0 0 0 402738936.26129055 -243561668.27590597 0 -243561668.27590597 224620645.90188599 0 0 0 0 2251702708.3980408 -697034032.9101305 0 -697034032.9101305 -24703438.067278862 0 0 0 0 2624978365.478241 -511782070.44706511 0 -511782070.44706511 215810354.58712006 0 0 0 0 2164791858.6264343 -157349517.30744743 0 -157349517.30744743 -29946939.047057152 0 0 0 0 -66659815.553993225 263180231.95906526 0 263180231.95906526 -446353327.94658947 0 0 0 0 36793425.249511719 -7050962.6404561996 0 -7050962.6404561996 -17969095.408604622 0 0 0 0 10982808.481706426 -1787604.5596420951 0 -1787604.5596420951 -10284794.066245852 0 0 0 0 13586462.528533936 -5369292.9855046272 0 -5369292.9855046272 -14794840.254787922 0 0 0 0 19763679.312652588 2574513.9886684418 0 2574513.9886684418 -5807972.5352258682 0 0 0 0 13427902.057897106 3742733.5368380407 0 3742733.5368380407 -6739964.0720709851 0 0 0 0 8278378.9323047101 2370821.1394187976 0 2370821.1394187976 -3981578.4961955287 0 0 0 0 5902785.6278764307 1154369.5383990258 0 1154369.5383990258 -903791.63947366271 0 0 0 0 -566304.99711608887 19866104.440658569 0 19866104.440658569 -13478239.246029854 0 0 0 0 35733819.549758911 14986226.125646591 0 14986226.125646591 -32944393.988524437 0 0 0 0 376219348.55989075 330929386.50647187 0 330929386.50647187 281244910.69674873 0 0 0 0 1487329813.1634674 -44590536.606628418 0 -44590536.606628418 -192646306.67261124 0 0 0 0 1987757367.9045105 1243080402.9071846 0 1243080402.9071846 779224207.6956234 0 0 0 0 16038919.674804688 -6337476.476234436 0 -6337476.476234436 19163020.786806107 0 0 0 0 2542419.9991641641 -305130.62423593923 0 -305130.62423593923 -1925690.1474109022 0 0 0 0 4033181924.5643463 -23316457.539049149 0 -23316457.539049149 -329734558.39877892 0 0 0 0 2292982856.6325684 482939096.79409027 0 482939096.79409027 -335691387.46296352 0 0 0 0 2317664384.9405365 218580891.87558603 0 218580891.87558603 -359189945.51756859 0 0 0 0 3199027211.2554855 37031527.655946732 0 37031527.655946732 -359263213.14314079 0 0 0 0 2159873372.052124 176207502.29380131 0 176207502.29380131 -259158969.51030159 0 0 0 0 2231141736.6383362 138926066.48011494 0 138926066.48011494 -249645683.94367361 0 0 0 0 2226167479.636673 -32975176.231923103 0 -32975176.231923103 -485169809.28030014 0 0 0 0 2194115482.8647842 -54188583.992524147 0 -54188583.992524147 -130470035.22886086 0 0 0 0 2226576544.8339081 139803311.07938957 0 139803311.07938957 -238693603.01038551 0 0 0 0 1678142.3363558874 195212.20803292096 0 195212.20803292096 197463.680543066 0 0 0 0 8274233.6681137085 114261531.74503994 0 114261531.74503994 -33373337.934652328 0 0 0 0 2206999613.4912415 99718663.296424866 0 99718663.296424866 -233701132.19687867 0 0 0 0 2270196885.4692535 100851492.84954309 0 100851492.84954309 -257981132.98118782 0 0 0 0 8052631.5641897619 1459799.0081299692 0 1459799.0081299692 -6246084.8005630532 0 0 0 0 58226521.418052673 -35163665.749300957 0 -35163665.749300957 -7151064.0323562622 0 0 0 0 -566232302.21406555 918372482.84081447 0 918372482.84081447 -352285617.37488371 0 0 0 0 43487917.867645264 223812472.96121979 0 223812472.96121979 -563157376.54735911 0 0 0 0 314189654.94558716 89057107.886292815 0 89057107.886292815 -513372329.8191762 0 0 0 0 1532607940.596283 -556895255.2613759 0 -556895255.2613759 -80674704.024743557 0 0 0 0 703559468.91936493 -783484589.10059083 0 -783484589.10059083 386554287.4807024 0 0 0 0 1011916875.0371704 -103375390.31362915 0 -103375390.31362915 152267483.99102914 0 0 0 0 487752612.32650757 55834120.655619621 0 55834120.655619621 1128325547.085063 0 0 0 0 442555909.29083061 697476162.2860781 0 697476162.2860781 -955998.74144649506 0 0 0 0 218905251.20324707 -386430197.19817901 0 -386430197.19817901 465348640.27352428 0 0 0 0 59752507.452606201 272716995.13677913 0 272716995.13677913 -387535221.70116138 0 0 0 0 -1036050870.9299316 158188419.18112373 0 158188419.18112373 167202570.43457937 0 0 0 0 -212329102.32879639 -259942151.94392633 0 -259942151.94392633 168185638.03712845 0 0 0 0 513307033.76389313 -209758083.44796646 0 -209758083.44796646 -251485836.88916969 0 0 0 0 -177191127.84128666 335134217.15973639 0 335134217.15973639 -968735563.27049255 0 0 0 0 -365428758.85089111 -232348386.6926229 0 -232348386.6926229 -239971539.82804728 0 0 0 0 -1163673157.7230606 1598032630.3035374 0 1598032630.3035374 -673398396.40283203 0 0 0 0 -1379766543.5764084 1150808728.9537535 0 1150808728.9537535 -365055346.88987541 0 0 0 0 1829249590.4299469 -176759125.95697212 0 -176759125.95697212 -103578182.70634842 0 0 0 0 1828594297.4450073 -192543710.52020884 0 -192543710.52020884 13566041.393587828 0 0 0 0 5386527.3673989624 2251313.1719570942 0 2251313.1719570942 -2530367.2953180908 0 0 0 0 2658740798.9823914 -895808135.40939426 0 -895808135.40939426 317417764.17283821 0 0 0 0 2039839942.0782776 -369808801.22962761 0 -369808801.22962761 -71767084.086677551 0 0 0 0 2470935247.8816833 -254993168.9129324 0 -254993168.9129324 -405375465.64159489 0 0 0 0 4463857263.9826813 -1384098497.0086701 0 -1384098497.0086701 -69622177.624090672 0 0 0 0 1823157.0456857234 848213.86853886396 0 848213.86853886396 -299242.12186211487 0 0 0 0 3308051508.4523697 762459944.89241862 0 762459944.89241862 149892124.14298534 0 0 0 0 1761531526.5030518 700096023.28261232 0 700096023.28261232 -681153896.5073247 0 0 0 0 2707167505.2507668 253910394.79866037 0 253910394.79866037 -569893700.99516392 0 0 0 0 2637086116.3602924 580155208.13244617 0 580155208.13244617 116123450.43584824 0 0 0 0 3535823367.6678925 839923471.56023848 0 839923471.56023848 -395940328.08237976 0 0 0 0 2973069101.6651764 39895382.839806646 0 39895382.839806646 -65133324.740779415 0 0 0 0 1258648454.2487793 298535584.76666403 0 298535584.76666403 -29909194.689575911 0 0 0 0 1459746332.7745514 86383153.132945061 0 86383153.132945061 79068074.289431095 0 0 0 0 614179563.24423218 -181067453.31258798 0 -181067453.31258798 303084226.43472707 0 0 0 0 -43022636.823791504 241586538.88055754 0 241586538.88055754 68846671.188580751 0 0 0 0 545747958.13258362 -671602308.98705626 0 -671602308.98705626 -18905797.136762381 0 0 0 0 750100101.21739197 -431828826.82567573 0 -431828826.82567573 -99310823.610710621 0 0 0 0 163078673.96646118 30774029.811828613 0 30774029.811828613 -305005250.58257341 0 0 0 0 874216930.84892273 -258561300.02262926 0 -258561300.02262926 59629734.133635521 0 0 0 0 817700925.47024536 -559998518.2785399 0 -559998518.2785399 57897940.693049908 0 0 0 0 906925046.68255615 -428151842.41126442 0 -428151842.41126442 189246983.86643469 0 0 0 0 929941469.69165039 -455576648.18524909 0 -455576648.18524909 -2444090.0967140198 0 0 0 0 1008638506.45224 -434626760.74350309 0 -434626760.74350309 -41831239.21197176 0 0 0 0 1024998646.4024353 -523250514.76239204 0 -523250514.76239204 -105406970.81441021 0 0 0 0 1071007634.1452942 -519661681.23549795 0 -519661681.23549795 -186753294.58340168 0 0 0 0 986091238.93017578 -580543036.00351727 0 -580543036.00351727 -108362096.72854567 0 0 0 0 827718395.83035278 -479642571.74350619 0 -479642571.74350619 -81068141.676068306 0 0 0 0 1030443996.4257507 -738852375.77464008 0 -738852375.77464008 -30193401.57564044 0 0 0 0 1537735027.8687515 -475145310.12437201 0 -475145310.12437201 -184508809.79092693 0 0 0 0 2402538601.5128136 632784755.48722887 0 632784755.48722887 319896268.92745781 0 0 0 0 2425979739.1408997 -83404126.262658119 0 -83404126.262658119 305716410.26313686 0 0 0 0 2149795714.2280884 385690875.5526278 0 385690875.5526278 -14845020.991374969 0 0 0 0 1497649672.622345 -91391144.02477932 0 -91391144.02477932 150200513.43676102 0 0 0 0 1053525815.0219116 425380298.02877808 0 425380298.02877808 67550005.376066208 0 0 0 0 1356326440.6100006 423766383.1672554 0 423766383.1672554 197113490.24602044 0 0 0 0 1232767848.7062073 -13498028.751120567 0 -13498028.751120567 87339756.261665344 0 0 0 0 2179603564.0051727 278049081.23900986 0 278049081.23900986 4795244.8043842316 0 0 0 0 3443336382.6257019 276598672.09494829 0 276598672.09494829 -360559884.82528877 0 0 0 0 2119561705.4878082 -35456886.605852127 0 -35456886.605852127 29416956.461677551 0 0 0 0 2003822.1277515739 -1182020.071998246 0 -1182020.071998246 -1259527.6157625327 0 0 0 0 2225869653.8486328 470079885.7647388 0 470079885.7647388 326434472.76982021 0 0 0 0 2056791.9624607638 -1618523.8570112959 0 -1618523.8570112959 -340465.7187156342 0 0 0 0 592123409.68081665 -608543960.22565603 0 -608543960.22565603 -42353183.364620209 0 0 0 0 857923231.03927612 250572012.46393776 0 250572012.46393776 73686281.651288986 0 0 0 0 2009666632.623764 644516441.50965691 0 644516441.50965691 -242605964.21731949 0 0 0 0 1737191312.0164795 -271258028.02631474 0 -271258028.02631474 -492953796.42249012 0 0 0 0 2091355722.6581421 183949406.21468306 0 183949406.21468306 -481044929.7033062 0 0 0 0 2850021943.2267075 -90477697.534099221 0 -90477697.534099221 -488086268.93367195 0 0 0 0 2168848711.5653534 50621195.619506001 0 50621195.619506001 -44506177.580483437 0 0 0 0 2660912397.7484894 -103282841.70913124 0 -103282841.70913124 166615492.57590365 0 0 0 0 3965902.5939381719 -3243264.7691009566 0 -3243264.7691009566 -652045.78251436539 0 0 0 0 2164796747.6670837 53994202.367096424 0 53994202.367096424 44645445.277955294 0 0 0 0 2197515811.1142578 84746246.352884769 0 84746246.352884769 -58770583.036393404 0 0 0 0 2204587103.338562 77527421.391198993 0 77527421.391198993 -130112112.15259266 0 0 0 0 4266011.396095342 -2919066.1474554092 0 -2919066.1474554092 -2667914.6054804204 0 0 0 0 896298379.96512604 -210503581.17710739 0 -210503581.17710739 300575659.79871136 0 0 0 0 2194524.3008916825 -1739390.0828079209 0 -1739390.0828079209 -395176.25304004783 0 0 0 0 1403620874.195488 454082543.9016872 0 454082543.9016872 191101354.91517162 0 0 0 0 2355398391.2546387 -105131398.83854783 0 -105131398.83854783 31065290.376050562 0 0 0 0 2269209764.1532059 588339585.20972061 0 588339585.20972061 184771305.61005545 0 0 0 0 1529820984.0548096 -43875974.894286871 0 -43875974.894286871 138201000.93338883 0 0 0 0 3165707133.6373291 258934688.55497551 0 258934688.55497551 -306215205.43138695 0 0 0 0 1531486407.0556335 -37914096.205747604 0 -37914096.205747604 -241145435.17585301 0 0 0 0 509697116.26823425 533854325.46876192 0 533854325.46876192 -269019849.00909233 0 0 0 0 1086727003.4385834 -327210775.85051906 0 -327210775.85051906 -90324915.330789432 0 0 0 0 10642087.054137282 -7766774.3888289183 0 -7766774.3888289183 3136025.7937115966 0 0 0 0 236343546.10058594 -975939377.13092089 0 -975939377.13092089 -188826573.02462196 0 0 0 0 320275892.15007019 153443134.82665968 0 153443134.82665968 -875294614.94037056 0 0 0 0 -472067017.87135315 314229171.03803539 0 314229171.03803539 -136501810.76736546 0 0 0 0 118432880.90286255 -63894371.903765678 0 -63894371.903765678 76253539.866744995 0 0 0 0 4640462.0647103935 -3028708.2758713327 0 -3028708.2758713327 1185599.6540837258 0 0 0 0 -505162959.73324323 -952392506.27957845 0 -952392506.27957845 158061209.75870323 0 0 0 0 4426324174.5160065 1476379183.7928147 0 1476379183.7928147 -640479349.27740455 0 0 0 0 1128166991.3560295 323234665.31159532 0 323234665.31159532 228255773.5969348 0 0 0 0 2457442177.2509613 522942382.87249827 0 522942382.87249827 5036313.8227629662 0 0 0 0 4750944.8640650231 -3435278.6432248354 0 -3435278.6432248354 -726921.20849113108 0 0 0 0 3126305677.0507355 294529084.78596532 0 294529084.78596532 -367636441.83594465 0 0 0 0 2551745751.8779602 267736324.16257715 0 267736324.16257715 -268952167.80728751 0 0 0 0 1877251615.1130676 -309078204.63761133 0 -309078204.63761133 -162507627.87137094 0 0 0 0 2468537693.161972 163089954.83224058 0 163089954.83224058 68024825.541727394 0 0 0 0 1636556828.1206665 -292595470.56517303 0 -292595470.56517303 2295263823.2023163 0 0 0 0 2673616421.3588562 133815194.88646197 0 133815194.88646197 -39666886.02225256 0 0 0 0 3669885480.7637329 -550028870.63743448 0 -550028870.63743448 -667739877.01459503 0 0 0 0 3717923.060266681 -2070423.9919117615 0 -2070423.9919117615 1852687.3643452378 0 0 0 0 2611112501.0485229 166208850.04622865 0 166208850.04622865 122421311.38403463 0 0 0 0 2612953104.7259226 -27843569.209917597 0 -27843569.209917597 -7153209.7211165428 0 0 0 0 3282613205.5424805 202778572.8840034 0 202778572.8840034 -86326231.367691696 0 0 0 0 2458434821.2710419 70984224.822298408 0 70984224.822298408 166256312.64804935 0 0 0 0 1601041.8282977492 -372724.8567070663 0 -372724.8567070663 1167125.2033476764 0 0 0 0 1664333608.2255707 101322792.0375725 0 101322792.0375725 -487628512.88395357 0 0 0 0 1642498548.5685425 160552122.3126772 0 160552122.3126772 -227576846.92680669 0 0 0 0 1460864398.329422 -89451962.518135786 0 -89451962.518135786 -144546999.84569454 0 0 0 0 802699765.12530518 -234065308.74157906 0 -234065308.74157906 -38789458.761857986 0 0 0 0 1416975963.2774048 -181898401.1179955 0 -181898401.1179955 -46518095.51579392 0 0 0 0 795033407.16850281 -193886356.54886031 0 -193886356.54886031 130631108.52952862 0 0 0 0 363202892.86019897 -53274942.716482639 0 -53274942.716482639 135944293.56212988 0 0 0 0 456926312.76927948 -74823436.554257274 0 -74823436.554257274 61552395.488363266 0 0 0 0 201186342.00759125 -606691350.1849184 0 -606691350.1849184 220795646.78115273 0 0 0 0 1936415554.7714844 -199646051.35121918 0 -199646051.35121918 -718679285.07348156 0 0 0 0 1331668439.1564636 -1211015342.822001 0 -1211015342.822001 194386509.65213168 0 0 0 0 1788457951.5930481 -721285365.70447969 0 -721285365.70447969 71898701.476808548 0 0 0 0 850038990.03907776 -424622307.35663402 0 -424622307.35663402 163550045.35534632 0 0 0 0 785378976.97996521 -279097133.90900642 0 -279097133.90900642 218288484.2405045 0 0 0 0 892864129.01370239 -318461309.3565166 0 -318461309.3565166 86519183.042286158 0 0 0 0 913576804.26435852 -367682425.19199753 0 -367682425.19199753 75325584.761827469 0 0 0 0 959787289.44592285 -330980633.12077951 0 -330980633.12077951 145471575.02134201 0 0 0 0 940400917.49414062 -395355212.1730687 0 -395355212.1730687 103863699.7635237 0 0 0 0 882627681.71388245 -322634698.36916924 0 -322634698.36916924 197906128.41165924 0 0 0 0 897907322.25869751 -343309797.90548742 0 -343309797.90548742 219791051.94306266 0 0 0 0 1078552229.1867371 -394251840.8576324 0 -394251840.8576324 156172727.93765235 0 0 0 0 1034049700.2533417 -207000469.11034068 0 -207000469.11034068 282379229.4057762 0 0 0 0 1458247392.9666901 -128999784.68821305 0 -128999784.68821305 194885334.35712755 0 0 0 0 1121867477.2733002 -252599318.10130301 0 -252599318.10130301 250698606.3595674 0 0 0 0 1131044734.171875 -287019394.1786319 0 -287019394.1786319 176470775.52593186 0 0 0 0 1544412383.2149811 -241993699.35631049 0 -241993699.35631049 87242651.831949115 0 0 0 0 1787354654.1449127 -117839167.77185583 0 -117839167.77185583 114436220.91675675 0 0 0 0 1638931036.6592712 -31922998.161934018 0 -31922998.161934018 190444629.18957794 0 0 0 0 1535740793.9001465 -212838530.99584723 0 -212838530.99584723 213386244.18137187 0 0 0 0 1573110751.2390442 -46293356.625470489 0 -46293356.625470489 203399075.12431175 0 0 0 0 1634956625.8634682 -181968895.85521299 0 -181968895.85521299 318087746.817397 0 0 0 0 1794775007.2416611 58057753.356654085 0 58057753.356654085 336199820.59856427 0 0 0 0 2282812231.9897461 82921767.259697258 0 82921767.259697258 115866469.92539912 0 0 0 0 2346795284.0093994 363194.12787353992 0 363194.12787353992 38541418.615759373 0 0 0 0 2225339649.4932747 -173683971.07479197 0 -173683971.07479197 73340333.33478117 0 0 0 0 2341073532.0129089 112687684.43041289 0 112687684.43041289 50144228.348934859 0 0 0 0 2434648662.5082092 -44784260.000354528 0 -44784260.000354528 -9367484.6366931796 0 0 0 0 2117893192.518816 -85151623.881854773 0 -85151623.881854773 126604925.62928104 0 0 0 0 2123217041.9499207 -144103500.5294171 0 -144103500.5294171 -23598752.392881989 0 0 0 0 1674370751.2670593 -250837568.05243587 0 -250837568.05243587 145679628.4718318 0 0 0 0 2036420852.5783997 -12055798.337236106 0 -12055798.337236106 41959590.00631988 0 0 0 0 1654543125.4266205 -196076337.98120266 0 -196076337.98120266 39115462.995105386 0 0 0 0 1257156355.2134094 -228749719.48275036 0 -228749719.48275036 178447360.77167487 0 0 0 0 1774561051.295929 -353054505.60861683 0 -353054505.60861683 -28895252.872028112 0 0 0 0 1191406463.7362976 -471670259.19141531 0 -471670259.19141531 140710191.26148927 0 0 0 0 1269528326.0466003 -466566656.14967597 0 -466566656.14967597 128610855.72963355 0 0 0 0 2731262.7628058046 707593.52502543479 0 707593.52502543479 723500.6605204714 0 0 0 0 980616371.81838226 -180837903.58709389 0 -180837903.58709389 196692163.64557767 0 0 0 0 1231317869.6304016 -304913435.70009017 0 -304913435.70009017 63239000.963609695 0 0 0 0 1255010209.4387755 -268784645.45760942 0 -268784645.45760942 10424931.476150513 0 0 0 0 17570123.178070068 -860950.00412952784 0 -860950.00412952784 2358487.722730902 0 0 0 0 22271.624872054905 -419.34751483798027 0 -419.34751483798027 5531.3439009968042 0 0 0 0 4361486.4917107262 391530.44802945852 0 391530.44802945852 -156729.02748060343 0 0 0 0 16461784.985198975 -6746204.9944331609 0 -6746204.9944331609 156830.09740352375 0 0 0 0 1274156296.9196625 -441266840.16572231 0 -441266840.16572231 149180924.1185382 0 0 0 0 5885763.5781010613 487658.49256569892 0 487658.49256569892 447353.01003631391 0 0 0 0 2999116.4754421823 1086733.5556346998 0 1086733.5556346998 735419.42829112022 0 0 0 0 1654773393.0969086 -230887431.77522808 0 -230887431.77522808 167680833.49426752 0 0 0 0 1273689157.3934326 -450007199.93898022 0 -450007199.93898022 254087426.37438416 0 0 0 0 1790917765.5159988 -424955555.82727897 0 -424955555.82727897 163496366.63212252 0 0 0 0 1462239594.2409363 -563709024.12259686 0 -563709024.12259686 -10325364.211590767 0 0 0 0 2621376364.2810364 -523204943.68383127 0 -523204943.68383127 125926919.61795639 0 0 0 0 2576214940.0509338 44657938.236986265 0 44657938.236986265 82002754.236160457 0 0 0 0 2294696075.8684082 -195009011.33461392 0 -195009011.33461392 48230918.156536102 0 0 0 0 1779628370.7046752 -220582814.1734345 0 -220582814.1734345 115776144.3613553 0 0 0 0 2245838827.6891136 -34164184.531973362 0 -34164184.531973362 108475261.08984661 0 0 0 0 2492939767.98172 25703900.263291955 0 25703900.263291955 61060329.788952231 0 0 0 0 2518242174.4564819 -6135317.7323701382 0 -6135317.7323701382 37641914.621456534 0 0 0 0 2508259236.5462971 16009441.59887363 0 16009441.59887363 145375537.06444895 0 0 0 0 2633130349.2324524 54448357.796687372 0 54448357.796687372 28884602.535461694 0 0 0 0 2681184621.0760841 -108506388.02430089 0 -108506388.02430089 177237856.66034454 0 0 0 0 2610246605.9614029 -147881521.81249413 0 -147881521.81249413 119076289.53975382 0 0 0 0 2667278721.9630661 -40101605.624126412 0 -40101605.624126412 279784635.03562313 0 0 0 0 3065013106.1696167 -294474446.54585928 0 -294474446.54585928 240168.85392512119 0 0 0 0 2995271332.8270264 41443523.74374792 0 41443523.74374792 151091395.50844425 0 0 0 0 3335725326.7882156 -421564380.36993766 0 -421564380.36993766 -17636503.201793581 0 0 0 0 1628258.1229169667 532802.50174474716 0 532802.50174474716 267693.26898271276 0 0 0 0 1379712990.6204071 -497303314.16241693 0 -497303314.16241693 452025769.92567039 0 0 0 0 16798836.694274902 331853.63766301185 0 331853.63766301185 10234.750118140018 0 0 0 0 2792560229.8547363 -27619831.205693468 0 -27619831.205693468 -17484362.156463563 0 0 0 0 3514917.5980901718 -102231.16628682613 0 -102231.16628682613 -242542.23434431176 0 0 0 0 27030.448170702904 -1316.7761268317699 0 -1316.7761268317699 1807.7594060379683 0 0 0 0 13648795.831436157 -2311818.6047972282 0 -2311818.6047972282 480927.74457848584 0 0 0 0 20217023.375274658 -4262917.5293722702 0 -4262917.5293722702 184867.99298569036 0 0 0 0 19493985.432281494 -4421382.6925658071 0 -4421382.6925658071 165213.26031571534 0 0 0 0 1901076579.7342987 -303343045.93510026 0 -303343045.93510026 25768250.640723139 0 0 0 0 933977773.85568237 -66304163.435844719 0 -66304163.435844719 145597223.57348239 0 0 0 0 1387478587.133791 -13038111.60495539 0 -13038111.60495539 -26050790.56076026 0 0 0 0 860489542.30851746 -59792889.197923183 0 -59792889.197923183 18131870.757888317 0 0 0 0 1364085329.9975357 -159042370.62957922 0 -159042370.62957922 197648896.75304496 0 0 0 0 1482069670.825531 131823079.86328709 0 131823079.86328709 40937382.690610588 0 0 0 0 2979702534.9711761 -121038839.434726 0 -121038839.434726 -666646.22696626186 0 0 0 0 2586821072.7365799 -112372922.82985857 0 -112372922.82985857 156021266.96475804 0 0 0 0 2346056738.4309845 79033658.4972063 0 79033658.4972063 132906851.30664231 0 0 0 0 2366815871.9416389 65911752.742594123 0 65911752.742594123 -28515880.428426892 0 0 0 0 2360644393.2260056 60068364.705050312 0 60068364.705050312 68490.017752807471 0 0 0 0 2084347785.2237854 -208014679.66329426 0 -208014679.66329426 1318216.2839254737 0 0 0 0 1750455997.2901688 60543572.595058642 0 60543572.595058642 -90191.7743096224 0 0 0 0 1365406799.1770401 61780647.42528984 0 61780647.42528984 29923040.606443405 0 0 0 0 995459468.02638245 99075514.123931885 0 99075514.123931885 150960.77265039546 0 0 0 0 1403752734.0125732 -217395346.31049722 0 -217395346.31049722 60351889.741092056 0 0 0 0 811699409.71101379 -110015907.50879066 0 -110015907.50879066 6001449.6091580987 0 0 0 0 464545308.57875061 102944501.68888703 0 102944501.68888703 9456.6980971632656 0 0 0 0 484289184.83753967 27910938.130383909 0 27910938.130383909 -77602618.620761871 0 0 0 0 492497943.48858643 70390860.849829435 0 70390860.849829435 97476908.511840522 0 0 0 0 85143135.363800049 98148099.100908965 0 98148099.100908965 38327.515731942251 0 0 0 0 303155584.31626129 -25806547.189277329 0 -25806547.189277329 -6448827.4332982004 0 0 0 0 237060992.06091309 113263186.38948962 0 113263186.38948962 9635694.975231275 0 0 0 0 74987782.713188171 -15148244.599565059 0 -15148244.599565059 -48186862.557827473 0 0 0 0 366369.90538650006 324081.50526339561 0 324081.50526339561 83432.912984859315 0 0 0 0 233445138.53160095 111981504.7403338 0 111981504.7403338 -90383701.087870389 0 0 0 0 254113913.80825424 64196637.620587423 0 64196637.620587423 -39273666.313771963 0 0 0 0 -101681400.45330811 -5865208.2854399681 0 -5865208.2854399681 157767218.87229347 0 0 0 0 282513686.74584961 49956843.683570504 0 49956843.683570504 -100014975.88719368 0 0 0 0 25554212.497024536 158301346.10860854 0 158301346.10860854 187935762.06099629 0 0 0 0 -176785976.96484375 242358550.84344316 0 242358550.84344316 177893279.84382772 0 0 0 0 925669545.87675476 7300132.5279798508 0 7300132.5279798508 -88016933.649329782 0 0 0 0 -17727.973612040281 393241.35413940251 0 393241.35413940251 225604.46204816701 0 0 0 0 588244215.75328827 34629851.78785646 0 34629851.78785646 92357308.904497147 0 0 0 0 538654872.33280945 155388104.7100727 0 155388104.7100727 37691787.37311697 0 0 0 0 881515048.44792557 -4028543.1200538278 0 -4028543.1200538278 33972753.011734009 0 0 0 0 612862812.79899597 93837389.363999367 0 93837389.363999367 119801625.10589576 0 0 0 0 598338184.20794678 15073539.357633591 0 15073539.357633591 87099438.355717182 0 0 0 0 615238115.54489136 72577466.492893219 0 72577466.492893219 26796608.037325382 0 0 0 0 501080623.88980103 84920313.447816849 0 84920313.447816849 92076548.844414711 0 0 0 0 471719631.9960022 155468888.97397614 0 155468888.97397614 13153484.865522385 0 0 0 0 525890181.67324829 190001520.03578138 0 190001520.03578138 -16826466.651309013 0 0 0 0 521029700.76947021 42669086.579456329 0 42669086.579456329 -73706116.00078249 0 0 0 0 495616434.07792282 162753968.76571587 0 162753968.76571587 -37608136.498601913 0 0 0 0 406935990.7641201 99742601.291171312 0 99742601.291171312 1568828.9560575485 0 0 0 0 403623619.04669189 122652010.02005053 0 122652010.02005053 44103709.562397957 0 0 0 0 601574459.41394186 146661080.82977337 0 146661080.82977337 -22418495.592954636 0 0 0 0 95621434.120726585 -22866571.400511891 0 -22866571.400511891 52390470.618600845 0 0 0 0 170315.45919932425 1471040.7103879824 0 1471040.7103879824 -103369.92111177219 0 0 0 0 112296986.43606567 197154903.50321341 0 197154903.50321341 103108106.02891374 0 0 0 0 4405323.5018544197 58257131.59495122 0 58257131.59495122 28128518.240318537 0 0 0 0 8000550.5702667236 -47582439.888903975 0 -47582439.888903975 -47988042.028210789 0 0 0 0 207626976.88687134 14022989.682755947 0 14022989.682755947 -19404717.904001236 0 0 0 0 121756152.80755615 84039438.751321793 0 84039438.751321793 -11724701.031636 0 0 0 0 202636149.49493408 71871676.498980999 0 71871676.498980999 13826753.242183208 0 0 0 0 258587945.21580505 -61419790.670576334 0 -61419790.670576334 -52625095.020730972 0 0 0 0 871741762.62304688 -114213909.46560907 0 -114213909.46560907 -48976758.86978054 0 0 0 0 944287.74167048931 635879.46498434991 0 635879.46498434991 -113796.70663706074 0 0 0 0 -1911464.086265564 -140069536.78978616 0 -140069536.78978616 -497549245.98269844 0 0 0 0 -27446.356283791363 804036.2986766398 0 804036.2986766398 -112091.12918354105 0 0 0 0 2396541.2152918428 1719708.255273506 0 1719708.255273506 -409911.15738706943 0 0 0 0 22241694.398284912 70085150.195161343 0 70085150.195161343 -292364690.0196743 0 0 0 0 120183519.19766235 194194725.36853123 0 194194725.36853123 -358697192.06241703 0 0 0 0 370000679.29037476 262808879.5731802 0 262808879.5731802 -513747874.78577042 0 0 0 0 107941989.99710846 251538805.14041543 0 251538805.14041543 13170617.48938179 0 0 0 0 95108644.187515259 491173941.07274675 0 491173941.07274675 134837689.16977119 0 0 0 0 508001837.32272339 132549871.23813534 0 132549871.23813534 -8587256.6536464691 0 0 0 0 493663307.47151184 157306098.84528112 0 157306098.84528112 35579016.529342651 0 0 0 0 -97731746.094596863 486931620.65270019 0 486931620.65270019 196211178.68660355 0 0 0 0 -158554444.92785645 343860703.16465902 0 343860703.16465902 100811884.94952774 0 0 0 0 257739699.77752686 615861816.16864252 0 615861816.16864252 43690828.750833511 0 0 0 0 68899286.418701172 471672287.72822762 0 471672287.72822762 135231020.393682 0 0 0 0 124206232.31573486 493139922.72289324 0 493139922.72289324 -49902592.296150208 0 0 0 0 1590849.5622911453 -59390.192810397595 0 -59390.192810397595 -234640.31739063887 0 0 0 0 89213207.518657684 -299331606.41068524 0 -299331606.41068524 269204387.32024956 0 0 0 0 353548597.16130066 -317754400.82676458 0 -317754400.82676458 -341345516.53089237 0 0 0 0 421426655.99386597 -129286381.7818222 0 -129286381.7818222 -116338640.65707254 0 0 0 0 451477075.27459717 134801215.29141903 0 134801215.29141903 -275136028.46013498 0 0 0 0 240943410.28453064 263922622.24743199 0 263922622.24743199 -121590231.92500114 0 0 0 0 397678602.97848511 121454103.18999958 0 121454103.18999958 -1969758.1846513748 0 0 0 0 461566936.77642822 231441250.31599474 0 231441250.31599474 -40969106.132372856 0 0 0 0 665363813.16244507 338882712.92091656 0 338882712.92091656 135667332.65691149 0 0 0 0 437705866.47777557 108077012.08414221 0 108077012.08414221 -80728519.99454689 0 0 0 0 94673674.61328125 34987379.55097723 0 34987379.55097723 -119007934.85123253 0 0 0 0 82505856.973625183 -13281300.922874689 0 -13281300.922874689 -127622918.13181877 0 0 0 0 123779858.40719604 20974062.749534607 0 20974062.749534607 -101051905.42930698 0 0 0 0 49822790.094787598 28650640.406339169 0 28650640.406339169 -84562690.994631767 0 0 0 0 50245866.761871338 68621596.420162678 0 68621596.420162678 -63004437.928866386 0 0 0 0 9603012.9647064209 67699897.420440853 0 67699897.420440853 -17122629.931884766 0 0 0 0 8043449.3598480225 52948524.876672328 0 52948524.876672328 -20689977.406719208 0 0 0 0 13819319.80197525 59185529.521728814 0 59185529.521728814 -84327840.588596344 0 0 0 0 17761479.366149902 27023891.355835915 0 27023891.355835915 -98889115.504920959 0 0 0 0 15702463.036418557 2023407.2104976904 0 2023407.2104976904 -774690.47388006002 0 0 0 0 29934428.834243774 52557024.143208981 0 52557024.143208981 -183410245.38401699 0 0 0 0 2865351.1149101257 56886413.43792963 0 56886413.43792963 -125163016.89980888 0 0 0 0 75784612.196853638 -1989146.9628281593 0 -1989146.9628281593 -210172215.02000046 0 0 0 0 2814811.1262861788 4176536.3785034018 0 4176536.3785034018 -347438.99611658871 0 0 0 0 12904128.036804199 39702813.75976181 0 39702813.75976181 -21396285.249238968 0 0 0 0 12005195.702270508 -8203168.4176869392 0 -8203168.4176869392 -138844136.80048847 0 0 0 0 -58024217.335067749 -35472964.720990896 0 -35472964.720990896 12009355.685883522 0 0 0 0 24861162.256072998 10600475.792205811 0 10600475.792205811 -135018015.17926216 0 0 0 0 16583175.588745117 -59604503.085029602 0 -59604503.085029602 -51035958.190404892 0 0 0 0 71715471.042602539 -374930855.10608482 0 -374930855.10608482 60655532.886710167 0 0 0 0 467661612.21313477 -244901017.95643616 0 -244901017.95643616 80454671.439409614 0 0 0 0 -3095849.379119873 -182664530.55957937 0 -182664530.55957937 190662926.50474834 0 0 0 0 763216.92172808945 401003.6945651751 0 401003.6945651751 51942.403195280407 0 0 0 0 194413497.36847687 -441954066.95433915 0 -441954066.95433915 -143551549.42553329 0 0 0 0 28757483.842849731 81295279.381298542 0 81295279.381298542 -45889754.976408958 0 0 0 0 253681480.15441895 -287399277.14997768 0 -287399277.14997768 -424813977.64849567 0 0 0 0 175725485.70928955 67746043.060071945 0 67746043.060071945 -428781797.32907248 0 0 0 0 94227233.821853638 -71350450.501436234 0 -71350450.501436234 -181878531.61317062 0 0 0 0 123946853.86907959 -28383181.412294388 0 -28383181.412294388 -138212139.90190363 0 0 0 0 143730664.48773193 -132551921.00984478 0 -132551921.00984478 -116181943.8292141 0 0 0 0 139977268.76147461 -149998019.47156334 0 -149998019.47156334 -146080237.95537758 0 0 0 0 174234702.12434387 -10756041.780372381 0 -10756041.780372381 -141159126.30333328 0 0 0 0 164805606.45651245 -29302616.285785675 0 -29302616.285785675 -172684065.94684196 0 0 0 0 149430944.40238953 39426946.764031649 0 39426946.764031649 -67959066.51066494 0 0 0 0 331301961.24183655 55771932.505956173 0 55771932.505956173 -72555636.402490616 0 0 0 0 211746069.46766663 -3721227.3935787678 0 -3721227.3935787678 -145351580.02210045 0 0 0 0 106717957.14299011 -40592351.191356182 0 -40592351.191356182 -12679877.160827994 0 0 0 0 78731516.873413086 23124780.451855659 0 23124780.451855659 -20439702.782853603 0 0 0 0 2024418.3018838614 1877578.0148809776 0 1877578.0148809776 229292.42414346687 0 0 0 0 -71867791.653106689 41538800.527437449 0 41538800.527437449 49554387.63142848 0 0 0 0 134737053.64129639 -31892442.07126689 0 -31892442.07126689 30589604.937984943 0 0 0 0 540604336.49734497 -27460754.120119333 0 -27460754.120119333 30632845.1417225 0 0 0 0 837233.09724590182 617154.76242303103 0 617154.76242303103 21207.731731957057 0 0 0 0 262612040.37467957 258904204.34919024 0 258904204.34919024 251756160.07369542 0 0 0 0 120179974.13925171 146391255.70727372 0 146391255.70727372 73745908.005794525 0 0 0 0 5188856.4244232178 70681013.252570391 0 70681013.252570391 265826603.81712246 0 0 0 0 131988810.85588074 105820469.21129227 0 105820469.21129227 78154369.884041309 0 0 0 0 67346238.186187744 89550469.336683273 0 89550469.336683273 13114716.902386546 0 0 0 0 48147798.913421631 83222056.623641014 0 83222056.623641014 12257651.465726852 0 0 0 0 141291957.18970776 86414037.043844327 0 86414037.043844327 -54267992.173313141 0 0 0 0 137703012.58502197 15100240.092091084 0 15100240.092091084 -98800661.749245405 0 0 0 0 51729463.485778809 89506818.256681442 0 89506818.256681442 4082.631685256958 0 0 0 0 37983020.572357178 126981809.94932556 0 126981809.94932556 75552337.897202969 0 0 0 0 -14979636.801239014 84128127.817997932 0 84128127.817997932 43186616.754867554 0 0 0 0 -52395432.239868164 73028958.389703274 0 73028958.389703274 118107118.22632742 0 0 0 0 6921396.0304317474 69762621.325931013 0 69762621.325931013 81934551.191319466 0 0 0 0 -91717470.014312744 26479553.039378881 0 26479553.039378881 132933702.52102208 0 0 0 0 31702814.015930176 -30712153.508396149 0 -30712153.508396149 52093823.174580932 0 0 0 0 75013435.582145691 51928612.078015327 0 51928612.078015327 111868993.89190531 0 0 0 0 74838309.231536865 -686216.08921653032 0 -686216.08921653032 524594157.17505074 0 0 0 0 25409380.169708252 -29265772.513796806 0 -29265772.513796806 205904321.15505147 0 0 0 0 213551144.53363037 -95233083.642740011 0 -95233083.642740011 17570335.611345291 0 0 0 0 70226151.84072876 18431397.043886304 0 18431397.043886304 -71537507.398333192 0 0 0 0 39359828.260284424 -74625533.458991885 0 -74625533.458991885 13995315.242442071 0 0 0 0 -107920749.89336872 -110881362.91936173 0 -110881362.91936173 7045287.5712211132 0 0 0 0 -95725537.646017075 16100214.200599492 0 16100214.200599492 -28445732.689077377 0 0 0 0 -38744737.752174377 -53660733.365462959 0 -53660733.365462959 -51836738.298128128 0 0 0 0 -71423884.062683105 -21930300.817364931 0 -21930300.817364931 68795770.248345137 0 0 0 0 -44296252.348564148 -44177961.096728265 0 -44177961.096728265 315683702.41991878 0 0 0 0 217660535.78939819 289995432.16651487 0 289995432.16651487 255710851.46974903 0 0 0 0 431407622.28994751 -147210651.98128998 0 -147210651.98128998 46685384.858629107 0 0 0 0 229037155.85661125 32387905.658466116 0 32387905.658466116 -99738265.778646708 0 0 0 0 178300392.66311646 29628129.801475644 0 29628129.801475644 -97216667.567416251 0 0 0 0 -90386621.249256134 -11150509.310138702 0 -11150509.310138702 -38277709.249836445 0 0 0 0 -67700879.944854736 143614754.91909415 0 143614754.91909415 -37082472.619887859 0 0 0 0 26541156.762771606 259136036.12678641 0 259136036.12678641 -114795769.8439609 0 0 0 0 751129.22261939198 607844.8575470224 0 607844.8575470224 47388.597515698988 0 0 0 0 135412474.7277832 -20615813.763070613 0 -20615813.763070613 -131922900.90133047 0 0 0 0 632024.82009631395 345941.14167102426 0 345941.14167102426 -321587.33737060678 0 0 0 0 -119970002.66375732 81189410.265632242 0 81189410.265632242 -56492.247605289725 0 0 0 0 309774900.20358276 -68356430.315828428 0 -68356430.315828428 -123940244.35944204 0 0 0 0 -24253074.298095703 14172861.856234904 0 14172861.856234904 -25005236.083038233 0 0 0 0 -163109736.13372803 -76706090.233659029 0 -76706090.233659029 -2939893.5963196754 0 0 0 0 -135324959.75637817 44199670.293617845 0 44199670.293617845 -99797985.33859089 0 0 0 0 -250616550.83184814 3166298.4241976142 0 3166298.4241976142 -34220977.498166159 0 0 0 0 -120403832.13742065 -35165868.625778586 0 -35165868.625778586 -103003243.21784653 0 0 0 0 -174729715.42272949 -118437540.60093439 0 -118437540.60093439 -116830918.4284718 0 0 0 0 -51788.148464679718 21531.551463274285 0 21531.551463274285 -4960.5311315767758 0 0 0 0 -56595362.627502441 -29774823.943258524 0 -29774823.943258524 -39432835.08895731 0 0 0 0 138983570.74856567 13005414.102788985 0 13005414.102788985 -95917735.974251091 0 0 0 0 165272680.34492493 58076502.59227258 0 58076502.59227258 -150946192.98143089 0 0 0 0 11960619.780181885 104885298.69199562 0 104885298.69199562 -85705520.408188581 0 0 0 0 -122535631.12161255 56410651.237582445 0 56410651.237582445 -82807870.4288636 0 0 0 0 -133080846.71704102 212897432.51028588 0 212897432.51028588 214766.20611824383 0 0 0 0 345667246.74469757 50795317.404431328 0 50795317.404431328 -182837507.59264374 0 0 0 0 200526367.17984009 197882216.38906187 0 197882216.38906187 -105538457.87086362 0 0 0 0 -361059823.88923645 -19480032.876496822 0 -19480032.876496822 39113499.391374826 0 0 0 0 -445264.78612290323 302252.20270101726 0 302252.20270101726 38517.529420592291 0 0 0 0 -394068.00526428223 233253.86921708827 0 233253.86921708827 4.5883188727818265 0 0 0 0 -323554.4079284668 198317.31104672578 0 198317.31104672578 -143698.97792533302 0 0 0 0 -103969.94135800004 92118.215297054499 0 92118.215297054499 -191730.15518695634 0 0 0 0 1641263.4499359131 1809977.6946286433 0 1809977.6946286433 -3122923.1812858335 0 0 0 0 2531255.2991027832 -1668299.8298959262 0 -1668299.8298959262 163769.97404939 0 0 0 0 3380991.0675888062 378983.43177628028 0 378983.43177628028 -7598683.5094169276 0 0 0 0 -275885.9676361084 113538.10199326441 0 113538.10199326441 -198.33552445139776 0 0 0 0 -4684342.5927124023 -2364380.1915464569 0 -2364380.1915464569 1608686.2687772762 0 0 0 0 -70055.358653560281 30240.883330659941 0 30240.883330659941 -82269.131244822929 0 0 0 0 316325.11419677734 269075.02026771777 0 269075.02026771777 -130995.99773244176 0 0 0 0 1073500.8278198242 -77453.698219569793 0 -77453.698219569793 608.86607760613128 0 0 0 0 -1721880.7834472656 7623246.0980747193 0 7623246.0980747193 -8092963.9181350889 0 0 0 0 1798429.2709960938 3220804.434848289 0 3220804.434848289 -13779558.929715388 0 0 0 0 -145128.81836310029 -447112.22376399022 0 -447112.22376399022 193282.99042944898 0 0 0 0 -4594750.464630127 4258439.7576218732 0 4258439.7576218732 -9811454.8594919704 0 0 0 0 -14622926.859588623 5715023.2862718385 0 5715023.2862718385 -2038598.7331009284 0 0 0 0 -4567468.7282867432 6666848.0204064827 0 6666848.0204064827 -4714391.6789291389 0 0 0 0 -5040990.23097229 -2166044.3610193375 0 -2166044.3610193375 950899.45949911629 0 0 0 0 -2340630.9838594496 -54219.773214723915 0 -54219.773214723915 410483.18411280529 0 0 0 0 -10243150.046024323 -3125928.0698494911 0 -3125928.0698494911 9332256.5857920647 0 0 0 0 -7368481.1263122559 5145525.8559267521 0 5145525.8559267521 -2248721.1713738441 0 0 0 0 -118759.69325256348 2265908.8166882922 0 2265908.8166882922 -448963.24506754271 0 0 0 0 -1054718.0041569322 311726.92955203354 0 311726.92955203354 685868.34872742137 0 0 0 0 -928579.99723815918 3078638.8454465549 0 3078638.8454465549 -716417.06123974826 0 0 0 0 -855445.15666356683 1555041.6909351647 0 1555041.6909351647 -1197876.7589987086 0 0 0 0 -86977911.811096191 47313627.404834449 0 47313627.404834449 25060996.30222702 0 0 0 0 -134339034.84731293 -8328392.7772259712 0 -8328392.7772259712 63051615.281195641 0 0 0 0 -710257.62739620358 851483.55940444022 0 851483.55940444022 -337830.64731753123 0 0 0 0 58589923.396331787 -33403837.210583843 0 -33403837.210583843 -37082478.601105548 0 0 0 0 136740538.15385437 29057689.205898304 0 29057689.205898304 -14243942.123664632 0 0 0 0 54960765.032821655 9963616.4538656473 0 9963616.4538656473 -18323615.65383454 0 0 0 0 50763102.207145691 6607321.2628548611 0 6607321.2628548611 -27961.652907038511 0 0 0 0 56652240.927108765 3283607.877361048 0 3283607.877361048 -5548278.0993016595 0 0 0 0 48336227.402336121 13929273.813164541 0 13929273.813164541 -6660965.2557863127 0 0 0 0 61211958.931121826 18696371.075411756 0 18696371.075411756 -6140495.4738322943 0 0 0 0 31769057.68611145 11296623.992198991 0 11296623.992198991 -14685.734765911235 0 0 0 0 6678518.8860626221 7208439.5761816911 0 7208439.5761816911 3880350.406943108 0 0 0 0 30485128.086654663 28377827.90720021 0 28377827.90720021 10297730.642007742 0 0 0 0 26499803.39352417 41142833.887977846 0 41142833.887977846 42751277.286354937 0 0 0 0 11656101.588378906 4324525.0801510578 0 4324525.0801510578 4637391.7806351827 0 0 0 0 6590393.8527374268 2511029.699287639 0 2511029.699287639 -1237576.3165270928 0 0 0 0 -1393585.2181091309 1816420.6358159147 0 1816420.6358159147 1878456.8343090601 0 0 0 0 83117.525725625455 180385.90490098298 0 180385.90490098298 -218290.50577941848 0 0 0 0 -18604406.058837891 7616285.3334900569 0 7616285.3334900569 10187.759962844055 0 0 0 0 28430320.409606934 13726917.144134946 0 13726917.144134946 1481994.2913849764 0 0 0 0 -509148.3183144927 411173.31601441652 0 411173.31601441652 -278077.24603224988 0 0 0 0 -15339374.97354126 -7090270.2462624051 0 -7090270.2462624051 -4460049.6742805336 0 0 0 0 -28292.897831916809 12164.518379053101 0 12164.518379053101 -21591.701876880867 0 0 0 0 -4765625.7063293457 13517754.860947169 0 13517754.860947169 -3929131.8681093417 0 0 0 0 -2840606.7653045654 9986222.6308949403 0 9986222.6308949403 -11340828.871263396 0 0 0 0 -2898098.8099365234 451464.61956074223 0 451464.61956074223 1641215.4482976513 0 0 0 0 -886301.30288106203 584773.52365579084 0 584773.52365579084 -180156.37401934562 0 0 0 0 -1039848.2757415771 2071723.9563505072 0 2071723.9563505072 13735.034275270998 0 0 0 0 -4571883.3131866455 4606787.1532690637 0 4606787.1532690637 -5685446.3745029634 0 0 0 0 -3777688.0939838588 1499163.8015137836 0 1499163.8015137836 824354.39483600145 0 0 0 0 -11418775.063827515 6517745.8666731715 0 6517745.8666731715 1932800.7701778412 0 0 0 0 -7488878.0510597229 3891747.4184538126 0 3891747.4184538126 -3999950.3174843788 0 0 0 0 -13474985.152923584 23271952.046310574 0 23271952.046310574 31434374.341920495 0 0 0 0 8096331.3857574463 -15047739.437931657 0 -15047739.437931657 4024193.0928603411 0 0 0 0 3710172.3934767991 2237038.5902456269 0 2237038.5902456269 -1416638.6535588431 0 0 0 0 15794230.688293457 5157474.4284142256 0 5157474.4284142256 -48180006.503838085 0 0 0 0 1357489.4635101259 473527.4271446662 0 473527.4271446662 -691445.66945604689 0 0 0 0 35143772.629837036 49147289.606552005 0 49147289.606552005 44190056.275158763 0 0 0 0 17885947.076324463 -47557088.884094 0 -47557088.884094 107062337.9141742 0 0 0 0 21674529.617889404 -22388506.184548974 0 -22388506.184548974 49034163.131901026 0 0 0 0 24395897.450271606 59838824.87847209 0 59838824.87847209 77148334.778553247 0 0 0 0 5988624.678894043 127312.16871261597 0 127312.16871261597 80029940.662961483 0 0 0 0 301554162.43640137 74139134.652278259 0 74139134.652278259 9458134.9592339694 0 0 0 0 461002.81356038153 21626.498057553545 0 21626.498057553545 -178548.38046505459 0 0 0 0 138514275.51847839 -89736082.153743669 0 -89736082.153743669 -32688398.790327176 0 0 0 0 368274.88439869881 202239.88500127941 0 202239.88500127941 -29206.777537218353 0 0 0 0 157382712.50646973 117659869.26146948 0 117659869.26146948 87424633.212429464 0 0 0 0 169092671.16246033 -357273046.68921143 0 -357273046.68921143 -39501075.215383261 0 0 0 0 328467575.95739746 12011532.923564702 0 12011532.923564702 -39602896.141923606 0 0 0 0 156066005.93389893 -1610680.9286488891 0 -1610680.9286488891 -26586149.00794673 0 0 0 0 19705244.521360397 -11831004.836180016 0 -11831004.836180016 -27173714.360806704 0 0 0 0 20760684.37772952 2716932.2367831962 0 2716932.2367831962 -1390861.3444175199 0 0 0 0 43247412.63482666 17835777.860614896 0 17835777.860614896 -93642472.953245878 0 0 0 0 26786992.259460449 -31249221.365461826 0 -31249221.365461826 -12362384.194881678 0 0 0 0 19722956.188026428 -3083167.3858482242 0 -3083167.3858482242 -56015499.550185204 0 0 0 0 3352291.9738616943 -17230254.552238703 0 -17230254.552238703 7966575.542909503 0 0 0 0 5752845.4450604916 1921500.1536841244 0 1921500.1536841244 -1913026.9949899933 0 0 0 0 -29419365.691833496 17697298.869189739 0 17697298.869189739 738292.66228711605 0 0 0 0 3905881.5016899109 -16929847.651224047 0 -16929847.651224047 -1430660.7072372437 0 0 0 0 11204026.715126038 -992804.53445285559 0 -992804.53445285559 -277691.40390753746 0 0 0 0 -140349778.54975891 366724629.14453602 0 366724629.14453602 -465330796.33227491 0 0 0 0 -188372870.31106567 226989580.04284859 0 226989580.04284859 -131188722.19434929 0 0 0 0 -187768686.76208496 524322844.44174814 0 524322844.44174814 -896726844.00558662 0 0 0 0 19019638.053344235 4577896.6124717835 0 4577896.6124717835 -435568.08791284077 0 0 0 0 223461479.59004211 78106367.076040745 0 78106367.076040745 -1022626625.4804354 0 0 0 0 -415248103.42379379 143739232.1527822 0 143739232.1527822 -9373020.2845306396 0 0 0 0 -43217835.810272217 276535989.04582882 0 276535989.04582882 7565867.6402301788 0 0 0 0 -120280792.58518982 21892659.885501623 0 21892659.885501623 544561624.24300098 0 0 0 0 1257526905.3676758 -650105258.01366043 0 -650105258.01366043 744423367.37645626 0 0 0 0 -392237548.86541748 807043347.52632809 0 807043347.52632809 693561622.10865974 0 0 0 0 -263388110.52127647 -435941464.73596638 0 -435941464.73596638 -1056455821.4825945 0 0 0 0 224538298.6050415 1387983410.9380746 0 1387983410.9380746 -1902530072.3154593 0 0 0 0 89349233.666442871 35425552.776215553 0 35425552.776215553 26010022.175965309 0 0 0 0 13372525.591094971 -10560676.530054569 0 -10560676.530054569 147552496.24065018 0 0 0 0 -27116202.501525879 67453330.996744156 0 67453330.996744156 169112911.51022458 0 0 0 0 -4638730.8238220215 19172283.064576626 0 19172283.064576626 132195004.46804619 0 0 0 0 13289427.386627197 28996548.615442753 0 28996548.615442753 -20625395.281980515 0 0 0 0 16839615.118408203 54600641.041578293 0 54600641.041578293 28451912.088550091 0 0 0 0 31209800.872558594 19652161.652569771 0 19652161.652569771 -1131261.1341762543 0 0 0 0 -10028566.496948242 28825543.864974022 0 28825543.864974022 49948109.252277374 0 0 0 0 -10631247.333618164 32047808.193594933 0 32047808.193594933 57100252.885980606 0 0 0 0 -15918128.53137207 46522153.137158394 0 46522153.137158394 25108555.467952728 0 0 0 0 -15032857.432312012 56625428.69438839 0 56625428.69438839 10143537.122325897 0 0 0 0 -18143479.306007385 75152839.509136915 0 75152839.509136915 42223030.098775864 0 0 0 0 -37236998.805053711 69695587.246480465 0 69695587.246480465 86646659.126484871 0 0 0 0 -2582853.5092163086 27486230.636804581 0 27486230.636804581 58830936.038459301 0 0 0 0 -42360273.754455566 58787686.505133629 0 58787686.505133629 65038011.870623589 0 0 0 0 -30042562.712860107 33747434.07617569 0 33747434.07617569 114613706.70353317 0 0 0 0 -34934497.18939209 113021038.86297989 0 113021038.86297989 1998954.1667575836 0 0 0 0 -32334664.839050293 31614067.999264002 0 31614067.999264002 -11513530.044009209 0 0 0 0 -27767289.613464355 75935816.230550766 0 75935816.230550766 91999684.131248474 0 0 0 0 -63653323.93572998 37362265.815945864 0 37362265.815945864 50602749.691433907 0 0 0 0 -48353951.548339844 45562162.65223217 0 45562162.65223217 59941672.277650833 0 0 0 0 -52785665.59173584 70194401.065337181 0 70194401.065337181 86778617.98025322 0 0 0 0 6037613.7742919922 -2870023.3410964012 0 -2870023.3410964012 9733224.1883306503 0 0 0 0 25538056.813461304 -33165184.709596634 0 -33165184.709596634 17792657.884845734 0 0 0 0 55482224.764343262 80684904.644373894 0 80684904.644373894 105514548.96315098 0 0 0 0 -486202.29126997292 353544.95228171349 0 353544.95228171349 473034.15865738178 0 0 0 0 -58712.907827034593 72398.940943442285 0 72398.940943442285 -88148.303920892067 0 0 0 0 -3724007.9589691162 -10890081.123499393 0 -10890081.123499393 27460908.669366837 0 0 0 0 -3950990.580532074 14898782.61778754 0 14898782.61778754 14246506.44064045 0 0 0 0 -20685120.942504883 1207703.666847229 0 1207703.666847229 7899038.3728518486 0 0 0 0 -24802628.364105225 39156341.701776028 0 39156341.701776028 -7264100.1357393265 0 0 0 0 -17424469.982147217 34523714.120332241 0 34523714.120332241 -13949689.605932713 0 0 0 0 -18513494.363342285 30962991.399777889 0 30962991.399777889 44772067.410881042 0 0 0 0 -14331716.418914795 29215440.492854595 0 29215440.492854595 -7558095.4406690598 0 0 0 0 9977879.4257507324 63567853.770756721 0 63567853.770756721 -9047608.6623334885 0 0 0 0 -24297626.379943848 35352464.885029316 0 35352464.885029316 -3148636.2655010223 0 0 0 0 3041841.6299743652 36939363.000936508 0 36939363.000936508 -51807537.30927372 0 0 0 0 20691121.813504755 2817228.2319354499 0 2817228.2319354499 -1602628.782260095 0 0 0 0 5660826.4057006836 56472857.421590805 0 56472857.421590805 -65305194.928505421 0 0 0 0 -68285137.384216309 308326908.26370716 0 308326908.26370716 -620400377.220819 0 0 0 0 10388776.062919661 1753183.3405530602 0 1753183.3405530602 -3327091.8740429338 0 0 0 0 15522150.560740173 6983382.227703549 0 6983382.227703549 830086.71023965487 0 0 0 0 19324188.159065247 -3156231.926466465 0 -3156231.926466465 -16220874.97920084 0 0 0 0 2089878.6661574095 461203.58433738351 0 461203.58433738351 -1075542.1008077171 0 0 0 0 -177700050.50598907 315714423.22018194 0 315714423.22018194 -269944616.49440479 0 0 0 0 -111331294.2598114 279714473.59220314 0 279714473.59220314 -461180760.94942474 0 0 0 0 -163160878.26065063 241540365.09002304 0 241540365.09002304 -443335253.16496468 0 0 0 0 30894241.191314697 10776191.315505743 0 10776191.315505743 -212352467.23066711 0 0 0 0 -98002585.716888428 190286782.47552395 0 190286782.47552395 -206695184.45931721 0 0 0 0 -75805699.883148193 186843288.65039253 0 186843288.65039253 -219431617.05716515 0 0 0 0 -180997908.24783325 327684470.61060524 0 327684470.61060524 -311989958.75093269 0 0 0 0 18128397.924044102 2774981.0276621673 0 2774981.0276621673 -848142.07203607867 0 0 0 0 -130270295.0133667 180502274.7602272 0 180502274.7602272 115041573.65403986 0 0 0 0 -4928671.2115020752 -2895451.6083035469 0 -2895451.6083035469 -15145630.27259779 0 0 0 0 116519542.46337891 5420741.6755905151 0 5420741.6755905151 -96581222.600017548 0 0 0 0 23942650.188201904 63637069.394069672 0 63637069.394069672 -141082528.26121092 0 0 0 0 505004.14038276672 16717639.265744448 0 16717639.265744448 -79966770.072792053 0 0 0 0 29441661.813476562 61154092.532398224 0 61154092.532398224 -58503017.2466259 0 0 0 0 -2540715.7297668457 48621417.888782501 0 48621417.888782501 -18425331.23109436 0 0 0 0 1339412.8441467285 32403230.872413635 0 32403230.872413635 -46259451.660113335 0 0 0 0 5073241.3515625 26151103.651605606 0 26151103.651605606 -21851728.823860168 0 0 0 0 5771669.7921142578 56611344.725095749 0 56611344.725095749 -74770796.600463867 0 0 0 0 -15729294.323394775 40398107.047328949 0 40398107.047328949 -78457579.26051569 0 0 0 0 3448677.1219787598 17510929.776926994 0 17510929.776926994 -133538574.31964207 0 0 0 0 -38313.147553786635 7127964.5825371258 0 7127964.5825371258 -536302.38873257278 0 0 0 0 -33634590.470703125 48592662.521270752 0 48592662.521270752 19483263.396066666 0 0 0 0 -37133985.378585815 49782284.670156002 0 49782284.670156002 -288085036.72351074 0 0 0 0 8766247.2865600586 8295564.2810297012 0 8295564.2810297012 -378595909.88163424 0 0 0 0 -39428433.940380096 42874373.826950073 0 42874373.826950073 -277710186.69947624 0 0 0 0 -127077.3930323869 1968957.5857215393 0 1968957.5857215393 -207749.39299514418 0 0 0 0 -37742672.234207153 8968628.6676068306 0 8968628.6676068306 -438047385.07309246 0 0 0 0 5625552.9809570312 147778436.21614361 0 147778436.21614361 -740030801.53144741 0 0 0 0 -85169338.468017578 83870290.007181644 0 83870290.007181644 -116288961.19452953 0 0 0 0 -122628648.50026798 189746147.4260152 0 189746147.4260152 -264849683.55196381 0 0 0 0 -114388247.46047401 88960759.753234446 0 88960759.753234446 -274214096.05426025 0 0 0 0 -67861000.863365173 91612224.724180222 0 91612224.724180222 -43071542.349164963 0 0 0 0 -62098795.762023926 147518723.56342888 0 147518723.56342888 -212688511.98887324 0 0 0 0 -85476712.556289673 191503826.90979421 0 191503826.90979421 48214532.429568648 0 0 0 0 -13428311.659221727 145612178.85529992 0 145612178.85529992 76449007.314212561 0 0 0 0 -30710295.923110962 154518566.9693166 0 154518566.9693166 -85638692.563880444 0 0 0 0 -122590801.59922409 40685549.357104838 0 40685549.357104838 30615306.204885006 0 0 0 0 -319117315.86781311 60656755.043395281 0 60656755.043395281 270818594.51804733 0 0 0 0 -512747.85560623556 2180117.1564302742 0 2180117.1564302742 3920941.4610553989 0 0 0 0 -68415808.464579105 -28676353.048190393 0 -28676353.048190393 89980589.837016106 0 0 0 0 -66681636.56451416 65090190.516181231 0 65090190.516181231 41211561.36045289 0 0 0 0 -152232613.71472168 4039232.7595057487 0 4039232.7595057487 45436921.115878582 0 0 0 0 -18178134.081893921 40623083.246817589 0 40623083.246817589 48700593.410966396 0 0 0 0 -148736475.08026123 74693833.260218263 0 74693833.260218263 -36057895.736352921 0 0 0 0 -9496436.0351715088 58698961.336680889 0 58698961.336680889 -63084562.736301899 0 0 0 0 -92303973.142425537 126284387.896245 0 126284387.896245 -239933471.55599594 0 0 0 0 -87517148.531890869 95233006.345491171 0 95233006.345491171 -75585313.455076218 0 0 0 0 -238701700.26443481 122882883.89618969 0 122882883.89618969 -65649088.958639145 0 0 0 0 -232764919.19526672 316191982.14575577 0 316191982.14575577 -403185799.37692642 0 0 0 0 -272359698.06231308 131592258.91112721 0 131592258.91112721 -212566105.68752098 0 0 0 0 -113617330.68416595 171729860.56089449 0 171729860.56089449 -179972742.60909557 0 0 0 0 -131986634.30032349 238545370.44621372 0 238545370.44621372 -411258742.6089015 0 0 0 0 -77525439.993377686 164056092.3936429 0 164056092.3936429 -195937336.20161819 0 0 0 0 -108452918.95571899 52134657.698944092 0 52134657.698944092 21159763.946124077 0 0 0 0 -3505588.9834289551 156403422.51316023 0 156403422.51316023 -179761894.24867606 0 0 0 0 -180195848.25174713 56307592.311264515 0 56307592.311264515 189375299.22693634 0 0 0 0 1526209.9414704442 1441442.2437028103 0 1441442.2437028103 1674139.6103136749 0 0 0 0 70717757.066945076 -208263354.55214047 0 -208263354.55214047 222773855.36392212 0 0 0 0 -92139607.126861572 -6822837.4545230865 0 -6822837.4545230865 144546612.78957915 0 0 0 0 31627824.161089897 60343317.975175738 0 60343317.975175738 5558332.0177507401 0 0 0 0 1431297723.1061287 -675503355.37610626 0 -675503355.37610626 86357273.290287971 0 0 0 0 82765626.660491943 -344032348.92358065 0 -344032348.92358065 511847161.54937547 0 0 0 0 715825.70951597393 316155.59011876583 0 316155.59011876583 415907.68664103467 0 0 0 0 175051439.13444519 -104175549.9890461 0 -104175549.9890461 69113323.731071711 0 0 0 0 401645092.84005737 -91901874.233380318 0 -91901874.233380318 -314048380.13870335 0 0 0 0 373862539.55235291 -185653740.57697248 0 -185653740.57697248 108237299.98446751 0 0 0 0 856566.29864458367 569371.54847151786 0 569371.54847151786 6445139.2763538472 0 0 0 0 639560148.15899658 -250268129.15334225 0 -250268129.15334225 22874145.331555367 0 0 0 0 496912930.16256714 -274291572.52312374 0 -274291572.52312374 138406184.35278392 0 0 0 0 541499323.32923126 -175620736.69509459 0 -175620736.69509459 7752199.0707645416 0 0 0 0 244275267.85820007 -218655034.74012995 0 -218655034.74012995 28997413.331611633 0 0 0 0 239852823.63890266 -167666684.61409733 0 -167666684.61409733 761954974.64544392 0 0 0 0 199944414.08857727 -98122288.678525448 0 -98122288.678525448 245458892.67632008 0 0 0 0 673992.24354392104 131361.8582803756 0 131361.8582803756 4342911.5281753382 0 0 0 0 618573937.2434082 1034050787.635191 0 1034050787.635191 -149606107.61495781 0 0 0 0 1021320.3727401644 2458955.0245033503 0 2458955.0245033503 3335865.8443490416 0 0 0 0 42097723.464187622 -139011802.21149778 0 -139011802.21149778 118365876.58534348 0 0 0 0 219031314.20324707 -636155722.32409382 0 -636155722.32409382 80231053.794515848 0 0 0 0 469677872.43270874 333866241.4696064 0 333866241.4696064 484731090.67416143 0 0 0 0 85188.834762513638 265182.73875811324 0 265182.73875811324 2863611.6131498152 0 0 0 0 678227752.69219971 229843589.13133216 0 229843589.13133216 157114539.10092735 0 0 0 0 -491481038.52008057 -478557852.70199251 0 -478557852.70199251 706746652.44510615 0 0 0 0 411033783.62195206 -445396562.30506963 0 -445396562.30506963 286521604.30515909 0 0 0 0 -160631653.30476379 -130151595.61053038 0 -130151595.61053038 112840871.72804654 0 0 0 0 467928122.00203896 221450960.91263294 0 221450960.91263294 142602083.82831955 0 0 0 0 503100782.22276306 20759496.570238113 0 20759496.570238113 -55969271.307652473 0 0 0 0 241007522.76852417 -118195819.31870174 0 -118195819.31870174 58424869.902626038 0 0 0 0 157066966.17285156 -78618753.002009392 0 -78618753.002009392 157015150.20311928 0 0 0 0 -127624657.41558456 -56906727.489772052 0 -56906727.489772052 194603749.54534054 0 0 0 0 629958.57761579566 2032898.8827172257 0 2032898.8827172257 7512460.0410958193 0 0 0 0 116628765.60483551 30134424.522111177 0 30134424.522111177 18131698.038391113 0 0 0 0 308675610.17965698 -164583429.4323101 0 -164583429.4323101 70567735.751083374 0 0 0 0 -755747.33578401804 -80609.037360195071 0 -80609.037360195071 1169731.2022679187 0 0 0 0 -103138643.34449768 18858042.076114655 0 18858042.076114655 -46203183.368744135 0 0 0 0 389400255.35823059 60525823.759054184 0 60525823.759054184 11372702.898459435 0 0 0 0 444674206.83555603 194679541.97614479 0 194679541.97614479 93160291.933735847 0 0 0 0 393164080.83659363 143048674.22819424 0 143048674.22819424 273740756.33936024 0 0 0 0 165024335.14907837 -89480814.176540375 0 -89480814.176540375 874623093.81673622 0 0 0 0 241340389.53707886 -9785691.1285934448 0 -9785691.1285934448 375021810.15539789 0 0 0 0 431409910.095047 220045119.26699162 0 220045119.26699162 161987931.81392384 0 0 0 0 295149.63779656496 75578.487533152103 0 75578.487533152103 1729887.624533941 0 0 0 0 563382069.54312134 373444466.14830875 0 373444466.14830875 356571629.95191956 0 0 0 0 396779942.89221954 236311426.76603162 0 236311426.76603162 830757736.47999191 0 0 0 0 -330369167.69441223 319169040.53455544 0 319169040.53455544 982281436.04271507 0 0 0 0 426577662.24128723 -617000509.04475951 0 -617000509.04475951 -132099593.72006226 0 0 0 0 199350681.37011719 95477031.303314209 0 95477031.303314209 -516434447.33874416 0 0 0 0 179857992.60126495 -190624322.65791863 0 -190624322.65791863 123242369.44883728 0 0 0 0 398559002.8768158 -171844084.25176334 0 -171844084.25176334 90968885.111788273 0 0 0 0 -85555851.283416748 72367464.80818367 0 72367464.80818367 -76001725.654315472 0 0 0 0 345649971.54133606 -245843835.46208715 0 -245843835.46208715 4705192.7063369751 0 0 0 0 142163604.92871094 -40378707.510511398 0 -40378707.510511398 28472876.983438492 0 0 0 0 384020078.86654663 -147506084.22175217 0 -147506084.22175217 -151189579.3537426 0 0 0 0 413413940.8097229 -192315276.82303429 0 -192315276.82303429 -236279923.01966476 0 0 0 0 -76000445.270751953 -186483400.95925331 0 -186483400.95925331 -417179363.70576668 0 0 0 0 1792385.3574998286 517657.74434547871 0 517657.74434547871 -2677927.1189047303 0 0 0 0 -192524873.76252747 244124938.25123405 0 244124938.25123405 -167995202.05439568 0 0 0 0 10778418.746395111 15160182.283062696 0 15160182.283062696 -12570833.354759216 0 0 0 0 2410262.5786445849 2812022.5493727848 0 2812022.5493727848 -780423.82271711621 0 0 0 0 259900706.17255402 -88264144.468657494 0 -88264144.468657494 19261505.074474335 0 0 0 0 253479498.37278748 -92363024.742506981 0 -92363024.742506981 51180919.808979034 0 0 0 0 277113347.13361359 -49555649.285829544 0 -49555649.285829544 -19191427.586597443 0 0 0 0 207438217.53503418 -41515260.180613518 0 -41515260.180613518 22959175.617996216 0 0 0 0 308380537.98925745 -110706574.5640519 0 -110706574.5640519 -10614260.101604462 0 0 0 0 447003731.70985413 -284736002.34858847 0 -284736002.34858847 2392785.0814666748 0 0 0 0 629066.11339303106 307597.80495220423 0 307597.80495220423 -581298.75335047394 0 0 0 0 331430103.95010376 -249173194.99164033 0 -249173194.99164033 117855995.13614845 0 0 0 0 277640396.68243408 -76350671.357656479 0 -76350671.357656479 146950894.47860813 0 0 0 0 216100326.68330574 -96834926.573884845 0 -96834926.573884845 44558002.741668701 0 0 0 0 -3646824.663269043 -1463304.9864273071 0 -1463304.9864273071 3383351.4468126297 0 0 0 0 -663712.87426137924 39671928.164936572 0 39671928.164936572 -21251729.165363312 0 0 0 0 -135549820.72525024 212108369.77821159 0 212108369.77821159 -30819703.123517036 0 0 0 0 2082810.637820445 5560994.8247641288 0 5560994.8247641288 9823377.4068610389 0 0 0 0 -178275017.28943253 85791034.177037835 0 85791034.177037835 46462065.342900276 0 0 0 0 -16549079.373413086 80430393.305542469 0 80430393.305542469 9112665.7330107689 0 0 0 0 51922590.373291016 61933663.264629364 0 61933663.264629364 -168605599.13348866 0 0 0 0 203356584.36651611 77531992.663980484 0 77531992.663980484 -6359141.3114714622 0 0 0 0 5928362.3737335205 88654806.71690464 0 88654806.71690464 -3631658.033498764 0 0 0 0 -48673363.167984009 116998350.87725794 0 116998350.87725794 272581755.15469885 0 0 0 0 -18105972.173629761 66845636.66445446 0 66845636.66445446 -103169927.27947187 0 0 0 0 5323455.168740131 8478163.4553800188 0 8478163.4553800188 9782137.9210977368 0 0 0 0 -6804136.4787750244 183883927.52381992 0 183883927.52381992 -165940168.4569101 0 0 0 0 51684151.427703857 37650797.927947998 0 37650797.927947998 -106218843.11122322 0 0 0 0 47761507.707366943 -848239.07161521912 0 -848239.07161521912 -152164059.9517498 0 0 0 0 136503740.81750488 73711970.706501007 0 73711970.706501007 -109826199.33872223 0 0 0 0 59868002.971801758 124796727.66588783 0 124796727.66588783 -136133134.09039521 0 0 0 0 129009844.42919922 -87134406.890026093 0 -87134406.890026093 -199069282.88908863 0 0 0 0 143751578.5692749 -141948942.08561897 0 -141948942.08561897 4473061.0426869392 0 0 0 0 -16282415.156982422 46885189.788191795 0 46885189.788191795 -110221296.67540455 0 0 0 0 112324831.87368774 5325238.8169031143 0 5325238.8169031143 -98600236.383493423 0 0 0 0 -21355614.801751614 -111184587.2475464 0 -111184587.2475464 -100720824.63128281 0 0 0 0 26199382.613693237 -40184945.744891644 0 -40184945.744891644 -40023695.714028358 0 0 0 0 -436697.06997680664 -47060428.199752569 0 -47060428.199752569 50433880.271715164 0 0 0 0 140289207.41931152 -111597198.3428297 0 -111597198.3428297 80029726.566990137 0 0 0 0 82467716.731506348 12724183.701922894 0 12724183.701922894 186266353.72178793 0 0 0 0 60003527.01713562 11216505.501711369 0 11216505.501711369 6055198.6814441681 0 0 0 0 170662332.43615723 55908773.333052635 0 55908773.333052635 9245327.2960972786 0 0 0 0 421625475.61882782 117395868.95144522 0 117395868.95144522 188970289.88316727 0 0 0 0 37736482.060882568 -79302529.697624087 0 -79302529.697624087 451285367.88653862 0 0 0 0 -10253675.710456848 25288895.277017117 0 25288895.277017117 293333258.99567747 0 0 0 0 -1248345.8856811523 272505906.66650099 0 272505906.66650099 295443060.15190828 0 0 0 0 64277306.973754883 91823978.502799094 0 91823978.502799094 -13248831.014603972 0 0 0 0 50235674.773162842 -347332427.01869333 0 -347332427.01869333 723009617.25371957 0 0 0 0 -851088.14750430733 847605.71134579554 0 847605.71134579554 2036566.9019618554 0 0 0 0 -5264231.151222229 -107042789.84772936 0 -107042789.84772936 321891100.81049252 0 0 0 0 -160521743.06517029 -136023460.22401392 0 -136023460.22401392 393880339.16138208 0 0 0 0 -66379143.725616455 69453880.285801411 0 69453880.285801411 257632994.38699746 0 0 0 0 -127998364.69236755 40825426.850443125 0 40825426.850443125 246313680.2996273 0 0 0 0 17384062.060409546 -46356602.220313311 0 -46356602.220313311 266051284.10556221 0 0 0 0 -12273213.469726562 146540519.22684956 0 146540519.22684956 706000749.45045626 0 0 0 0 26010917.118850708 10329180.207936287 0 10329180.207936287 -26900806.304075718 0 0 0 0 -17287637.833236694 4957410.8441982269 0 4957410.8441982269 7800197.7816333771 0 0 0 0 -9448555.4456291199 -21171832.927542448 0 -21171832.927542448 -171129848.32533264 0 0 0 0 -29422171.393959045 -17703407.316296577 0 -17703407.316296577 84268087.434738159 0 0 0 0 6266787.9410519898 1987745.7577710515 0 1987745.7577710515 489457.34144685417 0 0 0 0 11089836.718109131 -15989374.802904129 0 -15989374.802904129 42787367.088932037 0 0 0 0 12090191.531326294 4470149.8133430481 0 4470149.8133430481 33342301.494047165 0 0 0 0 -22447423.807281494 101741740.8304863 0 101741740.8304863 -39106731.895652771 0 0 0 0 23516592.540641785 -4720734.8426351547 0 -4720734.8426351547 -22624727.938220024 0 0 0 0 6484692.1807982326 1107837.7646906804 0 1107837.7646906804 -207206.07811988564 0 0 0 0 5434333.887505427 114095.60175263509 0 114095.60175263509 -332726.12974721659 0 0 0 0 108570303.12843323 86998002.553899765 0 86998002.553899765 -52075486.767055035 0 0 0 0 -57339307.137626648 -2573739.5757732391 0 -2573739.5757732391 109074687.71520042 0 0 0 0 12135713.522262573 -25186002.554435253 0 -25186002.554435253 16208876.117622375 0 0 0 0 -79238583.23973465 65840402.34256053 0 65840402.34256053 38838445.027299881 0 0 0 0 1437303.852933757 283961.28372658417 0 283961.28372658417 1930376.6788343508 0 0 0 0 -22560431.003562927 -6965162.7542698383 0 -6965162.7542698383 34082772.830841064 0 0 0 0 -44799253.423591614 -11464502.549892426 0 -11464502.549892426 51802779.246212006 0 0 0 0 87738091.196716309 -48381268.286929131 0 -48381268.286929131 58576302.588154793 0 0 0 0 -18995115.766109467 1726654.5604133606 0 1726654.5604133606 48861516.945913315 0 0 0 0 -21501049.914260864 1533642.1565713882 0 1533642.1565713882 48853266.789337158 0 0 0 0 -67940814.545532227 24896481.448869705 0 24896481.448869705 58084667.916783333 0 0 0 0 -28690983.975944519 4616110.1773753166 0 4616110.1773753166 67052033.43346405 0 0 0 0 -31810205.429502487 -45911964.753292322 0 -45911964.753292322 96210189.471372604 0 0 0 0 -80787636.176193237 -11834655.167834282 0 -11834655.167834282 90467227.23820138 0 0 0 0 253213.9468287304 363768.32932851091 0 363768.32932851091 2086422.7246747166 0 0 0 0 -80182175.304901123 -95593705.430609703 0 -95593705.430609703 -3856220.8583773375 0 0 0 0 -115884537.68727112 -49531865.777663708 0 -49531865.777663708 189406990.14368629 0 0 0 0 -90966476.350860596 147961479.18669701 0 147961479.18669701 50049421.046562195 0 0 0 0 -92046163.549339294 140097218.20916176 0 140097218.20916176 236857866.91830444 0 0 0 0 409488119.29638672 345139341.25617981 0 345139341.25617981 299132740.23569298 0 0 0 0 444574995.33790874 601245838.07705009 0 601245838.07705009 184843117.53316689 0 0 0 0 -1018437218.8424988 -614679648.0490675 0 -614679648.0490675 44316043.874450684 0 0 0 0 -520223260.44581604 1681437111.8299913 0 1681437111.8299913 1055509332.4376469 0 0 0 0 -317715658.58328247 46396601.049344063 0 46396601.049344063 546974362.45881462 0 0 0 0 -325539565.31929016 -296431587.28045082 0 -296431587.28045082 -56158252.180019379 0 0 0 0 403993692.12498474 -26841789.950778961 0 -26841789.950778961 10613180.266397476 0 0 0 0 4386516.9061661214 4885092.7887328602 0 4885092.7887328602 2354948.4554973785 0 0 0 0 1881058098.6746368 299753055.31417179 0 299753055.31417179 -173278426.06959915 0 0 0 0 951644191.84494019 -442182115.78609943 0 -442182115.78609943 200752258.14014006 0 0 0 0 2936655535.7317505 1165797093.4136124 0 1165797093.4136124 55483048.566440582 0 0 0 0 2833190.409318693 1756473.9487533532 0 1756473.9487533532 848008.70344341174 0 0 0 0 516032615.41064453 1290846698.7382565 0 1290846698.7382565 -51887308.089061737 0 0 0 0 3214584794.9825439 777941986.69578552 0 777941986.69578552 -509928319.74250412 0 0 0 0 2852370538.0632935 -799548930.93091106 0 -799548930.93091106 102934652.05751514 0 0 0 0 1424695.2425741255 1746359.9465687498 0 1746359.9465687498 1418116.8143447889 0 0 0 0 402133319.25375366 1230837893.0018482 0 1230837893.0018482 1122410372.9010286 0 0 0 0 -290266299.76873779 -296851459.52096176 0 -296851459.52096176 -243208779.15625668 0 0 0 0 1982668520.9362793 298949101.37065935 0 298949101.37065935 218725669.30753899 0 0 0 0 794048974.23446655 -22560539.590991974 0 -22560539.590991974 163520017.1113534 0 0 0 0 1190893379.0323257 -227861843.03817177 0 -227861843.03817177 -4135078.2623081207 0 0 0 0 1044740304.9580307 -417839605.38499022 0 -417839605.38499022 296798388.42944908 0 0 0 0 587832502.12744141 -199959719.69024277 0 -199959719.69024277 -5210842.9419250488 0 0 0 0 365793015.03041077 -92236920.044047356 0 -92236920.044047356 50295066.651380539 0 0 0 0 923291442.91481018 -70574717.213638306 0 -70574717.213638306 -108326438.89300919 0 0 0 0 861391999.26781464 -42042175.186927319 0 -42042175.186927319 -34882760.660884857 0 0 0 0 872250867.50816345 48090476.109171867 0 48090476.109171867 -133965075.59506798 0 0 0 0 -45749569.692596436 -176833591.22057629 0 -176833591.22057629 -504473295.30421829 0 0 0 0 6298375.2990458831 2486132.9601340638 0 2486132.9601340638 828847.38637965498 0 0 0 0 -9515631.215637207 76800095.828607559 0 76800095.828607559 2561797.9850845337 0 0 0 0 230875486.93649292 -360789501.09736824 0 -360789501.09736824 299644773.99393082 0 0 0 0 -160357015.60760498 -9919151.0022106171 0 -9919151.0022106171 215993356.57475853 0 0 0 0 357205782.53672791 -117681828.78510666 0 -117681828.78510666 58077333.986738205 0 0 0 0 -34171371.898803711 -129604130.14123726 0 -129604130.14123726 216921048.28897858 0 0 0 0 -313431.11234337837 94860.740709386766 0 94860.740709386766 373603.77133771963 0 0 0 0 77808139.760269165 -29710647.220941544 0 -29710647.220941544 21753748.84346962 0 0 0 0 58675251.459922791 -5255754.8046541214 0 -5255754.8046541214 92613848.09895134 0 0 0 0 -713436.91989772022 187808.35409064963 0 187808.35409064963 742846.9395661857 0 0 0 0 308428536.84365845 7393374.6754231453 0 7393374.6754231453 4125263.6917991638 0 0 0 0 207048074.81523132 -142705647.89068794 0 -142705647.89068794 71820300.830190182 0 0 0 0 206056398.83482361 105083212.95699024 0 105083212.95699024 15877641.598539352 0 0 0 0 58675050.676502228 -95322102.162396431 0 -95322102.162396431 24566403.019712448 0 0 0 0 902395049.75067711 42890971.415300846 0 42890971.415300846 -158339601.07692719 0 0 0 0 612945484.55220032 -4039496.3147525787 0 -4039496.3147525787 -54273715.455533981 0 0 0 0 550021524.90060425 -121473517.80546761 0 -121473517.80546761 18477709.530472755 0 0 0 0 554897099.54776001 32075539.956337929 0 32075539.956337929 -42566967.839006424 0 0 0 0 573781247.79698181 -32570800.504652023 0 -32570800.504652023 -63159644.633145809 0 0 0 0 744124861.15803528 107849618.43050575 0 107849618.43050575 -39434732.783232689 0 0 0 0 598471083.29283524 -659560020.17830539 0 -659560020.17830539 -760927505.85509109 0 0 0 0 1165286771.652359 -39069750.446430206 0 -39069750.446430206 -150442046.79161739 0 0 0 0 345372278.38629913 342124059.42073441 0 342124059.42073441 -131911406.31724358 0 0 0 0 1388096087.8263397 1079124993.8367743 0 1079124993.8367743 379245598.02272034 0 0 0 0 6907667.9917263091 -967422.64998289384 0 -967422.64998289384 -481686.99103227002 0 0 0 0 597413899.40396118 -870333227.20620918 0 -870333227.20620918 406019836.85100269 0 0 0 0 1630686132.0629921 -354004118.73257875 0 -354004118.73257875 465193082.1499176 0 0 0 0 2308785160.9874878 2488965155.7948475 0 2488965155.7948475 3229331454.0024033 0 0 0 0 3981826291.9280701 -187980368.2370491 0 -187980368.2370491 -2680811493.5173798 0 0 0 0 -32278928.156364441 -51858259.553822517 0 -51858259.553822517 -100655777.86610794 0 0 0 0 55358620.172729492 -20803811.535703659 0 -20803811.535703659 -92230212.593322754 0 0 0 0 70961613.903411865 -70887450.865409851 0 -70887450.865409851 -85830561.888273239 0 0 0 0 18099196.40492785 -578879.8910596373 0 -578879.8910596373 -1383125.0332934509 0 0 0 0 140054353.98435974 27692277.270201683 0 27692277.270201683 -354023006.67903519 0 0 0 0 644007244.63424683 -539497216.87465763 0 -539497216.87465763 -1273994008.7021098 0 0 0 0 236793064.88812256 116202864.24377251 0 116202864.24377251 -1379827813.8486898 0 0 0 0 24772734.000559896 1174527.7187223895 0 1174527.7187223895 -2072257.9020977514 0 0 0 0 63523015.034957886 -41530949.411167145 0 -41530949.411167145 -247673940.56815934 0 0 0 0 3906524.6349754333 -9141776.415790081 0 -9141776.415790081 -97640103.608360291 0 0 0 0 48134613.091217041 -25120504.024787903 0 -25120504.024787903 -97923760.305191949 0 0 0 0 -11937127.231613159 -46670435.595287323 0 -46670435.595287323 34551861.80383873 0 0 0 0 38786446.278396606 -61016713.141447067 0 -61016713.141447067 37595057.355246544 0 0 0 0 -794499.0265108645 170016.68223530427 0 170016.68223530427 721663.77429527417 0 0 0 0 12538123.427623749 -34010723.544276834 0 -34010723.544276834 63076529.660619736 0 0 0 0 -3232259.7627716064 -14426829.619922638 0 -14426829.619922638 56653174.900899887 0 0 0 0 22698503.741233826 -52418324.496182919 0 -52418324.496182919 81369590.240886688 0 0 0 0 26346244.496917725 -51726707.506132126 0 -51726707.506132126 84569457.680508241 0 0 0 0 13342491.05657959 -17474016.825740814 0 -17474016.825740814 37278168.734836578 0 0 0 0 777679.4769821167 -17364620.374734879 0 -17364620.374734879 40236381.515115738 0 0 0 0 5324842.2516479492 -11612443.139583111 0 -11612443.139583111 43676295.660942078 0 0 0 0 15338982.378700256 -21497105.448614717 0 -21497105.448614717 36936975.101285934 0 0 0 0 -10174409.910728455 -19919418.900268555 0 -19919418.900268555 45415284.327594757 0 0 0 0 -422207.63140104711 92679.791153423488 0 92679.791153423488 367248.64501364995 0 0 0 0 -16153298.95993042 -48611081.454798698 0 -48611081.454798698 10277986.019231796 0 0 0 0 24964891.721801758 -38767388.084401131 0 -38767388.084401131 -51404183.909420013 0 0 0 0 16638168.114227295 -15311451.66720295 0 -15311451.66720295 -43604578.151403427 0 0 0 0 -2504365.4289093018 -36226966.802633762 0 -36226966.802633762 -64214099.405261993 0 0 0 0 2817125.4158172607 -40424562.248275757 0 -40424562.248275757 -82552047.134262085 0 0 0 0 40704555.819541931 -69097981.639728665 0 -69097981.639728665 -64832867.603733063 0 0 0 0 18876067.708835602 -42398464.901391029 0 -42398464.901391029 -90000534.063064575 0 0 0 0 462333856.89257812 383717752.42290497 0 383717752.42290497 -315009482.56940079 0 0 0 0 28248762.490213156 2458163.2432213211 0 2458163.2432213211 -3288400.5969277364 0 0 0 0 23081548.62512207 -23472056.889237404 0 -23472056.889237404 -114846478.56818771 0 0 0 0 25182429.084741592 2902401.7231917381 0 2902401.7231917381 -41597103.300579071 0 0 0 0 26815219.760360718 -2005511.4064655304 0 -2005511.4064655304 -75837351.491650581 0 0 0 0 -96002458.636795044 70262542.435991526 0 70262542.435991526 356773.06603622437 0 0 0 0 -421802620.80334473 433621547.48356295 0 433621547.48356295 -104116981.421628 0 0 0 0 334914.25677282363 1956047.1217826381 0 1956047.1217826381 -238510.30961938389 0 0 0 0 -43559839.398834229 10934720.947624207 0 10934720.947624207 37906564.901032448 0 0 0 0 -13189701.526702881 -10192819.78401947 0 -10192819.78401947 27817624.770372391 0 0 0 0 -158908885.44286728 307915369.30744767 0 307915369.30744767 70329529.993251801 0 0 0 0 -149682029.68146896 355535377.91217446 0 355535377.91217446 -62798186.114944458 0 0 0 0 -355994576.53286743 162325883.96251345 0 162325883.96251345 -233893650.76200545 0 0 0 0 6762034.017326355 -92944418.517303705 0 -92944418.517303705 -273198093.02313042 0 0 0 0 54455688.343072414 516313714.92698693 0 516313714.92698693 -332684484.85041428 0 0 0 0 508494.23401546478 765867.54074580222 0 765867.54074580222 -389577.4336080458 0 0 0 0 50638280.954864502 365661642.04861164 0 365661642.04861164 -268267097.02313447 0 0 0 0 -319209869.3878479 594980431.636446 0 594980431.636446 -126421329.1600523 0 0 0 0 -531376531.45257568 64063302.332007408 0 64063302.332007408 -447886559.55808258 0 0 0 0 -237456758.52410889 386217369.59252167 0 386217369.59252167 -22489696.086194992 0 0 0 0 -43683104.320617676 362941037.17510033 0 362941037.17510033 -368351123.27720594 0 0 0 0 -134239105.38796997 460629964.43567753 0 460629964.43567753 -103333265.37205887 0 0 0 0 278886524.26095581 487815114.5640049 0 487815114.5640049 -982528119.70317554 0 0 0 0 513159101.1055603 -280803502.73705435 0 -280803502.73705435 177371030.85015297 0 0 0 0 225816033.62783813 239986904.44049072 0 239986904.44049072 -13109088.819553375 0 0 0 0 141790019.019104 155754890.21816087 0 155754890.21816087 273842280.04843521 0 0 0 0 108550330.42272949 185436907.35532188 0 185436907.35532188 -31278195.515620589 0 0 0 0 -117247357.26647949 227294447.94121456 0 227294447.94121456 121547542.83984756 0 0 0 0 -67383490.885223389 351354607.28204441 0 351354607.28204441 -174393448.6706686 0 0 0 0 21528679.30897522 302611095.99056578 0 302611095.99056578 154175494.85911846 0 0 0 0 -22132943.352600098 237671145.45979977 0 237671145.45979977 156789321.36557293 0 0 0 0 150582521.87036133 50629880.25002861 0 50629880.25002861 151316676.07209718 0 0 0 0 51262127.56451416 2015553.8135356903 0 2015553.8135356903 188395196.89010429 0 0 0 0 680109632.58670044 31086827.167464733 0 31086827.167464733 342496544.04563904 0 0 0 0 242776794.50521851 177029308.11602211 0 177029308.11602211 318747591.15149117 0 0 0 0 424400345.59011841 -162398944.03694725 0 -162398944.03694725 304023566.57755429 0 0 0 0 492920242.20663452 -44855460.839314461 0 -44855460.839314461 214796659.39607441 0 0 0 0 499955328.52798462 -108598954.29439545 0 -108598954.29439545 422367557.73781776 0 0 0 0 1053393180.2567139 -83316823.308044434 0 -83316823.308044434 234896598.82667732 0 0 0 0 770190474.83856201 -191874192.86320829 0 -191874192.86320829 333715939.51706791 0 0 0 0 615483628.39901733 -27518664.619172096 0 -27518664.619172096 206169382.46622467 0 0 0 0 752714489.79718018 7009052.4606027603 0 7009052.4606027603 313651298.12611389 0 0 0 0 968594913.94238281 -235824483.07809234 0 -235824483.07809234 245654590.63494045 0 0 0 0 474032739.46347046 -179842835.46622562 0 -179842835.46622562 215879985.45077515 0 0 0 0 217530657.84860229 23521149.347885132 0 23521149.347885132 130310626.83034897 0 0 0 0 54651796.616638184 106532520.14987898 0 106532520.14987898 169524558.78295326 0 0 0 0 207381763.71810913 20558025.952999115 0 20558025.952999115 313384879.36423874 0 0 0 0 122686071.59014893 -63406073.983785629 0 -63406073.983785629 174333354.15167615 0 0 0 0 -108200033.224823 71554495.438683987 0 71554495.438683987 232329018.83441544 0 0 0 0 -292092634.22375488 113853194.51273918 0 113853194.51273918 155464383.94602871 0 0 0 0 -96538983.033691406 133845998.35168839 0 133845998.35168839 24141148.083642006 0 0 0 0 -88973465.94342041 26218824.484454393 0 26218824.484454393 78926660.445379019 0 0 0 0 -372239409.54907227 125727703.83809447 0 125727703.83809447 92316650.345837116 0 0 0 0 -273793478.96084595 130011432.27406073 0 130011432.27406073 -1104332.8064880371 0 0 0 0 -394028477.6072998 137796518.55488348 0 137796518.55488348 26359508.071852207 0 0 0 0 -277800307.05776978 231600909.80288506 0 231600909.80288506 -205226171.16572666 0 0 0 0 -74186322.879699707 213199026.35239553 0 213199026.35239553 -116612972.90298796 0 0 0 0 -71607432.696105957 156915133.2369175 0 156915133.2369175 29914827.430617213 0 0 0 0 -298749764.54079437 173867183.8317064 0 173867183.8317064 97104740.189234734 0 0 0 0 2343593534.0423889 356669662.9622736 0 356669662.9622736 -819297658.71909523 0 0 0 0 520977866.70916748 -1129544515.979393 0 -1129544515.979393 700668794.53913307 0 0 0 0 1256503702.5510178 -16689018.336240292 0 -16689018.336240292 876261903.24480438 0 0 0 0 1381034073.894104 -498951756.35343194 0 -498951756.35343194 625442023.76923752 0 0 0 0 977048125.46931458 377068215.29125452 0 377068215.29125452 1155505615.3841324 0 0 0 0 653075.57178930566 1132353.1451459751 0 1132353.1451459751 3713353.9505722597 0 0 0 0 462020304.80351257 -735835632.20824814 0 -735835632.20824814 422548272.38861465 0 0 0 0 -220041504.48815918 -792713291.11322689 0 -792713291.11322689 688951841.24944496 0 0 0 0 438184116.79977417 -704825519.79217172 0 -704825519.79217172 529946553.86436081 0 0 0 0 -232726321.74952698 -283351743.13084543 0 -283351743.13084543 -568177897.13647032 0 0 0 0 549779270.853508 -942762358.83946753 0 -942762358.83946753 -269586076.69658089 0 0 0 0 -286358262.61196899 -683297680.82873964 0 -683297680.82873964 610666458.84619856 0 0 0 0 -1017167462.5014648 -472096351.93790829 0 -472096351.93790829 154106648.71579158 0 0 0 0 518921.89888273552 822443.74069178849 0 822443.74069178849 1625233.3352723713 0 0 0 0 -170771213.44750214 -943007118.68353605 0 -943007118.68353605 392307965.88652229 0 0 0 0 3202616041.6556091 -371211319.61127853 0 -371211319.61127853 -115956459.15095901 0 0 0 0 -246256133.78336334 -726984534.76239014 0 -726984534.76239014 558912532.63922024 0 0 0 0 820638033.94555664 76821132.947894573 0 76821132.947894573 -526767638.4149456 0 0 0 0 39684695.021575928 -604375765.70129776 0 -604375765.70129776 780453264.63525963 0 0 0 0 801336649.78729248 214682759.02457428 0 214682759.02457428 -189939074.40435028 0 0 0 0 -320390659.45684814 260707655.16467571 0 260707655.16467571 51875586.686367035 0 0 0 0 1794537638.5927734 -1070883829.172647 0 -1070883829.172647 417563953.86986113 0 0 0 0 762711626.1496582 -55348713.717959881 0 -55348713.717959881 329174304.88583565 0 0 0 0 1059019915.960022 -422028747.83056784 0 -422028747.83056784 320210865.82573676 0 0 0 0 1592200304.7077408 -170142732.5619489 0 -170142732.5619489 103098367.05457497 0 0 0 0 1737998793.9705734 -417422553.21686029 0 -417422553.21686029 -25652132.223876953 0 0 0 0 2320581197.6268692 -733628977.17380261 0 -733628977.17380261 165815004.61424828 0 0 0 0 2052002510.6869507 176647748.90378976 0 176647748.90378976 161385434.79582214 0 0 0 0 1588537388.8048401 -153803766.41342354 0 -153803766.41342354 102330687.36300373 0 0 0 0 1053613760.1668091 -91436436.447988033 0 -91436436.447988033 521824453.71038532 0 0 0 0 1670981985.521492 -136320843.91487163 0 -136320843.91487163 29909248.103182435 0 0 0 0 1347304168.7924805 -176617467.44472122 0 -176617467.44472122 214012524.0460515 0 0 0 0 972567856.32608032 -93864941.599304199 0 -93864941.599304199 402980312.53361511 0 0 0 0 1331876087.5048389 -8128814.5918377936 0 -8128814.5918377936 789112863.64702988 0 0 0 0 1123472103.4126587 473061493.86227441 0 473061493.86227441 202914405.68429059 0 0 0 0 -14431917.763153076 15571293.177828431 0 15571293.177828431 -5693516.1024190187 0 0 0 0 4895827.3359596729 1532936.7445950359 0 1532936.7445950359 606573.78229236254 0 0 0 0 853365.53018157184 -212783.01947496645 0 -212783.01947496645 134905.64281789534 0 0 0 0 -90203207.464704514 -245142357.99540672 0 -245142357.99540672 -569333817.70468211 0 0 0 0 1633928729.6183167 -398594519.23668718 0 -398594519.23668718 90252946.994095802 0 0 0 0 1648012.1150518712 743360.23391336203 0 743360.23391336203 4634741.9283229476 0 0 0 0 13773320.092037037 -2262377.3491473142 0 -2262377.3491473142 -1628732.9445173126 0 0 0 0 -16853949.682037354 -624566434.11280274 0 -624566434.11280274 -267575887.17922664 0 0 0 0 -9373491.9157104492 30908938.569257736 0 30908938.569257736 -1593220.3483347893 0 0 0 0 -7078126.0792541504 27012638.324274063 0 27012638.324274063 -24480805.827455342 0 0 0 0 1627023.8140258789 17786484.159976482 0 17786484.159976482 -17695129.232850432 0 0 0 0 19671265.023254395 40037919.905009508 0 40037919.905009508 1406733.0566072464 0 0 0 0 30504508.438853264 66228211.94461862 0 66228211.94461862 -77270104.597323179 0 0 0 0 1030914196.4476318 228723301.83681703 0 228723301.83681703 -2338472742.1506176 0 0 0 0 19198140.650178999 -32110.802620688453 0 -32110.802620688453 -2095535.8020794822 0 0 0 0 16571343.352539062 -7938746.3761942387 0 -7938746.3761942387 2805914.756575048 0 0 0 0 6413629.1402587891 -7185832.4218713045 0 -7185832.4218713045 13435541.771278381 0 0 0 0 9549122.4641113281 1136525.5029961169 0 1136525.5029961169 -6986412.8382256031 0 0 0 0 21479797.690887451 -14449379.037154913 0 -14449379.037154913 9659155.5830891132 0 0 0 0 10542256.633209229 -14055829.284944296 0 -14055829.284944296 24806957.727723122 0 0 0 0 6014291.7293596268 5928560.1056507062 0 5928560.1056507062 26350680.659433365 0 0 0 0 -5750650.7843933105 8985950.7425256968 0 8985950.7425256968 44365723.198134422 0 0 0 0 -6995305.8555374146 18062363.711128682 0 18062363.711128682 7955637.0226378441 0 0 0 0 -16363355.717224121 18375793.830629647 0 18375793.830629647 3405274.093642354 0 0 0 0 -16585315.733809948 7151346.8828437338 0 7151346.8828437338 892105.91904723644 0 0 0 0 -14387436.403289795 14791991.414197922 0 14791991.414197922 7705987.9437396526 0 0 0 0 -16514817.357177734 9920218.5493811369 0 9920218.5493811369 18327970.439439416 0 0 0 0 -50216084.829696655 13138896.94979918 0 13138896.94979918 9201202.5766136646 0 0 0 0 1344446337.5827179 140770211.98813415 0 140770211.98813415 -59147430.003367126 0 0 0 0 3022457.3808528921 1617126.0130802169 0 1617126.0130802169 274308.92299680738 0 0 0 0 1525615425.7033386 -31254033.573931932 0 -31254033.573931932 -26295518.386867046 0 0 0 0 1110061465.0007477 62717290.287554622 0 62717290.287554622 -23543376.7105093 0 0 0 0 1115374482.731781 -14294496.567475379 0 -14294496.567475379 -60023449.828991771 0 0 0 0 1024524201.3437767 44857681.895200446 0 44857681.895200446 57515893.488001406 0 0 0 0 1025015389.5977955 42465104.45536536 0 42465104.45536536 -73583515.274675548 0 0 0 0 1041698435.6931152 115614211.54615623 0 115614211.54615623 39690.177735032703 0 0 0 0 -115599847.66242981 152073523.65916401 0 152073523.65916401 948400.34595548385 0 0 0 0 1320256066.2907257 30472116.886160493 0 30472116.886160493 -79751656.293229997 0 0 0 0 2358789.0432542479 1111392.573579438 0 1111392.573579438 90918.81731425348 0 0 0 0 2996877.1763305664 15550256.090514928 0 15550256.090514928 -21569579.743379951 0 0 0 0 18466429.595275879 -10322110.42252627 0 -10322110.42252627 -2162086.6478815228 0 0 0 0 276490.88675438613 110403.5209594816 0 110403.5209594816 -99324.273705510001 0 0 0 0 8854288.5719604492 1080990.8845534518 0 1080990.8845534518 24005.230801549169 0 0 0 0 -2223057.2489929199 -25001825.270255499 0 -25001825.270255499 3231524.4716769457 0 0 0 0 25380413.075241089 -21758192.80071095 0 -21758192.80071095 -4680990.0868299222 0 0 0 0 464766.97476395965 281587.84743875265 0 281587.84743875265 31933.197648774672 0 0 0 0 16753210.566375732 -14001581.904590696 0 -14001581.904590696 1440045.6688272059 0 0 0 0 55650148.89478302 -12962274.481185364 0 -12962274.481185364 -4299280.3280405598 0 0 0 0 -73564687.318382263 -12477175.774516109 0 -12477175.774516109 37465087.347361319 0 0 0 0 149489765.12989807 50740213.833945155 0 50740213.833945155 86436506.548470497 0 0 0 0 -28019659.375045776 -85482760.066395834 0 -85482760.066395834 99759054.767575249 0 0 0 0 -431902626.25492096 77419571.993331507 0 77419571.993331507 119547317.54280078 0 0 0 0 -113174803.18179321 -26130346.407517195 0 -26130346.407517195 35470107.382638454 0 0 0 0 -326229347.7564621 41324554.113135457 0 41324554.113135457 53136946.785701752 0 0 0 0 -297953338.93260956 100068203.03081059 0 100068203.03081059 132247795.62866068 0 0 0 0 -109226918.66467285 1383509.4106576592 0 1383509.4106576592 173488965.35516167 0 0 0 0 152597756.12896729 -15185328.682379007 0 -15185328.682379007 86794375.178316116 0 0 0 0 -68344403.186523438 71933099.105998993 0 71933099.105998993 169730754.02724695 0 0 0 0 404809198.22918701 -102375202.8501215 0 -102375202.8501215 78856083.5941571 0 0 0 0 260822917.02403259 48982783.733653426 0 48982783.733653426 150836952.67929649 0 0 0 0 140654348.37885666 -39635524.84771207 0 -39635524.84771207 208738200.62525988 0 0 0 0 959877814.62466431 -199239680.63625777 0 -199239680.63625777 82464674.508221805 0 0 0 0 825012733.28816223 97489737.256205857 0 97489737.256205857 38113072.046985894 0 0 0 0 477937976.58595276 7738940.5563097596 0 7738940.5563097596 75963647.9240098 0 0 0 0 712639038.3943634 -104564584.84440629 0 -104564584.84440629 -18715432.772925407 0 0 0 0 351108885.02337646 114358898.82030919 0 114358898.82030919 35470191.479013145 0 0 0 0 754354165.20956421 -64833494.429602794 0 -64833494.429602794 16145499.898146182 0 0 0 0 625113781.38927841 124703668.07977515 0 124703668.07977515 -4439.6310988995683 0 0 0 0 148139507.47045898 -104647244.68706381 0 -104647244.68706381 18031378.533230156 0 0 0 0 5641030.769618988 135893847.18665451 0 135893847.18665451 -242166.4837849178 0 0 0 0 -92670295.251808167 48842588.106863298 0 48842588.106863298 -25091910.748873472 0 0 0 0 -646086821.53388977 -121274705.17978206 0 -121274705.17978206 59595127.280704916 0 0 0 0 11103018.646347046 16900735.488147687 0 16900735.488147687 35890.6206434142 0 0 0 0 18796255.669326782 20508707.15121004 0 20508707.15121004 -20046799.272597916 0 0 0 0 114789.28110036999 773613.69133829325 0 773613.69133829325 78468.93650246461 0 0 0 0 24468950.182922363 6228869.6300164387 0 6228869.6300164387 -5637762.38772301 0 0 0 0 21771981.809143066 10662490.684044868 0 10662490.684044868 -9865655.7737954631 0 0 0 0 21613946.685055733 7469402.2111244164 0 7469402.2111244164 -2990630.6222726833 0 0 0 0 21745978.600341797 6422533.3036566405 0 6422533.3036566405 -4081228.5809911136 0 0 0 0 22093586.158081055 7047140.1574189849 0 7047140.1574189849 -4625980.6128485501 0 0 0 0 21703500.261123657 7647428.261024843 0 7647428.261024843 -1522998.0049687102 0 0 0 0 18647944.060028076 7889052.1473551132 0 7889052.1473551132 -1152533.3329973854 0 0 0 0 22702240.810661316 6033815.7082474101 0 6033815.7082474101 -3940327.1335845292 0 0 0 0 122907.48069012351 226358.44332905114 0 226358.44332905114 24134.764329376492 0 0 0 0 15086795.680511475 -6253704.7349902168 0 -6253704.7349902168 25711943.360052824 0 0 0 0 25032521.989639282 5504990.6194066973 0 5504990.6194066973 -4831613.5877150372 0 0 0 0 23745816.37890625 4801071.2896567024 0 4801071.2896567024 -1796878.3741131052 0 0 0 0 19833455.014556885 4889031.313508831 0 4889031.313508831 -340516.83013737947 0 0 0 0 8696180.9972686768 5836584.3870058917 0 5836584.3870058917 3176311.3759761453 0 0 0 0 -584531086.91703796 -109021454.68577796 0 -109021454.68577796 65421532.084563017 0 0 0 0 532327.22566667199 1499630.4347619265 0 1499630.4347619265 -487037.68839480291 0 0 0 0 346058.98303010128 1069885.2958062217 0 1069885.2958062217 143315.71170320001 0 0 0 0 16724776.574676514 8911179.2634864748 0 8911179.2634864748 -13501605.4898085 0 0 0 0 30301688.447296143 7041030.9732319228 0 7041030.9732319228 -4199828.9304331094 0 0 0 0 25519802.292633057 11802081.26980046 0 11802081.26980046 -1627891.1883795522 0 0 0 0 15416596.983383179 12456602.9690267 0 12456602.9690267 2223080.9914918877 0 0 0 0 1217760.9195874482 540803.78850975633 0 540803.78850975633 -1446080.470460206 0 0 0 0 35837403.287322998 -6282142.7275316268 0 -6282142.7275316268 -3775474.7295360714 0 0 0 0 1699316.5917205811 6010217.8439040128 0 6010217.8439040128 -365564.8233357463 0 0 0 0 655695.70096334815 3064581.2826628163 0 3064581.2826628163 268226.55143603915 0 0 0 0 -387613626.56442261 88693229.95178318 0 88693229.95178318 45893762.925844669 0 0 0 0 -435649483.75662994 59484732.654234022 0 59484732.654234022 42736668.031142235 0 0 0 0 1393716.4392804243 1309748.8271122128 0 1309748.8271122128 -1238740.571704769 0 0 0 0 17024194.060516357 9034756.6622966602 0 9034756.6622966602 1342165.1133646071 0 0 0 0 18827569.910812378 3895595.7701256685 0 3895595.7701256685 807213.02335797995 0 0 0 0 35691295.161727905 4026680.723038502 0 4026680.723038502 -2728872.3492617607 0 0 0 0 26040369.580947876 8488643.392211251 0 8488643.392211251 2898586.5111644268 0 0 0 0 27475663.725982666 459229.52778173052 0 459229.52778173052 -1400107.5618693195 0 0 0 0 22739992.802581787 3650878.1442638822 0 3650878.1442638822 5818580.9670893336 0 0 0 0 18962.711507052183 12096.594228776172 0 12096.594228776172 -14979.461671222285 0 0 0 0 19841971.278186798 11514059.823374117 0 11514059.823374117 7130884.5043427423 0 0 0 0 11931255.602767944 -7535335.8861337425 0 -7535335.8861337425 -15619833.994430955 0 0 0 0 20012247.420318604 4114071.1678723292 0 4114071.1678723292 -3076792.3731548451 0 0 0 0 22401609.9034729 3459892.2662366293 0 3459892.2662366293 -4074422.5104541872 0 0 0 0 16005442.440948486 2164731.1651915521 0 2164731.1651915521 -3002681.2005324475 0 0 0 0 20629249.571289062 6049578.8511432623 0 6049578.8511432623 -24326.881651785519 0 0 0 0 11970625.031219482 3465160.1896271347 0 3465160.1896271347 18143.945225795658 0 0 0 0 10645816.744247437 2460771.0042737843 0 2460771.0042737843 477121.46428251825 0 0 0 0 9698.672247633338 7567.028430916369 0 7567.028430916369 -1341.9531605617567 0 0 0 0 2409343.1222229004 5742710.317394224 0 5742710.317394224 8408517.0231120121 0 0 0 0 -663513.43017578125 -964187.07606445276 0 -964187.07606445276 -4030.9528433186497 0 0 0 0 716200.34927368164 1088206.7428612849 0 1088206.7428612849 5289797.9460399225 0 0 0 0 3230280.802947998 4107103.0777603919 0 4107103.0777603919 351025.2236770317 0 0 0 0 2387090.276550293 249725.62861218001 0 249725.62861218001 -2893325.7100603785 0 0 0 0 3640648.7270202637 -1297808.198186798 0 -1297808.198186798 -503638.36827875813 0 0 0 0 -340542.83560180664 460688.85221452639 0 460688.85221452639 -1276984.0635397877 0 0 0 0 17519203.211349487 11777198.686025729 0 11777198.686025729 1815696.8971161004 0 0 0 0 219058.92590332031 -830462.96729729464 0 -830462.96729729464 -2237042.8351976182 0 0 0 0 1987926.8968162537 3365013.2172877206 0 3365013.2172877206 1057595.8452315908 0 0 0 0 1632606.4365844727 -2635076.1344802021 0 -2635076.1344802021 8057.8582799014766 0 0 0 0 19476.875026851892 7221.1450901143253 0 7221.1450901143253 -4724.2449915733223 0 0 0 0 -193452.49938964844 3225965.944148791 0 3225965.944148791 1049586.3743563769 0 0 0 0 769578.09727478027 506763.78470195364 0 506763.78470195364 -2936550.0563471969 0 0 0 0 14774.49200874567 5449.5241827256978 0 5449.5241827256978 -4773.6119680296597 0 0 0 0 3476746.648223877 2078808.5489403177 0 2078808.5489403177 -6688311.1122200936 0 0 0 0 28464798.833496094 12773590.59291641 0 12773590.59291641 1814003.2137026235 0 0 0 0 1064060.4259643555 1946245.0888314517 0 1946245.0888314517 -3186582.3774889512 0 0 0 0 527019.19769287109 1397368.1246318724 0 1397368.1246318724 -4787503.490281078 0 0 0 0 -1836017.050031662 493895.97999174183 0 493895.97999174183 -3856670.1340001803 0 0 0 0 1283401.3520507812 1944117.7674076483 0 1944117.7674076483 -4150005.8260936583 0 0 0 0 -10651.058563232422 923313.90565069765 0 923313.90565069765 -967921.94134699553 0 0 0 0 200333.83501443267 270420.47295052558 0 270420.47295052558 -244968.86218857067 0 0 0 0 829365.00222396851 714956.42159630428 0 714956.42159630428 -5448715.1785864457 0 0 0 0 22746374.207748413 -51136684.174997702 0 -51136684.174997702 -15536770.081061602 0 0 0 0 24138987.262969971 -1592829.898542963 0 -1592829.898542963 112374.62105087936 0 0 0 0 -45842.373345151544 -98361.65585209243 0 -98361.65585209243 137591.87573593311 0 0 0 0 66374969.760528564 1362012.4622123539 0 1362012.4622123539 -583712.86423119903 0 0 0 0 300038.90762412548 -29069.970061682165 0 -29069.970061682165 102888.72335719633 0 0 0 0 1784164.199005127 -2070696.8762490116 0 -2070696.8762490116 -12193037.434153333 0 0 0 0 63174.786876231432 70224.401718182489 0 70224.401718182489 -71104.010655192673 0 0 0 0 2817833.2233886719 3773279.9540448184 0 3773279.9540448184 -6666415.7162308674 0 0 0 0 77190.459457397461 578902.07412826642 0 578902.07412826642 -14717.05910924077 0 0 0 0 1277205.9814147949 2672146.1580420285 0 2672146.1580420285 2341459.5486972854 0 0 0 0 3514782.1272888184 1660600.6518941522 0 1660600.6518941522 1023340.4080879726 0 0 0 0 3446271.7629394531 1509299.4682002999 0 1509299.4682002999 2145901.5142763108 0 0 0 0 7135613.2186279297 6069925.1779495478 0 6069925.1779495478 3854238.0587300286 0 0 0 0 5975054.9945678711 6217819.8511362672 0 6217819.8511362672 5943133.4599974826 0 0 0 0 10061891.152633667 4022278.0882003494 0 4022278.0882003494 -277332.24395962059 0 0 0 0 8725905.4864807129 3501093.9099041 0 3501093.9099041 -1921255.479463011 0 0 0 0 11514597.919845581 6176626.7396073714 0 6176626.7396073714 -403573.24851074815 0 0 0 0 8683348.2140808105 3827810.9925123453 0 3827810.9925123453 -3004179.6884368658 0 0 0 0 5130645.9971923828 2348859.5564710461 0 2348859.5564710461 -925818.48258247972 0 0 0 0 3647101.979927063 1654840.3011019118 0 1654840.3011019118 -3499094.8652765602 0 0 0 0 -478565.70709228516 1735965.6844872236 0 1735965.6844872236 793279.60522770137 0 0 0 0 5114667.4984130859 4372049.7505834252 0 4372049.7505834252 549338.18675001711 0 0 0 0 -46495901.254608154 25650049.127296746 0 25650049.127296746 13587822.316840708 0 0 0 0 4832429.9558677673 4262220.9829689469 0 4262220.9829689469 -2100414.4230568856 0 0 0 0 2826675.8014399186 -1061650.5518126786 0 -1061650.5518126786 20825.19470823741 0 0 0 0 4600753.7199878693 582569.01744251978 0 582569.01744251978 -5927141.3114292622 0 0 0 0 367729.7732463181 424972.95476042852 0 424972.95476042852 -310410.38983362645 0 0 0 0 5844812.48828125 6733141.3463165164 0 6733141.3463165164 -3429103.9485720396 0 0 0 0 8002030.8509521484 2685639.0739350617 0 2685639.0739350617 -4143010.0833706856 0 0 0 0 11041823.030883789 3896849.1230463386 0 3896849.1230463386 -6733910.0689629316 0 0 0 0 12614324.06918335 3697516.2609724849 0 3697516.2609724849 -4766178.3079231083 0 0 0 0 10912436.52784729 4139722.4817464612 0 4139722.4817464612 -4129497.6490341425 0 0 0 0 10392545.813171387 4933475.2483268529 0 4933475.2483268529 -2637005.7726253271 0 0 0 0 6985143.2491455078 4282677.1923249587 0 4282677.1923249587 -2336227.887490809 0 0 0 0 -12276330.790527344 -26146703.972238302 0 -26146703.972238302 13534891.072272837 0 0 0 0 60623019.258148193 -40078059.772200808 0 -40078059.772200808 -12878517.774510652 0 0 0 0 26935966.123016357 -5001523.7337189913 0 -5001523.7337189913 20793903.208312452 0 0 0 0 1359361.877012983 -554085.48609413207 0 -554085.48609413207 403916.032778066 0 0 0 0 -448546.72515869141 1750339.4221795052 0 1750339.4221795052 -435099.51949459314 0 0 0 0 8505403.4019546509 53488456.876981214 0 53488456.876981214 -20141629.468757749 0 0 0 0 116393388.75720215 -13648187.752627239 0 -13648187.752627239 -43645523.635009088 0 0 0 0 -43738714.929344177 43450941.101210535 0 43450941.101210535 89575807.859890282 0 0 0 0 -47288042.013244629 -42282177.563767858 0 -42282177.563767858 87649121.37280491 0 0 0 0 83740984.853118896 -83171312.909727901 0 -83171312.909727901 51881914.491843082 0 0 0 0 -7792992.4552764893 -118732.99220316857 0 -118732.99220316857 42166889.67460072 0 0 0 0 50661.258674025536 177608.98519458622 0 177608.98519458622 217979.29073608093 0 0 0 0 10895548.404266357 -14433775.603880227 0 -14433775.603880227 -12115933.862948149 0 0 0 0 14111428.691833496 55157402.290737182 0 55157402.290737182 14011218.726622447 0 0 0 0 16953842.360626221 18521489.911553059 0 18521489.911553059 -89525206.030522645 0 0 0 0 463668.4191865325 -1365130.0981081808 0 -1365130.0981081808 -136075.34493299382 0 0 0 0 3579418.0897521973 -421044.55202102661 0 -421044.55202102661 -7647865.4992586374 0 0 0 0 5876841.2828974426 -2869831.608137832 0 -2869831.608137832 -846583.5641902769 0 0 0 0 5037186.1374739259 309044.14731339738 0 309044.14731339738 -1173393.4567092909 0 0 0 0 102269882.36249542 -68463479.645589918 0 -68463479.645589918 -101537710.64839274 0 0 0 0 -3011633.8809204102 -42132218.087005138 0 -42132218.087005138 96824484.248843312 0 0 0 0 8161669.2777730674 -2784612.9780097473 0 -2784612.9780097473 -70234.22107655555 0 0 0 0 -19410475.094085693 -28330041.125883102 0 -28330041.125883102 198740829.38862371 0 0 0 0 12632733.756713867 -35437446.595925093 0 -35437446.595925093 76619402.919567108 0 0 0 0 9766693.8305664062 4425598.6988598108 0 4425598.6988598108 -3705145.4819571339 0 0 0 0 4055650.6250762939 -672518.43946281075 0 -672518.43946281075 -4793602.1013151407 0 0 0 0 7863376.5556796342 -473067.3810878247 0 -473067.3810878247 -803233.18679826753 0 0 0 0 11005752.366760254 4612508.2688509822 0 4612508.2688509822 -3805067.2834656239 0 0 0 0 12000332.328826904 4949259.676562041 0 4949259.676562041 -5071418.4474524856 0 0 0 0 2464568.2972717285 851520.3821606636 0 851520.3821606636 -3229539.5822627544 0 0 0 0 4562030.8536935598 -955316.76060536318 0 -955316.76060536318 -316163.62051501952 0 0 0 0 -43979707.341125488 -48916850.539712831 0 -48916850.539712831 -29391864.297875151 0 0 0 0 22832906.961006165 -33554977.756583214 0 -33554977.756583214 34354439.652238846 0 0 0 0 23222080.753158569 -34170984.91519165 0 -34170984.91519165 29458989.811705947 0 0 0 0 5388310.5594696105 -638067.46228974313 0 -638067.46228974313 -1701916.8627564376 0 0 0 0 8549144.9549865723 -3401073.5818247795 0 -3401073.5818247795 -8085129.3963314891 0 0 0 0 8810412.5282568932 1053021.2168480912 0 1053021.2168480912 -3674709.0589044932 0 0 0 0 8308099.3462512791 -3243621.6515988037 0 -3243621.6515988037 -3482735.8918340662 0 0 0 0 14557193.218414307 2087398.4140338898 0 2087398.4140338898 -4756051.8620157242 0 0 0 0 15353655.732543945 2321407.749239251 0 2321407.749239251 -4314704.6114822775 0 0 0 0 10738868.97044754 2639800.1693592444 0 2639800.1693592444 -4149881.7102310956 0 0 0 0 12123832.579345703 3561334.6060918272 0 3561334.6060918272 -4424706.5676320791 0 0 0 0 18009963.959442139 -300245.54554529488 0 -300245.54554529488 -5027855.1905705184 0 0 0 0 16623512.088088989 2678247.8003774509 0 2678247.8003774509 -5226055.1044696122 0 0 0 0 10873854.513292477 -1247292.934022137 0 -1247292.934022137 -4899408.7128299121 0 0 0 0 14753225.733697891 -1079065.6317825709 0 -1079065.6317825709 -3436202.2075956464 0 0 0 0 10952856.530395508 -1206768.8438344002 0 -1206768.8438344002 -15953461.336116076 0 0 0 0 4012471.5214538574 816953.88957262039 0 816953.88957262039 -3895722.5424418449 0 0 0 0 7198492.5426330566 3387183.8089494109 0 3387183.8089494109 -10780239.716976881 0 0 0 0 -639929.47216796875 305163.93191480637 0 305163.93191480637 -16113898.499911785 0 0 0 0 4044869.0366821289 -3823899.3494205475 0 -3823899.3494205475 -2980481.6281871796 0 0 0 0 4035392.7573242188 -3793780.3469772339 0 -3793780.3469772339 -976129.73340845108 0 0 0 0 51925317.696563721 21160502.675112724 0 21160502.675112724 -35635078.370700836 0 0 0 0 8447881.4521184377 3179759.4503993392 0 3179759.4503993392 -5704970.6387275588 0 0 0 0 -33198.087911471725 246256.02361528529 0 246256.02361528529 -244153.17858537514 0 0 0 0 19226344.756654121 870314.06791740656 0 870314.06791740656 -3983862.5173535594 0 0 0 0 33036520.826812744 -13608550.07998991 0 -13608550.07998991 -8532551.174282074 0 0 0 0 26632695.937306691 6428027.4705624059 0 6428027.4705624059 -8339649.8800884383 0 0 0 0 22792190.8671875 -9060801.7329864502 0 -9060801.7329864502 -6573285.7623319626 0 0 0 0 25496256.30859375 -14041646.462005615 0 -14041646.462005615 -7822452.1651687622 0 0 0 0 14534856.986995786 -8495183.6954383049 0 -8495183.6954383049 -4969323.2616506666 0 0 0 0 1179928.1195300445 -7034.2451568618417 0 -7034.2451568618417 -858462.21578448266 0 0 0 0 30597217.368164062 27518787.370891571 0 27518787.370891571 -29954866.638679504 0 0 0 0 22809295.228149414 38416872.994491577 0 38416872.994491577 -124210357.06650114 0 0 0 0 30465738.26847899 1894064.5153387587 0 1894064.5153387587 -6777649.577459259 0 0 0 0 -16250736.77947998 74222762.49829483 0 74222762.49829483 -95081168.913379669 0 0 0 0 27927847.139404297 9632537.0301971436 0 9632537.0301971436 -88639070.684331894 0 0 0 0 10687650.672851562 -28170729.623399734 0 -28170729.623399734 -62213746.085323334 0 0 0 0 10450856.309875488 34440209.906311035 0 34440209.906311035 -71325585.321304321 0 0 0 0 21874574.131896973 13423014.318824768 0 13423014.318824768 -37778927.894964218 0 0 0 0 4428956.4418945312 23940810.402614594 0 23940810.402614594 -23373880.852046967 0 0 0 0 2488019.052734375 28045840.986534119 0 28045840.986534119 -26982125.238620758 0 0 0 0 -120196.44787597656 25090061.533794403 0 25090061.533794403 -19413756.169540405 0 0 0 0 -4506180.8711547852 34280440.685302734 0 34280440.685302734 -37622047.88276577 0 0 0 0 -169277.79209899902 32567886.266315937 0 32567886.266315937 -37344305.126182556 0 0 0 0 12262972.117614746 22082052.867529869 0 22082052.867529869 -3172816.3156318665 0 0 0 0 -1157618.1463009678 958750.16756718606 0 958750.16756718606 180902.00114991888 0 0 0 0 -46061130.807811737 49383202.377898216 0 49383202.377898216 -8138825.0779914856 0 0 0 0 -21297595.99609375 25676368.853740692 0 25676368.853740692 12949656.586468697 0 0 0 0 -15731482.169754028 37637481.62669611 0 37637481.62669611 -4548352.4970664978 0 0 0 0 1117699.4603271484 21446549.399707794 0 21446549.399707794 -16666155.792205811 0 0 0 0 -11361903.442382812 32067712.635093689 0 32067712.635093689 2071869.9547767639 0 0 0 0 -2534260.7111968994 31160702.906897068 0 31160702.906897068 2054307.4729537964 0 0 0 0 -4661693.3551025391 19284425.032243729 0 19284425.032243729 5331530.7879719734 0 0 0 0 -10609121.037750244 18267528.964085579 0 18267528.964085579 5176604.6749267578 0 0 0 0 -12792784.61315918 18353071.764392853 0 18353071.764392853 11863659.347268343 0 0 0 0 -19528588.600105286 13464224.847673416 0 13464224.847673416 9379975.050655365 0 0 0 0 52727790.69355011 2701698.5957891345 0 2701698.5957891345 1728365.7103061676 0 0 0 0 54139473.736968994 19149165.605332851 0 19149165.605332851 -156447.43829727173 0 0 0 0 -19974421.327911377 38978660.55576992 0 38978660.55576992 11458873.164087057 0 0 0 0 8651843.6007893831 -269462.93425498158 0 -269462.93425498158 -2452706.3872173256 0 0 0 0 5279727.5185435191 3881473.8212180436 0 3881473.8212180436 -3356358.8194547044 0 0 0 0 19168030.328979492 -49687.97295165062 0 -49687.97295165062 -5434279.8413514942 0 0 0 0 27056588.010925293 -6789295.6051559448 0 -6789295.6051559448 -5183835.2704620361 0 0 0 0 -44953770.054870605 -3900783.4349498749 0 -3900783.4349498749 27882503.797348022 0 0 0 0 38285477.797637939 13659840.128333569 0 13659840.128333569 -111857.57197284698 0 0 0 0 6476157.7757566273 -881253.77368546277 0 -881253.77368546277 -3437192.199639855 0 0 0 0 20865862.64666748 -509127.50563061982 0 -509127.50563061982 -5495098.9120600224 0 0 0 0 15925665.696723938 -4086012.8003702424 0 -4086012.8003702424 -3212264.4087680429 0 0 0 0 -6980660.2650146484 9434914.3594856262 0 9434914.3594856262 -8917453.2549114227 0 0 0 0 -980849.24845157564 2971437.6657362953 0 2971437.6657362953 155325.03064294253 0 0 0 0 -9004031.059967041 10908856.916643143 0 10908856.916643143 2269601.9601097107 0 0 0 0 -11334898.705047607 15357550.364103317 0 15357550.364103317 1455694.7172884941 0 0 0 0 5649988.4090270996 8342997.5332422256 0 8342997.5332422256 430025.01226043701 0 0 0 0 -6395749.0207214355 15085269.869153976 0 15085269.869153976 -9801876.8437728882 0 0 0 0 -19602035.989257812 3585905.8674793243 0 3585905.8674793243 4907759.5036582947 0 0 0 0 1733052.5498823598 6365338.3177286014 0 6365338.3177286014 -1513549.190658953 0 0 0 0 639443.58361519128 -345659.60804600269 0 -345659.60804600269 -289775.3192932941 0 0 0 0 -404082534.63143158 206618883.70612246 0 206618883.70612246 -28166009.776361465 0 0 0 0 3603937.8113708496 2049912.6684792042 0 2049912.6684792042 218929.50117111206 0 0 0 0 38172738.221817017 6016487.6187567711 0 6016487.6187567711 922697.22930145264 0 0 0 0 640475.21570308506 5587301.9265182912 0 5587301.9265182912 -3525878.4421497518 0 0 0 0 -373579071.85427856 99792348.797079563 0 99792348.797079563 -57836137.480831027 0 0 0 0 24045456.809539795 -6641752.7384149507 0 -6641752.7384149507 -3060405.3989855573 0 0 0 0 26664950.800434113 1506860.9274184871 0 1506860.9274184871 -5263810.4766901135 0 0 0 0 22811972.99520874 2102949.6188264042 0 2102949.6188264042 -2813255.253823828 0 0 0 0 22827291.519555986 5650419.6895714849 0 5650419.6895714849 -2901391.8759282529 0 0 0 0 16313692.882614136 3900820.5807573795 0 3900820.5807573795 -3842591.364403069 0 0 0 0 16271332.623931885 3892955.1491195709 0 3892955.1491195709 -3120624.0813059658 0 0 0 0 12823022.698547363 4275316.8713350296 0 4275316.8713350296 -3552972.234198153 0 0 0 0 16516061.44052887 3512738.4416980837 0 3512738.4416980837 -5021387.2488071918 0 0 0 0 16327350.177024841 2387335.9553146278 0 2387335.9553146278 -4871306.4116939604 0 0 0 0 19482237.44921875 207384.23066975176 0 207384.23066975176 -5458837.0950752944 0 0 0 0 21019194.987121582 3013669.4451717883 0 3013669.4451717883 -5132883.698023662 0 0 0 0 3801670338.1553116 307935232.33080876 0 307935232.33080876 -724393015.22123075 0 0 0 0 4718458592.8299856 2172414435.4642305 0 2172414435.4642305 -143938154.1993331 0 0 0 0 3151069983.7933731 1646319497.7089899 0 1646319497.7089899 -506831482.91470242 0 0 0 0 6453767.6765353978 951071.9074488543 0 951071.9074488543 -2409822.1491966969 0 0 0 0 2945653109.7331772 327145385.83070582 0 327145385.83070582 2954144.8527831705 0 0 0 0 2887138120.2577362 547399743.70646763 0 547399743.70646763 -462081560.01457894 0 0 0 0 3741660111.3922272 138118198.70774961 0 138118198.70774961 -348766172.79741228 0 0 0 0 4527706.5138569921 1077840.09590251 0 1077840.09590251 -908512.83660535607 0 0 0 0 4104952230.6229515 -1077004338.5619173 0 -1077004338.5619173 -27363666.067970514 0 0 0 0 2674354006.1182003 -723575356.9986304 0 -723575356.9986304 2275740.7537119389 0 0 0 0 2655667574.0101738 -412331387.50562429 0 -412331387.50562429 -350127678.35028696 0 0 0 0 2914864.0478515327 377017.14482209459 0 377017.14482209459 -1099426.0433614745 0 0 0 0 1977800762.4285889 -775271850.42933655 0 -775271850.42933655 -1573436228.7748165 0 0 0 0 1697536618.2376251 787024372.0649848 0 787024372.0649848 396937723.07909876 0 0 0 0 3383126899.9989471 2454921436.2969804 0 2454921436.2969804 918543725.23078442 0 0 0 0 1607677496.1047058 88353508.778548241 0 88353508.778548241 -323300386.81527561 0 0 0 0 516101047.89701843 -1118729409.241477 0 -1118729409.241477 -438249729.06365871 0 0 0 0 663295933.62281799 -434880681.83345759 0 -434880681.83345759 -170895439.21889067 0 0 0 0 3495856.9303774685 3814453.2407260314 0 3814453.2407260314 2424892.5956677273 0 0 0 0 -106415054.36637878 379359381.13721991 0 379359381.13721991 368122547.23168039 0 0 0 0 -17521757.600502014 15879571.68446221 0 15879571.68446221 18748825.984718405 0 0 0 0 30167317.081344604 -13038167.338072479 0 -13038167.338072479 -14915371.819574341 0 0 0 0 1395291922.6688843 -151837278.873694 0 -151837278.873694 16802286.260962009 0 0 0 0 1368535518.3103943 24234156.906744778 0 24234156.906744778 -156016334.947321 0 0 0 0 4926529.6917685643 3025470.3131429553 0 3025470.3131429553 926055.39822625171 0 0 0 0 -6459300.2924423218 8235642.6946333963 0 8235642.6946333963 -5891.5426300309227 0 0 0 0 13346092.10786438 9289871.6807736326 0 9289871.6807736326 3681.3340976016189 0 0 0 0 1734767.051109314 -790575.08004716178 0 -790575.08004716178 -2054829.0763897896 0 0 0 0 12649806.085403442 7368380.9659869354 0 7368380.9659869354 -7605545.0529063232 0 0 0 0 12600086.523580551 6923833.7820799481 0 6923833.7820799481 933181.80480375886 0 0 0 0 41715719.542205811 835974.7996415922 0 835974.7996415922 -12697381.473469676 0 0 0 0 24645430.06136322 -7598441.1685773078 0 -7598441.1685773078 -3336250.6889297124 0 0 0 0 27372930.136581421 4430311.9986824114 0 4430311.9986824114 -6053190.5115842307 0 0 0 0 872495.64068067539 114483.94117168337 0 114483.94117168337 25458.943475051641 0 0 0 0 28694312.686401367 -3730732.262638737 0 -3730732.262638737 -13826.627244172318 0 0 0 0 22975870.738098145 491140.90327279991 0 491140.90327279991 -3127053.6538502327 0 0 0 0 46158549.368530273 3225534.58263506 0 3225534.58263506 -7006421.0819309177 0 0 0 0 38717408.413085938 976166.33220801316 0 976166.33220801316 -3733984.9489230816 0 0 0 0 33155610.363128662 -10176957.927556168 0 -10176957.927556168 -6944083.0298755188 0 0 0 0 39291208.364181519 1186055.4046671605 0 1186055.4046671605 9031083.2849238683 0 0 0 0 86792088.551361084 -29851730.965502955 0 -29851730.965502955 29172264.717468094 0 0 0 0 48639091.544189453 21298135.288407166 0 21298135.288407166 -2054930.4047882212 0 0 0 0 -736157.12183761597 10643816.702542244 0 10643816.702542244 -4339690.5403522262 0 0 0 0 104767.38388290256 -5721.0149937868118 0 -5721.0149937868118 28984.943577355101 0 0 0 0 45314723.449829102 -14541346.498619258 0 -14541346.498619258 1396408.1283383165 0 0 0 0 73971143.095581055 -31728845.466111567 0 -31728845.466111567 2547432.9967454895 0 0 0 0 54557971.484191895 21849803.670147683 0 21849803.670147683 10409183.810751326 0 0 0 0 9120920.1827697754 6224038.4955439493 0 6224038.4955439493 5356204.7783031389 0 0 0 0 1253015.8333458574 273522.43025263399 0 273522.43025263399 43916.769122063895 0 0 0 0 -1181112.2381744385 1656715.0018542558 0 1656715.0018542558 24873953.111730952 0 0 0 0 529260.94165116549 -66178.32499050349 0 -66178.32499050349 -347733.00608942 0 0 0 0 35881637.307266235 -15523767.364174683 0 -15523767.364174683 -524283.58473823965 0 0 0 0 3717723.4453430176 7602988.5316635817 0 7602988.5316635817 -4326877.2798811421 0 0 0 0 3068732.5099783009 523930.07861056924 0 523930.07861056924 -788766.54770256742 0 0 0 0 973701.46475219727 2938430.2329986095 0 2938430.2329986095 -1568606.1845861673 0 0 0 0 553173.48925617337 1007156.6037254743 0 1007156.6037254743 685509.36700997257 0 0 0 0 23265530.524406433 -27892890.430684209 0 -27892890.430684209 6957233.0262465477 0 0 0 0 26688799.106811523 5827129.9268932492 0 5827129.9268932492 -8814334.7638789788 0 0 0 0 40971480.858398438 -44601209.028643377 0 -44601209.028643377 11815524.855529554 0 0 0 0 5576733.3928527832 -750505.53478088975 0 -750505.53478088975 110843.96885302663 0 0 0 0 -937287.0927734375 6862874.9608938694 0 6862874.9608938694 562353.88850903511 0 0 0 0 67205283.173034668 -26183351.585741758 0 -26183351.585741758 16240632.258509219 0 0 0 0 279672.56843005121 572070.72497406602 0 572070.72497406602 515368.92764084402 0 0 0 0 -1071794.7160172462 -1698713.10302376 0 -1698713.10302376 773358.4197371006 0 0 0 0 -666168.24834194034 -140922.62304220349 0 -140922.62304220349 580999.98601852625 0 0 0 0 2668332.4020258859 2078082.8561968803 0 2078082.8561968803 1252668.4180290489 0 0 0 0 -1954471.897567749 768042.0004040068 0 768042.0004040068 6118335.5763217211 0 0 0 0 6731654.8970031738 6971669.0637087822 0 6971669.0637087822 290304.5413736701 0 0 0 0 -8090979.7519822121 6652231.732028543 0 6652231.732028543 15308265.717446625 0 0 0 0 15693361.871994019 22818474.700430695 0 22818474.700430695 -13166499.511825502 0 0 0 0 6529136.3287963867 9838131.764407292 0 9838131.764407292 250772.66264264286 0 0 0 0 7143010.4211730957 4731592.8916175365 0 4731592.8916175365 11710615.19358398 0 0 0 0 8567698.1711425781 -5788475.2511863112 0 -5788475.2511863112 -26349088.510978341 0 0 0 0 10704799.357448578 1787953.2808763981 0 1787953.2808763981 -9217866.6272038221 0 0 0 0 6902857.1156824231 -2635608.485197559 0 -2635608.485197559 141602.51374437055 0 0 0 0 -34321488.685516357 -54644157.279744625 0 -54644157.279744625 541523801.85527802 0 0 0 0 735761.35130737722 354013.68002641201 0 354013.68002641201 -274344.75708917319 0 0 0 0 184258600.9533577 -556240665.62923527 0 -556240665.62923527 1771750388.6233063 0 0 0 0 219958.54217115138 -88015.059073992074 0 -88015.059073992074 85324.797399353702 0 0 0 0 6821452.4423522949 2633528.9585775137 0 2633528.9585775137 -6319064.3487377167 0 0 0 0 1726297.0777216181 1132862.0462153926 0 1132862.0462153926 -516387.9054020266 0 0 0 0 400800077.78771973 -187565472.38380975 0 -187565472.38380975 -15005885.483569264 0 0 0 0 340672679.25474453 -195204409.2553423 0 -195204409.2553423 105312697.06919217 0 0 0 0 227231406.71087646 -240784667.86160803 0 -240784667.86160803 176858119.57291508 0 0 0 0 229571606.85403442 -205950757.90491438 0 -205950757.90491438 682496567.00566769 0 0 0 0 1196025897.8693848 -311588289.5506115 0 -311588289.5506115 -232483627.73140907 0 0 0 0 -40005019.072250366 -43893616.659012556 0 -43893616.659012556 200543735.02835143 0 0 0 0 452465320.94366455 -86035466.74884674 0 -86035466.74884674 182527837.07755351 0 0 0 0 485436967.88920593 213949559.09146249 0 213949559.09146249 354401325.14706993 0 0 0 0 -135398687.51232052 -150685751.38296998 0 -150685751.38296998 261144369.24717379 0 0 0 0 686044380.4362793 107548986.50517797 0 107548986.50517797 -38915211.671437219 0 0 0 0 1049424444.2607269 -172808374.27086186 0 -172808374.27086186 -206394268.27633715 0 0 0 0 2320022.2227927968 165658.07293914631 0 165658.07293914631 -1020568.6698137606 0 0 0 0 1326199820.5800095 924109762.64250112 0 924109762.64250112 520876426.95785093 0 0 0 0 1305879397.4635429 1231154197.472578 0 1231154197.472578 -75314621.950899839 0 0 0 0 1950616058.3538971 913416890.36372924 0 913416890.36372924 -236311863.11575285 0 0 0 0 4430535.3265024573 960881.79536348209 0 960881.79536348209 -2537335.2770919856 0 0 0 0 449498091.83403015 538534101.24061799 0 538534101.24061799 628302808.11137235 0 0 0 0 560861409.01885986 242304048.3818149 0 242304048.3818149 288363929.49053073 0 0 0 0 180270880.22198486 82658677.201818943 0 82658677.201818943 327068801.09582627 0 0 0 0 360731628.20483398 236868669.9953182 0 236868669.9953182 226221105.24568343 0 0 0 0 202221752.22923279 118197856.25467491 0 118197856.25467491 -93184536.229442596 0 0 0 0 -87354563.358795166 182432552.98729229 0 182432552.98729229 226237161.5665288 0 0 0 0 285623074.20882416 301086219.91986299 0 301086219.91986299 -245612453.48879051 0 0 0 0 216637849.35253906 229757489.17270315 0 229757489.17270315 437571523.1986661 0 0 0 0 2355911.2563947886 896826.08380869031 0 896826.08380869031 -1655434.0405433576 0 0 0 0 340240279.97177887 563912650.00076318 0 563912650.00076318 372838207.56483692 0 0 0 0 125017192.51486206 263177716.88114095 0 263177716.88114095 261147308.83544898 0 0 0 0 1782718826.3010941 2755517919.9549751 0 2755517919.9549751 2446535620.9240112 0 0 0 0 4717283658.6302843 2279271569.272964 0 2279271569.272964 -410223648.54774213 0 0 0 0 4712054935.3944397 2284094075.1114488 0 2284094075.1114488 -407505355.76604599 0 0 0 0 853042507.06547546 -26320088.983776808 0 -26320088.983776808 -265247364.93985108 0 0 0 0 3804910573.3440323 1764217476.2564569 0 1764217476.2564569 364212021.37454402 0 0 0 0 1984891854.20998 723843995.17371237 0 723843995.17371237 -119440256.34523082 0 0 0 0 1711774011.6889191 773684629.03251052 0 773684629.03251052 -106701733.3101964 0 0 0 0 6639674.5860046744 1683427.5580933429 0 1683427.5580933429 -2787388.7219786332 0 0 0 0 3019058829.0120163 -1067204849.9452596 0 -1067204849.9452596 -623935423.5081166 0 0 0 0 2795240868.0118866 -646504190.74082994 0 -646504190.74082994 -405502101.41721487 0 0 0 0 4726150033.5896912 -1852558844.3098116 0 -1852558844.3098116 -295289223.65051925 0 0 0 0 4715188322.154789 -3448840423.6774845 0 -3448840423.6774845 2107788467.5558357 0 0 0 0 8293921.7861738577 683849.07899284735 0 683849.07899284735 2119898.7153038802 0 0 0 0 1809889162.4517365 -1406856418.0139837 0 -1406856418.0139837 678988659.04461193 0 0 0 0 1814841934.7408159 -920199570.8962605 0 -920199570.8962605 256582163.19698286 0 0 0 0 19550168.984271824 4386660.865841521 0 4386660.865841521 1729920.0200539706 0 0 0 0 -82894146.160110474 575696293.80742025 0 575696293.80742025 -380279828.15005708 0 0 0 0 -184049023.98277473 25920712.748132467 0 25920712.748132467 -114820386.41869736 0 0 0 0 561618177.43381548 110147079.96460527 0 110147079.96460527 -288718625.77795112 0 0 0 0 587239477.34883118 -537012073.30252004 0 -537012073.30252004 335286096.36349595 0 0 0 0 1926787985.0042267 -1045897999.1322596 0 -1045897999.1322596 235823997.86404312 0 0 0 0 792502229.31512451 -192798143.10844052 0 -192798143.10844052 11002952.414576173 0 0 0 0 1282374714.3683472 -446401608.25343418 0 -446401608.25343418 51081380.798575699 0 0 0 0 288272899.37903595 -122150339.37891328 0 -122150339.37891328 71154233.333303913 0 0 0 0 51838060.944797516 170732358.49413198 0 170732358.49413198 -203997034.63655177 0 0 0 0 28593333.102752171 7205107.5875195824 0 7205107.5875195824 512669.81467475207 0 0 0 0 447266435.59818268 -325276570.59754968 0 -325276570.59754968 74215637.324520499 0 0 0 0 -27244694.622795105 176682921.0070492 0 176682921.0070492 119814421.41818003 0 0 0 0 38263974.906188965 476983946.31448674 0 476983946.31448674 -829321280.98707867 0 0 0 0 25693294.499565676 6463764.1321520787 0 6463764.1321520787 1026543.4441101877 0 0 0 0 380176852.93380737 221586598.34749937 0 221586598.34749937 -98768887.296547651 0 0 0 0 150536964.2515564 207852752.11461067 0 207852752.11461067 418176732.34920979 0 0 0 0 821680058.47400665 114890640.38590634 0 114890640.38590634 315002701.49119759 0 0 0 0 947616205.65447998 -813711260.32738972 0 -813711260.32738972 1536019815.1686358 0 0 0 0 511273995.21289062 -384351509.33072948 0 -384351509.33072948 299388640.61467361 0 0 0 0 452355055.00091553 -108376273.69420767 0 -108376273.69420767 -653964274.98714352 0 0 0 0 -207089153.35128021 113903327.66882145 0 113903327.66882145 -94993072.417915344 0 0 0 0 112892333.84796143 372629172.6954155 0 372629172.6954155 -896219353.07713318 0 0 0 0 -45109967.225585938 -26886751.104125023 0 -26886751.104125023 -269134489.99781144 0 0 0 0 198773589.99005127 -199516792.04013789 0 -199516792.04013789 -232438396.23361588 0 0 0 0 607916100.00750732 -367271797.84113503 0 -367271797.84113503 142138134.41435242 0 0 0 0 59912028.676712036 14908862.461425066 0 14908862.461425066 -78634609.124107838 0 0 0 0 614687878.36712646 -176282385.80196381 0 -176282385.80196381 167524835.08546257 0 0 0 0 -182097884.31011009 166773047.12169844 0 166773047.12169844 1299293364.3760633 0 0 0 0 596909474.62670898 -128578224.49806595 0 -128578224.49806595 445264085.3177433 0 0 0 0 31744724.62890625 20572529.367165804 0 20572529.367165804 210548565.0526042 0 0 0 0 30432374.294944763 -244378344.54489887 0 -244378344.54489887 228092318.44641018 0 0 0 0 105247383.29024506 -166813693.3517369 0 -166813693.3517369 -282638979.41690588 0 0 0 0 14676344.449417114 -60712129.318223953 0 -60712129.318223953 -130616332.59799719 0 0 0 0 29574814.262413613 7036487.8379366919 0 7036487.8379366919 -11614.861626814978 0 0 0 0 39137687.893112183 94189555.661274672 0 94189555.661274672 -464404773.1689105 0 0 0 0 -116303949.20020676 187651069.555857 0 187651069.555857 55130260.232730627 0 0 0 0 -212398040.29722977 5972955.4237696454 0 5972955.4237696454 60496802.571362376 0 0 0 0 42807928.730400085 -55942894.262128472 0 -55942894.262128472 -130323807.5621922 0 0 0 0 11070084.136993408 57378057.430292368 0 57378057.430292368 -129106141.66035819 0 0 0 0 73867353.753700256 155370625.70863312 0 155370625.70863312 -81502362.015148044 0 0 0 0 -158478114.65833664 -155046982.26983032 0 -155046982.26983032 56939449.874118805 0 0 0 0 -145218427.41790199 -156139968.82816643 0 -156139968.82816643 114827285.53480554 0 0 0 0 -138289620.29501343 -25755304.892067671 0 -25755304.892067671 12615432.761663854 0 0 0 0 -406605113.06131363 132644517.10850686 0 132644517.10850686 35839082.256898642 0 0 0 0 4859329.0590412356 -889204.94754682854 0 -889204.94754682854 -2377137.7008515215 0 0 0 0 -152912033.96938705 -30993799.958632886 0 -30993799.958632886 30016254.39447403 0 0 0 0 -131940452.78579712 -43770602.222920418 0 -43770602.222920418 10837640.917415977 0 0 0 0 -113960026.48626709 -71758732.655629158 0 -71758732.655629158 35076202.176552296 0 0 0 0 -86246999.223602295 -91172493.813720524 0 -91172493.813720524 267315.93711304665 0 0 0 0 -89327319.513931274 -78275509.869677752 0 -78275509.869677752 -16831473.95582062 0 0 0 0 -21563022.622358322 -155049930.364476 0 -155049930.364476 29568423.946125269 0 0 0 0 2377194.705078125 -133751615.53777829 0 -133751615.53777829 -70796812.809267849 0 0 0 0 -20114031.251068115 -166195078.50813079 0 -166195078.50813079 -30316774.538489938 0 0 0 0 -78763982.419078827 -126411989.13966927 0 -126411989.13966927 51602759.745744228 0 0 0 0 -75081219.651248932 -157017217.63072467 0 -157017217.63072467 114778971.14779401 0 0 0 0 -83445682.011749268 -117254991.65284538 0 -117254991.65284538 43803996.592936754 0 0 0 0 -173913755.01374817 -26794513.883104563 0 -26794513.883104563 53464095.068357706 0 0 0 0 -129922174.42626572 -84229609.729043871 0 -84229609.729043871 91469292.527193069 0 0 0 0 63639882.443206787 -118903125.10318398 0 -118903125.10318398 71361243.050559998 0 0 0 0 62577610.710388184 -193292413.39460608 0 -193292413.39460608 162465449.40736747 0 0 0 0 63967666.972412109 -45305450.985289454 0 -45305450.985289454 228777189.73082429 0 0 0 0 64866500.889221191 -177453210.63224602 0 -177453210.63224602 29859516.170509517 0 0 0 0 -41040836.661315918 -267081066.02974483 0 -267081066.02974483 -46413635.567095205 0 0 0 0 -34963632.36781311 -152659519.58900505 0 -152659519.58900505 89860849.275872335 0 0 0 0 346255666.59204102 12967269.762628078 0 12967269.762628078 70718784.694046378 0 0 0 0 294324486.75858307 45658879.284553677 0 45658879.284553677 250358945.75816965 0 0 0 0 344394263.63341141 -34390399.417984545 0 -34390399.417984545 152790880.12319756 0 0 0 0 1133369519.8849487 -157168999.52627432 0 -157168999.52627432 34746146.523837805 0 0 0 0 173291226.48947144 -117390969.2304908 0 -117390969.2304908 20034314.702793956 0 0 0 0 313580677.94963074 32403858.758602619 0 32403858.758602619 56040683.318769097 0 0 0 0 505119316.49198151 49482565.450187147 0 49482565.450187147 137500434.03852105 0 0 0 0 2258510370.4942398 -138027656.61862296 0 -138027656.61862296 -254207257.04705286 0 0 0 0 1253085267.1618195 130893056.34075141 0 130893056.34075141 -15934149.075613976 0 0 0 0 1215270746.3336105 192514576.63736284 0 192514576.63736284 75628617.874626637 0 0 0 0 1343264355.8540497 365140.8396961689 0 365140.8396961689 -55094427.75562948 0 0 0 0 1012853469.5246811 178799531.01131016 0 178799531.01131016 -21091580.787884351 0 0 0 0 930306599.53269196 485570541.25741071 0 485570541.25741071 218935111.3837412 0 0 0 0 2414214070.9574051 583519702.45525181 0 583519702.45525181 -176338699.49653041 0 0 0 0 2427218950.7890944 417121871.81846762 0 417121871.81846762 -321044993.32793236 0 0 0 0 3808930291.0874176 1021152165.8407798 0 1021152165.8407798 -459187222.863464 0 0 0 0 3274360183.4390564 796890475.5423094 0 796890475.5423094 -238141501.12226138 0 0 0 0 4725473543.3742065 746119752.17940581 0 746119752.17940581 -595060884.83403587 0 0 0 0 4128404496.8271656 256224272.82696033 0 256224272.82696033 -975488810.9937712 0 0 0 0 4723722031.6178741 383035001.67476648 0 383035001.67476648 -1054168940.6192726 0 0 0 0 3793556168.64571 -93562923.361094683 0 -93562923.361094683 -868056170.40125179 0 0 0 0 3257216491.6025391 -260735092.58176208 0 -260735092.58176208 -911892977.56095982 0 0 0 0 2416895129.6971283 -641199851.30659723 0 -641199851.30659723 -334654023.04090071 0 0 0 0 4724277015.6129351 -796168235.01348722 0 -796168235.01348722 -973665250.37395358 0 0 0 0 3838065.9181213379 -26596639.039328575 0 -26596639.039328575 -51466908.252212986 0 0 0 0 34899028.108848572 -24065656.99077177 0 -24065656.99077177 -81686311.818519592 0 0 0 0 16812349.923086166 -808662.14873553813 0 -808662.14873553813 -7362780.3452312257 0 0 0 0 2981950.667567566 -3475901.090612445 0 -3475901.090612445 -3335458.9115979588 0 0 0 0 -64482200.614944458 -117835689.13780618 0 -117835689.13780618 15795051.585007668 0 0 0 0 15973335.609222412 -39285333.803339481 0 -39285333.803339481 6697527.6362326145 0 0 0 0 52430721.018405914 -10060377.619497776 0 -10060377.619497776 -7973613.255408287 0 0 0 0 -92878515.58215332 21609310.396522522 0 21609310.396522522 -673878.77242159843 0 0 0 0 135603144.4654541 -21211916.687774658 0 -21211916.687774658 -51333630.804404557 0 0 0 0 -64736531.638549805 -34492008.495504856 0 -34492008.495504856 -3739857.4774875641 0 0 0 0 -57148947.031721115 -65052641.296124905 0 -65052641.296124905 3228781.0746889114 0 0 0 0 -83629288.792877197 -64992958.58186771 0 -64992958.58186771 13583203.011576653 0 0 0 0 15985056.715951651 -33488908.647929747 0 -33488908.647929747 -5757950.3741083145 0 0 0 0 -10547622.494445801 -43088264.75156951 0 -43088264.75156951 -18580879.181813955 0 0 0 0 18134324.188720703 -47106294.419153452 0 -47106294.419153452 -24518567.330494404 0 0 0 0 31065034.787719727 1047312.1911611557 0 1047312.1911611557 -23136501.990356445 0 0 0 0 42863949.884552002 -24536317.869928837 0 -24536317.869928837 -19847880.847013712 0 0 0 0 18485958.565440554 -5607007.3465858772 0 -5607007.3465858772 -12313503.992908055 0 0 0 0 18374292.603354461 -78858.723359983414 0 -78858.723359983414 -8266202.5321377758 0 0 0 0 30575073.817634583 -3372907.1280593872 0 -3372907.1280593872 -37628231.941417694 0 0 0 0 26354424.547607422 -12601333.074445724 0 -12601333.074445724 -25716175.031637192 0 0 0 0 17807371.845619202 5667529.8177452087 0 5667529.8177452087 -49660162.965694427 0 0 0 0 11846114.894440852 1994905.8012285307 0 1994905.8012285307 -4068056.8059659828 0 0 0 0 38572995.350311279 15361090.452554703 0 15361090.452554703 -91362740.461744308 0 0 0 0 16556999.168579102 -8009575.5263700485 0 -8009575.5263700485 -9511223.6419854164 0 0 0 0 7007863.3276565 -4315990.2169233039 0 -4315990.2169233039 -4534101.7777761575 0 0 0 0 25272203.743774414 -26818411.988375664 0 -26818411.988375664 4955771.4653948545 0 0 0 0 23634623.087850571 -44128537.47155261 0 -44128537.47155261 7169271.4410686493 0 0 0 0 12069479.446411133 2063240.1632852554 0 2063240.1632852554 -9029268.3746409416 0 0 0 0 9967140.8661886975 -6785838.193624489 0 -6785838.193624489 -11845528.596800892 0 0 0 0 16809538.95526123 -5983775.0725827217 0 -5983775.0725827217 -5402554.3256191015 0 0 0 0 37856056.95627594 -31908285.688803911 0 -31908285.688803911 -15259795.646949768 0 0 0 0 25135350.491653442 -17319582.7006073 0 -17319582.7006073 -14430975.268669128 0 0 0 0 15354571.057765398 -4100985.1769188717 0 -4100985.1769188717 -9343678.5589430928 0 0 0 0 39806449.867282867 -26268609.717553854 0 -26268609.717553854 -28308242.554161072 0 0 0 0 33939491.957092285 -13398091.09431839 0 -13398091.09431839 -28759501.658235312 0 0 0 0 30313190.455505371 -2600808.3662014008 0 -2600808.3662014008 -36534146.140722275 0 0 0 0 35253635.907958984 -13753981.439365387 0 -13753981.439365387 -56790812.718881607 0 0 0 0 35159022.476942539 -15379258.067364633 0 -15379258.067364633 -34084620.62928772 0 0 0 0 35026647.734802246 -1140474.1477375031 0 -1140474.1477375031 -37164042.22813797 0 0 0 0 17397672.325286865 2986446.3869976997 0 2986446.3869976997 23071.464951992035 0 0 0 0 10836596.782775879 1176921.3841152191 0 1176921.3841152191 -351796.04951858521 0 0 0 0 2051676.5596362501 -2702164.8041987382 0 -2702164.8041987382 -4860432.6271123346 0 0 0 0 34322195.15574646 -14916404.055898666 0 -14916404.055898666 -23234092.058654785 0 0 0 0 34432429.4269104 -1412513.3886260986 0 -1412513.3886260986 -22723703.608768463 0 0 0 0 10536801.989604134 658532.8254744038 0 658532.8254744038 -1204768.2999213804 0 0 0 0 2665152.518737793 -2982313.9083118439 0 -2982313.9083118439 -3469793.9781341553 0 0 0 0 14395632.648140281 -4090534.5022887774 0 -4090534.5022887774 -8246177.4134096531 0 0 0 0 8945554.1286303401 -75538.209582962096 0 -75538.209582962096 -1263684.8899635728 0 0 0 0 11172850.098999023 -2851436.408383131 0 -2851436.408383131 -4011718.671131134 0 0 0 0 16159324.495758057 6959368.4877333641 0 6959368.4877333641 -6716256.25529553 0 0 0 0 8790331.3745880127 -2673570.9449203014 0 -2673570.9449203014 -3802935.4935770035 0 0 0 0 10513927.361877441 -1151181.4436683655 0 -1151181.4436683655 -7566598.129455328 0 0 0 0 5242062.0229187012 -2307437.6221064329 0 -2307437.6221064329 -953331.5511431694 0 0 0 0 10219272.095756054 -4289271.8888967 0 -4289271.8888967 -1575733.8708276749 0 0 0 0 8346879.2398122102 -3140631.9129042663 0 -3140631.9129042663 -5121105.9188917791 0 0 0 0 10356354.012817383 -959491.77234387398 0 -959491.77234387398 -1926964.566945076 0 0 0 0 4152461.7531724721 -3819786.7967117205 0 -3819786.7967117205 -3681781.8710599788 0 0 0 0 8234228.3009917885 74590.00687418133 0 74590.00687418133 -1264850.111746111 0 0 0 0 269740.80215340853 -2127428.1766206101 0 -2127428.1766206101 -1522148.483246119 0 0 0 0 -665163.51617431641 -3298425.1172151566 0 -3298425.1172151566 9882933.4431610107 0 0 0 0 17519743.278564453 2609043.6217553616 0 2609043.6217553616 -975624.35719966888 0 0 0 0 -84262.042100317776 -2546643.0683674626 0 -2546643.0683674626 -1508924.6002471452 0 0 0 0 7715038.5162963867 335251.31095355749 0 335251.31095355749 -2537251.5529458523 0 0 0 0 -4968615.3746337891 -2717138.4583330154 0 -2717138.4583330154 -11183286.334262848 0 0 0 0 12198520.453360409 -4371638.2560414709 0 -4371638.2560414709 -8972607.988230139 0 0 0 0 23952023.897303894 -3917767.9313336387 0 -3917767.9313336387 -18417675.931678627 0 0 0 0 59770025.741928101 -14907316.021360636 0 -14907316.021360636 -12116403.322752476 0 0 0 0 45784186.682769775 -1367670.1866950989 0 -1367670.1866950989 -6382601.6615185738 0 0 0 0 49975016.16595459 -1422879.2977919579 0 -1422879.2977919579 -7391818.1636209488 0 0 0 0 43199918.989936829 -10187506.315367043 0 -10187506.315367043 -7488124.8872890472 0 0 0 0 28178191.275100708 -13190544.672427416 0 -13190544.672427416 -8984284.0059857368 0 0 0 0 34407370.919677734 -19521309.165871143 0 -19521309.165871143 -4362587.7664384842 0 0 0 0 31271820.432678223 -27063349.540383816 0 -27063349.540383816 7825647.5579662323 0 0 0 0 49170612.723846436 -42085713.772283554 0 -42085713.772283554 -7583073.7664570808 0 0 0 0 45534784.548156738 -55335431.074967384 0 -55335431.074967384 -23864960.332570076 0 0 0 0 21702750.153137207 -66654139.103970766 0 -66654139.103970766 21423985.046633244 0 0 0 0 44720470.827972412 -79694838.647042513 0 -79694838.647042513 -74498891.984931946 0 0 0 0 61709692.725189209 -50216078.070099592 0 -50216078.070099592 -23356191.296534568 0 0 0 0 59659195.589874268 -45706001.993744612 0 -45706001.993744612 -33273121.974294662 0 0 0 0 65692475.482746124 -37634474.085388422 0 -37634474.085388422 -22877760.886841774 0 0 0 0 -17118889.562042236 -74424495.847189426 0 -74424495.847189426 93401882.559051394 0 0 0 0 19744919.927429199 -78305730.768528938 0 -78305730.768528938 -19850367.733304977 0 0 0 0 18944637.666152954 -71145436.33513546 0 -71145436.33513546 -18827519.03207916 0 0 0 0 42762720.810180664 -63731070.65708065 0 -63731070.65708065 -158567730.48992157 0 0 0 0 12697719.227630615 -134294589.8568759 0 -134294589.8568759 -15207686.778749466 0 0 0 0 26897236.898239136 -25668696.701891422 0 -25668696.701891422 -134160839.1682682 0 0 0 0 97800736.480270386 -60028440.941791773 0 -60028440.941791773 -130279328.3705802 0 0 0 0 30078793.141560532 6880368.8703290336 0 6880368.8703290336 -674303.04851309047 0 0 0 0 13952420.2538414 47912118.539221317 0 47912118.539221317 -218005265.15931845 0 0 0 0 42826725.704678208 -61677616.021883808 0 -61677616.021883808 -44984063.91040349 0 0 0 0 124206272.50976562 -19217744.408786535 0 -19217744.408786535 -54676162.149582863 0 0 0 0 78635352.315200806 18963759.755021334 0 18963759.755021334 23114590.969843864 0 0 0 0 64554883.461547852 -20248164.153389454 0 -20248164.153389454 -90830715.852875412 0 0 0 0 71060751.943572998 -40789358.604862452 0 -40789358.604862452 -48389727.740101337 0 0 0 0 106224172.23051453 -53957473.31641984 0 -53957473.31641984 -127813921.47238636 0 0 0 0 -24220722.640850067 -25038128.658779383 0 -25038128.658779383 -54384405.278679848 0 0 0 0 203552976.13493347 13591885.346501827 0 13591885.346501827 -102857647.38128769 0 0 0 0 -512465.6534960717 -658017.65526492894 0 -658017.65526492894 238271.2959556696 0 0 0 0 -81947540.436035156 -85920572.455714703 0 -85920572.455714703 14480647.83338356 0 0 0 0 193685482.26965332 102110503.28894758 0 102110503.28894758 -15593309.92642206 0 0 0 0 -106591892.27938843 -146982635.89398181 0 -146982635.89398181 -12340299.370774746 0 0 0 0 -39347760.455566406 -125766048.78627896 0 -125766048.78627896 -95186508.952437401 0 0 0 0 80358155.684326172 229469907.07954848 0 229469907.07954848 -66063874.964946389 0 0 0 0 -13569112.998318195 -56246773.308302574 0 -56246773.308302574 -17464672.2354002 0 0 0 0 151064431.29858398 230815589.43250823 0 230815589.43250823 -71634441.050125897 0 0 0 0 1909584.7353767902 838537.81746546365 0 838537.81746546365 -1582612.3675895617 0 0 0 0 30280376.833744332 6416066.8518054094 0 6416066.8518054094 -2248941.8172931997 0 0 0 0 39533276.712005615 -163514812.4096117 0 -163514812.4096117 131412693.43530381 0 0 0 0 186386384.87695312 -325475446.44686556 0 -325475446.44686556 -167262863.05620885 0 0 0 0 67602186.010772705 43130570.321824074 0 43130570.321824074 -52939039.932803154 0 0 0 0 53929640.143573761 108336028.9280864 0 108336028.9280864 -221347275.66152573 0 0 0 0 57242108.192550659 40421726.634749413 0 40421726.634749413 -44951878.69447422 0 0 0 0 71384990.527084351 1303776.8509230614 0 1303776.8509230614 -1288302.6171321869 0 0 0 0 33837998.216903687 12471590.027590752 0 12471590.027590752 421299.11908054352 0 0 0 0 34626481.407348633 26296968.077149868 0 26296968.077149868 8513595.0001773834 0 0 0 0 44401278.788024902 6922604.8459911346 0 6922604.8459911346 22794381.932828903 0 0 0 0 37614809.34979248 18399638.032032967 0 18399638.032032967 27162303.8810606 0 0 0 0 43212020.414398193 12320966.885280609 0 12320966.885280609 -453741.81032466888 0 0 0 0 32040149.282714844 -3395911.3032729626 0 -3395911.3032729626 -77755930.723289251 0 0 0 0 47814953.662445068 45960077.832745075 0 45960077.832745075 -35961081.853559971 0 0 0 0 -75351725.566146851 101763305.41482794 0 101763305.41482794 511456823.078825 0 0 0 0 224203114.6918335 118234055.19965219 0 118234055.19965219 -444211556.56078744 0 0 0 0 6834414.1643066406 32176012.336245537 0 32176012.336245537 40329887.549026191 0 0 0 0 119526276.68878174 164126193.33664322 0 164126193.33664322 21301555.089947522 0 0 0 0 120652196.92051697 -287306068.06163144 0 -287306068.06163144 93656871.853077412 0 0 0 0 290636936.65939331 788198115.50857878 0 788198115.50857878 41331699.652580738 0 0 0 0 335883099.1895752 -421849493.99584579 0 -421849493.99584579 -917220127.24605179 0 0 0 0 31511115.919631958 -90488104.199518204 0 -90488104.199518204 -211976854.498528 0 0 0 0 -4300365.4077606201 68962299.953927279 0 68962299.953927279 -27137653.818524361 0 0 0 0 15281044.705505371 28937537.031527519 0 28937537.031527519 7930496.8048648834 0 0 0 0 7551483.9172225334 2157464.3561639152 0 2157464.3561639152 -1915945.9153778777 0 0 0 0 26940413.191894531 26217086.967876911 0 26217086.967876911 2916583.6212644577 0 0 0 0 5125364.4777981937 384769.43744968995 0 384769.43744968995 -3372912.137804768 0 0 0 0 26196052.580581665 17839153.818353891 0 17839153.818353891 -41378139.909628868 0 0 0 0 57122313.441741943 16815766.349624157 0 16815766.349624157 -23104431.571139872 0 0 0 0 107515778.06933975 -4631425.0400872231 0 -4631425.0400872231 -101183105.89162254 0 0 0 0 78609754.143180847 56555642.519877315 0 56555642.519877315 -74353405.673500061 0 0 0 0 75087072.097290039 78644936.406973839 0 78644936.406973839 -139523379.19965744 0 0 0 0 109630787.91110229 10517367.620377064 0 10517367.620377064 -142895240.15958309 0 0 0 0 59116438.948120117 -4780527.8355321884 0 -4780527.8355321884 -26122699.426031113 0 0 0 0 21182706.106545229 -1559982.2367715389 0 -1559982.2367715389 -12411638.295578981 0 0 0 0 -161707463.91254616 4517314.6059479713 0 4517314.6059479713 -4879465.8444781303 0 0 0 0 67217060.326026917 -16602056.655108929 0 -16602056.655108929 -10502039.527009964 0 0 0 0 -119159414.52839088 -31215885.450730249 0 -31215885.450730249 -28501839.945695162 0 0 0 0 23955468.006961249 -9250041.243275946 0 -9250041.243275946 -9782494.3889573496 0 0 0 0 26370343.312043045 22177208.857817069 0 22177208.857817069 4648792.9522355199 0 0 0 0 35016163.643619537 39749419.001778603 0 39749419.001778603 -21376691.430198669 0 0 0 0 31903298.679664612 19728293.434604645 0 19728293.434604645 6299901.3173685074 0 0 0 0 23604553.622276403 3100442.36110107 0 3100442.36110107 -9398799.1671496443 0 0 0 0 217155511.94189072 -16528272.840087891 0 -16528272.840087891 -104515563.88212967 0 0 0 0 65445563.451929092 31430067.792722702 0 31430067.792722702 -49462121.462848663 0 0 0 0 -81188854.406311035 -56895103.414867997 0 -56895103.414867997 -14082678.194253057 0 0 0 0 64481476.125266731 19579642.607068062 0 19579642.607068062 -59900735.941574097 0 0 0 0 26144227.728093222 -13660145.287210289 0 -13660145.287210289 -17984178.32486482 0 0 0 0 46429522.214365005 17437286.900859714 0 17437286.900859714 -11712220.98443985 0 0 0 0 42414516.081403732 6175005.7465296984 0 6175005.7465296984 -7692524.2797794342 0 0 0 0 33378564.3855896 17934346.929599285 0 17934346.929599285 -1003463.4517173767 0 0 0 0 22927018.142162241 18918127.122785181 0 18918127.122785181 5429707.9485946689 0 0 0 0 32791359.374572754 11111828.480111122 0 11111828.480111122 2453771.3962545395 0 0 0 0 -124730990.55290031 144297126.88051891 0 144297126.88051891 40814977.606172562 0 0 0 0 33741962.653526306 8697455.7351527214 0 8697455.7351527214 3976423.1587867737 0 0 0 0 11441317.300919957 8438923.926463373 0 8438923.926463373 -789451.56577891391 0 0 0 0 39273719.304275513 29160274.654233456 0 29160274.654233456 6262534.9506053925 0 0 0 0 38255443.874427795 9267643.3144578934 0 9267643.3144578934 -3679613.0604844093 0 0 0 0 38463709.788711548 29400026.181829453 0 29400026.181829453 8442995.7140216827 0 0 0 0 37519051.866844177 30963300.528514862 0 30963300.528514862 5985739.6397666931 0 0 0 0 20523901.213407516 12598495.99930048 0 12598495.99930048 2400231.1089706421 0 0 0 0 14686419.864013672 10351018.504067421 0 10351018.504067421 7835570.0692501068 0 0 0 0 28158787.059513092 34853520.82427597 0 34853520.82427597 29069510.592266083 0 0 0 0 32986304.81842041 12421200.370363712 0 12421200.370363712 -4364413.3851664066 0 0 0 0 21772731.468925476 5225172.066794157 0 5225172.066794157 -6088191.3453145027 0 0 0 0 12592299.503091941 9029923.8145169839 0 9029923.8145169839 -5870141.1193577843 0 0 0 0 3905367.3525910974 7335473.6627195599 0 7335473.6627195599 -3873175.0488929828 0 0 0 0 32771310.342704773 7422566.7456421852 0 7422566.7456421852 -14990220.731334209 0 0 0 0 36441782.079650879 19981651.06073463 0 19981651.06073463 -18024903.047953606 0 0 0 0 -10208426.999450684 18172626.344573975 0 18172626.344573975 -64499573.107838631 0 0 0 0 15983425.68624115 5470535.2711415291 0 5470535.2711415291 -10783640.268707275 0 0 0 0 9164722.4572677612 19545140.583927155 0 19545140.583927155 4272503.7008285522 0 0 0 0 332340.83645682782 -4805122.0086033605 0 -4805122.0086033605 -3374784.100880051 0 0 0 0 7737861.5693054199 -10465074.362262726 0 -10465074.362262726 -6590704.8989276886 0 0 0 0 2674557.8681640625 -1149589.9339141846 0 -1149589.9339141846 -4308557.7168560028 0 0 0 0 4178048.8809573427 1681883.838913572 0 1681883.838913572 -3230462.1496545989 0 0 0 0 30701249.184849445 5630257.1792495325 0 5630257.1792495325 -8603412.039368948 0 0 0 0 20899695.973054931 -5933300.42788966 0 -5933300.42788966 -11037403.313317463 0 0 0 0 14651376.252471924 -11651973.593437195 0 -11651973.593437195 -8291222.2839221954 0 0 0 0 66082062.106819153 19396041.345387965 0 19396041.345387965 -56965214.623875141 0 0 0 0 19479152.989837646 -10777696.796615124 0 -10777696.796615124 -12681873.556980133 0 0 0 0 30657050.366119385 -33640287.399410486 0 -33640287.399410486 -134246128.78610802 0 0 0 0 -34784547.932003975 95530341.86338532 0 95530341.86338532 -48383405.568637371 0 0 0 0 32269913.821287304 2557261.9859199952 0 2557261.9859199952 -8268738.5899229432 0 0 0 0 -14765916.184265137 -66701199.233139753 0 -66701199.233139753 -60598236.832240582 0 0 0 0 37436107.38192749 5623203.2736148834 0 5623203.2736148834 -42466137.616690636 0 0 0 0 20738629.238548279 -10872321.21164608 0 -10872321.21164608 -58760406.930927277 0 0 0 0 55850837.23443985 -33608114.235946655 0 -33608114.235946655 -32272431.102619171 0 0 0 0 21655658.122627258 -14302149.419645309 0 -14302149.419645309 -21690577.942451477 0 0 0 0 7826241.1589646339 -18972661.332332984 0 -18972661.332332984 4096405.4291534424 0 0 0 0 19566842.266235352 -24974169.681560516 0 -24974169.681560516 -12904998.801240921 0 0 0 0 22665299.845901489 -33559412.23567009 0 -33559412.23567009 8644661.6981391907 0 0 0 0 14899829.7315979 -20090146.025325775 0 -20090146.025325775 7226055.3466732502 0 0 0 0 1603068.0914529637 -1574819.8214784143 0 -1574819.8214784143 -3052914.7725742343 0 0 0 0 14393742.231201172 -22799177.040063858 0 -22799177.040063858 5097976.8494186401 0 0 0 0 561547.67926499248 -394601.45714149904 0 -394601.45714149904 -1105913.7870574105 0 0 0 0 45799561.810897827 -70173268.669793129 0 -70173268.669793129 75142322.434772491 0 0 0 0 133849646.58401489 -47595141.35893631 0 -47595141.35893631 -21559128.596758842 0 0 0 0 58146373.340438843 78727001.601882935 0 78727001.601882935 93363722.960163593 0 0 0 0 124345570.25547791 49911188.882205963 0 49911188.882205963 8467963.0372962952 0 0 0 0 88688645.497451782 41728946.560480118 0 41728946.560480118 10333400.15968895 0 0 0 0 28633004.188262939 41728370.965939522 0 41728370.965939522 14679104.650657654 0 0 0 0 13799653.969009399 29651639.30357933 0 29651639.30357933 40915341.070049286 0 0 0 0 13430564.073303223 12975139.310770035 0 12975139.310770035 13098785.548950195 0 0 0 0 50878502.176696777 69231687.595985413 0 69231687.595985413 48190081.081773281 0 0 0 0 53570638.778289795 51644111.151145935 0 51644111.151145935 16851025.152227879 0 0 0 0 58680038.703109741 56320781.431018829 0 56320781.431018829 -3156833.9155158997 0 0 0 0 46054424.216552734 42354015.716688633 0 42354015.716688633 13918546.847915649 0 0 0 0 44961446.110153198 44202806.02117157 0 44202806.02117157 11340833.80907917 0 0 0 0 16317673.811660767 39933006.487503052 0 39933006.487503052 16119855.561793804 0 0 0 0 32366967.950382233 23112236.644807816 0 23112236.644807816 -45491944.969486237 0 0 0 0 22423162.135040283 45490093.513273239 0 45490093.513273239 60039268.785715103 0 0 0 0 88611403.698120117 65843506.031526566 0 65843506.031526566 -301373.10502338409 0 0 0 0 77827400.916889191 26351060.313415527 0 26351060.313415527 -25746916.013202667 0 0 0 0 108121042.26072693 38282443.194092751 0 38282443.194092751 -149665662.78474426 0 0 0 0 106109867.94463348 13787209.492742538 0 13787209.492742538 -39725885.278291702 0 0 0 0 -38011960.232559204 46939627.445482254 0 46939627.445482254 -47017777.541304588 0 0 0 0 66539077.095626831 -2695534.0143413544 0 -2695534.0143413544 -28459259.526987076 0 0 0 0 -9797279.7484893799 -51462151.780481339 0 -51462151.780481339 -54066959.254774094 0 0 0 0 41395432.191818237 -66010340.365460396 0 -66010340.365460396 148633819.36942768 0 0 0 0 2621179.5621097162 2620285.0118232402 0 2620285.0118232402 376604.07983229664 0 0 0 0 99419433.865249634 -51205395.761664391 0 -51205395.761664391 -99396630.216259003 0 0 0 0 -2255118.4049835205 -10496958.940099716 0 -10496958.940099716 252004783.11616707 0 0 0 0 -674286905.91040039 361920371.45810699 0 361920371.45810699 352464190.68917084 0 0 0 0 71709064.464111328 -37720591.599505424 0 -37720591.599505424 36478560.835723877 0 0 0 0 11380358.148432627 13516319.679070752 0 13516319.679070752 -6370080.8782686712 0 0 0 0 7951075.8209121376 6924434.9159805104 0 6924434.9159805104 1069105.7014169141 0 0 0 0 21640026.768203735 52047785.289972305 0 52047785.289972305 67204081.853155136 0 0 0 0 36026066.347473145 69650338.571247101 0 69650338.571247101 49221914.13717556 0 0 0 0 63736078.997085571 68989970.200550079 0 68989970.200550079 15396888.868692398 0 0 0 0 13901331.150667433 20904559.186377339 0 20904559.186377339 -12302712.324843753 0 0 0 0 8619999.9342803955 22945866.31967926 0 22945866.31967926 -28280233.330787659 0 0 0 0 38211989.382064819 26386315.608216286 0 26386315.608216286 -696586.84142118692 0 0 0 0 -413601.11756896973 26503578.776828766 0 26503578.776828766 -4903507.9162483215 0 0 0 0 9473709.8224258423 20116186.684402466 0 20116186.684402466 -20797530.806022644 0 0 0 0 6260813.2770690918 19475477.215488434 0 19475477.215488434 -11849296.14087677 0 0 0 0 4097348.6941223145 25472319.156265259 0 25472319.156265259 -19089096.983078003 0 0 0 0 40935123.168899536 -14913760.475273132 0 -14913760.475273132 -7901387.0220317841 0 0 0 0 27284188.33939743 433612.55057525635 0 433612.55057525635 -8181039.8635139465 0 0 0 0 36892897.869338989 -14723620.205818176 0 -14723620.205818176 -7106128.8450164795 0 0 0 0 37210591.385870934 -7146182.7075447738 0 -7146182.7075447738 5235620.7198066711 0 0 0 0 31770309.164010048 -26433610.483939171 0 -26433610.483939171 -11867995.382081985 0 0 0 0 36491408.950540543 -14266174.063783646 0 -14266174.063783646 -6263036.0623130798 0 0 0 0 56560169.619338989 -25380257.308336258 0 -25380257.308336258 -3227576.6235923767 0 0 0 0 74137448.913925171 3589311.0973892212 0 3589311.0973892212 -8093980.6273574829 0 0 0 0 67641032.988067627 1111833.6516799927 0 1111833.6516799927 -9858785.9056549072 0 0 0 0 68143807.973548889 621078.18790435791 0 621078.18790435791 -9399482.2566299438 0 0 0 0 18654152.871001281 12912748.587913331 0 12912748.587913331 1674532.1953215231 0 0 0 0 45769256.981107712 33834680.966672421 0 33834680.966672421 -7491051.4698410034 0 0 0 0 60006861.368266106 39218183.104771376 0 39218183.104771376 -7222872.5691261292 0 0 0 0 95200406.598373413 45791955.066539764 0 45791955.066539764 -7395312.2062568665 0 0 0 0 5784415.5912494138 1229892.0361803211 0 1229892.0361803211 -5030223.5169760501 0 0 0 0 15516866.562819004 38036919.337503642 0 38036919.337503642 80589857.907972336 0 0 0 0 -13943375.902313232 -16200449.275395393 0 -16200449.275395393 -25009882.845350266 0 0 0 0 41159680.420767829 7817322.5632046387 0 7817322.5632046387 -18931811.491335817 0 0 0 0 15288470.2084198 31365303.210000038 0 31365303.210000038 56098187.008144379 0 0 0 0 65680767.748596191 91497874.268758774 0 91497874.268758774 43785575.427223206 0 0 0 0 29673923.797761917 67081410.990892291 0 67081410.990892291 85196298.451669693 0 0 0 0 27831049.88873291 54160551.353183746 0 54160551.353183746 28074479.5911026 0 0 0 0 55337864.143585205 77254258.042500854 0 77254258.042500854 54758262.887974262 0 0 0 0 105214675.34344482 17996771.833820343 0 17996771.833820343 -56704366.960582733 0 0 0 0 -11212174.050628662 -13666557.9908638 0 -13666557.9908638 -8275804.1769828796 0 0 0 0 31325312.218338013 -6404087.0018768311 0 -6404087.0018768311 -19128358.942127228 0 0 0 0 -27792823.505264282 -2722722.4514808655 0 -2722722.4514808655 -558231.67058944702 0 0 0 0 9750563.5041046143 29346529.063240051 0 29346529.063240051 28535836.579930305 0 0 0 0 47058668.639785767 62788423.33170414 0 62788423.33170414 6309875.5732460022 0 0 0 0 35530305.798721313 64810951.514064312 0 64810951.514064312 29672637.193384171 0 0 0 0 8113441.9136657715 3401828.6356983185 0 3401828.6356983185 -13239355.525615692 0 0 0 0 12748387.150754869 15132724.159478791 0 15132724.159478791 2321809.2122256737 0 0 0 0 -9822476.3010101318 6992978.5177822113 0 6992978.5177822113 -13413932.80383873 0 0 0 0 -27399254.969858408 10658858.651742965 0 10658858.651742965 -6174505.1943588257 0 0 0 0 17071761.612634365 6268545.0863839602 0 6268545.0863839602 -547822.96933077835 0 0 0 0 43389321.893634796 -5495446.4077830315 0 -5495446.4077830315 -434784.55569076538 0 0 0 0 40956460.330589294 -8087950.8141851425 0 -8087950.8141851425 -1208543.4492855072 0 0 0 0 41243741.377700806 -6079571.2047700882 0 -6079571.2047700882 12311518.671096802 0 0 0 0 14939817.003023896 14845588.528350828 0 14845588.528350828 -674590.88467431348 0 0 0 0 -1607980.6911621094 4732491.5625534058 0 4732491.5625534058 200071.07139635086 0 0 0 0 18916586.611538149 6727391.8182973377 0 6727391.8182973377 3374506.7839391977 0 0 0 0 -5861994.9548797607 39808115.241261959 0 39808115.241261959 33819203.326660156 0 0 0 0 14018908.938766353 13839531.525978282 0 13839531.525978282 -4660583.4399144137 0 0 0 0 54912342.581741333 26600665.859236717 0 26600665.859236717 -6738241.0387907028 0 0 0 0 35639605.90326564 3694957.9961393531 0 3694957.9961393531 -6125720.331231121 0 0 0 0 10124350.654752325 6921924.7697980385 0 6921924.7697980385 8932363.3153250106 0 0 0 0 3446198.6987231895 3477842.30945912 0 3477842.30945912 -634945.30833926145 0 0 0 0 -54189265.946578979 -17926117.48410511 0 -17926117.48410511 38553846.681932449 0 0 0 0 63328008.99164772 149367394.67496336 0 149367394.67496336 102710035.83451843 0 0 0 0 61367618.021316528 74126067.567781448 0 74126067.567781448 -39767795.3139714 0 0 0 0 50410085.414916992 420990.54788208008 0 420990.54788208008 -40208495.538164139 0 0 0 0 39534788.041036606 29378106.103208899 0 29378106.103208899 5960051.4177036285 0 0 0 0 29317984.502433777 13042497.193901539 0 13042497.193901539 -252881.3068447113 0 0 0 0 39752139.162750244 30026383.394418716 0 30026383.394418716 5552920.5995340347 0 0 0 0 34996340.524806976 2378237.654386282 0 2378237.654386282 6281026.2381362915 0 0 0 0 4622045.3611132428 275924.87299699895 0 275924.87299699895 -323654.49497943744 0 0 0 0 633838279.80220413 -38052909.848983765 0 -38052909.848983765 -288960483.28312492 0 0 0 0 -439949051.30182648 -12822365.269500732 0 -12822365.269500732 741080058.9519043 0 0 0 0 101417152.2703476 274498028.84912491 0 274498028.84912491 248591325.17359924 0 0 0 0 427929954.58830643 197618759.7558403 0 197618759.7558403 -41662626.833702087 0 0 0 0 57605515.020118713 12170923.019062042 0 12170923.019062042 -102915731.19685936 0 0 0 0 -140845769.7832489 2437671.6555900574 0 2437671.6555900574 -115117648.50285721 0 0 0 0 479395459.99147391 -257995292.23263144 0 -257995292.23263144 -6396706.5819396973 0 0 0 0 -398363679.90720367 171360900.52383232 0 171360900.52383232 99817237.591819763 0 0 0 0 17062956.635159355 14959475.2360221 0 14959475.2360221 6644674.5887796134 0 0 0 0 -141489038.87580109 -179352918.90831757 0 -179352918.90831757 -242158568.05364227 0 0 0 0 -87784203.559005737 -72594297.906677246 0 -72594297.906677246 -107973533.55556488 0 0 0 0 1513858.0804206505 19975589.722209029 0 19975589.722209029 955134.27164932759 0 0 0 0 47129624.409912109 80569380.917200089 0 80569380.917200089 -17320971.691314697 0 0 0 0 26504232.673080444 51482850.260061264 0 51482850.260061264 58546867.782485962 0 0 0 0 5993741.5202846527 21846517.228025436 0 21846517.228025436 218189227.41243744 0 0 0 0 35439805.530765533 78984408.570579529 0 78984408.570579529 121759143.38092804 0 0 0 0 17673051.801753998 -17558746.048965454 0 -17558746.048965454 1398177.8178539276 0 0 0 0 1437358.3723068237 147801628.4602356 0 147801628.4602356 313961602.23020554 0 0 0 0 -52050086.828269958 195937128.10609436 0 195937128.10609436 48929632.689888954 0 0 0 0 46457557.760263443 166774116.72605515 0 166774116.72605515 55067914.068885803 0 0 0 0 103819746.00588226 115794511.34151459 0 115794511.34151459 50410755.617774963 0 0 0 0 37800096.485218048 151012945.21865654 0 151012945.21865654 71842967.579483032 0 0 0 0 12869719.667043686 161097905.0395813 0 161097905.0395813 162683223.3229599 0 0 0 0 -16388952.213067055 90654370.632506371 0 90654370.632506371 132167505.9384613 0 0 0 0 83644308.209278107 100517097.78137779 0 100517097.78137779 86465134.045249939 0 0 0 0 194848507.45134735 91156731.158435822 0 91156731.158435822 53366496.314853668 0 0 0 0 195720097.55443668 82205308.555591822 0 82205308.555591822 39488941.744895935 0 0 0 0 83739652.812782288 24350715.704910517 0 24350715.704910517 88828355.76751709 0 0 0 0 88400599.341999054 97630279.351074219 0 97630279.351074219 87964285.123188019 0 0 0 0 198065981.68310356 130683081.96473122 0 130683081.96473122 61925101.658851624 0 0 0 0 108493589.07739258 124007158.98296738 0 124007158.98296738 58448858.850105286 0 0 0 0 121840285.51559639 112701540.38671875 0 112701540.38671875 4123485.9345092773 0 0 0 0 141047368.87209702 81158285.62279129 0 81158285.62279129 53942504.550291061 0 0 0 0 14668443.071362847 1203758.6333100814 0 1203758.6333100814 1127223.3171427846 0 0 0 0 32964410.679409027 19896997.527693272 0 19896997.527693272 3611498.8238258362 0 0 0 0 15988281.877696991 36813486.191886902 0 36813486.191886902 65534205.27305603 0 0 0 0 71203268.90240097 127485583.41069412 0 127485583.41069412 47690636.246009827 0 0 0 0 16889799.102825165 -16845772.169059753 0 -16845772.169059753 -11056292.493186951 0 0 0 0 71893708.668966532 127139024.08865023 0 127139024.08865023 -150118229.26570129 0 0 0 0 2844952.1764369011 90787249.13835907 0 90787249.13835907 -117503332.04020977 0 0 0 0 59376046.245064497 76700886.419356346 0 76700886.419356346 -295457654.09731674 0 0 0 0 90048130.71256721 3567650.3155069351 0 3567650.3155069351 -153427867.08137894 0 0 0 0 187826711.94389534 79062231.99864006 0 79062231.99864006 72742069.791660786 0 0 0 0 52981119.822861075 -87611363.498771667 0 -87611363.498771667 -376318726.64936638 0 0 0 0 8183105.8559797788 -223973.22937089857 0 -223973.22937089857 1061711.4601916363 0 0 0 0 137231293.74274063 110190451.2590065 0 110190451.2590065 102425392.82249832 0 0 0 0 7820138.5057455432 14317385.633171756 0 14317385.633171756 4392646.7722831042 0 0 0 0 19288763.145820618 10100164.518473625 0 10100164.518473625 -1265654.8850746155 0 0 0 0 -100158449.97079849 -81233922.086688995 0 -81233922.086688995 -122031000.10299373 0 0 0 0 30460346.523366675 516885.42241394334 0 516885.42241394334 2778208.4691703916 0 0 0 0 19323227.340389252 10305260.35130024 0 10305260.35130024 -3165593.534635663 0 0 0 0 12426542.61712911 15648348.669638796 0 15648348.669638796 3270899.7022468308 0 0 0 0 10877624.022865295 13923465.554930687 0 13923465.554930687 -7897451.2251434326 0 0 0 0 -568220.5351543203 5134207.8110867217 0 5134207.8110867217 1397380.7193837883 0 0 0 0 150062868.74261856 -135816739.82597923 0 -135816739.82597923 -188559348.11351299 0 0 0 0 43809698.772098541 140188922.87364578 0 140188922.87364578 -262764423.53753281 0 0 0 0 -1045288.8108981289 -343516.29071497405 0 -343516.29071497405 1446451.1483338177 0 0 0 0 4358378.2599065304 105008090.66587257 0 105008090.66587257 -166781534.36558151 0 0 0 0 12628583.814379171 10191511.846245751 0 10191511.846245751 2833194.293261976 0 0 0 0 -7662375.8532671332 4795376.9725215435 0 4795376.9725215435 -38423850.137746811 0 0 0 0 11689935.144672394 10010343.713855743 0 10010343.713855743 -959610.49849033356 0 0 0 0 26825379.609283123 3974102.3359303083 0 3974102.3359303083 3113977.6223482415 0 0 0 0 8703880.6048355103 -21690604.47393322 0 -21690604.47393322 -810906.11067199707 0 0 0 0 -412355995.28604794 363972597.56995773 0 363972597.56995773 -226855919.91175079 0 0 0 0 54124022.740147352 -59865340.317491531 0 -59865340.317491531 -722710685.21505737 0 0 0 0 5854361.669350856 1811143.1566885365 0 1811143.1566885365 -1058053.490143653 0 0 0 0 -269641511.78443146 179236325.71790695 0 179236325.71790695 -26766432.851118803 0 0 0 0 -87583055.340211868 481615886.27117729 0 481615886.27117729 -677292083.47465897 0 0 0 0 168801192.79521704 122336339.31761169 0 122336339.31761169 -300579286.21920824 0 0 0 0 116695402.18463469 255354365.96494293 0 255354365.96494293 -471892591.08583069 0 0 0 0 305476279.38718826 64239771.439378023 0 64239771.439378023 -489927734.75239563 0 0 0 0 268475587.38548517 -158412367.64488029 0 -158412367.64488029 -983867013.42829704 0 0 0 0 -429526421.67320824 570073184.76471329 0 570073184.76471329 -474118267.41027832 0 0 0 0 71854208.464984417 349318144.17996407 0 349318144.17996407 -1034735474.579052 0 0 0 0 159276046.80349064 3738077.5944609642 0 3738077.5944609642 -353753187.90097046 0 0 0 0 60253757.077167511 -27970824.586429596 0 -27970824.586429596 -338852119.51650238 0 0 0 0 -43929195.83090663 -166465897.95146847 0 -166465897.95146847 -200955085.17367172 0 0 0 0 131496866.40194374 50393163.077264786 0 50393163.077264786 -431509025.82823944 0 0 0 0 273825409.65741199 -55146614.938798904 0 -55146614.938798904 -499365226.36053848 0 0 0 0 398729668.11562705 -240843354.36989784 0 -240843354.36989784 -309116274.37821198 0 0 0 0 222622859.30303723 -162403487.75204325 0 -162403487.75204325 -237540373.26017761 0 0 0 0 161163198.40350842 -155029002.71071243 0 -155029002.71071243 -209211785.4100132 0 0 0 0 156489245.71984813 -222988748.96695769 0 -222988748.96695769 -128173236.4358139 0 0 0 0 51632510.528026581 -218875703.52780914 0 -218875703.52780914 173233416.88439846 0 0 0 0 256245880.20391044 -297495803.24955559 0 -297495803.24955559 -102977113.05082893 0 0 0 0 24009904.489650011 -170836515.99975491 0 -170836515.99975491 91964820.362628937 0 0 0 0 103252315.19425194 -257486039.99612671 0 -257486039.99612671 23760947.063331604 0 0 0 0 102032730.09749357 -292132613.7680732 0 -292132613.7680732 136390507.06882095 0 0 0 0 401472192.56750822 -441174539.56714439 0 -441174539.56714439 80915192.290016174 0 0 0 0 246609835.38248298 -217905276.74269485 0 -217905276.74269485 -202426727.53888321 0 0 0 0 -19182021.272846222 -61858581.785320282 0 -61858581.785320282 280128968.95450974 0 0 0 0 455856280.47130442 -383613497.72741127 0 -383613497.72741127 82303030.908267975 0 0 0 0 52341980.047027528 -333469808.1553669 0 -333469808.1553669 498075906.58145905 0 0 0 0 148575682.66020131 -412155528.9405365 0 -412155528.9405365 942368503.81232834 0 0 0 0 -33844483.849852204 -155470668.49959087 0 -155470668.49959087 133638782.53871918 0 0 0 0 22819871.291974545 -135749890.54197502 0 -135749890.54197502 131867539.95467758 0 0 0 0 96328782.828712463 268823080.61883163 0 268823080.61883163 -346376919.93914032 0 0 0 0 158773213.93515396 258919593.83041382 0 258919593.83041382 -57675113.277956009 0 0 0 0 444863296.81678343 431525282.8431015 0 431525282.8431015 -272060981.10165596 0 0 0 0 798218979.50248146 -175539595.59795952 0 -175539595.59795952 -458798875.27723074 0 0 0 0 128094998.04002881 94629779.497731209 0 94629779.497731209 30359436.954368591 0 0 0 0 756616817.62359285 -161474977.07044983 0 -161474977.07044983 90998308.502152443 0 0 0 0 1176588148.3093965 353836872.58206844 0 353836872.58206844 647442358.03329849 0 0 0 0 1016936574.695601 -855954132.39998817 0 -855954132.39998817 479675646.94206619 0 0 0 0 1528093895.2441292 -876370297.10506439 0 -876370297.10506439 985489680.52592278 0 0 0 0 591439062.5588007 473023916.8876915 0 473023916.8876915 45452050.272216797 0 0 0 0 765529285.46194458 -100799288.79782486 0 -100799288.79782486 192122126.41084671 0 0 0 0 200652352.17089605 146969276.54601097 0 146969276.54601097 531591532.86598587 0 0 0 0 -38682999.923924923 134130022.60353088 0 134130022.60353088 175948835.24650955 0 0 0 0 -55560724.609380245 340080181.42172623 0 340080181.42172623 -304685587.75356674 0 0 0 0 229483313.34099564 320696916.88894963 0 320696916.88894963 -114322175.96578979 0 0 0 0 -101955979.18536997 444938879.98672485 0 444938879.98672485 48119984.096780777 0 0 0 0 206031857.60428351 461397038.40416527 0 461397038.40416527 -266039664.55688477 0 0 0 0 -245157861.68301797 591948157.63160896 0 591948157.63160896 -173819323.79730988 0 0 0 0 -91243926.216886878 405879643.08444881 0 405879643.08444881 -342627131.63718414 0 0 0 0 -28145992.346961498 572749566.75997162 0 572749566.75997162 -435356576.60074997 0 0 0 0 -55521779.04104805 610353213.63075256 0 610353213.63075256 -222541124.24113655 0 0 0 0 -315286709.82627726 442809836.07549286 0 442809836.07549286 -473624921.96393204 0 0 0 0 -717276498.8617878 400514393.47583389 0 400514393.47583389 -234627512.86606598 0 0 0 0 -302059912.08924747 551825008.32427597 0 551825008.32427597 -249530711.65465546 0 0 0 0 -341002178.61704242 283319389.63944244 0 283319389.63944244 -131834694.03159904 0 0 0 0 -568384788.28212905 574369989.89399719 0 574369989.89399719 -355169787.91444397 0 0 0 0 -825660275.17387819 618606132.55574179 0 618606132.55574179 -243568855.84870148 0 0 0 0 121566249.12511253 26776038.546220779 0 26776038.546220779 -92550174.122489929 0 0 0 0 -675680722.24837732 404683584.15742683 0 404683584.15742683 -428284136.75736809 0 0 0 0 -106736832.72514153 85187130.331725121 0 85187130.331725121 27262077.815977097 0 0 0 0 82061931.443599701 -382082394.00415039 0 -382082394.00415039 154059719.39657974 0 0 0 0 3909669.6072550071 4142111.0287206462 0 4142111.0287206462 3656613.0664033201 0 0 0 0 132607100.53611374 -148688392.3598671 0 -148688392.3598671 320942184.81052971 0 0 0 0 187083177.89500237 -193484827.40825081 0 -193484827.40825081 -136026645.26567078 0 0 0 0 23130484.089746453 12427668.004060183 0 12427668.004060183 -5750838.913417235 0 0 0 0 63471955.09810257 113460719.25766373 0 113460719.25766373 -26064650.823230743 0 0 0 0 17220597.690887451 18559209.160751343 0 18559209.160751343 -23374229.373817444 0 0 0 0 232757213.82900238 76211654.198612213 0 76211654.198612213 -148012916.19002962 0 0 0 0 170347182.3240242 23055557.76751709 0 23055557.76751709 -32259246.822998047 0 0 0 0 235286662.59307861 -133559694.68381023 0 -133559694.68381023 51955215.097953796 0 0 0 0 18244931.630889893 -45418416.100811005 0 -45418416.100811005 56594629.976673126 0 0 0 0 5797309.0785763161 -662769.32308250479 0 -662769.32308250479 -6821537.7489904035 0 0 0 0 8903227.2353920583 7574624.3664900316 0 7574624.3664900316 4453101.7489283811 0 0 0 0 190660352.72584152 -34840333.569308281 0 -34840333.569308281 -38913220.18794632 0 0 0 0 168535177.1390152 -35411860.287862778 0 -35411860.287862778 9440064.0485076904 0 0 0 0 -29269077.119140625 -154167525.54621315 0 -154167525.54621315 -47291027.357826233 0 0 0 0 -71417943.535491943 -88288983.805683136 0 -88288983.805683136 58363003.096992493 0 0 0 0 268147790.75114441 -110025690.95381546 0 -110025690.95381546 -172138157.98582458 0 0 0 0 215034691.27046204 26456043.03029871 0 26456043.03029871 12655565.523498535 0 0 0 0 135939514.0483551 13272985.477443695 0 13272985.477443695 30842971.856433868 0 0 0 0 8529425.3465881348 21394437.166625977 0 21394437.166625977 -20254021.410728455 0 0 0 0 4576705.0647735596 24372464.879241943 0 24372464.879241943 -22216821.386054993 0 0 0 0 12629634.510131836 22210376.2006073 0 22210376.2006073 -25078209.397857666 0 0 0 0 6169460.7560424805 27342627.072303772 0 27342627.072303772 -25064136.626559734 0 0 0 0 9632744.4683227539 25339505.440517426 0 25339505.440517426 -25266213.988578796 0 0 0 0 8789945.0390930176 24992220.663475037 0 24992220.663475037 -25008217.347177982 0 0 0 0 8779074.8509063721 24907748.642354965 0 24907748.642354965 -24116093.799911499 0 0 0 0 6931199.7878723145 24690932.656963348 0 24690932.656963348 -24090864.549741268 0 0 0 0 8586704.0820112228 25550468.58469975 0 25550468.58469975 -23832324.287391663 0 0 0 0 8508580.4094076157 24059953.28221333 0 24059953.28221333 -20899558.017913818 0 0 0 0 6678583.6940612793 27170600.561161041 0 27170600.561161041 -26343643.773925781 0 0 0 0 24294567.194478694 10145824.225999899 0 10145824.225999899 -13108901.448792325 0 0 0 0 4183276.1641693115 27750983.984470367 0 27750983.984470367 -24371723.860641479 0 0 0 0 36151242.298812866 27385014.399120331 0 27385014.399120331 70546106.382858276 0 0 0 0 171530489.38778687 37387738.149459839 0 37387738.149459839 36837325.41293335 0 0 0 0 9754243.404646134 -1179906.8862074995 0 -1179906.8862074995 -3356697.5563793667 0 0 0 0 110210293.92469788 30910207.633590698 0 30910207.633590698 40260457.559286118 0 0 0 0 -10974510.008829117 -42852182.640276909 0 -42852182.640276909 84033652.245529175 0 0 0 0 60989548.785934448 -59508290.724334717 0 -59508290.724334717 26622496.588394165 0 0 0 0 16656295.006660461 -100423455.07285404 0 -100423455.07285404 -5358302.0359191895 0 0 0 0 110478957.52281952 -76117558.785167694 0 -76117558.785167694 101372444.95236206 0 0 0 0 29693231.300872803 -15457931.545005798 0 -15457931.545005798 100230070.57289886 0 0 0 0 103006299.47238159 -42132567.326202393 0 -42132567.326202393 91710270.030403137 0 0 0 0 68954111.264320374 -14668338.148174286 0 -14668338.148174286 77086459.569061279 0 0 0 0 47238843.940505981 -62362945.928813934 0 -62362945.928813934 142401376.74520874 0 0 0 0 48965113.970535278 -30065366.048797607 0 -30065366.048797607 161198191.99334717 0 0 0 0 31369888.413534164 -57471175.618395805 0 -57471175.618395805 124906475.95664978 0 0 0 0 98258463.669647217 20136565.642288208 0 20136565.642288208 149740800.70708084 0 0 0 0 104953523.62486267 43375983.209980011 0 43375983.209980011 -7323082.2119324207 0 0 0 0 136103378.32254791 -116120845.02663803 0 -116120845.02663803 -105346539.13098907 0 0 0 0 202503531.23300934 -69665781.903785706 0 -69665781.903785706 -109518525.38703918 0 0 0 0 309026910.82821655 34589557.419960022 0 34589557.419960022 -52486664.233692169 0 0 0 0 4960661.2234982625 4510605.1028100476 0 4510605.1028100476 -3928162.4571474707 0 0 0 0 92897657.621307373 -24455373.493125916 0 -24455373.493125916 68090953.872049332 0 0 0 0 73542505.512573242 -25423867.902122498 0 -25423867.902122498 68128345.907562256 0 0 0 0 181160.97513580322 42690114.700902939 0 42690114.700902939 32922339.413768768 0 0 0 0 138739909.88586426 4769766.0482330322 0 4769766.0482330322 -10232435.854969978 0 0 0 0 38766460.383750916 -6157155.5020275116 0 -6157155.5020275116 11312499.798986435 0 0 0 0 30013029.72258091 -65300600.08294487 0 -65300600.08294487 -503207745.76251984 0 0 0 0 72073782.527618408 -38303842.623159409 0 -38303842.623159409 37693663.108707428 0 0 0 0 20250707.537535332 7419759.4442541162 0 7419759.4442541162 367675.34948518686 0 0 0 0 87379272.083610535 -110731463.86920929 0 -110731463.86920929 189641371.07678223 0 0 0 0 40817921.365142822 -24946600.865951538 0 -24946600.865951538 35916155.071032047 0 0 0 0 38868793.690162659 -9350913.5115280151 0 -9350913.5115280151 -18024374.940040588 0 0 0 0 -27789494.773628235 25542829.03915596 0 25542829.03915596 141539314.16503143 0 0 0 0 -23481095.223777771 1716927.8076896667 0 1716927.8076896667 175598447.44022655 0 0 0 0 63799071.078552723 353326239.08065414 0 353326239.08065414 -401157716.31690979 0 0 0 0 -227403914.37118256 505212716.51123095 0 505212716.51123095 -456227248.92930984 0 0 0 0 59389125.702392578 -8182779.4904842377 0 -8182779.4904842377 -40454006.489997864 0 0 0 0 13453362.171648122 6363877.7022344302 0 6363877.7022344302 720804.76017216593 0 0 0 0 -209986767.94698644 595457885.02925301 0 595457885.02925301 -429444368.72469902 0 0 0 0 5176237.5643161153 2036413.7260170151 0 2036413.7260170151 -2574740.5045083398 0 0 0 0 184102830.07762527 -70597824.252882004 0 -70597824.252882004 31897854.341491699 0 0 0 0 158850586.7806778 -26255143.069293976 0 -26255143.069293976 50575931.793395996 0 0 0 0 4726134988.1297798 183900943.110116 0 183900943.110116 -452597755.40488821 0 0 0 0 3382590706.7997179 1149786925.183531 0 1149786925.183531 -907616026.11016965 0 0 0 0 2538717018.7633743 -686731079.16924763 0 -686731079.16924763 -1068256817.556464 0 0 0 0 3360184945.1900635 -1595384094.5002031 0 -1595384094.5002031 -97924283.195940197 0 0 0 0 5536396921.865509 -2250066030.6545367 0 -2250066030.6545367 -215537442.94030046 0 0 0 0 1929316068.2931743 -647110732.2526505 0 -647110732.2526505 80334875.342998981 0 0 0 0 5219629662.7335968 1673316929.6340375 0 1673316929.6340375 1210383884.6303689 0 0 0 0 4724371418.2144623 635785229.05475867 0 635785229.05475867 983304879.65453732 0 0 0 0 5015622156.1179352 -315462238.33494735 0 -315462238.33494735 3380012151.5390353 0 0 0 0 4920166806.4505882 -26262544.005238317 0 -26262544.005238317 440361364.01817888 0 0 0 0 4474485512.356142 1487294908.2157457 0 1487294908.2157457 -434646231.60241657 0 0 0 0 3240847433.3571053 2583432956.4548054 0 2583432956.4548054 1172622553.9673388 0 0 0 0 1527005074.9815063 -1258786345.4615264 0 -1258786345.4615264 1321304990.3999348 0 0 0 0 5747379120.4472198 845234208.31680107 0 845234208.31680107 -195833463.65579677 0 0 0 0 8048644.3740343451 -1264842.1326319876 0 -1264842.1326319876 -440507.4878625425 0 0 0 0 -556603818.19662476 260404202.63152075 0 260404202.63152075 216869069.48657727 0 0 0 0 2363045350.3637924 1868372365.665674 0 1868372365.665674 522097156.02601433 0 0 0 0 146153272.11735916 22075410.450463604 0 22075410.450463604 556087092.73294425 0 0 0 0 1829991149.9753723 709693484.93892491 0 709693484.93892491 -66941611.907214805 0 0 0 0 428068838.89259338 975116993.07712984 0 975116993.07712984 779973858.76499498 0 0 0 0 -137856628.85249329 -76136965.708660841 0 -76136965.708660841 18915661.960460126 0 0 0 0 209917164.09469604 281167773.81660271 0 281167773.81660271 128293494.89443722 0 0 0 0 20701920.333643861 -3443216.6836863053 0 -3443216.6836863053 -2273607.9995232639 0 0 0 0 -31841428.315238953 -8568740.828783989 0 -8568740.828783989 -94200269.112843513 0 0 0 0 175472637.18161011 3231338.2656550407 0 3231338.2656550407 -264692932.52312613 0 0 0 0 527637553.66047287 -32955125.468846977 0 -32955125.468846977 -805981904.62637091 0 0 0 0 30998816.200963974 115331366.28999183 0 115331366.28999183 -6891983.3968389034 0 0 0 0 404850.20015444979 -2145147.3599226754 0 -2145147.3599226754 -2358701.8698626393 0 0 0 0 -64199284.016914368 -170328748.62391305 0 -170328748.62391305 252026387.40544677 0 0 0 0 1938537565.6123457 -558041181.5329082 0 -558041181.5329082 -11911080.795141816 0 0 0 0 2009912350.2661896 -620220850.30448413 0 -620220850.30448413 -8240426.3268847615 0 0 0 0 -45702139.802101135 337779345.46072364 0 337779345.46072364 195190481.5622921 0 0 0 0 -196848415.75344467 55826144.158337176 0 55826144.158337176 662453144.45005369 0 0 0 0 271372581.35874939 -591904467.30581665 0 -591904467.30581665 558220838.63941598 0 0 0 0 -32314505.7578125 -102798.58134365082 0 -102798.58134365082 103399878.87253904 0 0 0 0 -5170962.2995851152 -3313397.2505455846 0 -3313397.2505455846 -2891607.5261669667 0 0 0 0 -38432098.472900391 190385739.96434426 0 190385739.96434426 -201876202.77289319 0 0 0 0 61506.67812538147 4953159.2517502308 0 4953159.2517502308 43982064.572270393 0 0 0 0 27277893.610576376 -18758714.306747258 0 -18758714.306747258 -15443736.031445345 0 0 0 0 6876424.8025655877 17011608.216635205 0 17011608.216635205 4654323.9571312238 0 0 0 0 84343885.867622375 23041404.672499597 0 23041404.672499597 1601632.7795007229 0 0 0 0 80884751.251556396 4376834.6150404587 0 4376834.6150404587 -12097434.546540737 0 0 0 0 28597839.573349431 5675762.6387971248 0 5675762.6387971248 -17364113.596637208 0 0 0 0 99326293.459747314 44610421.578586578 0 44610421.578586578 -1917898.3008978367 0 0 0 0 -10942397.165649414 47204073.629714847 0 47204073.629714847 3705033.1791680455 0 0 0 0 4993040.3174133301 34155642.688317776 0 34155642.688317776 918160.06148993969 0 0 0 0 -36844087.080078125 43046969.315227807 0 43046969.315227807 101830172.51990195 0 0 0 0 5894745.4465866089 58959202.726446152 0 58959202.726446152 -46455914.808567047 0 0 0 0 140357499.53053284 -285918420.50475502 0 -285918420.50475502 -729400998.80248952 0 0 0 0 29447498.487905569 -3114498.2729685153 0 -3114498.2729685153 -5783102.812719347 0 0 0 0 34172374.429115295 38926178.155992508 0 38926178.155992508 -86382159.602487087 0 0 0 0 42809839.890598297 -397391393.17051411 0 -397391393.17051411 -536435606.33843875 0 0 0 0 2973043.1386108398 -133003350.23951538 0 -133003350.23951538 -177254552.29716367 0 0 0 0 239405645.83841419 -178235588.5168834 0 -178235588.5168834 -171677724.27140322 0 0 0 0 83492725.84286499 -149150357.44790104 0 -149150357.44790104 -167238383.64224768 0 0 0 0 -175491917.49679565 -93045096.357154518 0 -93045096.357154518 -174396576.28560999 0 0 0 0 -273229223.24685669 -208789887.9940083 0 -208789887.9940083 -560676796.02582657 0 0 0 0 71345512.237174988 -205714648.62665534 0 -205714648.62665534 -561378011.24571419 0 0 0 0 -95449704.293689728 -317952050.31911415 0 -317952050.31911415 -222816558.79427508 0 0 0 0 6257700.9114401545 14873060.670636639 0 14873060.670636639 -2231350.4972067899 0 0 0 0 -1735895.0345039368 64574179.371874839 0 64574179.371874839 -84748573.398239613 0 0 0 0 132653521.87966919 104305832.31077203 0 104305832.31077203 70243064.324157834 0 0 0 0 1106693.7200637162 4209796.0980757158 0 4209796.0980757158 -44396.69500180961 0 0 0 0 87913638.497386932 48713715.357252002 0 48713715.357252002 1268036.5009121895 0 0 0 0 27785790.120574951 23089294.900504589 0 23089294.900504589 -49204996.471781731 0 0 0 0 1502746.664377464 629691.91705923155 0 629691.91705923155 -43054.207920213463 0 0 0 0 45746748.654876709 -40640553.803945899 0 -40640553.803945899 -11359308.234655023 0 0 0 0 172613257.47303581 -33974643.371419385 0 -33974643.371419385 -46177084.429325998 0 0 0 0 27345752.098785013 -17497745.120602377 0 -17497745.120602377 -16557067.42183857 0 0 0 0 221545754.77459717 -18819129.834764093 0 -18819129.834764093 -191130189.36569151 0 0 0 0 263111760.15896606 -191993149.39594501 0 -191993149.39594501 -514525129.05026007 0 0 0 0 26047325.986923218 4508433.8639031798 0 4508433.8639031798 -32414999.668505728 0 0 0 0 78069910.002532959 -194982911.36595452 0 -194982911.36595452 -140484163.02120566 0 0 0 0 53081878.034667969 -150458864.36053401 0 -150458864.36053401 -167706334.8801797 0 0 0 0 27150498.838647641 -16009543.572350629 0 -16009543.572350629 -17699868.497601379 0 0 0 0 -21899533.017044067 -82628990.504857287 0 -82628990.504857287 -69064262.864214972 0 0 0 0 143500711.99395752 -266586716.21177483 0 -266586716.21177483 -79745634.249145508 0 0 0 0 -18180931.508152008 -96906532.687770277 0 -96906532.687770277 -58010681.007367849 0 0 0 0 -39410567.923449516 -24926630.634200096 0 -24926630.634200096 51540007.072227478 0 0 0 0 387612914.81795692 -20529224.652439117 0 -20529224.652439117 -6749595.623249054 0 0 0 0 405183380.86698949 115475610.62280309 0 115475610.62280309 -16755159.161289215 0 0 0 0 -297560896.26536751 -82184476.694829941 0 -82184476.694829941 -115089170.94881821 0 0 0 0 218866764.14172745 -59181014.766670227 0 -59181014.766670227 54730763.238166809 0 0 0 0 -2152055.1491324753 -2720981.2547069136 0 -2720981.2547069136 -1800083.4608927574 0 0 0 0 293422465.12252617 52320532.797298431 0 52320532.797298431 43443469.602584839 0 0 0 0 328376546.86224747 106669151.28516006 0 106669151.28516006 23022499.217258453 0 0 0 0 218193528.25555801 107515925.30833817 0 107515925.30833817 54393568.702125549 0 0 0 0 318520475.71497345 165931098.60534668 0 165931098.60534668 73603054.776409149 0 0 0 0 379207800.52105331 118299639.71178055 0 118299639.71178055 30380585.779875755 0 0 0 0 323922185.97459316 129542049.25493789 0 129542049.25493789 28384551.627864838 0 0 0 0 -251653494.75734329 -184182006.09638596 0 -184182006.09638596 -37038303.736167908 0 0 0 0 -11383905.389457447 -7377448.608477192 0 -7377448.608477192 -3415062.0054398067 0 0 0 0 137889750.25503159 9345798.0429525375 0 9345798.0429525375 48849764.912742615 0 0 0 0 -91752606.740060806 -59090893.937561035 0 -59090893.937561035 -34910307.864784241 0 0 0 0 428016623.36046791 -45186067.232212067 0 -45186067.232212067 -18057904.132392406 0 0 0 0 160416421.32911587 -3129088.0403442383 0 -3129088.0403442383 -48338326.433822632 0 0 0 0 -93806390.057016373 -45084350.988195419 0 -45084350.988195419 -61932301.406196594 0 0 0 0 946582803.87372971 215911753.64943314 0 215911753.64943314 -42177355.540901184 0 0 0 0 -256957574.06331635 103497295.2841835 0 103497295.2841835 122754760.8115387 0 0 0 0 962195140.23992538 405369851.77901077 0 405369851.77901077 -270638804.51904297 0 0 0 0 476129995.38307095 585220651.59374046 0 585220651.59374046 431553254.93516541 0 0 0 0 190746179.22272795 124664317.48987377 0 124664317.48987377 116248094.05791473 0 0 0 0 312895473.51858521 292257245.13933182 0 292257245.13933182 333730388.5372963 0 0 0 0 40843098.686955929 -313852913.04700661 0 -313852913.04700661 -303096631.85300827 0 0 0 0 2777019.8687585471 -162277.51795076113 0 -162277.51795076113 350757.43216543645 0 0 0 0 248747946.62265682 -405457855.40338707 0 -405457855.40338707 -362781271.45745468 0 0 0 0 293295071.64634132 -117029550.01511574 0 -117029550.01511574 -461789143.84673643 0 0 0 0 309173857.00238228 -182061408.15825653 0 -182061408.15825653 -247197307.72803497 0 0 0 0 1245727218.7443733 -205669559.36654663 0 -205669559.36654663 -490327773.79218292 0 0 0 0 234878575.12706852 84087272.790559769 0 84087272.790559769 23644027.608078003 0 0 0 0 1078525446.7892056 -526865790.35104847 0 -526865790.35104847 106296818.86656189 0 0 0 0 132439448.30131912 1475474919.1810226 0 1475474919.1810226 -141942112.9580574 0 0 0 0 2852425.6011929642 -2500619.9527239772 0 -2500619.9527239772 -3075784.5434276415 0 0 0 0 -2517354.5688846642 -1868312.7853392973 0 -1868312.7853392973 -704040.76140801795 0 0 0 0 25252857.120059967 48427565.725917816 0 48427565.725917816 62003744.654937744 0 0 0 0 -13041357.955765342 -25848297.00842905 0 -25848297.00842905 -4966229.3927134164 0 0 0 0 340391060.87104559 5821031.8989601135 0 5821031.8989601135 -144144996.49752426 0 0 0 0 7332397.1597948568 -12735649.745278578 0 -12735649.745278578 -12380297.946837822 0 0 0 0 108020034.72234344 -81897339.298299789 0 -81897339.298299789 -29897719.772533417 0 0 0 0 143410147.75916862 -169433373.89771271 0 -169433373.89771271 -104978659.49626923 0 0 0 0 151415186.43689537 -167038730.96737289 0 -167038730.96737289 -218582959.26188278 0 0 0 0 117150773.6352849 -186630369.25850105 0 -186630369.25850105 -61671090.181219101 0 0 0 0 118552204.48608255 -183116568.20574188 0 -183116568.20574188 -108175219.15140009 0 0 0 0 139748586.47982264 -135760992.08390522 0 -135760992.08390522 -5739618.4374427795 0 0 0 0 42229337.528392315 -133534797.0945816 0 -133534797.0945816 -2876519.5486106873 0 0 0 0 50000629.598034382 -155636328.93972206 0 -155636328.93972206 59603785.375038147 0 0 0 0 4923197.8008775711 -99404252.982883453 0 -99404252.982883453 83492501.934839249 0 0 0 0 9885152.6154289246 -70940930.30441618 0 -70940930.30441618 11564731.935882568 0 0 0 0 27295106.140728951 -30246040.817595959 0 -30246040.817595959 -50589697.005432129 0 0 0 0 -7256462.5925369263 -18276950.915428162 0 -18276950.915428162 -18101810.162948608 0 0 0 0 34838858.385639191 -60939838.611740112 0 -60939838.611740112 11426831.092505932 0 0 0 0 63443127.091030121 -109762188.51950455 0 -109762188.51950455 23328093.789632797 0 0 0 0 51246627.451289415 -54107578.793972254 0 -54107578.793972254 14993145.608482361 0 0 0 0 -935701.58639090694 -3279776.3010592889 0 -3279776.3010592889 -1500479.3990827715 0 0 0 0 105452144.62551403 -71138528.247117996 0 -71138528.247117996 -3434261.4465427399 0 0 0 0 10821078.070511186 -13160989.370707626 0 -13160989.370707626 -15011172.201478867 0 0 0 0 -12177577.298751831 -23023402.083207607 0 -23023402.083207607 -3803317.6879857779 0 0 0 0 25303849.53339386 -24706663.989214867 0 -24706663.989214867 -71951014.790386081 0 0 0 0 -15090989.02406311 -63815383.832073331 0 -63815383.832073331 -64271538.998517513 0 0 0 0 -141072619.8651123 115343042.70121074 0 115343042.70121074 206631573.23439217 0 0 0 0 -100996039.4901123 -101789929.34854198 0 -101789929.34854198 3346327.1001327038 0 0 0 0 -89506331.173065186 -119951361.01522207 0 -119951361.01522207 -102788504.30027473 0 0 0 0 -13636979.022930145 -35924051.321501106 0 -35924051.321501106 20537250.152051568 0 0 0 0 4871752.3544158936 -20131929.200413018 0 -20131929.200413018 -127318389.60303032 0 0 0 0 19684456.880312324 -8677866.3925586827 0 -8677866.3925586827 -13547778.982013168 0 0 0 0 -7530589.5674536228 34539476.025944233 0 34539476.025944233 -66886814.065463066 0 0 0 0 22900358.108600713 -9902444.0835119821 0 -9902444.0835119821 -12627048.566906884 0 0 0 0 7864953.0548439026 -8640590.508939743 0 -8640590.508939743 -8169777.18760252 0 0 0 0 14638238.529116333 -4430178.3218827993 0 -4430178.3218827993 -12770141.358653624 0 0 0 0 97748378.820240021 37735180.430580169 0 37735180.430580169 -217081164.53831816 0 0 0 0 28111997.249481685 -7618215.2154076882 0 -7618215.2154076882 -5739773.5721493512 0 0 0 0 138080443.4776144 -22579232.515058994 0 -22579232.515058994 -93213114.410858393 0 0 0 0 9053004.7389921024 -5492636.954252352 0 -5492636.954252352 -7463631.8732012073 0 0 0 0 -30924820.817863464 -86476255.972306967 0 -86476255.972306967 -51749776.017727256 0 0 0 0 -294252698.11537933 -85329205.302335262 0 -85329205.302335262 76384972.457589865 0 0 0 0 -368909.37034336105 -669945.99865156971 0 -669945.99865156971 -164801.50457261363 0 0 0 0 231284878.09284973 -181272357.85885245 0 -181272357.85885245 -294134207.41059566 0 0 0 0 220892772.38959503 -122959945.33225852 0 -122959945.33225852 -98943275.094916582 0 0 0 0 41075403.715553284 -215112566.99925184 0 -215112566.99925184 38618722.330780506 0 0 0 0 -214525606.20830345 -766667.95495305955 0 -766667.95495305955 -5751598.345539093 0 0 0 0 7559648.8532066345 -151239072.01695192 0 -151239072.01695192 1839962.2808995247 0 0 0 0 -1184023.5274123931 -2074668.9556769468 0 -2074668.9556769468 -736513.43574927037 0 0 0 0 57289537.071796417 -55807019.694445491 0 -55807019.694445491 63844885.751448154 0 0 0 0 -23402630.834522247 -186913251.09029183 0 -186913251.09029183 80581049.66165781 0 0 0 0 -170395.1169128418 -174067285.72656584 0 -174067285.72656584 -75371242.706319571 0 0 0 0 -222588663.69361877 -168573525.80913019 0 -168573525.80913019 57968537.000579119 0 0 0 0 -54346840.656333923 -109804496.16961944 0 -109804496.16961944 14573450.988027096 0 0 0 0 -78027716.331237793 -53434139.210545778 0 -53434139.210545778 26125092.870605946 0 0 0 0 -30288576.568479538 -22575945.438598186 0 -22575945.438598186 -23730513.839932442 0 0 0 0 92364875.666717529 -28196400.370363712 0 -28196400.370363712 -151537942.61666751 0 0 0 0 -2490159.5203672275 -1402535.4638359584 0 -1402535.4638359584 -506183.49248320388 0 0 0 0 -89419459.148292542 -31951172.042004108 0 -31951172.042004108 15942467.710688114 0 0 0 0 -60847683.515716553 -63033967.261482716 0 -63033967.261482716 30508259.412610888 0 0 0 0 -68558094.863830566 -43600836.653591871 0 -43600836.653591871 23450241.069477558 0 0 0 0 -78224900.184783936 -43792776.371037483 0 -43792776.371037483 25306311.099766254 0 0 0 0 8214196.689163208 -35121331.437104702 0 -35121331.437104702 -28137471.174764633 0 0 0 0 -8312807.1634283066 -4213166.8529847525 0 -4213166.8529847525 -1291088.3821672001 0 0 0 0 -49215840.478050232 -22416134.520168304 0 -22416134.520168304 -3742745.4511413574 0 0 0 0 11444522.931045532 -14502266.838144541 0 -14502266.838144541 -23754856.796048164 0 0 0 0 -3274895.5523373559 -32677863.57178222 0 -32677863.57178222 -14065034.849708185 0 0 0 0 -15682266.435424805 -15739442.478157997 0 -15739442.478157997 -12208033.975757122 0 0 0 0 -4912452.0416611414 -3912838.8138288353 0 -3912838.8138288353 -1480393.7015106706 0 0 0 0 3362941.9255282283 400949.1042950172 0 400949.1042950172 -3364867.5124845691 0 0 0 0 -17477749.890228271 -38425473.283350945 0 -38425473.283350945 -19087553.669409752 0 0 0 0 4478138.3445663452 -739592.34092926979 0 -739592.34092926979 -3432763.0673394203 0 0 0 0 -333488454.88991928 -28670977.427343786 0 -28670977.427343786 138662758.73579407 0 0 0 0 16828143.426937103 -199596487.88906884 0 -199596487.88906884 89505182.737480164 0 0 0 0 -137985743.47195435 61021543.800564051 0 61021543.800564051 14319773.267970085 0 0 0 0 -305256221.73712158 -49329268.997653961 0 -49329268.997653961 78380409.947091579 0 0 0 0 -206674310.26593018 -46079171.589017391 0 -46079171.589017391 -22002841.746106148 0 0 0 0 -468097874.74273682 -220851189.92735791 0 -220851189.92735791 -49210228.810354233 0 0 0 0 -126954.42984261364 -166155.03742105514 0 -166155.03742105514 -257968.09849612403 0 0 0 0 596153347.89200592 -23299249.431462288 0 -23299249.431462288 102803896.69773966 0 0 0 0 270632374.6104126 -15942912.845412731 0 -15942912.845412731 110925301.78153706 0 0 0 0 463659633.52381897 -254952195.39448357 0 -254952195.39448357 -10027412.002040982 0 0 0 0 667937886.24085999 -410597134.93069541 0 -410597134.93069541 229371309.43514442 0 0 0 0 1143758800.3632278 64639494.318930328 0 64639494.318930328 14182878.428656101 0 0 0 0 2387988476.727417 -900474275.52488732 0 -900474275.52488732 48217476.763168812 0 0 0 0 2931476599.42488 1239535723.3971329 0 1239535723.3971329 -18616340.380746841 0 0 0 0 1474757277.2086716 457381622.40443343 0 457381622.40443343 -162494944.64467716 0 0 0 0 823440844.32137299 -163901529.5735234 0 -163901529.5735234 -60116349.144838095 0 0 0 0 376366140.60292435 22588277.210753262 0 22588277.210753262 25966868.274646759 0 0 0 0 -178438852.82147217 -108796779.72249413 0 -108796779.72249413 9975445.0266098827 0 0 0 0 708793035.99694061 151626071.23437697 0 151626071.23437697 -293863667.02954704 0 0 0 0 -18498042.403211594 -104736052.46217397 0 -104736052.46217397 -71895957.793245524 0 0 0 0 19358956.118831292 -5321704.5156953111 0 -5321704.5156953111 -1283032.4118767483 0 0 0 0 567899910.87537003 380285142.06062108 0 380285142.06062108 156332962.15011454 0 0 0 0 1054844225.7871513 320748777.60257864 0 320748777.60257864 -228602154.26603746 0 0 0 0 668448316.55518341 173884428.2751694 0 173884428.2751694 -100106046.2058634 0 0 0 0 1029938451.2080994 356279680.48628151 0 356279680.48628151 146883513.58389321 0 0 0 0 1635397243.9814835 1091241440.2218444 0 1091241440.2218444 340215033.32145077 0 0 0 0 4709919928.5214844 2785672669.9973068 0 2785672669.9973068 1264438648.0116851 0 0 0 0 4721247838.523613 839185797.90963936 0 839185797.90963936 -675204124.15414441 0 0 0 0 4667743.0448629409 184089.21482867748 0 184089.21482867748 -1642433.2832007681 0 0 0 0 1592745785.423336 -500404828.96101838 0 -500404828.96101838 -1079086451.4420056 0 0 0 0 1265408143.7742977 736423829.55312252 0 736423829.55312252 -138617687.46216321 0 0 0 0 1273345367.2087021 773720904.4206171 0 773720904.4206171 -33941942.25528115 0 0 0 0 2560878.7003606036 -397920.00984413922 0 -397920.00984413922 -379856.06047181622 0 0 0 0 935094820.70470428 -1533785364.5390389 0 -1533785364.5390389 -834692016.69393063 0 0 0 0 4718762033.1924934 1881019205.691793 0 1881019205.691793 -504540993.83363146 0 0 0 0 1985550752.8628216 929644955.32077205 0 929644955.32077205 -713748314.28978586 0 0 0 0 3295624012.408699 -182941346.77766773 0 -182941346.77766773 -1976221296.4085374 0 0 0 0 2474622551.1150246 -1441216937.2080085 0 -1441216937.2080085 -105977449.58686328 0 0 0 0 2725533189.7037315 650370005.5310576 0 650370005.5310576 -2430213112.7033463 0 0 0 0 3232497285.2659264 -178911848.51193833 0 -178911848.51193833 -1975131941.4996517 0 0 0 0 -368973443.00924683 -1775432640.7990475 0 -1775432640.7990475 502170246.0378443 0 0 0 0 -243827411.15242004 -838543819.2452774 0 -838543819.2452774 -2722738464.6946068 0 0 0 0 652218328.73371124 -460847151.94273353 0 -460847151.94273353 -1049125527.1300054 0 0 0 0 -1712848157.5353622 407600643.41894817 0 407600643.41894817 -1648714487.091351 0 0 0 0 239644333.45018768 57658690.452373505 0 57658690.452373505 -1611335805.4494758 0 0 0 0 -2564257421.8398895 -1425579192.7607012 0 -1425579192.7607012 -808883055.24634409 0 0 0 0 -962872865.81991577 -1687186470.5408015 0 -1687186470.5408015 -793817732.62647629 0 0 0 0 -665110671.0381794 -1373177397.2835145 0 -1373177397.2835145 -576945799.25978851 0 0 0 0 837475904.97559357 -1949438590.5806518 0 -1949438590.5806518 -368009308.79695064 0 0 0 0 982578845.96211624 -258604309.93839371 0 -258604309.93839371 -990946414.12275076 0 0 0 0 8873658.2346120663 -4401025.3333975384 0 -4401025.3333975384 -4609151.7629329935 0 0 0 0 609685460.44794464 -987589098.78500843 0 -987589098.78500843 933103720.4815048 0 0 0 0 1911842682.7362595 -670184015.38824058 0 -670184015.38824058 404374791.50753367 0 0 0 0 1548240340.5316205 -2085821120.5594528 0 -2085821120.5594528 546750183.76232541 0 0 0 0 2201496664.0351067 -1153527054.1416402 0 -1153527054.1416402 1210869630.2987666 0 0 0 0 4728154927.3019381 -1558609170.4273283 0 -1558609170.4273283 -783124492.19949913 0 0 0 0 921904883.85396957 -421970295.43741226 0 -421970295.43741226 631028334.02735031 0 0 0 0 4716770380.7254601 -2897290877.3144479 0 -2897290877.3144479 2067589978.2080798 0 0 0 0 8788284.439534178 -4408705.1233829465 0 -4408705.1233829465 -3599926.2885378059 0 0 0 0 4672229579.5640526 -2900647042.5143042 0 -2900647042.5143042 666544964.82771504 0 0 0 0 392790597.74799728 -1295922727.846992 0 -1295922727.846992 3334433040.2672772 0 0 0 0 7072855.6835127734 -2684477.3548245481 0 -2684477.3548245481 863038.87380572653 0 0 0 0 -170521144.35207939 -172680469.90494323 0 -172680469.90494323 1532168352.2701085 0 0 0 0 369690146.8764267 -831534356.3122344 0 -831534356.3122344 963528060.9756521 0 0 0 0 634424881.37597179 -1054986882.1829516 0 -1054986882.1829516 1141294800.7827396 0 0 0 0 321533287.20944452 -488840429.52164209 0 -488840429.52164209 745653177.21162987 0 0 0 0 270817903.87404442 -232959863.27865595 0 -232959863.27865595 265390926.31990451 0 0 0 0 90486237.067917585 42402703.439472079 0 42402703.439472079 86868648.84308815 0 0 0 0 -12134710.158452034 -195716387.49509686 0 -195716387.49509686 600616616.93180513 0 0 0 0 377112918.23112106 -548863030.53559899 0 -548863030.53559899 553899985.79182839 0 0 0 0 232045418.65866661 -344436904.16079497 0 -344436904.16079497 339576298.06901741 0 0 0 0 154180746.39096451 -425403332.94289613 0 -425403332.94289613 716531715.41338444 0 0 0 0 398207515.88508797 -626272056.72820568 0 -626272056.72820568 597043584.852386 0 0 0 0 382754251.80533218 -563441004.55892158 0 -563441004.55892158 980198434.29950047 0 0 0 0 205947775.06501865 -590729478.76758814 0 -590729478.76758814 870759174.94718933 0 0 0 0 725360464.93087769 -674435681.01379871 0 -674435681.01379871 732810811.01123393 0 0 0 0 4934797250.9835558 -528654843.39688969 0 -528654843.39688969 -714352502.87844086 0 0 0 0 5601319.9634336866 -1804768.406338132 0 -1804768.406338132 -796017.0886706051 0 0 0 0 -546215660.45214844 -2607056429.5765076 0 -2607056429.5765076 -1615019434.3737001 0 0 0 0 3041476125.3643513 2237634936.7669449 0 2237634936.7669449 -119147484.57069683 0 0 0 0 674342117.92143059 -1609814187.8577318 0 -1609814187.8577318 -911933130.32035112 0 0 0 0 258610589.21603823 -2465638127.1251783 0 -2465638127.1251783 -1608484667.5642071 0 0 0 0 7503003.9786182968 -4213833.9939564895 0 -4213833.9939564895 -3893902.7649603747 0 0 0 0 429197451.02884483 -862777715.99937725 0 -862777715.99937725 1018353661.3564204 0 0 0 0 503898530.93788147 -677562394.39961064 0 -677562394.39961064 768373099.24676704 0 0 0 0 123030378.21003056 -572506371.27793169 0 -572506371.27793169 942594721.07631111 0 0 0 0 205240959.94996071 -508915099.78250456 0 -508915099.78250456 874557994.27494824 0 0 0 0 14516518.41801405 -432302183.81536674 0 -432302183.81536674 1283019785.6267371 0 0 0 0 -5930491.6859849691 -512771044.59294605 0 -512771044.59294605 967801722.50978279 0 0 0 0 99516884.922729492 -784711234.99993849 0 -784711234.99993849 1089150204.6714773 0 0 0 0 125541918.26253319 -594885827.56290257 0 -594885827.56290257 502453125.96898079 0 0 0 0 -84138856.456114531 -634374326.55248141 0 -634374326.55248141 319601322.0802815 0 0 0 0 -134221226.08011293 -575852560.53633356 0 -575852560.53633356 515040062.6375643 0 0 0 0 170887674.67940897 -395513327.96541178 0 -395513327.96541178 131533922.47684002 0 0 0 0 39068242.319736958 -641956533.54739094 0 -641956533.54739094 907761574.31155968 0 0 0 0 236215667.50961876 -615625311.03583241 0 -615625311.03583241 516010501.87338567 0 0 0 0 122332653.49341011 -418415500.45104527 0 -418415500.45104527 614932417.64610648 0 0 0 0 112845699.58901787 -237949583.3232336 0 -237949583.3232336 326994710.94146156 0 0 0 0 190574322.66167068 -492147290.34358001 0 -492147290.34358001 277265822.09583902 0 0 0 0 58115558.27678299 -39647850.222516179 0 -39647850.222516179 110615171.08004963 0 0 0 0 155291962.57100868 -309508789.27056336 0 -309508789.27056336 16368539.96100831 0 0 0 0 183629450.87719345 -361033590.48662388 0 -361033590.48662388 343998940.99300218 0 0 0 0 152047134.72591019 -61641903.81863904 0 -61641903.81863904 37713805.137022972 0 0 0 0 4330828.8058605194 -6888665.8173542023 0 -6888665.8173542023 37335047.948360443 0 0 0 0 62157274.78414917 -74269956.311490536 0 -74269956.311490536 377327096.28219897 0 0 0 0 74991618.962379456 -60296143.881706238 0 -60296143.881706238 56622634.265612602 0 0 0 0 25783531.395812988 9569517.7212245464 0 9569517.7212245464 31946363.62178421 0 0 0 0 -36665339.039340734 9932563.2957029343 0 9932563.2957029343 23263002.227128983 0 0 0 0 12801755.382394265 1402842.8491111728 0 1402842.8491111728 -10027765.089449003 0 0 0 0 -12067330.121802241 39679477.830036044 0 39679477.830036044 13652955.040336609 0 0 0 0 -26052891.638132095 17883090.074270964 0 17883090.074270964 14887142.604016781 0 0 0 0 10255366.592917442 -11604866.580215454 0 -11604866.580215454 3903678.2520413399 0 0 0 0 46406730.280849457 -68690854.698455215 0 -68690854.698455215 51622805.95154503 0 0 0 0 18446287.1038239 -32027133.887045622 0 -32027133.887045622 -28292600.507486582 0 0 0 0 -4237158.1482797861 -34318906.232201695 0 -34318906.232201695 -15226316.548573256 0 0 0 0 1423570.1459080945 -1296630.9567645264 0 -1296630.9567645264 -810550.69228250138 0 0 0 0 -388669173.2640053 -256680691.38356769 0 -256680691.38356769 -344232871.41800392 0 0 0 0 29324814.916136742 -19667807.721658468 0 -19667807.721658468 -24276230.433026552 0 0 0 0 4634999.6766209602 -24787369.107799649 0 -24787369.107799649 -14698704.994723797 0 0 0 0 121346039.46859312 -401348064.03677881 0 -401348064.03677881 -545033939.65755606 0 0 0 0 108434428.21181166 -326832424.66109943 0 -326832424.66109943 231966539.33536339 0 0 0 0 56083936.445492864 -117132483.45359907 0 -117132483.45359907 -170390722.82770872 0 0 0 0 250821474.14073181 -202051082.13879508 0 -202051082.13879508 -510156005.02784455 0 0 0 0 42638128.807530403 -379240954.32564008 0 -379240954.32564008 -321439205.1734643 0 0 0 0 108906760.88652134 -197868575.53895819 0 -197868575.53895819 -476431454.84605801 0 0 0 0 6974891.7861330695 -13105076.524908338 0 -13105076.524908338 -6320501.9080659086 0 0 0 0 7904463.4176904215 -8473685.8339133859 0 -8473685.8339133859 -4980573.3509414634 0 0 0 0 7661499.0298634768 -7363165.5035763979 0 -7363165.5035763979 -4164874.0875940323 0 0 0 0 14855654.610646248 -10267173.345252991 0 -10267173.345252991 -20298267.25783205 0 0 0 0 14040609.307888836 -36303846.698276997 0 -36303846.698276997 10495162.439022064 0 0 0 0 6477392.8401601566 -11897710.069451004 0 -11897710.069451004 -3028878.4023526078 0 0 0 0 -690955.9273891449 -14083936.507087708 0 -14083936.507087708 14009828.717131257 0 0 0 0 2087679.4965088898 -2873027.6479359125 0 -2873027.6479359125 366188.09097276803 0 0 0 0 247813316.83153176 413865319.00671399 0 413865319.00671399 -644378050.51165652 0 0 0 0 944313.03317403793 -101699598.28463316 0 -101699598.28463316 -230997388.24179888 0 0 0 0 762381132.71458244 -449981457.55102158 0 -449981457.55102158 167442275.6783042 0 0 0 0 463969090.45203948 288703116.85200822 0 288703116.85200822 337425543.56105709 0 0 0 0 388932569.25039005 4537342.1255536079 0 4537342.1255536079 -206764074.54681492 0 0 0 0 526204204.09289455 -427523277.07577324 0 -427523277.07577324 343178306.66235447 0 0 0 0 222400880.10689354 -504506536.37088633 0 -504506536.37088633 323673307.07503843 0 0 0 0 1621005960.5154829 -1190818330.5952625 0 -1190818330.5952625 1063513087.6930275 0 0 0 0 320873909.97727776 -361382853.38281059 0 -361382853.38281059 799569403.11303234 0 0 0 0 1041136324.9722004 326027404.81794691 0 326027404.81794691 1118154388.1225061 0 0 0 0 395688587.80931664 -301770299.7087667 0 -301770299.7087667 571176323.56928062 0 0 0 0 632104927.97552681 -478668860.23473191 0 -478668860.23473191 -164823433.08271313 0 0 0 0 1053320002.4733162 -1283635049.3665462 0 -1283635049.3665462 1364205070.6630831 0 0 0 0 1014526584.55937 -38003618.080136061 0 -38003618.080136061 -1332431264.0318604 0 0 0 0 -387830.38377380371 -558162829.361619 0 -558162829.361619 3142709303.2889509 0 0 0 0 2032599.8359130048 -2094763.2363915974 0 -2094763.2363915974 304909.12214662693 0 0 0 0 -56639894.264665604 -76547989.901037216 0 -76547989.901037216 -705153102.80583954 0 0 0 0 1606457322.327035 -640134370.67101955 0 -640134370.67101955 -968528225.71196556 0 0 0 0 700763249.87543619 -82549746.660294861 0 -82549746.660294861 -550320819.26507473 0 0 0 0 700220194.67019105 -56546905.970084071 0 -56546905.970084071 -886723236.19028187 0 0 0 0 956595228.45767307 -165649011.93937135 0 -165649011.93937135 -618463457.49372673 0 0 0 0 887553161.47108722 -452604784.24253923 0 -452604784.24253923 -170119121.46738529 0 0 0 0 658286943.27242422 -83709524.968085289 0 -83709524.968085289 -91262275.106429577 0 0 0 0 361855532.2454915 -151955480.1351794 0 -151955480.1351794 -31392585.301246643 0 0 0 0 574320848.94880581 -131420866.69104022 0 -131420866.69104022 -449769658.75516081 0 0 0 0 624636406.58174706 14953398.489478111 0 14953398.489478111 -332806063.55219364 0 0 0 0 -7808329.0659284592 -90745430.941003323 0 -90745430.941003323 94213288.895761967 0 0 0 0 226596127.03310204 290156504.59077322 0 290156504.59077322 -475063945.36897779 0 0 0 0 798190.14934867062 -65883.661085654981 0 -65883.661085654981 -206810.33811228286 0 0 0 0 2209828.6044069193 -533350.4801234731 0 -533350.4801234731 -531413.39767983695 0 0 0 0 102566116.96014261 -131760783.93391979 0 -131760783.93391979 -572473384.02427125 0 0 0 0 -242065791.5111084 -210939394.65232015 0 -210939394.65232015 -358159244.26934171 0 0 0 0 -212137871.94426537 -210209570.89262462 0 -210209570.89262462 -559899989.0334475 0 0 0 0 27954033.569535732 -219813069.17693806 0 -219813069.17693806 -1133412718.1886504 0 0 0 0 10628123.753852844 -90568434.738654613 0 -90568434.738654613 -1549286840.7118359 0 0 0 0 28011635.751462936 -153664662.85405493 0 -153664662.85405493 -432741624.19608903 0 0 0 0 -239648819.53689003 -488804477.23829865 0 -488804477.23829865 -956385995.88011599 0 0 0 0 -66187088.65598774 45917233.010385513 0 45917233.010385513 -804837769.56998444 0 0 0 0 5417285.9049418801 -5886231.6161129596 0 -5886231.6161129596 443674.51831213245 0 0 0 0 -395041667.76307678 -620575021.7070446 0 -620575021.7070446 -915260892.30189419 0 0 0 0 72300030.368238449 -318943436.34916401 0 -318943436.34916401 1131410791.5797386 0 0 0 0 1119973.6523613892 -683458.2264455636 0 -683458.2264455636 -781138.06480331812 0 0 0 0 -38437776.170518875 -505121171.85018492 0 -505121171.85018492 -1231591253.4960504 0 0 0 0 -23769950.786928117 -329314419.78008175 0 -329314419.78008175 1155784442.2673683 0 0 0 0 11873752.703810615 -960876.70894057979 0 -960876.70894057979 -2492992.6720024124 0 0 0 0 4887521.743652829 -6719562.3746176017 0 -6719562.3746176017 -3749403.217221966 0 0 0 0 121813609.0601759 -410690722.71125126 0 -410690722.71125126 874459669.54007006 0 0 0 0 135251775.52516747 -357150957.1899271 0 -357150957.1899271 1086873519.8872242 0 0 0 0 -558247988.21997356 -220746099.72789174 0 -220746099.72789174 -88552699.697548509 0 0 0 0 -465294831.56315136 -467691427.6640836 0 -467691427.6640836 565485820.01118875 0 0 0 0 2818581353.390738 1610761958.7908819 0 1610761958.7908819 356085085.74008036 0 0 0 0 2763690596.1588092 2956578588.9875574 0 2956578588.9875574 1263333579.9955177 0 0 0 0 2554436867.0105753 1609127378.5547075 0 1609127378.5547075 853185383.82160187 0 0 0 0 5316915.4307274763 1417.6556037953123 0 1417.6556037953123 -992783.58143989497 0 0 0 0 2726653650.2872362 1327846229.1507592 0 1327846229.1507592 223486175.23969409 0 0 0 0 427484722.07957649 -621343288.76613927 0 -621343288.76613927 -1037994373.3846759 0 0 0 0 -47890679.59538269 -124410237.23230827 0 -124410237.23230827 -1093866247.7179842 0 0 0 0 -323785878.75324345 -75601990.517343163 0 -75601990.517343163 -578804974.57202458 0 0 0 0 -96546996.398551941 -168882209.72058344 0 -168882209.72058344 -597291485.24437261 0 0 0 0 195404676.43268776 174127557.53813744 0 174127557.53813744 -702244995.9420222 0 0 0 0 1371451367.9731483 -724732921.52551889 0 -724732921.52551889 -137380268.54691881 0 0 0 0 839453499.37252235 -809199646.18079948 0 -809199646.18079948 -38328039.538066626 0 0 0 0 2940931.6061458588 -311157604.81449693 0 -311157604.81449693 -91627396.364973485 0 0 0 0 1420581.8068212969 -516616.36603871884 0 -516616.36603871884 -354639.05245502171 0 0 0 0 40871900.588805676 -100472811.71414012 0 -100472811.71414012 -958050570.29494524 0 0 0 0 2091428169.7042503 416675457.0148083 0 416675457.0148083 -984605363.55000997 0 0 0 0 2471547330.5283375 490515806.01377052 0 490515806.01377052 -35534144.641015097 0 0 0 0 6666209.4928677268 -3365144.7142731417 0 -3365144.7142731417 129665.31392041856 0 0 0 0 2455156982.2887411 311875674.94387078 0 311875674.94387078 -1566815581.5487351 0 0 0 0 2877023797.4120426 250842431.74286556 0 250842431.74286556 79831380.107950211 0 0 0 0 1651673889.6177397 -361166175.29939902 0 -361166175.29939902 -190556815.88816714 0 0 0 0 1594386372.0524368 -262548840.7250818 0 -262548840.7250818 -351976384.06320852 0 0 0 0 1971323741.470356 -80652741.43502599 0 -80652741.43502599 -430889408.1434803 0 0 0 0 5116055.3259714292 -2810227.0236793724 0 -2810227.0236793724 -609118.12058545649 0 0 0 0 4726073159.1641598 513603870.89410961 0 513603870.89410961 -281854259.26529056 0 0 0 0 4716797733.7793999 -348779058.8294813 0 -348779058.8294813 -841023002.48432648 0 0 0 0 2614959225.2600284 -641310975.62403679 0 -641310975.62403679 -31143795.812217712 0 0 0 0 3020801867.3734293 -60251706.707314193 0 -60251706.707314193 -474417582.53331846 0 0 0 0 3862942379.6172218 -1166522480.2741992 0 -1166522480.2741992 -657880518.70044005 0 0 0 0 3108125154.0756779 -172167096.91465345 0 -172167096.91465345 -1074292793.4204059 0 0 0 0 4255834465.0374365 1445724533.5966945 0 1445724533.5966945 -1473171080.3641031 0 0 0 0 2516209128.3342772 1263578546.6730747 0 1263578546.6730747 562388142.30392075 0 0 0 0 2157005650.7520914 501776966.29418182 0 501776966.29418182 958852971.10252762 0 0 0 0 3875915156.0071316 -1169677583.7400739 0 -1169677583.7400739 1557096089.3381424 0 0 0 0 2250658263.9141755 1486466279.5745144 0 1486466279.5745144 1009518892.8114371 0 0 0 0 1956174418.9428868 762934832.16517878 0 762934832.16517878 1041464204.8869247 0 0 0 0 8123202.4314185381 -2696825.9806979429 0 -2696825.9806979429 -2618427.8209224395 0 0 0 0 2423231479.7923799 1386168747.5479612 0 1386168747.5479612 512559774.95855427 0 0 0 0 2056220884.2405272 1314034929.1895142 0 1314034929.1895142 860472992.15873718 0 0 0 0 2560421003.004602 1170370230.2863228 0 1170370230.2863228 851700790.36437416 0 0 0 0 536663.31276163319 -246202.89287381619 0 -246202.89287381619 -850997.41170858894 0 0 0 0 13327152.837440491 -152142980.27216387 0 -152142980.27216387 -1765130483.133667 0 0 0 0 -2393693613.9811401 -3007780607.1427183 0 -3007780607.1427183 -5146236807.628643 0 0 0 0 4714657530.9203243 -199705001.26888439 0 -199705001.26888439 -2557703682.2233081 0 0 0 0 339976.37285907194 -4916732.8339715265 0 -4916732.8339715265 926652.99501100928 0 0 0 0 456359333.81763673 -739473475.65141296 0 -739473475.65141296 1177730183.3672688 0 0 0 0 3080928650.5824337 630182296.25500274 0 630182296.25500274 -1578845753.2658725 0 0 0 0 325790512.0936805 -310460763.3315587 0 -310460763.3315587 -203256572.41419792 0 0 0 0 -76144168.035905361 -121726246.50823021 0 -121726246.50823021 -242026497.47423363 0 0 0 0 356807303.32660043 -302347424.57927418 0 -302347424.57927418 -266702160.17043304 0 0 0 0 466295940.62276125 -485243276.39698792 0 -485243276.39698792 -150320937.40679312 0 0 0 0 540984430.59317636 -324518370.08085442 0 -324518370.08085442 -227178474.10639381 0 0 0 0 513306636.54377365 -452281508.37029648 0 -452281508.37029648 -130348580.59331894 0 0 0 0 458316045.44238818 -138218648.79462242 0 -138218648.79462242 -154035225.15092945 0 0 0 0 350661021.04876328 -12312953.118233681 0 -12312953.118233681 -302327056.43912888 0 0 0 0 233146894.29175663 -223429442.7443428 0 -223429442.7443428 -166115680.68801117 0 0 0 0 131172742.11122894 187575386.33983231 0 187575386.33983231 -202005483.07910824 0 0 0 0 220615931.56068802 252304746.60365391 0 252304746.60365391 -238695431.07376862 0 0 0 0 335997636.28993607 64801913.483463287 0 64801913.483463287 -136730827.11690712 0 0 0 0 180254099.28226948 263670609.78286171 0 263670609.78286171 -86243604.363540649 0 0 0 0 213915177.14350224 221806592.99617767 0 221806592.99617767 -381974287.45871735 0 0 0 0 34369364.250785828 290652844.73853111 0 290652844.73853111 -239149355.0102272 0 0 0 0 -23432641.733055115 298510682.1229248 0 298510682.1229248 -373644617.75206685 0 0 0 0 -153400304.62430859 437066812.62766266 0 437066812.62766266 -514460956.18465805 0 0 0 0 28586619.85380125 -142138324.6867466 0 -142138324.6867466 -185641172.8625555 0 0 0 0 104084668.34098101 96836325.401231766 0 96836325.401231766 -345905852.64651108 0 0 0 0 -52608977.162665367 60900016.47338295 0 60900016.47338295 -331525972.8999176 0 0 0 0 -10638664.020022571 -133998552.79051876 0 -133998552.79051876 -497966277.83042908 0 0 0 0 -309701334.84857655 269945490.7176466 0 269945490.7176466 -466546601.62226868 0 0 0 0 -292886104.42811275 325316660.88672829 0 325316660.88672829 -1190226930.8144836 0 0 0 0 -478146222.30048072 204608266.25321484 0 204608266.25321484 -487448661.00421143 0 0 0 0 -77276975.649004638 449503433.37274694 0 449503433.37274694 -518140384.76725006 0 0 0 0 -524185746.42121506 67752050.360361099 0 67752050.360361099 -640895210.34954834 0 0 0 0 -604629998.123456 578815030.80692482 0 578815030.80692482 -525789570.21222305 0 0 0 0 -198006910.50559425 743952091.5751667 0 743952091.5751667 -764014621.38500214 0 0 0 0 92981382.617866516 -108287405.9867382 0 -108287405.9867382 -203870944.65534973 0 0 0 0 -45483058.902130127 323638112.12987328 0 323638112.12987328 -943338414.80325699 0 0 0 0 525912.38949694321 -961105.76054318156 0 -961105.76054318156 -1142581.9960107598 0 0 0 0 -1346446828.8446691 1012267879.2286453 0 1012267879.2286453 -591500077.91743469 0 0 0 0 -916662622.8854866 911005175.37985229 0 911005175.37985229 -1017664622.3315248 0 0 0 0 -472070429.95375097 421456968.5476799 0 421456968.5476799 -669974633.18588257 0 0 0 0 -1272444819.5106988 593375607.97518659 0 593375607.97518659 -337280660.05601501 0 0 0 0 -218494135.99548185 190619113.75867462 0 190619113.75867462 -427515035.03956985 0 0 0 0 -251394909.85023773 165199781.5174551 0 165199781.5174551 -104479296.46226501 0 0 0 0 135625777.61644745 -13399951.037445068 0 -13399951.037445068 -360848116.33467102 0 0 0 0 -533848508.32240504 392733348.55003643 0 392733348.55003643 -467433728.45874405 0 0 0 0 -124442421.47830117 8123837.6916713715 0 8123837.6916713715 -571586065.75063992 0 0 0 0 264105470.283077 -227160828.64637184 0 -227160828.64637184 -383628082.75644684 0 0 0 0 -169716572.84395504 4405395.1949424744 0 4405395.1949424744 -203881195.00055695 0 0 0 0 225259520.15456748 -331311597.9106884 0 -331311597.9106884 -60012591.399284363 0 0 0 0 482832253.17442751 -231111249.92679596 0 -231111249.92679596 -216641996.15437126 0 0 0 0 100968941.51125193 -104359732.40140724 0 -104359732.40140724 77012414.236637115 0 0 0 0 378938709.76469737 -22796332.394696712 0 -22796332.394696712 -143649958.32210541 0 0 0 0 350852353.10423636 -107129089.80853438 0 -107129089.80853438 409790818.61455917 0 0 0 0 850001481.78569221 -370142036.33174133 0 -370142036.33174133 23543212.72467804 0 0 0 0 946870035.05852175 -191921490.16286469 0 -191921490.16286469 73416491.46572113 0 0 0 0 1322817208.7742157 -528186081.52067947 0 -528186081.52067947 296604901.81180573 0 0 0 0 1686323808.0542755 -480448549.86483002 0 -480448549.86483002 219952332.04048538 0 0 0 0 741009610.23351455 -123783175.08898163 0 -123783175.08898163 668669628.73249817 0 0 0 0 2706159990.1291757 -488204140.76742172 0 -488204140.76742172 73686614.651683807 0 0 0 0 2333844166.8208008 -333984560.95524597 0 -333984560.95524597 116735911.83355713 0 0 0 0 1838005522.4789133 -56074123.933130264 0 -56074123.933130264 298945442.7008667 0 0 0 0 49461.36284051351 -2987451.2879710225 0 -2987451.2879710225 1331195.4155637845 0 0 0 0 -73768330.505750522 214053810.21320522 0 214053810.21320522 416922150.96611404 0 0 0 0 63035.435959310271 -170123.95570750441 0 -170123.95570750441 -195587.5580307385 0 0 0 0 1292220191.9139404 -139987042.18903732 0 -139987042.18903732 328976306.71998882 0 0 0 0 2211956948.8833218 246640402.82323456 0 246640402.82323456 -132156644.8176899 0 0 0 0 4344406.0579449162 -1720126.4079555725 0 -1720126.4079555725 -11798396.148917135 0 0 0 0 1328007970.8526535 -102589950.62421894 0 -102589950.62421894 -94137364.660411835 0 0 0 0 1271150417.3614573 -46656493.523409367 0 -46656493.523409367 -103678681.10397339 0 0 0 0 16654368.403648376 50030028.071147919 0 50030028.071147919 -141590303.1459384 0 0 0 0 549793664.83827329 -389350811.16396415 0 -389350811.16396415 -20341777.902545929 0 0 0 0 482269074.02108759 -317723278.10482436 0 -317723278.10482436 94543059.218780518 0 0 0 0 851156244.81466675 -272860296.17171288 0 -272860296.17171288 -119582823.78736115 0 0 0 0 938239423.13360882 -408230370.06623363 0 -408230370.06623363 26245911.47808075 0 0 0 0 -60522118.838465333 22001533.092632294 0 22001533.092632294 106111301.06626606 0 0 0 0 172363589.41959405 -46667927.976570129 0 -46667927.976570129 18859753.218688011 0 0 0 0 5366178.5659082523 -8890663.0983882844 0 -8890663.0983882844 -1930539.4873393769 0 0 0 0 -35245689.149860382 2134681.4942979813 0 2134681.4942979813 14610821.067622244 0 0 0 0 -58014479.142489746 -91713411.080688804 0 -91713411.080688804 264745500.38871765 0 0 0 0 24474321.162345886 -24880654.123744249 0 -24880654.123744249 12324029.348395646 0 0 0 0 34190316.034719467 -53137022.858523369 0 -53137022.858523369 -153334490.30555725 0 0 0 0 199872734.69278336 -118014709.79652023 0 -118014709.79652023 -264049254.75574493 0 0 0 0 -161046624.94184971 340178278.09351468 0 340178278.09351468 87672842.965856075 0 0 0 0 -58353024.740438461 235982519.59736896 0 235982519.59736896 -368974692.3322618 0 0 0 0 -305481561.53290749 125196878.51614857 0 125196878.51614857 81279237.263849258 0 0 0 0 -23660353.733219624 108989206.0262509 0 108989206.0262509 -18305957.796212673 0 0 0 0 -132525531.07510281 138842328.38658309 0 138842328.38658309 -43648928.253392696 0 0 0 0 -67930885.457427979 -63649942.485255241 0 -63649942.485255241 359958747.10171962 0 0 0 0 149564421.79158235 181605805.62976348 0 181605805.62976348 616480140.42505074 0 0 0 0 730163230.63609505 -399795954.9991436 0 -399795954.9991436 -156384632.00615883 0 0 0 0 707709960.57366872 -226201617.75000024 0 -226201617.75000024 -105264492.50432587 0 0 0 0 2200008.0527463714 -1001204.7083771066 0 -1001204.7083771066 -7572099.0742209116 0 0 0 0 731708956.77421856 -160773403.35758114 0 -160773403.35758114 -656183.92248296738 0 0 0 0 451562964.88564777 -190260458.08048582 0 -190260458.08048582 -60651484.346448898 0 0 0 0 428979368.81041908 -447559027.84776688 0 -447559027.84776688 -101574006.3098011 0 0 0 0 529852884.12906694 -395155754.7026124 0 -395155754.7026124 -75434158.126371384 0 0 0 0 966142.04429988272 -1233012.5588232395 0 -1233012.5588232395 -3652037.4655610197 0 0 0 0 19861468.734193802 -322453574.02309322 0 -322453574.02309322 37467339.177506447 0 0 0 0 -14524055.685212135 -123186341.75053668 0 -123186341.75053668 -143925168.53847122 0 0 0 0 -759118515.82776928 -221513677.14773107 0 -221513677.14773107 298356329.09233952 0 0 0 0 253727.38389188109 -755764.54893917358 0 -755764.54893917358 -961030.82179032778 0 0 0 0 215441935.53184557 -488393473.26165199 0 -488393473.26165199 150210586.01714611 0 0 0 0 338921308.49285722 -339592482.11716652 0 -339592482.11716652 59092097.662146568 0 0 0 0 465927416.82102585 -671072949.69355798 0 -671072949.69355798 406256902.82397538 0 0 0 0 -492147583.17678618 -107264338.43431102 0 -107264338.43431102 376947863.70309734 0 0 0 0 13187793.792437553 -274825584.82580256 0 -274825584.82580256 31996381.926462173 0 0 0 0 157860573.93785667 -249097531.13253927 0 -249097531.13253927 -108945097.36305189 0 0 0 0 138275127.35252571 -280042114.9982245 0 -280042114.9982245 6823625.6723117828 0 0 0 0 559400766.29090786 -250639386.75037003 0 -250639386.75037003 -239047492.05251408 0 0 0 0 508942469.12080669 -398415371.55739808 0 -398415371.55739808 -89901124.636060834 0 0 0 0 249278379.05666447 -207953964.12043762 0 -207953964.12043762 -112028449.13771868 0 0 0 0 361583134.2686305 -303188632.03435862 0 -303188632.03435862 -78772602.16417408 0 0 0 0 -53673809.588577271 25000311.769802332 0 25000311.769802332 185953031.01451126 0 0 0 0 391273772.81622505 -222426991.7733171 0 -222426991.7733171 124306418.97623655 0 0 0 0 179657421.84314108 -254323709.70477676 0 -254323709.70477676 557819601.0340147 0 0 0 0 102171431.59063244 -55265161.944309235 0 -55265161.944309235 63229263.539105058 0 0 0 0 268742236.99140978 13737028.158462524 0 13737028.158462524 307022751.18718433 0 0 0 0 -173453428.09396172 -404781729.33206594 0 -404781729.33206594 34467594.58575964 0 0 0 0 105412139.92091274 206898833.224213 0 206898833.224213 133204077.7558794 0 0 0 0 15148378.756538868 231709753.81591058 0 231709753.81591058 787616874.04163885 0 0 0 0 -13950760.339701429 246000939.14190298 0 246000939.14190298 1165626145.4431479 0 0 0 0 483725875.90190268 141550145.78056467 0 141550145.78056467 764503311.55674243 0 0 0 0 658844642.43892384 -262073843.38494468 0 -262073843.38494468 1692453263.0184348 0 0 0 0 820004361.05537701 581883990.13352704 0 581883990.13352704 1064562729.2733963 0 0 0 0 1221594471.1588001 -6148299.8007059097 0 -6148299.8007059097 1168466978.5189171 0 0 0 0 910406997.70591402 -246613409.55279422 0 -246613409.55279422 483748461.98043633 0 0 0 0 1032726555.7770016 -583578829.13052034 0 -583578829.13052034 1322310354.7303319 0 0 0 0 357094080.35047245 -263173958.35952997 0 -263173958.35952997 1165015395.5280921 0 0 0 0 594747518.17863226 -518514903.5025301 0 -518514903.5025301 157590118.56188202 0 0 0 0 613093175.2759943 -324603375.53827047 0 -324603375.53827047 219633485.41840744 0 0 0 0 873040024.32711697 -591474704.69913054 0 -591474704.69913054 493495148.02406406 0 0 0 0 1063464944.2421309 -152930310.72398901 0 -152930310.72398901 204923420.8423214 0 0 0 0 918616938.45194817 -316155868.61170864 0 -316155868.61170864 84116880.16318512 0 0 0 0 725424885.57478786 -172464186.66295663 0 -172464186.66295663 -22605933.580793381 0 0 0 0 731318115.10414743 -527702331.27600479 0 -527702331.27600479 43412070.693061829 0 0 0 0 534138893.85807133 -389189438.9048667 0 -389189438.9048667 -53837824.181005478 0 0 0 0 527661575.12847662 -519235296.58323765 0 -519235296.58323765 -51809299.043613434 0 0 0 0 404722374.70460606 313690760.29367113 0 313690760.29367113 177466643.21530914 0 0 0 0 583703371.9636879 146585682.89790058 0 146585682.89790058 31340687.785090864 0 0 0 0 404501382.63640404 280898134.48374271 0 280898134.48374271 63836236.424863815 0 0 0 0 203481737.53835106 303192916.11977768 0 303192916.11977768 68066780.858118057 0 0 0 0 357068718.17859411 182193646.45909595 0 182193646.45909595 29733449.672821045 0 0 0 0 390905374.35105133 188571753.20968723 0 188571753.20968723 -73084376.973724365 0 0 0 0 535006064.94189739 115856638.88802052 0 115856638.88802052 -128612247.88841724 0 0 0 0 687878130.11773753 -247826917.98518085 0 -247826917.98518085 -108715107.66987562 0 0 0 0 427592771.80438042 784135.26846694946 0 784135.26846694946 -5697532.1078510284 0 0 0 0 557494586.14278793 167646474.38755178 0 167646474.38755178 187568845.52723503 0 0 0 0 816286612.88966131 -48253330.222121239 0 -48253330.222121239 473316.99157810211 0 0 0 0 859487440.20607567 113064245.15397406 0 113064245.15397406 188152728.82999039 0 0 0 0 850902907.07377172 13048474.444604874 0 13048474.444604874 98093944.209394455 0 0 0 0 1163669497.4041414 -160877787.43676853 0 -160877787.43676853 180728965.57061577 0 0 0 0 1006033300.4655923 -220450565.3709321 0 -220450565.3709321 465633658.84026241 0 0 0 0 990349280.04703331 286796725.36902261 0 286796725.36902261 405216410.3932085 0 0 0 0 747937322.42496109 450027060.11805248 0 450027060.11805248 409784475.12017441 0 0 0 0 466457449.55038643 449060749.72685671 0 449060749.72685671 626808567.82907057 0 0 0 0 575137893.14449406 242348731.51988125 0 242348731.51988125 192733355.58965302 0 0 0 0 349822780.28445482 334318668.73767662 0 334318668.73767662 291796619.89274788 0 0 0 0 348830863.19729233 351485435.44236541 0 351485435.44236541 548647865.97629356 0 0 0 0 877010133.15670216 728749560.32264102 0 728749560.32264102 1153281725.8082032 0 0 0 0 689516388.56865788 356537279.0264585 0 356537279.0264585 607896982.83920884 0 0 0 0 229271219.72563839 319747198.59826756 0 319747198.59826756 1153842368.9107642 0 0 0 0 1766527574.9316833 -229789318.20053267 0 -229789318.20053267 465631112.69292879 0 0 0 0 1590097171.0037582 182636841.10364747 0 182636841.10364747 422272841.1821326 0 0 0 0 2933679091.2679968 -337282271.01841962 0 -337282271.01841962 780462299.74267042 0 0 0 0 1397909267.2374673 30755708.812860012 0 30755708.812860012 730701551.480901 0 0 0 0 22370170.009435415 -12772942.351828575 0 -12772942.351828575 1352803786.2754021 0 0 0 0 1333729535.2246046 -518614843.08845025 0 -518614843.08845025 2938178270.9836669 0 0 0 0 1288680300.7193754 1093746680.7097898 0 1093746680.7097898 2137204300.0636806 0 0 0 0 2821133006.6894789 924915758.72555518 0 924915758.72555518 1528345930.3017483 0 0 0 0 162287997.42015266 203406620.37151098 0 203406620.37151098 1280072908.1308327 0 0 0 0 556992290.05836582 164228514.37120008 0 164228514.37120008 1313552498.3190775 0 0 0 0 551283558.04263449 211544465.03318763 0 211544465.03318763 932026912.3549695 0 0 0 0 68931931.368051529 -292367547.98457384 0 -292367547.98457384 1261417456.5141869 0 0 0 0 102779569.23765755 -157610363.14075661 0 -157610363.14075661 784191291.54929733 0 0 0 0 -56074952.029289246 -31762171.076412201 0 -31762171.076412201 928688454.89924598 0 0 0 0 61281005.977824211 -244627340.20713019 0 -244627340.20713019 751694263.93375969 0 0 0 0 111465434.27106333 -13008964.923911452 0 -13008964.923911452 832860199.81516647 0 0 0 0 -119758348.48178101 119651792.27722555 0 119651792.27722555 709725469.93164468 0 0 0 0 -46683407.115832329 -28806122.208550453 0 -28806122.208550453 662088909.70284271 0 0 0 0 -175111781.87392807 -14032043.564791441 0 -14032043.564791441 525909743.36763573 0 0 0 0 -169743994.81111526 -419308.49488830566 0 -419308.49488830566 555375343.30491614 0 0 0 0 -230157725.65385628 107031921.89536786 0 107031921.89536786 532712290.50883913 0 0 0 0 -129608234.87227249 -74880191.640439749 0 -74880191.640439749 684145524.74715424 0 0 0 0 -171898626.34913635 37778615.557503432 0 37778615.557503432 586098596.55433702 0 0 0 0 -189307843.36120224 213593703.7656498 0 213593703.7656498 540812240.03152943 0 0 0 0 -144610488.8981781 239516311.20569077 0 239516311.20569077 552497097.15864635 0 0 0 0 -47286075.254165649 188632622.48066783 0 188632622.48066783 492603795.00823593 0 0 0 0 -1922239.9196014404 295276152.70979834 0 295276152.70979834 740935403.98650229 0 0 0 0 89956289.419435501 193342649.09404254 0 193342649.09404254 665196588.02678585 0 0 0 0 230758545.326361 293725453.7590189 0 293725453.7590189 708685263.91075921 0 0 0 0 -1817338.3314399719 187081760.15106308 0 187081760.15106308 1021272136.3655595 0 0 0 0 -37201451.803526878 74624465.955851167 0 74624465.955851167 665096726.76718175 0 0 0 0 -130337539.34982419 155553841.97991231 0 155553841.97991231 513825664.00126266 0 0 0 0 -350955783.84884644 91047315.364010096 0 91047315.364010096 516621359.74708682 0 0 0 0 -266037070.72154236 56268669.732501626 0 56268669.732501626 468745547.10741806 0 0 0 0 -279412868.3453207 146989110.18113476 0 146989110.18113476 342830871.80576801 0 0 0 0 -180239504.50413513 235124718.17800856 0 235124718.17800856 275049399.17497587 0 0 0 0 -236997996.85039902 109151242.16378902 0 109151242.16378902 168984204.26440752 0 0 0 0 -306806874.34262466 30665022.395540893 0 30665022.395540893 347216050.68751884 0 0 0 0 -315512966.04739666 249540800.33498645 0 249540800.33498645 617886516.83375072 0 0 0 0 -269583991.34266853 425267528.88893938 0 425267528.88893938 -300808930.01623034 0 0 0 0 -396918473.11091614 216237404.21467972 0 216237404.21467972 214480701.42503071 0 0 0 0 -288526800.5200882 469512123.35055828 0 469512123.35055828 8671307.4397543669 0 0 0 0 -225961744.70394135 223819593.54551363 0 223819593.54551363 -15236872.822763443 0 0 0 0 -268042738.1582489 249489760.86457849 0 249489760.86457849 314467783.56999874 0 0 0 0 -208386791.59016991 370470991.44691992 0 370470991.44691992 19278995.993461609 0 0 0 0 -216990035.30315781 492979605.02672386 0 492979605.02672386 -35785706.454236984 0 0 0 0 -248446823.94156647 441508444.33084869 0 441508444.33084869 -94430105.790985107 0 0 0 0 -264701859.76296616 461458551.4893074 0 461458551.4893074 -38069376.346119881 0 0 0 0 -418210355.18058634 293943967.11899614 0 293943967.11899614 -80760697.596981049 0 0 0 0 -421651062.54086304 378626356.71232986 0 378626356.71232986 -27701788.03055191 0 0 0 0 2658254.5390815735 387361928.82765484 0 387361928.82765484 336337796.15487194 0 0 0 0 24352627.989124298 401844726.78685188 0 401844726.78685188 155777657.16157722 0 0 0 0 139447629.20728683 424900914.43973589 0 424900914.43973589 607577912.74342823 0 0 0 0 87898651.344470978 297192736.85277987 0 297192736.85277987 291332058.4344492 0 0 0 0 -66665482.151929855 340716506.44200563 0 340716506.44200563 589147887.3089962 0 0 0 0 -78581555.485170364 252087103.24397802 0 252087103.24397802 285266647.95296001 0 0 0 0 -107027449.80181885 329358295.26526928 0 329358295.26526928 144137763.45455933 0 0 0 0 -160189549.07435989 353422040.23649025 0 353422040.23649025 361444561.39351273 0 0 0 0 -104975134.71125698 355109191.37530285 0 355109191.37530285 150385445.27264214 0 0 0 0 -98743938.887512207 452878478.9089222 0 452878478.9089222 29416703.177253723 0 0 0 0 -224643855.545578 400148737.3068924 0 400148737.3068924 184266745.66670656 0 0 0 0 -210450411.76891327 493451882.83169556 0 493451882.83169556 -58078932.325012207 0 0 0 0 -180800853.4583683 400766903.58464026 0 400766903.58464026 -3587380.6398010254 0 0 0 0 -13462750.949954987 441661072.90563774 0 441661072.90563774 -12468550.61978054 0 0 0 0 34343691.13700676 324411180.43155527 0 324411180.43155527 -41530657.078380585 0 0 0 0 166992459.76088142 361930137.15043449 0 361930137.15043449 325264662.60673904 0 0 0 0 169554047.15591621 321943174.76239777 0 321943174.76239777 114571713.49131966 0 0 0 0 225393505.99017525 285078488.67608356 0 285078488.67608356 -71500991.573768616 0 0 0 0 58081088.103801727 394634826.14697456 0 394634826.14697456 120162375.30529511 0 0 0 0 51629938.119789124 326705169.59364891 0 326705169.59364891 -69024154.398737907 0 0 0 0 83709952.182022095 332831430.13818455 0 332831430.13818455 -223123969.07698822 0 0 0 0 -54942258.63381958 391294816.55790138 0 391294816.55790138 -56445906.680735111 0 0 0 0 -33784244.155138016 409658040.16357422 0 409658040.16357422 -177511903.5694809 0 0 0 0 -31772355.321020126 368509136.83420563 0 368509136.83420563 -374911266.86696625 0 0 0 0 81721845.64522171 334502923.29569435 0 334502923.29569435 -424084065.4092865 0 0 0 0 -68080330.379413605 344624994.41345978 0 344624994.41345978 -222489806.83905947 0 0 0 0 10658657.194725037 468639912.43591285 0 468639912.43591285 -622786430.634758 0 0 0 0 -10776686.986873627 341645519.4785614 0 341645519.4785614 -415301208.23983002 0 0 0 0 9547980.6134262085 362453530.23705673 0 362453530.23705673 -611649876.36752319 0 0 0 0 -206040165.80961609 340831895.51782036 0 340831895.51782036 -378727420.67639542 0 0 0 0 97441921.450374603 429022007.47060394 0 429022007.47060394 -829720309.14865875 0 0 0 0 -58713833.655220032 308783445.43597794 0 308783445.43597794 -640553657.16807938 0 0 0 0 -88373330.520190239 207464983.94447708 0 207464983.94447708 -842541621.84387207 0 0 0 0 67837604.637592316 284057329.12750626 0 284057329.12750626 -845026808.51459503 0 0 0 0 65177557.078201294 316213661.5688591 0 316213661.5688591 -960346774.15533829 0 0 0 0 99490699.509647369 461431029.10387039 0 461431029.10387039 -658480537.93175125 0 0 0 0 -357985781.55392742 352179329.58581305 0 352179329.58581305 -714426335.16446686 0 0 0 0 -408113372.41709328 491505695.55757141 0 491505695.55757141 -577155024.3319397 0 0 0 0 -184702260.98539734 446221261.60975647 0 446221261.60975647 -849351903.80554199 0 0 0 0 -229067401.12913513 434229588.9081192 0 434229588.9081192 -851449865.69016075 0 0 0 0 -856774658.91074753 588304838.20523453 0 588304838.20523453 -791945989.60746384 0 0 0 0 -304674924.7641449 460810919.1830101 0 460810919.1830101 -617158442.37942886 0 0 0 0 -167095565.41858673 327291513.23480988 0 327291513.23480988 -508470843.99858785 0 0 0 0 -463036017.01454163 289413888.4095192 0 289413888.4095192 -510395732.93053436 0 0 0 0 -348019691.55702782 413667661.89102173 0 413667661.89102173 -329509040.36186981 0 0 0 0 -243134335.7518158 482987120.02978516 0 482987120.02978516 -437285546.08012009 0 0 0 0 -382564656.35118866 412776387.49824715 0 412776387.49824715 -462346677.11507034 0 0 0 0 -244307373.9888382 467351181.27220917 0 467351181.27220917 -574522780.14946747 0 0 0 0 -268303246.31848907 416084591.66308403 0 416084591.66308403 -329638680.65526962 0 0 0 0 -205476693.10003185 472490910.93024611 0 472490910.93024611 -233483778.09104538 0 0 0 0 -257933127.89888191 495587425.40143943 0 495587425.40143943 -240344451.81400299 0 0 0 0 -182194948.96563721 349027695.16156006 0 349027695.16156006 -201779952.20555878 0 0 0 0 -171685206.82708359 453469383.73214531 0 453469383.73214531 -246210563.00837326 0 0 0 0 -234831136.64657927 379532597.63014483 0 379532597.63014483 -321049969.16417694 0 0 0 0 -142061647.6714325 382744568.3123455 0 382744568.3123455 -39460629.246370316 0 0 0 0 -111984390.09708214 439308884.87414074 0 439308884.87414074 -120641082.51049805 0 0 0 0 -223249669.00932312 410984996.14094353 0 410984996.14094353 -127710982.57605362 0 0 0 0 -229636801.59389496 433492192.10426521 0 433492192.10426521 -111670676.10160446 0 0 0 0 -229117108.7473793 506721676.93488312 0 506721676.93488312 -153877750.16335106 0 0 0 0 -183959040.78112793 426220067.57694626 0 426220067.57694626 -235864525.77075768 0 0 0 0 -184917951.36780548 415826237.05942822 0 415826237.05942822 -285593547.24824142 0 0 0 0 -357030543.49697113 366024744.11968231 0 366024744.11968231 -132218712.28948021 0 0 0 0 -152853362.25090408 341697558.48008919 0 341697558.48008919 -140851391.10842705 0 0 0 0 -17393696.020214081 50554446.594799876 0 50554446.594799876 -75569978.111171722 0 0 0 0 -36187478.311527252 225933444.13888168 0 225933444.13888168 -406111603.46183205 0 0 0 0 -53821239.927331924 193375866.97360802 0 193375866.97360802 -373302153.86841202 0 0 0 0 -210006688.52907562 489142945.652215 0 489142945.652215 -422920518.57653046 0 0 0 0 -115485649.59487152 397819738.64235687 0 397819738.64235687 -461805324.95728683 0 0 0 0 -222358978.89535332 486983071.96651363 0 486983071.96651363 -295731023.45384979 0 0 0 0 -262154551.75656128 464054666.00936127 0 464054666.00936127 -403282705.88726425 0 0 0 0 -129703989.95588684 357417515.07671738 0 357417515.07671738 -267064608.28520966 0 0 0 0 -144071369.5839386 455460374.5884819 0 455460374.5884819 -558160734.32862091 0 0 0 0 -184875573.97932434 431627446.48647308 0 431627446.48647308 -548206508.24859238 0 0 0 0 -10296289.254013062 216157849.8221283 0 216157849.8221283 -691593846.32975769 0 0 0 0 78960129.964118958 166515618.47628784 0 166515618.47628784 -824731977.51490784 0 0 0 0 -105480761.61214066 443307036.48719025 0 443307036.48719025 -1154684007.861969 0 0 0 0 -23836778.295425415 254723808.95365906 0 254723808.95365906 -722836985.34056854 0 0 0 0 91472936.407722473 206559604.10694885 0 206559604.10694885 -1158097417.2463379 0 0 0 0 90730693.892868042 204959324.16433716 0 204959324.16433716 -1141322410.6635132 0 0 0 0 36907077.916900985 9620400.7759567685 0 9620400.7759567685 -5465742.4965048283 0 0 0 0 43182608.735534668 2742198.8198280334 0 2742198.8198280334 2751360.8625335693 0 0 0 0 34711235.475311279 25525436.011857033 0 25525436.011857033 -15306388.442832947 0 0 0 0 37153640.151763916 21422619.788322449 0 21422619.788322449 -21704439.870178223 0 0 0 0 90801456.517620087 10623042.997662783 0 10623042.997662783 -138084833.1629982 0 0 0 0 90792065.315246582 4585137.6786346436 0 4585137.6786346436 -48366290.621883392 0 0 0 0 36180568.48740387 112990101.02467632 0 112990101.02467632 -42253802.389717102 0 0 0 0 62919222.735061646 46157356.770797729 0 46157356.770797729 -86286886.974031448 0 0 0 0 73138545.1640625 173400476.0989809 0 173400476.0989809 4718129.8615188599 0 0 0 0 36899906.427528381 30167879.656082153 0 30167879.656082153 -9094457.2235794067 0 0 0 0 42032632.126373291 27512740.114337921 0 27512740.114337921 -18129520.75932312 0 0 0 0 15975588.092376709 40400671.445695877 0 40400671.445695877 -13208818.355207443 0 0 0 0 11291516.334457397 23153495.042236328 0 23153495.042236328 3692869.4474163055 0 0 0 0 29862115.870925903 16093147.266502857 0 16093147.266502857 -5517222.4444236755 0 0 0 0 337548079.97444725 -785747139.90471077 0 -785747139.90471077 -112120646.44612336 0 0 0 0 496332573.0985136 174397193.70037746 0 174397193.70037746 -1650944.4787902832 0 0 0 0 -42895777.557466507 377698684.33389664 0 377698684.33389664 -422403103.39702225 0 0 0 0 818150.16325857583 1250728.7614376512 0 1250728.7614376512 1511852.3209208325 0 0 0 0 -97652151.00922966 608412668.36342049 0 608412668.36342049 -613790096.57805634 0 0 0 0 106966011.9942131 868608260.40877533 0 868608260.40877533 -282921735.12545013 0 0 0 0 206349778.39119339 771108493.8653183 0 771108493.8653183 -671116660.76280499 0 0 0 0 -70714871.948276401 616594437.55968332 0 616594437.55968332 -754775384.03186035 0 0 0 0 668649105.60474777 1037019311.520607 0 1037019311.520607 -722611997.54203033 0 0 0 0 269092789.77340031 617140899.26673698 0 617140899.26673698 -1146361161.0955276 0 0 0 0 962337374.99534798 288968724.01471138 0 288968724.01471138 -1692889872.9073868 0 0 0 0 -676886547.29333878 -216801999.34858322 0 -216801999.34858322 -1109102475.936676 0 0 0 0 24829932.738221638 15384615.228891904 0 15384615.228891904 3050201.7793517876 0 0 0 0 -82849381.62071228 528315547.01844597 0 528315547.01844597 341528770.97159958 0 0 0 0 -778353254.25788116 -288095246.96495819 0 -288095246.96495819 -241068571.44464874 0 0 0 0 -366562684.41195679 678126185.09106445 0 678126185.09106445 -1250070846.6785965 0 0 0 0 -86843423.525756836 520330837.69017029 0 520330837.69017029 -1459173267.2812328 0 0 0 0 -3057019.1416771868 8924890.7004058585 0 8924890.7004058585 1927084.9403419492 0 0 0 0 1015825931.3317871 -582397801.59226227 0 -582397801.59226227 70675936.247047424 0 0 0 0 600045928.3112793 -317732823.09543991 0 -317732823.09543991 -81104782.437080383 0 0 0 0 105498859.38064575 -863235016.96316528 0 -863235016.96316528 -11567869.690357208 0 0 0 0 2198740080.2389832 -863736918.5054245 0 -863736918.5054245 -570301091.078866 0 0 0 0 2474303669.0496063 -289952486.11710358 0 -289952486.11710358 -785349848.21199274 0 0 0 0 1312128503.2235565 -193076069.03089714 0 -193076069.03089714 -493596658.02433777 0 0 0 0 1567576311.8360748 -151140640.48342514 0 -151140640.48342514 -790203095.41298485 0 0 0 0 1415894767.5671844 -712189232.09780502 0 -712189232.09780502 -590165945.00515795 0 0 0 0 1152061002.354187 -555422300.53012657 0 -555422300.53012657 -336551039.74420166 0 0 0 0 1208792260.2373352 -301909583.2942791 0 -301909583.2942791 -218399027.53382492 0 0 0 0 1192869163.3361816 -358772616.4958353 0 -358772616.4958353 -287226011.47196198 0 0 0 0 763600335.4342041 68552952.733551025 0 68552952.733551025 -575462863.54229736 0 0 0 0 1369764618.5233459 -489117531.0535059 0 -489117531.0535059 -844347.23532485962 0 0 0 0 2151747597.5739746 130660210.20858002 0 130660210.20858002 -329797811.78569031 0 0 0 0 1306132415.5401294 -142564185.49015528 0 -142564185.49015528 -348104441.82939148 0 0 0 0 1305083801.3095398 -441412477.33119583 0 -441412477.33119583 -400503509.06851196 0 0 0 0 183262682.96052551 309970866.99446011 0 309970866.99446011 30306927.168258667 0 0 0 0 1033037166.848175 -73665460.337604523 0 -73665460.337604523 -329420871.63464355 0 0 0 0 1281861975.8218689 632653246.2264328 0 632653246.2264328 -185691917.04354095 0 0 0 0 1425236885.4474487 583157333.63703156 0 583157333.63703156 -171149691.00896263 0 0 0 0 1403079108.3893433 546209939.0458107 0 546209939.0458107 -232706469.79415131 0 0 0 0 2744944400.7984314 767321018.22542572 0 767321018.22542572 -204057180.08486938 0 0 0 0 1852068.2426886857 1132591.7792597879 0 1132591.7792597879 -621792.38654904068 0 0 0 0 508966305.81362915 389687123.31735992 0 389687123.31735992 146207474.53252029 0 0 0 0 285449937.42669678 -619679727.00611115 0 -619679727.00611115 -1674938366.1675568 0 0 0 0 546524653.24813843 937305725.0742054 0 937305725.0742054 -387257285.67060089 0 0 0 0 475695322.82579803 959538163.10513592 0 959538163.10513592 -27240509.248275757 0 0 0 0 1003779398.8673096 818216706.41972351 0 818216706.41972351 -473177040.21888733 0 0 0 0 1165371501.4430389 1126084029.6558266 0 1126084029.6558266 103170180.93603516 0 0 0 0 337347642.39904785 -90906903.690029144 0 -90906903.690029144 -1147251021.5950775 0 0 0 0 228075696.78659058 263462589.07621765 0 263462589.07621765 -336911909.91995239 0 0 0 0 212009023.1395874 163985303.85964966 0 163985303.85964966 -913243169.92703629 0 0 0 0 -52507712.671944618 2567584008.0896082 0 2567584008.0896082 157154317.85247803 0 0 0 0 70071336.154541016 -74879041.676151276 0 -74879041.676151276 -600800894.63227081 0 0 0 0 72577815.149139404 -42334182.04794693 0 -42334182.04794693 -178234915.13383865 0 0 0 0 -43172460.320419312 -55927583.46459198 0 -55927583.46459198 63701485.971315384 0 0 0 0 8278489.8877522908 572678.43713484332 0 572678.43713484332 -4351849.9207934961 0 0 0 0 34870947.409262449 7540414.6324921967 0 7540414.6324921967 -6096867.6184290741 0 0 0 0 -36921022.839645386 -114947429.30364513 0 -114947429.30364513 -224309861.12962723 0 0 0 0 457014783.2908783 833396980.60915756 0 833396980.60915756 -682196765.92076874 0 0 0 0 -556943660.55818176 39171077.387147903 0 39171077.387147903 363624090.73634338 0 0 0 0 299257763.96279144 103551839.03749466 0 103551839.03749466 8686597.182510376 0 0 0 0 56096043.260803223 61005904.311311722 0 61005904.311311722 151279630.25518799 0 0 0 0 24676786.914077722 7631153.1827380164 0 7631153.1827380164 -5072030.9886960667 0 0 0 0 -37950441.195209503 109993259.52728748 0 109993259.52728748 -134093221.1674757 0 0 0 0 15811556.585701611 -1965518.3113540057 0 -1965518.3113540057 -10962884.639555044 0 0 0 0 -519847664.27155685 252347109.1681428 0 252347109.1681428 -27513041.831478596 0 0 0 0 -280846281.71139336 189596835.71218014 0 189596835.71218014 -17868314.253917694 0 0 0 0 629195932.36689758 252071469.72863007 0 252071469.72863007 -31326981.633245468 0 0 0 0 354733069.85845566 214984963.67196941 0 214984963.67196941 85835521.678934097 0 0 0 0 577938029.90132141 302388735.76165199 0 302388735.76165199 -18440813.697181702 0 0 0 0 988693446.190979 562714391.07272339 0 562714391.07272339 -328302311.49796677 0 0 0 0 926310615.64628601 380382238.31474876 0 380382238.31474876 -186538361.61527061 0 0 0 0 991721508.00659943 632037120.04774857 0 632037120.04774857 -141912014.29566193 0 0 0 0 759900327.2898674 599008672.92629242 0 599008672.92629242 53365711.02331543 0 0 0 0 1294822278.9811554 -1084806483.6706429 0 -1084806483.6706429 -206814438.6948204 0 0 0 0 14096538.056106567 272965154.0889473 0 272965154.0889473 991110877.83584976 0 0 0 0 8990504.2456678078 2640609.1057458594 0 2640609.1057458594 -1293878.926400302 0 0 0 0 963408778.70185852 949733602.30882645 0 949733602.30882645 221613281.08155441 0 0 0 0 263235970.62363434 1360523260.3278885 0 1360523260.3278885 3064770375.9786377 0 0 0 0 1040480488.3102951 797732812.99219704 0 797732812.99219704 -335611606.70321655 0 0 0 0 -691562206.1338501 1523235080.4444733 0 1523235080.4444733 6591096601.9742584 0 0 0 0 1799116939.7357178 2718628544.8440475 0 2718628544.8440475 1615598103.5519791 0 0 0 0 4453343799.6668243 2684499286.0709152 0 2684499286.0709152 -3165710700.0220184 0 0 0 0 -312351416.78560925 -234642424.86624241 0 -234642424.86624241 -224352530.13217163 0 0 0 0 29678376.175249048 -29407916.297260653 0 -29407916.297260653 20944480.477612324 0 0 0 0 353448002.50796509 -571191619.19111061 0 -571191619.19111061 -680265318.10431671 0 0 0 0 -287403380.0209493 -275190875.32715684 0 -275190875.32715684 -235091167.08942413 0 0 0 0 2045555632.1132965 -394759009.71539116 0 -394759009.71539116 -2000661384.4047775 0 0 0 0 -387598425.23768425 -271888517.46469116 0 -271888517.46469116 -211244151.95968628 0 0 0 0 -809150632.61498642 -624464537.30607033 0 -624464537.30607033 -471320811.01048851 0 0 0 0 192598013.11741829 360425656.59236145 0 360425656.59236145 -779854670.88522339 0 0 0 0 -397293724.32557607 -220223497.39515519 0 -220223497.39515519 -185400845.47183228 0 0 0 0 724305796.81181335 425224700.67865086 0 425224700.67865086 256312728.55917358 0 0 0 0 848112179.94787598 407802446.55658245 0 407802446.55658245 150301365.33397293 0 0 0 0 1087000602.7377014 506045621.54812813 0 506045621.54812813 117737225.70440865 0 0 0 0 1122196177.2743683 445193534.73786068 0 445193534.73786068 30288577.799179077 0 0 0 0 1038699588.5201111 742001526.42058372 0 742001526.42058372 232986057.00924921 0 0 0 0 1336840348.7751923 641653781.67567205 0 641653781.67567205 117448850.10451221 0 0 0 0 -177758926.67605972 -1342611835.6123734 0 -1342611835.6123734 -272394989.07830811 0 0 0 0 -626763208.57551575 -1352524428.384613 0 -1352524428.384613 90623662.809799194 0 0 0 0 2963464.7051358796 -1139899.8533100057 0 -1139899.8533100057 -1819654.4920664541 0 0 0 0 27568081.508935653 -27483389.528443113 0 -27483389.528443113 16134456.073378336 0 0 0 0 1477864258.8962402 331340920.12268114 0 331340920.12268114 213052198.67621231 0 0 0 0 1416876589.225708 403487975.81824875 0 403487975.81824875 132268407.74658203 0 0 0 0 1374290742.2274933 146170028.11973429 0 146170028.11973429 506058491.44086838 0 0 0 0 -105631251.1907692 -340578215.67405701 0 -340578215.67405701 -169271809.34709167 0 0 0 0 -68861708.226379395 717719098.68139648 0 717719098.68139648 -1638841738.2487259 0 0 0 0 -333161481.03293419 -643077937.81916809 0 -643077937.81916809 -458875378.62266541 0 0 0 0 -439303718.96648216 -770881324.29111481 0 -770881324.29111481 63217517.813720703 0 0 0 0 -770760779.43934059 -1369972862.7116737 0 -1369972862.7116737 667747489.0847168 0 0 0 0 -418337440.25707436 -701077929.67101288 0 -701077929.67101288 179989547.0949707 0 0 0 0 -413963909.93280602 -1010498145.0129166 0 -1010498145.0129166 1455243357.7970123 0 0 0 0 614101810.75240469 -1353118895.9538155 0 -1353118895.9538155 557193325.80571747 0 0 0 0 -1035873020.8532352 -477405243.20603561 0 -477405243.20603561 138849069.12546539 0 0 0 0 8006854.5259417798 -3904274.8181317002 0 -3904274.8181317002 -6620188.9470575992 0 0 0 0 -340615405.24839783 332345594.15860462 0 332345594.15860462 -66535875.896156311 0 0 0 0 658840302.00260925 87069571.341698647 0 87069571.341698647 32929281.777456284 0 0 0 0 937670923.87570953 288314376.89073944 0 288314376.89073944 17251290.170146286 0 0 0 0 920289130.25415039 367639397.3443718 0 367639397.3443718 -39587718.182808399 0 0 0 0 1172941448.8745041 253094707.20342684 0 253094707.20342684 187339911.12796783 0 0 0 0 967028526.54992104 195159478.3400166 0 195159478.3400166 234534084.23710251 0 0 0 0 1136282730.0922089 339300571.66190624 0 339300571.66190624 350335593.78759193 0 0 0 0 1041207703.4638214 726365594.25021744 0 726365594.25021744 801071089.0017575 0 0 0 0 970987821.57929993 422742672.03775978 0 422742672.03775978 362861525.22308922 0 0 0 0 1114024726.7740479 340233406.61440277 0 340233406.61440277 858323247.65070534 0 0 0 0 1116396224.0441246 363037706.64741397 0 363037706.64741397 372387505.2760582 0 0 0 0 1063157349.6427765 811441421.63462162 0 811441421.63462162 510224176.03988892 0 0 0 0 913403338.65223694 444070874.9998008 0 444070874.9998008 -294011402.91316986 0 0 0 0 927564394.42887878 341637904.7887373 0 341637904.7887373 214277450.57213879 0 0 0 0 820860876.98358154 260990003.97971606 0 260990003.97971606 99227808.78257823 0 0 0 0 -1286200603.1099129 397370599.59384799 0 397370599.59384799 36610521.487920642 0 0 0 0 2540500.208648927 -2448012.8388366997 0 -2448012.8388366997 -2266349.4609960183 0 0 0 0 -295205886.48109055 -69018106.005379915 0 -69018106.005379915 45505068.225039721 0 0 0 0 404876546.77474213 1262531587.6501322 0 1262531587.6501322 -504894509.74030161 0 0 0 0 455505978.89803314 138078371.24980259 0 138078371.24980259 676033667.76400089 0 0 0 0 -608567622.6577301 526021965.62983686 0 526021965.62983686 690576963.79017496 0 0 0 0 -1285946645.2987862 -91743052.980327606 0 -91743052.980327606 156392437.75178528 0 0 0 0 1220287088.9809189 1041841331.7069917 0 1041841331.7069917 301433079.23910809 0 0 0 0 1284929308.7057343 899068349.69800854 0 899068349.69800854 303382154.15449905 0 0 0 0 23698896.470977951 -23508108.479702324 0 -23508108.479702324 12222624.429813512 0 0 0 0 1307667034.8663483 888152390.16991806 0 888152390.16991806 71020757.711775303 0 0 0 0 1172999756.9378967 688049387.50764239 0 688049387.50764239 -45587230.447095811 0 0 0 0 761221273.40405273 716005691.12867677 0 716005691.12867677 114001183.26220143 0 0 0 0 1212498823.5638342 1042901567.2361608 0 1042901567.2361608 22797461.557647705 0 0 0 0 1063544919.5416565 834611629.18206739 0 834611629.18206739 -164254677.04939902 0 0 0 0 887441125.16044617 989915397.55980039 0 989915397.55980039 114534667.10816145 0 0 0 0 -1072533825.086586 -149521257.80994415 0 -149521257.80994415 47261381.418411255 0 0 0 0 -937311451.14094162 17145786.650787354 0 17145786.650787354 -158614072.45682526 0 0 0 0 1262531803.4354668 760488034.9019866 0 760488034.9019866 1713977423.2453461 0 0 0 0 1342008656.6636086 460257802.87570858 0 460257802.87570858 11704593.472822189 0 0 0 0 1212226.9885510691 -470608.17973611131 0 -470608.17973611131 395242.56994599849 0 0 0 0 6538614.4791211179 -11819913.923302907 0 -11819913.923302907 16198173.543918971 0 0 0 0 437045341.79443359 487390401.99713135 0 487390401.99713135 343808240.33660126 0 0 0 0 230106607.71220398 709278819.73411751 0 709278819.73411751 984420152.20217943 0 0 0 0 -111900288.33090639 301666854.75630677 0 301666854.75630677 528872487.260849 0 0 0 0 4839870.700553894 299368818.75528049 0 299368818.75528049 502777153.75882626 0 0 0 0 -554991181.46971893 -51192531.69701767 0 -51192531.69701767 406671335.81010628 0 0 0 0 146686464.66249084 158621270.78883743 0 158621270.78883743 671077383.28417969 0 0 0 0 -288519566.99010277 -266571259.04104233 0 -266571259.04104233 290526207.8815155 0 0 0 0 -615187825.97285461 -110071620.56835938 0 -110071620.56835938 288696029.30244827 0 0 0 0 -338634861.99922514 -62182712.310128212 0 -62182712.310128212 65760510.125839233 0 0 0 0 -667106393.71234131 78299443.959337234 0 78299443.959337234 -382066295.85429382 0 0 0 0 -1388451301.5407276 430703500.03112793 0 430703500.03112793 -65768271.431793213 0 0 0 0 -969877695.54154778 -21502152.387058258 0 -21502152.387058258 221711479.2410965 0 0 0 0 -770091849.84764004 -22623430.442249298 0 -22623430.442249298 116970965.67017365 0 0 0 0 -1053277227.4624138 111498435.14305878 0 111498435.14305878 173582322.69589233 0 0 0 0 -705451648.05796814 137304518.57676697 0 137304518.57676697 262939037.15812302 0 0 0 0 -796032850.43865061 299606091.10707569 0 299606091.10707569 22340152.106735229 0 0 0 0 -824316256.70881653 237904227.30846786 0 237904227.30846786 -63163431.02722168 0 0 0 0 -745328123.01320791 117337745.98350954 0 117337745.98350954 272351893.32846832 0 0 0 0 -922561187.16767883 134753161.36013031 0 134753161.36013031 276650385.12462234 0 0 0 0 -309268899.61646175 189740839.39228058 0 189740839.39228058 127257608.22101212 0 0 0 0 -175870350.07206893 -395359903.23962307 0 -395359903.23962307 676499202.94783401 0 0 0 0 56398822.058861732 -450669912.36780357 0 -450669912.36780357 349168602.87799835 0 0 0 0 674822499.97363019 -678052772.40737152 0 -678052772.40737152 421705174.82983017 0 0 0 0 741254742.53077936 -330442995.05717087 0 -330442995.05717087 685339550.41592789 0 0 0 0 1127631377.6682119 -11707568.083152771 0 -11707568.083152771 647692273.74007797 0 0 0 0 -109009482.68541813 -316650412.2342205 0 -316650412.2342205 1115263878.8665237 0 0 0 0 2528283757.7057128 1725767358.4109898 0 1725767358.4109898 1690554984.8495407 0 0 0 0 677734006.39332581 416092535.24516487 0 416092535.24516487 765307415.03056717 0 0 0 0 4279526948.4228969 713150663.35191727 0 713150663.35191727 -63063725.634850979 0 0 0 0 1255604943.4144402 158884185.95573044 0 158884185.95573044 14440313.712989807 0 0 0 0 423899.45194341592 1914440.8913118877 0 1914440.8913118877 5077750.662844114 0 0 0 0 -167751047.14345932 -403298241.6821785 0 -403298241.6821785 2419331765.9598999 0 0 0 0 130991469.41520691 1803085051.383091 0 1803085051.383091 3118532236.1826372 0 0 0 0 3988048105.6711659 411273613.59045219 0 411273613.59045219 267371526.32779694 0 0 0 0 -259928775.98260403 101018420.71970367 0 101018420.71970367 2825920278.8358269 0 0 0 0 1596264167.2796764 -892473263.48781586 0 -892473263.48781586 -1887086483.6213264 0 0 0 0 10910309.214894589 2207963.6497686785 0 2207963.6497686785 -3233887.2144669686 0 0 0 0 -398853620.63352609 347020306.25062943 0 347020306.25062943 388603464.78541565 0 0 0 0 65058274.696323395 -152182826.42832756 0 -152182826.42832756 -502988249.88911057 0 0 0 0 172226733.7574501 -11107207.014849663 0 -11107207.014849663 -404497601.0395155 0 0 0 0 122778857.46450043 -17151676.381685257 0 -17151676.381685257 -387287456.8507309 0 0 0 0 137038389.13335037 17447120.24245739 0 17447120.24245739 -319152779.26303482 0 0 0 0 170218448.70530176 -400893784.77846718 0 -400893784.77846718 -966764844.22691321 0 0 0 0 36115103.413383961 -62183894.23723793 0 -62183894.23723793 -301199315.85001183 0 0 0 0 1074897133.6013803 -78254172.92767334 0 -78254172.92767334 -591463053.02194214 0 0 0 0 374856649.61415291 494434021.0341711 0 494434021.0341711 120613361.6454277 0 0 0 0 66268332.961957932 -1124803367.8700237 0 -1124803367.8700237 96449249.592798233 0 0 0 0 4700090.9004247561 811144.1467449069 0 811144.1467449069 -1274626.1676483396 0 0 0 0 -999302427.22510815 -197585121.96036911 0 -197585121.96036911 763160885.29348946 0 0 0 0 48116117.175495148 -102929808.72968388 0 -102929808.72968388 257848211.97409058 0 0 0 0 -266841496.45059204 179603651.92817307 0 179603651.92817307 24370294.846096039 0 0 0 0 169513575.60877228 80227969.716358185 0 80227969.716358185 -370552792.81163406 0 0 0 0 2835009.6788240038 4492144.6764932219 0 4492144.6764932219 -1310084.3143795989 0 0 0 0 -133914552.00902557 -107374428.32845974 0 -107374428.32845974 -48989536.859809875 0 0 0 0 117069843.41717148 559476592.59290028 0 559476592.59290028 303353490.85411644 0 0 0 0 538325525.08750916 831051302.77369308 0 831051302.77369308 387584046.63307476 0 0 0 0 -41163354.348207474 318652118.80461502 0 318652118.80461502 532970183.05493832 0 0 0 0 51273822.738528252 323141692.21833229 0 323141692.21833229 232965760.81528473 0 0 0 0 -80844014.040559769 233984872.2403717 0 233984872.2403717 59455005.963508606 0 0 0 0 85430646.512428284 -162087017.18403625 0 -162087017.18403625 183156345.37530899 0 0 0 0 26221491.098942757 1207459078.3127861 0 1207459078.3127861 1063782489.2040987 0 0 0 0 -132838297.30467129 161191441.68728065 0 161191441.68728065 1651150800.595108 0 0 0 0 401385976.39736557 1089763613.0285301 0 1089763613.0285301 768389611.47962189 0 0 0 0 10998453.906861577 3686323.0899925204 0 3686323.0899925204 -3896056.4889112562 0 0 0 0 1191800493.0519981 605778743.72019386 0 605778743.72019386 -906213994.29590988 0 0 0 0 5023707.8605427891 2628227.0245584417 0 2628227.0245584417 -2162343.2192110159 0 0 0 0 639420920.71132469 1460946279.3939657 0 1460946279.3939657 1308042081.2365952 0 0 0 0 207198873.2526989 1107589978.50844 0 1107589978.50844 772931304.43066025 0 0 0 0 180508044.17181778 460091349.47008801 0 460091349.47008801 450885317.99539566 0 0 0 0 1402077287.4603806 773358751.5182476 0 773358751.5182476 432650526.58255428 0 0 0 0 402588579.44000626 321618465.76392651 0 321618465.76392651 414101242.14784431 0 0 0 0 520425095.63604736 77099515.207293987 0 77099515.207293987 892205210.78901863 0 0 0 0 1039802173.3387852 569822852.21597242 0 569822852.21597242 148798052.0613184 0 0 0 0 384476386.87693787 479142597.4348259 0 479142597.4348259 355161514.45487356 0 0 0 0 297868116.76404572 460282384.10311151 0 460282384.10311151 351083180.29976273 0 0 0 0 486634014.40198898 703354928.67231798 0 703354928.67231798 833499256.00485802 0 0 0 0 865591294.12133217 -186482049.63582563 0 -186482049.63582563 -293279878.13439751 0 0 0 0 240675476.58969736 55176451.261455417 0 55176451.261455417 30566197.268539429 0 0 0 0 222890963.65756226 -413700118.9252615 0 -413700118.9252615 -255679907.9537921 0 0 0 0 -56070499.555229664 16466414.527342319 0 16466414.527342319 -152866984.24379349 0 0 0 0 13587294.154548645 -153048097.57591343 0 -153048097.57591343 -41856215.682146072 0 0 0 0 207290256.94831848 -76840109.225935459 0 -76840109.225935459 -27053590.521270752 0 0 0 0 -2003257.6117086411 -66857105.763132572 0 -66857105.763132572 14338830.244894028 0 0 0 0 4737118.3870811462 -166244190.00335586 0 -166244190.00335586 -205934715.37068963 0 0 0 0 -13521393.677246094 -53534393.332722187 0 -53534393.332722187 -70564286.202599287 0 0 0 0 149127044.20998383 -77107494.918215215 0 -77107494.918215215 -166685631.68693542 0 0 0 0 202608598.16032791 34508527.685275793 0 34508527.685275793 -111428600.90054369 0 0 0 0 173572527.8020668 -51536238.051469803 0 -51536238.051469803 -91931923.488346577 0 0 0 0 175297928.09225273 -76060017.772279978 0 -76060017.772279978 13874792.795954704 0 0 0 0 415092336.21858406 114684202.9243598 0 114684202.9243598 -65269766.17970705 0 0 0 0 472773658.46704483 145150376.74586225 0 145150376.74586225 -154502371.15879464 0 0 0 0 190587078.12233353 27347902.208881855 0 27347902.208881855 -87881491.79991293 0 0 0 0 162962143.05120277 232226953.76189303 0 232226953.76189303 3039393.6258292198 0 0 0 0 537385139.54026031 461281767.32250285 0 461281767.32250285 150608556.47568798 0 0 0 0 329961777.58839798 269523840.68953305 0 269523840.68953305 -25238930.892080307 0 0 0 0 -252087110.94474363 -192198258.99751854 0 -192198258.99751854 -73528728.859890938 0 0 0 0 330806833.74415112 86769698.085949898 0 86769698.085949898 -208854083.64821625 0 0 0 0 3271833.2832366801 -684835.57960589463 0 -684835.57960589463 -2605901.2005844731 0 0 0 0 -360382362.10933447 -186142514.96983719 0 -186142514.96983719 -27685342.48097229 0 0 0 0 -293932110.18758869 -258897475.59336472 0 -258897475.59336472 -88581259.13253212 0 0 0 0 -304144239.64369845 -178466994.22423935 0 -178466994.22423935 -48203590.196102142 0 0 0 0 -253958180.4579668 -180316724.15880775 0 -180316724.15880775 -138189844.51054764 0 0 0 0 -333970900.5002619 -323009182.822752 0 -323009182.822752 -258283973.34392166 0 0 0 0 5634751.2705346178 -1758227.6768893776 0 -1758227.6768893776 -3746079.7649632003 0 0 0 0 -241652947.08164358 -301204241.84883881 0 -301204241.84883881 -295416089.49360657 0 0 0 0 -248738957.0052197 -228123001.37739563 0 -228123001.37739563 -270063488.53215027 0 0 0 0 -288001421.75305581 -294407779.21312004 0 -294407779.21312004 -203973925.99998474 0 0 0 0 63022821.589705944 -20656389.146677971 0 -20656389.146677971 -237729025.65885925 0 0 0 0 -37656166.532758713 -71623619.530949593 0 -71623619.530949593 -204829641.17572212 0 0 0 0 95877419.293199539 -63564885.01699543 0 -63564885.01699543 -208253606.89050937 0 0 0 0 -46139670.193696499 -85979008.359574318 0 -85979008.359574318 47489073.944879532 0 0 0 0 192197511.02117014 -212335895.97832012 0 -212335895.97832012 15391792.217834473 0 0 0 0 119634921.83429527 19782404.912581444 0 19782404.912581444 118683256.27145624 0 0 0 0 18011515.218603134 -100478019.93272161 0 -100478019.93272161 -21267100.656599998 0 0 0 0 -12016428.303649902 -47634666.202619553 0 -47634666.202619553 -26364817.949242562 0 0 0 0 -19173638.773504257 -57731371.855520248 0 -57731371.855520248 40216344.000692129 0 0 0 0 4903238.803691864 -85450580.801631272 0 -85450580.801631272 -43873795.941864014 0 0 0 0 64170631.00718689 -75805925.506438494 0 -75805925.506438494 -358105147.67374563 0 0 0 0 -22020589.003353119 -60704011.247465253 0 -60704011.247465253 -53995778.322471917 0 0 0 0 11438831.789047241 -94927100.931484401 0 -94927100.931484401 -180278063.92833614 0 0 0 0 -9333547.3951740265 -43240987.79477644 0 -43240987.79477644 -195610308.94151247 0 0 0 0 82080584.511434555 -33101945.291748285 0 -33101945.291748285 -199222588.57424474 0 0 0 0 19753213.595976088 8239146.547259273 0 8239146.547259273 -12871157.540542074 0 0 0 0 13358088.26417923 -123067188.0389514 0 -123067188.0389514 -246624156.79108906 0 0 0 0 -459158702.98743916 71883940.382331014 0 71883940.382331014 41596764.28440094 0 0 0 0 32879299.92578081 -16988119.504913446 0 -16988119.504913446 12485372.501678444 0 0 0 0 -24527622.34651947 -281333888.45574665 0 -281333888.45574665 -17742923.695075989 0 0 0 0 293997842.11602783 -409956612.05812931 0 -409956612.05812931 92083230.672033787 0 0 0 0 -43012739.032393456 49029938.720377445 0 49029938.720377445 60575896.222076416 0 0 0 0 6134872.8605792029 2505276.2717211046 0 2505276.2717211046 -3940919.5951816854 0 0 0 0 25415592.354943275 -286227991.22047806 0 -286227991.22047806 -43672225.485606194 0 0 0 0 295955682.9535656 -379467160.10595226 0 -379467160.10595226 -107812047.73679066 0 0 0 0 493757589.21320081 7375726.1255085468 0 7375726.1255085468 -524363355.11195564 0 0 0 0 -278921619.45799565 -81340013.731056213 0 -81340013.731056213 -53588126.991756439 0 0 0 0 423451356.7393198 -279538628.90531445 0 -279538628.90531445 -209663098.6282196 0 0 0 0 28571720.671799034 -25253725.530388068 0 -25253725.530388068 22847028.007736526 0 0 0 0 -769777824.73700523 -1121938602.1468728 0 -1121938602.1468728 1121936098.8105736 0 0 0 0 -399372309.0412569 -171556113.78970432 0 -171556113.78970432 -19900424.144069672 0 0 0 0 -422074504.39711118 -40259931.41245079 0 -40259931.41245079 -56109842.131401062 0 0 0 0 844725107.33270264 510382982.42015839 0 510382982.42015839 -703331699.72441864 0 0 0 0 -522192916.41472626 471433670.96877289 0 471433670.96877289 -155599620.08074188 0 0 0 0 139311533.8802948 168303500.44818497 0 168303500.44818497 -22408860.977354527 0 0 0 0 216227444.65985107 253866573.08466148 0 253866573.08466148 -119876666.76341224 0 0 0 0 329482127.81388855 13656454.771003723 0 13656454.771003723 26230772.039703369 0 0 0 0 323106130.318573 140460623.79082108 0 140460623.79082108 -138716939.52807236 0 0 0 0 -199146994.46801758 81543903.485619545 0 81543903.485619545 -127454564.81989288 0 0 0 0 17597808.000640363 -10450430.133479077 0 -10450430.133479077 3103963.9139515096 0 0 0 0 -135304217.0607605 -7329586.7070732117 0 -7329586.7070732117 374028609.2311058 0 0 0 0 78438373.526992798 -91606232.030583382 0 -91606232.030583382 300596304.49306154 0 0 0 0 -115351942.07611084 104508987.12858963 0 104508987.12858963 141550783.03590775 0 0 0 0 269250502.23204041 143477747.24193478 0 143477747.24193478 117047604.9361763 0 0 0 0 106602775.93157959 230168962.57071304 0 230168962.57071304 212641953.8873558 0 0 0 0 -812617366.62898254 406437203.4671526 0 406437203.4671526 46937149.205931664 0 0 0 0 494402.61884614266 -321600.61238187179 0 -321600.61238187179 -627255.33048307151 0 0 0 0 421380723.12815857 197785240.95934772 0 197785240.95934772 -238266735.40789413 0 0 0 0 135062903.54048538 -275550089.95613575 0 -275550089.95613575 534104482.47872066 0 0 0 0 560608267.16410828 2973513.7161331177 0 2973513.7161331177 -124383999.45241928 0 0 0 0 49039316.624237061 27881483.498113632 0 27881483.498113632 -17217610.577503681 0 0 0 0 41704450.716853142 77086448.345698118 0 77086448.345698118 -105507415.87838888 0 0 0 0 53426022.824304268 -12695869.255865468 0 -12695869.255865468 2029377.1601230265 0 0 0 0 1024299.8042704985 -8482433.9447698612 0 -8482433.9447698612 579358.37365544122 0 0 0 0 -36263512.071926117 -100124449.87969303 0 -100124449.87969303 -1353497.3573384285 0 0 0 0 94860134.050708771 -91663057.374996662 0 -91663057.374996662 -386796014.37991524 0 0 0 0 53583659.674759805 -10006840.578828949 0 -10006840.578828949 -3238611.2745312639 0 0 0 0 250845348.17551422 349907723.77913046 0 349907723.77913046 -461991093.61768913 0 0 0 0 10282593.840316772 219892407.41866684 0 219892407.41866684 326907425.52689743 0 0 0 0 13996699.54607157 -1388349.1812442169 0 -1388349.1812442169 -4066233.9396431809 0 0 0 0 -77010041.654418945 787018018.82440186 0 787018018.82440186 -260139460.24833679 0 0 0 0 -77592971.431930542 410234018.7801342 0 410234018.7801342 742595097.07727432 0 0 0 0 14000124.743423462 88511027.002971649 0 88511027.002971649 -77001993.888208389 0 0 0 0 291807955.80549622 -216452236.27028751 0 -216452236.27028751 -126521265.84087372 0 0 0 0 597630602.26334381 252163769.8721571 0 252163769.8721571 -52085979.747936249 0 0 0 0 -26071095.74307251 41140730.02009964 0 41140730.02009964 -121812780.9750061 0 0 0 0 106490251.39654541 399091184.54851151 0 399091184.54851151 279978857.4321537 0 0 0 0 184065312.97409058 220705905.11058807 0 220705905.11058807 -75564524.931932449 0 0 0 0 -130391367.66184998 218387982.48869896 0 218387982.48869896 143059367.66470909 0 0 0 0 -121016764.65348244 344941853.17045325 0 344941853.17045325 946256996.78526306 0 0 0 0 88890.61306129396 3555505.1573521108 0 3555505.1573521108 1240212.1191828465 0 0 0 0 249096178.1990757 -2550956.0367221832 0 -2550956.0367221832 -44187154.299722672 0 0 0 0 495696563.42755127 -121211568.94272995 0 -121211568.94272995 -22650872.993438244 0 0 0 0 3778749.7610379383 382301.67802150548 0 382301.67802150548 -1588424.7735493444 0 0 0 0 367235110.55046082 -358530811.67383146 0 -358530811.67383146 167060670.28074265 0 0 0 0 -1250906.8833770752 3267491.877923727 0 3267491.877923727 -4793560.0322608948 0 0 0 0 2898898.0010652915 3200095.0394771826 0 3200095.0394771826 -120239.14722537529 0 0 0 0 77329774.543861389 -52823169.039920807 0 -52823169.039920807 -144933036.77009201 0 0 0 0 52411.019470214844 5415874.9377746582 0 5415874.9377746582 -9981432.8306770325 0 0 0 0 3107287.2908786982 2199107.1679302594 0 2199107.1679302594 -1125222.8412018958 0 0 0 0 -32502.320007324219 3798069.4145259857 0 3798069.4145259857 -4852073.763052702 0 0 0 0 -212495605.80609131 166075555.95820618 0 166075555.95820618 -275251113.64407539 0 0 0 0 5362771.4181741364 1055624.955221612 0 1055624.955221612 -2749417.5856058672 0 0 0 0 45113306.446655273 282484351.14228058 0 282484351.14228058 -398349567.73109245 0 0 0 0 -524989.83731079102 1358794.2317218781 0 1358794.2317218781 -16875756.61520195 0 0 0 0 2210595.0735558867 2258972.2027818863 0 2258972.2027818863 -675974.55631228583 0 0 0 0 -96002761.610580444 240224040.67147923 0 240224040.67147923 -189073212.27087975 0 0 0 0 28772490.549560547 321561218.98124027 0 321561218.98124027 -176062832.97824478 0 0 0 0 -102491559.9659729 160496425.4821434 0 160496425.4821434 -55331054.184017181 0 0 0 0 230060677.59894562 55528546.736337662 0 55528546.736337662 -152128888.3415451 0 0 0 0 196923380.51213837 251518134.46498895 0 251518134.46498895 131863587.43636322 0 0 0 0 191033554.54114723 215483425.88844514 0 215483425.88844514 -62777890.792816162 0 0 0 0 2372653.2874469869 -115068.77796464041 0 -115068.77796464041 -3225116.3013552912 0 0 0 0 -158878557.36019897 -128845925.70734406 0 -128845925.70734406 -51798710.028934479 0 0 0 0 -115652605.85646582 136100254.08915868 0 136100254.08915868 -125499350.81833267 0 0 0 0 -168063920.45681763 353276251.22289085 0 353276251.22289085 -194338118.51733875 0 0 0 0 -436816023.18127441 326603815.60381269 0 326603815.60381269 -121755595.83627701 0 0 0 0 126505251.93061495 68174159.189400792 0 68174159.189400792 -62305460.719341278 0 0 0 0 119329777.2577858 72882032.830068588 0 72882032.830068588 -51053183.907443523 0 0 0 0 307922480.82544899 126247533.7984345 0 126247533.7984345 -83246907.826436043 0 0 0 0 162047886.37252712 -1734650.8241045475 0 -1734650.8241045475 -104190951.51041794 0 0 0 0 1102685.5941963196 -37033812.026316643 0 -37033812.026316643 -62172350.785633087 0 0 0 0 48403424.110420227 -113815871.1559639 0 -113815871.1559639 -140106503.13062453 0 0 0 0 342617147.93245697 -995937671.50326967 0 -995937671.50326967 -272447259.3068676 0 0 0 0 45947264.809615791 -11293569.614263598 0 -11293569.614263598 -1860185.9062815569 0 0 0 0 88969784.122876167 -60619459.570728779 0 -60619459.570728779 -129501534.75475693 0 0 0 0 76497900.685333252 -48281136.371143579 0 -48281136.371143579 -112402151.68054247 0 0 0 0 -35038361.851535797 -132537394.00158024 0 -132537394.00158024 -135514852.76540422 0 0 0 0 -551421432.25198364 137747477.49867439 0 137747477.49867439 37191510.321350098 0 0 0 0 1413510522.4475708 416977305.49150085 0 416977305.49150085 68935124.648372173 0 0 0 0 504863604.85842896 -947839172.1224165 0 -947839172.1224165 -238726872.99981689 0 0 0 0 1392073250.5745697 825692464.49923706 0 825692464.49923706 761597924.96248245 0 0 0 0 843805.07625739276 1273495.5531098861 0 1273495.5531098861 345043.19025586545 0 0 0 0 483782239.59173584 -637634860.38846588 0 -637634860.38846588 327678482.55932617 0 0 0 0 82670834.285964966 86533340.378947258 0 86533340.378947258 486247771.26083946 0 0 0 0 905685606.93914795 -136478747.85379601 0 -136478747.85379601 -70784607.927871704 0 0 0 0 387143130.78903198 -82944564.533655167 0 -82944564.533655167 -64984813.12989068 0 0 0 0 1035211.302105695 918385.88165158033 0 918385.88165158033 466981.35731664859 0 0 0 0 -82982270.529987335 -212429703.37071466 0 -212429703.37071466 157882658.3053112 0 0 0 0 423041526.31866455 -834401139.51256943 0 -834401139.51256943 -365503517.1144104 0 0 0 0 85766570.380279541 622730344.43886566 0 622730344.43886566 -137115272.53611708 0 0 0 0 40019886.143271253 -8691947.8448207006 0 -8691947.8448207006 -2464933.6979514658 0 0 0 0 67539811.009334564 -24465509.784269333 0 -24465509.784269333 -91712776.653297424 0 0 0 0 -32690042.756858826 -153115188.39150143 0 -153115188.39150143 -52431749.058347702 0 0 0 0 68544072.35792923 59721629.446081161 0 59721629.446081161 15094962.616443634 0 0 0 0 36343693.180217743 3850481.1950702667 0 3850481.1950702667 -6820834.8362579346 0 0 0 0 56731894.649108887 30337106.887815475 0 30337106.887815475 20821780.070508003 0 0 0 0 42801323.22328186 52119919.341741562 0 52119919.341741562 35298752.010070801 0 0 0 0 22152578.284042358 13906988.525249481 0 13906988.525249481 30540397.941075325 0 0 0 0 17331458.660041809 21404985.435610771 0 21404985.435610771 19385288.799812317 0 0 0 0 -52177116.323753357 -43912993.852747917 0 -43912993.852747917 34096975.667396545 0 0 0 0 -37177149.634980202 31316000.700723171 0 31316000.700723171 111547543.49783707 0 0 0 0 46658372.616687775 78451138.541963458 0 78451138.541963458 57540165.425304413 0 0 0 0 3323500.1666907892 3977333.0220497735 0 3977333.0220497735 2006274.495874634 0 0 0 0 107754489.52066803 62310614.710660934 0 62310614.710660934 22273637.90345192 0 0 0 0 -180405337.23419189 -77765278.521838188 0 -77765278.521838188 68533416.496843338 0 0 0 0 40604932.019378662 46241992.232513428 0 46241992.232513428 19572871.436746597 0 0 0 0 -66112331.614990234 -7940345.2953796387 0 -7940345.2953796387 -102568748.50661087 0 0 0 0 -61184622.622619629 26771591.741966248 0 26771591.741966248 -90938880.618200302 0 0 0 0 -52386624.385803223 44464093.831241608 0 44464093.831241608 -55361139.569335938 0 0 0 0 -80737618.651367188 -17836978.737068176 0 -17836978.737068176 -27992694.259788513 0 0 0 0 -76411035.543701172 -41448706.56892395 0 -41448706.56892395 -75335690.652069092 0 0 0 0 -86882365.623382568 -40013172.257919312 0 -40013172.257919312 -52746442.120246887 0 0 0 0 -354940.7927274704 32193676.671816677 0 32193676.671816677 25781370.722724915 0 0 0 0 -95348944.117736816 346673.53880310059 0 346673.53880310059 24522009.969741821 0 0 0 0 -351484.77380371094 31840934.952888489 0 31840934.952888489 -35761024.566192627 0 0 0 0 -53315759.619232178 37275918.858951569 0 37275918.858951569 -2308821.5502243042 0 0 0 0 88369024.81729126 46660067.506835938 0 46660067.506835938 74598856.419597626 0 0 0 0 80464050.323730469 21850297.222362518 0 21850297.222362518 1010505.8350410461 0 0 0 0 88024558.243019104 -40213373.009087086 0 -40213373.009087086 73181517.44311142 0 0 0 0 -35453487.510742188 37871925.898220062 0 37871925.898220062 34888757.827800751 0 0 0 0 72623841.055679321 -4334460.6271972656 0 -4334460.6271972656 34519009.219165832 0 0 0 0 225028234.42883301 141285095.23172379 0 141285095.23172379 -121661347.75556374 0 0 0 0 -220580074.23833275 107294746.60631394 0 107294746.60631394 105862696.43614197 0 0 0 0 268851092.4262085 132222408.87243652 0 132222408.87243652 46602207.045511246 0 0 0 0 324477364.26364136 10301231.209341049 0 10301231.209341049 -61194244.595191956 0 0 0 0 395171983.41081238 -61113269.532834053 0 -61113269.532834053 -18727329.006507874 0 0 0 0 339224408.99481201 -72271734.969943047 0 -72271734.969943047 91734653.225624084 0 0 0 0 747523.26739385724 438304.95263213292 0 438304.95263213292 -579801.41912067682 0 0 0 0 542362706.11171722 -228090748.92628622 0 -228090748.92628622 51483892.797412872 0 0 0 0 569899788.26589966 -21433183.378536224 0 -21433183.378536224 -82483987.513252258 0 0 0 0 323704152.87750244 -88807200.451091766 0 -88807200.451091766 39481981.477104187 0 0 0 0 537550973.08370972 -229742607.66587496 0 -229742607.66587496 53325995.456291199 0 0 0 0 67227696.715744019 -4455176.7246260643 0 -4455176.7246260643 416285.77183151245 0 0 0 0 479074.29782596976 514124.80645789579 0 514124.80645789579 -185075.34950207174 0 0 0 0 65323030.114807129 -13154220.395690918 0 -13154220.395690918 29810362.826199293 0 0 0 0 57634948.721755981 -10528925.780374527 0 -10528925.780374527 -2908736.972234726 0 0 0 0 42272955.467079163 1248809.2608802319 0 1248809.2608802319 -15954419.662944794 0 0 0 0 16837277.785476685 14351955.195928574 0 14351955.195928574 -3622262.0075645447 0 0 0 0 27017773.895431519 16969845.054701805 0 16969845.054701805 -25160801.319852829 0 0 0 0 -23813288.236709595 31155971.776995659 0 31155971.776995659 -3541178.0897846222 0 0 0 0 -14173856.941955566 59344754.826177597 0 59344754.826177597 3962242.9485435486 0 0 0 0 31157886.910247803 36330573.040951729 0 36330573.040951729 -10340869.536502838 0 0 0 0 24885280.907653809 33197688.44200325 0 33197688.44200325 -6435196.3538866043 0 0 0 0 27919227.587158203 78185029.68850708 0 78185029.68850708 11337214.945105553 0 0 0 0 111906253.04466248 17841119.185173988 0 17841119.185173988 -12819238.097644806 0 0 0 0 6979401.7900695801 46689470.557283401 0 46689470.557283401 -15092377.622436523 0 0 0 0 -52801692.95324707 40884034.824775696 0 40884034.824775696 2833517.9818408489 0 0 0 0 3312714.7993774414 3808800.8669281006 0 3808800.8669281006 2020556.4508705139 0 0 0 0 1056038.9577658437 6378440.8668479137 0 6378440.8668479137 6871760.4306307975 0 0 0 0 -87161236.676811218 32183670.318138599 0 32183670.318138599 6103702.2055397034 0 0 0 0 -64414011.344696045 62724624.234668732 0 62724624.234668732 -22544933.819061279 0 0 0 0 4946303.7206131071 2151371.6252685413 0 2151371.6252685413 -1342095.8331012344 0 0 0 0 28209435.583648682 32348127.530874252 0 32348127.530874252 34509159.887151718 0 0 0 0 8109517.1932167709 9625391.6060150638 0 9625391.6060150638 763285.34660397749 0 0 0 0 -55586392.478713989 28603771.061802864 0 28603771.061802864 -2556066.907787323 0 0 0 0 3356440.2447357178 -18407754.098639965 0 -18407754.098639965 -116487666.62340927 0 0 0 0 13033997.81628418 8589400.5036973953 0 8589400.5036973953 -102074517.22605515 0 0 0 0 -19687232.791332245 42356228.311783552 0 42356228.311783552 618517.51928710938 0 0 0 0 8134918.3060743213 11293186.250258923 0 11293186.250258923 9548714.6624162365 0 0 0 0 -14525696.16116333 21313391.942329884 0 21313391.942329884 43366996.923351288 0 0 0 0 1056361.1242459267 4700377.5447755121 0 4700377.5447755121 2715898.8773595374 0 0 0 0 10547666.014403105 3709976.5005898997 0 3709976.5005898997 -9701466.648636397 0 0 0 0 68402615.957977295 91610807.603387833 0 91610807.603387833 -18523077.171231508 0 0 0 0 11765983.505110003 2514339.5288172141 0 2514339.5288172141 -9084834.9521744847 0 0 0 0 26886560.862030029 24336436.210302353 0 24336436.210302353 3896229.0299797058 0 0 0 0 46533137.188812256 35595915.227930069 0 35595915.227930069 7398742.6335382462 0 0 0 0 20028759.986953735 13524916.293686867 0 13524916.293686867 39628510.71308136 0 0 0 0 67082445.243652344 6051959.1577796936 0 6051959.1577796936 -15539291.132034302 0 0 0 0 32086559.69720459 27046118.184909821 0 27046118.184909821 3294984.8132171631 0 0 0 0 28226545.942270279 1133654.4593015909 0 1133654.4593015909 -5007754.917804718 0 0 0 0 27764050.558462143 36314132.558092237 0 36314132.558092237 58570940.412155151 0 0 0 0 2452877.3157209456 -171470.26851610839 0 -171470.26851610839 -2472092.6929288143 0 0 0 0 -5338931.0066070557 4660949.7814311981 0 4660949.7814311981 -671828.20025253296 0 0 0 0 5109090.2583103888 2328565.3650778458 0 2328565.3650778458 -2324711.4522922542 0 0 0 0 -3888017.1545562744 9307187.7746524811 0 9307187.7746524811 -10389259.484894753 0 0 0 0 -2453600.4220428467 2888255.243273735 0 2888255.243273735 -4719451.5439987183 0 0 0 0 -17849108.036727905 -74728541.901929855 0 -74728541.901929855 51718594.356907845 0 0 0 0 225809877.43225098 1989424.9488391876 0 1989424.9488391876 -21205098.739728928 0 0 0 0 -143592910.33892441 -16710730.584243417 0 -16710730.584243417 105299.17210960388 0 0 0 0 -47947143.697319031 -27199112.624920368 0 -27199112.624920368 -23087010.297503471 0 0 0 0 -599115.80450825393 1185172.6471375804 0 1185172.6471375804 -239771.58006551536 0 0 0 0 -2797811.9658584595 2143456.9125494957 0 2143456.9125494957 2326830.4798927307 0 0 0 0 8446951.0387268066 16587502.683473587 0 16587502.683473587 -9214813.0017871857 0 0 0 0 -8170709.8195953369 13447250.037248611 0 13447250.037248611 22493211.907182336 0 0 0 0 19160535.133598328 42799686.158662558 0 42799686.158662558 25305575.42168808 0 0 0 0 645503137.74139404 57455104.783639908 0 57455104.783639908 -104951024.14213943 0 0 0 0 463628094.0927124 -167466646.43706322 0 -167466646.43706322 27808947.990470886 0 0 0 0 708918.91560019553 418181.77576639503 0 418181.77576639503 -318557.76751220226 0 0 0 0 240389344.55615234 42540611.098874092 0 42540611.098874092 53835205.304948807 0 0 0 0 531295310.48973846 -299369947.110183 0 -299369947.110183 100110408.05257034 0 0 0 0 1751163.4236297607 1817002.8483247757 0 1817002.8483247757 -7377041.7399616241 0 0 0 0 258212404.9102478 -157975669.42382812 0 -157975669.42382812 98246908.805315763 0 0 0 0 1299989.7635950297 1343224.8906996548 0 1343224.8906996548 -422064.96579878498 0 0 0 0 297337478.45645905 -93176523.166525364 0 -93176523.166525364 -33985022.93854332 0 0 0 0 161562749.78561401 -33957240.609897137 0 -33957240.609897137 -592669.25168418884 0 0 0 0 258599265.27015686 -132759036.56201744 0 -132759036.56201744 17458859.372911453 0 0 0 0 334562229.70732117 -135906570.13034534 0 -135906570.13034534 11264467.402654648 0 0 0 0 365853696.9057312 -107722445.2788105 0 -107722445.2788105 18519618.609605789 0 0 0 0 1214808.2270037457 642701.88903934136 0 642701.88903934136 -1036247.0659712097 0 0 0 0 425990892.67869568 -148354989.27751875 0 -148354989.27751875 -34316144.77192688 0 0 0 0 375742645.91094971 -83638376.238572121 0 -83638376.238572121 53453153.472097397 0 0 0 0 1220398.2099289335 1251905.9380033016 0 1251905.9380033016 -354483.09677011147 0 0 0 0 345859070.36320496 -25376585.820343971 0 -25376585.820343971 45404858.350784302 0 0 0 0 118209017.50886536 -98388932.282365799 0 -98388932.282365799 128037.54554653168 0 0 0 0 336546521.72331238 -53167225.644803047 0 -53167225.644803047 -33617604.303237915 0 0 0 0 248786130.09359741 -134362836.50361729 0 -134362836.50361729 32336294.871398926 0 0 0 0 597970.96950645745 2373727.7068130709 0 2373727.7068130709 63188.556148683652 0 0 0 0 18544897.900138855 99549969.153457165 0 99549969.153457165 -48025960.447282791 0 0 0 0 148522781.66331863 -34142520.9196105 0 -34142520.9196105 -59317409.68044281 0 0 0 0 -1783217.1898117065 5534872.3816299438 0 5534872.3816299438 -6367244.9027376175 0 0 0 0 29006787.696922302 99159005.929643631 0 99159005.929643631 79842492.293096542 0 0 0 0 5521426.568105422 3162506.7150088623 0 3162506.7150088623 -2011803.7015242353 0 0 0 0 720732345.27825928 -134564388.14435291 0 -134564388.14435291 -49464967.385919571 0 0 0 0 893561470.9309082 135320010.85188675 0 135320010.85188675 -174712179.55949402 0 0 0 0 793626776.561203 176183763.83661747 0 176183763.83661747 -165754792.66469908 0 0 0 0 816339991.46685028 99311572.842961311 0 99311572.842961311 -179050221.90092468 0 0 0 0 271938729.6579895 -86498764.965772629 0 -86498764.965772629 -21542212.121210098 0 0 0 0 772308178.62114716 108678100.82218027 0 108678100.82218027 -98565088.842453003 0 0 0 0 -77825.248237431049 434703.87743661925 0 434703.87743661925 -17794.534540999681 0 0 0 0 786578074.74479675 51604506.309425354 0 51604506.309425354 -87481245.33735466 0 0 0 0 98521419.882289886 169844761.16211748 0 169844761.16211748 103355692.00031662 0 0 0 0 354870947.64200974 259596611.20817947 0 259596611.20817947 50670263.485054016 0 0 0 0 783138994.11934662 57944320.918733597 0 57944320.918733597 -60214443.276174545 0 0 0 0 1201354347.5604553 8744491.3527479172 0 8744491.3527479172 -55910593.466814995 0 0 0 0 912434924.80001068 -247140543.02639294 0 -247140543.02639294 65214959.865116119 0 0 0 0 391873415.43490601 229615107.11548615 0 229615107.11548615 178373018.85237026 0 0 0 0 620623943.25985718 92644325.834283829 0 92644325.834283829 -44618100.049215317 0 0 0 0 915219674.56024933 385810833.37271833 0 385810833.37271833 -34514611.702030182 0 0 0 0 1130632.1631887704 590667.10748725757 0 590667.10748725757 -271759.47521560173 0 0 0 0 -122713891.62802505 -96093783.411620855 0 -96093783.411620855 111187600.0134697 0 0 0 0 300976374.98287964 78924274.922125816 0 78924274.922125816 81978655.708974838 0 0 0 0 679656902.03317261 -65509871.745428085 0 -65509871.745428085 -6503047.8392477036 0 0 0 0 672193654.26983643 -89711840.411395073 0 -89711840.411395073 94315297.880779266 0 0 0 0 842790704.1815834 -37182568.425048351 0 -37182568.425048351 41093479.778133392 0 0 0 0 350621785.28131866 193213812.64284229 0 193213812.64284229 85442451.312362671 0 0 0 0 121876.90998676419 233971.9622932896 0 233971.9622932896 664669.50759090669 0 0 0 0 121028110.90970612 -49205514.443255901 0 -49205514.443255901 305232982.77909756 0 0 0 0 712893934.8209877 220597400.92811823 0 220597400.92811823 -166930142.69839001 0 0 0 0 757603951.61820984 130289361.87231064 0 130289361.87231064 11471799.735609531 0 0 0 0 768789112.80178642 126820646.84421062 0 126820646.84421062 -189887174.55494213 0 0 0 0 84515.089198321104 437298.07838768139 0 437298.07838768139 1674744.0149295731 0 0 0 0 62217654.821922302 -126923102.64268303 0 -126923102.64268303 85841773.617351532 0 0 0 0 -124869540.4440155 -132608684.31023407 0 -132608684.31023407 -15461145.496391296 0 0 0 0 129835090.91898346 -60159882.253862381 0 -60159882.253862381 5374499.6490259171 0 0 0 0 -31443054.437805176 -29595300.390501976 0 -29595300.390501976 84026882.352901414 0 0 0 0 -19077653.241386414 93093093.735455513 0 93093093.735455513 -49971904.38860321 0 0 0 0 -54364059.709236145 7333259.9562740326 0 7333259.9562740326 69178541.579006195 0 0 0 0 -92856289.204589844 35484610.215308189 0 35484610.215308189 71028499.230185509 0 0 0 0 -78380071.339233398 18538729.862675667 0 18538729.862675667 80998926.998998642 0 0 0 0 -347116767.39399719 100551827.1058712 0 100551827.1058712 56033503.155533314 0 0 0 0 -49591384.794158936 239462811.297364 0 239462811.297364 -121604686.08552551 0 0 0 0 81434624.816436768 75464968.814697266 0 75464968.814697266 -54484089.688325882 0 0 0 0 227286972.04922485 173984239.86829567 0 173984239.86829567 -189675171.96982574 0 0 0 0 3522731.5329284668 123603952.3554616 0 123603952.3554616 -80783057.793777466 0 0 0 0 229462479.68966675 -112757.32705116272 0 -112757.32705116272 -108391834.67695665 0 0 0 0 52158155.545623779 33388586.643062592 0 33388586.643062592 -114641259.91377497 0 0 0 0 8967267.1550598145 155786908.93640518 0 155786908.93640518 47996538.657570362 0 0 0 0 1657405.963659659 18692.262590829283 0 18692.262590829283 -2032980.8782976177 0 0 0 0 201607701.4367981 2273634562.0557632 0 2273634562.0557632 -802963335.87120819 0 0 0 0 -35424716.393676758 -400515181.89247513 0 -400515181.89247513 948684540.68109131 0 0 0 0 -304005448.2951355 71849793.864608049 0 71849793.864608049 24240828.214328766 0 0 0 0 1801336.2336266339 2887873.7466052063 0 2887873.7466052063 44106.656403121073 0 0 0 0 59799083.340492249 -199921612.80976629 0 -199921612.80976629 -262866378.61151886 0 0 0 0 -267168160.09489441 -7244363.1992111206 0 -7244363.1992111206 10444561.834820747 0 0 0 0 3071035.7376424707 10489008.495830152 0 10489008.495830152 9661426.7519473154 0 0 0 0 -200911058.23136902 -253995.10399436951 0 -253995.10399436951 7433125.0152616501 0 0 0 0 -183950923.90817261 88946339.551714897 0 88946339.551714897 22920548.5493536 0 0 0 0 -694804.81372833252 28495540.068950653 0 28495540.068950653 -12188711.79019165 0 0 0 0 -1729467.8162078857 24236288.599570751 0 24236288.599570751 -12423474.210922241 0 0 0 0 4115455.9311938286 25076380.343585491 0 25076380.343585491 -17996829.059684753 0 0 0 0 -1263440.8905944824 132130010.24005413 0 132130010.24005413 55170099.14885807 0 0 0 0 -47333489.94619751 -31123119.305911064 0 -31123119.305911064 152187112.26654625 0 0 0 0 -59561777.106018066 44444102.347484589 0 44444102.347484589 -122234521.84854269 0 0 0 0 -234762324.28314209 141470553.40186405 0 141470553.40186405 14608594.433320999 0 0 0 0 -212481971.24526978 117417251.66437054 0 117417251.66437054 42820474.708506584 0 0 0 0 -54942466.531692505 61314838.867547035 0 61314838.867547035 4934480.2632389069 0 0 0 0 -173211854.65264893 136597345.05842876 0 136597345.05842876 -87374185.749200821 0 0 0 0 51596486.868759155 143724211.52367401 0 143724211.52367401 31362594.452826262 0 0 0 0 169033342.84121704 -32402666.556553841 0 -32402666.556553841 69669607.460168839 0 0 0 0 -11637201.942939758 55477485.476746559 0 55477485.476746559 -91789226.929203033 0 0 0 0 -41177582.19442749 234432174.20407295 0 234432174.20407295 -109711084.15654981 0 0 0 0 488350.97969983518 -22995.676134765148 0 -22995.676134765148 -428258.88855145499 0 0 0 0 -189610288.01629162 288896064.84915918 0 288896064.84915918 -16146299.943334579 0 0 0 0 2455030.9861598983 7956763.3714040238 0 7956763.3714040238 9802937.8938433714 0 0 0 0 -25215265.202941895 50767312.581790924 0 50767312.581790924 -34747373.110740662 0 0 0 0 -50314868.282089233 38524778.643960953 0 38524778.643960953 -25237994.73469162 0 0 0 0 -20043896.627868652 33983469.769855499 0 33983469.769855499 -41821405.903404236 0 0 0 0 -212633216.54383326 -123540926.77286354 0 -123540926.77286354 -83823278.580307007 0 0 0 0 -238250658.47982788 445611852.42562389 0 445611852.42562389 51681.604957818985 0 0 0 0 3799703.6627807617 26581503.174413681 0 26581503.174413681 -18782263.229553223 0 0 0 0 5357695.9944763184 27678113.327663422 0 27678113.327663422 -26988685.170990944 0 0 0 0 -1395160.6331481934 33014495.238197327 0 33014495.238197327 -25499965.855575562 0 0 0 0 -28324140.508766174 41058297.059431076 0 41058297.059431076 -20372625.527702332 0 0 0 0 -13008681.250770569 26717293.71399498 0 26717293.71399498 -12568538.165397644 0 0 0 0 -2035610.0809936523 33951132.944587708 0 33951132.944587708 -36885888.74666214 0 0 0 0 -18572588.38130188 38536454.559408188 0 38536454.559408188 -27912329.585899353 0 0 0 0 -5553271.767791748 32746422.95301342 0 32746422.95301342 -26566914.30557251 0 0 0 0 -4343605.1215362549 33370663.509735107 0 33370663.509735107 -33101116.762218475 0 0 0 0 8825170.9348297119 28408191.255683899 0 28408191.255683899 -30315446.682712555 0 0 0 0 6844248.592956543 24913137.871772766 0 24913137.871772766 -23615632.874412537 0 0 0 0 5463158.3279571533 28097567.442077637 0 28097567.442077637 -25626318.350250244 0 0 0 0 12291275.073963165 26636952.968662739 0 26636952.968662739 -27775357.820838928 0 0 0 0 18572808.920996666 28987551.84133935 0 28987551.84133935 -22694154.578399658 0 0 0 0 4711780.818107605 24475833.716629028 0 24475833.716629028 -5679631.8855133057 0 0 0 0 7072029.3650817871 21872508.04901123 0 21872508.04901123 -23981568.863401413 0 0 0 0 -3631381.6478424072 29702006.493988037 0 29702006.493988037 -21062380.618888855 0 0 0 0 -9712653.1468963623 25275867.539485931 0 25275867.539485931 -23753034.530231476 0 0 0 0 -1883490.19190979 31478834.562129021 0 31478834.562129021 -19100244.202392578 0 0 0 0 13253236.106925964 29554240.893865585 0 29554240.893865585 -7297527.913772583 0 0 0 0 3141099.7269439697 20740167.116111755 0 20740167.116111755 -14426152.287792206 0 0 0 0 24162266.923525069 14611888.505423825 0 14611888.505423825 -965676.83708268404 0 0 0 0 15888789.146751404 12691667.716386795 0 12691667.716386795 -9851974.9779548645 0 0 0 0 -96243460.709843159 107653884.07005119 0 107653884.07005119 107305283.4849968 0 0 0 0 2171468.7834931463 5905546.0923649631 0 5905546.0923649631 7677621.7461073827 0 0 0 0 -51184006.494842529 80295464.487640381 0 80295464.487640381 -45941133.358543396 0 0 0 0 -7422960.1640014648 51805829.446327209 0 51805829.446327209 -59695767.662270546 0 0 0 0 -13178296.545471191 44368784.675031662 0 44368784.675031662 -36029103.181034088 0 0 0 0 -21337344.715286255 26233516.752792358 0 26233516.752792358 -14447757.240232468 0 0 0 0 4569238.4838638306 41177489.716033936 0 41177489.716033936 -3889343.1132392883 0 0 0 0 -6214095.6398658752 41060295.430862427 0 41060295.430862427 -2749071.1297340393 0 0 0 0 -44689368.758056641 1970689.3956871033 0 1970689.3956871033 32294549.047626495 0 0 0 0 -15716912.299468994 75296517.69966507 0 75296517.69966507 5910750.7420444489 0 0 0 0 -481203.15637207031 110816725.23428345 0 110816725.23428345 76608872.337223053 0 0 0 0 -57150285.223846436 175755471.50302124 0 175755471.50302124 5117229.3293411732 0 0 0 0 1970904.5117679983 3411908.8741304502 0 3411908.8741304502 3362133.3485690895 0 0 0 0 -250287551.69372559 290866658.08086777 0 290866658.08086777 672630672.85098934 0 0 0 0 -52913717.046340942 -46869184.74215889 0 -46869184.74215889 366497126.07194519 0 0 0 0 -948966477.7118988 466683480.9438343 0 466683480.9438343 66292529.452693939 0 0 0 0 85884666.609863281 545656832.246315 0 545656832.246315 -110330306.81785488 0 0 0 0 1837796.6955725625 55345.656804360449 0 55345.656804360449 -1171269.1924392208 0 0 0 0 -161586637.97000647 -322944123.27358657 0 -322944123.27358657 -2738635.892665863 0 0 0 0 2492228261.907608 -800153941.36276722 0 -800153941.36276722 -491970613.02399063 0 0 0 0 877727190.85649109 -966094651.9174366 0 -966094651.9174366 -359173502.30289507 0 0 0 0 3676541886.1424561 1721256902.9944763 0 1721256902.9944763 2740032573.394989 0 0 0 0 1878617.8363436311 10654.153357734904 0 10654.153357734904 -1190457.9632746391 0 0 0 0 140884995.9224081 -596692059.50890493 0 -596692059.50890493 -183784126.49682617 0 0 0 0 176447819.58998108 -400628732.00522041 0 -400628732.00522041 553363720.00129318 0 0 0 0 -382744423.83473206 -515515446.12491035 0 -515515446.12491035 326749908.38227081 0 0 0 0 -467635314.89662933 -732848404.01626301 0 -732848404.01626301 -223133075.88787079 0 0 0 0 534506525.37295532 285587516.54787064 0 285587516.54787064 -449650657.52725983 0 0 0 0 567136390.98660278 487823262.45824051 0 487823262.45824051 266596489.06244755 0 0 0 0 -168012068.90422821 -2659435810.2590132 0 -2659435810.2590132 -762420464.43644333 0 0 0 0 1176614442.0168762 1009735619.7073174 0 1009735619.7073174 713316423.90283966 0 0 0 0 2299301562.1058521 -687391445.24647713 0 -687391445.24647713 32328263.824928284 0 0 0 0 6006351.0504167229 -2662411.514109496 0 -2662411.514109496 1106308.3300581779 0 0 0 0 698128124.55969238 738479219.74075699 0 738479219.74075699 1445594923.0953689 0 0 0 0 419821179.22329712 -888622702.50465393 0 -888622702.50465393 989445203.03645086 0 0 0 0 264304709.01901245 -198218458.05750418 0 -198218458.05750418 232022850.02139282 0 0 0 0 1229392165.6420135 309874054.13330078 0 309874054.13330078 -108996026.79070663 0 0 0 0 58036727.701309204 59694272.22604239 0 59694272.22604239 727319672.81023407 0 0 0 0 580808831.86288452 516182670.40258789 0 516182670.40258789 532052175.13050175 0 0 0 0 2624687686.0148773 896506029.52065182 0 896506029.52065182 135858748.03907394 0 0 0 0 1162526150.9203491 147552080.8380127 0 147552080.8380127 -204270559.52743435 0 0 0 0 1113806991.2817993 -129167645.69776821 0 -129167645.69776821 -459694611.1239109 0 0 0 0 1677825073.3511047 -8492627.7465877533 0 -8492627.7465877533 -497198629.88122749 0 0 0 0 1120310081.1770248 -130028083.65570068 0 -130028083.65570068 -494103949.3218174 0 0 0 0 693841898.72912598 183720628.55451012 0 183720628.55451012 -197403534.61641693 0 0 0 0 664910496.17687988 62409690.94004631 0 62409690.94004631 -210265143.6460247 0 0 0 0 569265384.21759033 47261712.166179657 0 47261712.166179657 -202707616.91055584 0 0 0 0 584833575.97668457 164383272.88847351 0 164383272.88847351 -193834469.97962284 0 0 0 0 630125020.82658386 -334210378.44287109 0 -334210378.44287109 -296488249.71430254 0 0 0 0 1117622847.0417938 -76858326.558231354 0 -76858326.558231354 -439637365.86168861 0 0 0 0 1025046922.4886475 188310642.86042595 0 188310642.86042595 80895677.203118801 0 0 0 0 726601096.247118 -33661226.464256883 0 -33661226.464256883 -145300916.78529167 0 0 0 0 713955509.18800354 -123158728.38935661 0 -123158728.38935661 -230948322.14609718 0 0 0 0 244834160.98347473 -69716580.507795334 0 -69716580.507795334 -112470646.00170135 0 0 0 0 -79996566.88984108 72755198.288532376 0 72755198.288532376 19289670.299247742 0 0 0 0 272068065.37034607 12778126.528123856 0 12778126.528123856 -49368708.935134888 0 0 0 0 6235706.7230834961 73978998.033798218 0 73978998.033798218 -157611295.39295006 0 0 0 0 243361568.06039429 -76055315.947392464 0 -76055315.947392464 -134619067.9010582 0 0 0 0 -89591583.421707153 -360977814.48688793 0 -360977814.48688793 -73941189.141925812 0 0 0 0 736782831.34487915 -341052104.0789628 0 -341052104.0789628 -157047530.22362137 0 0 0 0 948054887.24766541 -79637842.345747948 0 -79637842.345747948 -240157106.62206721 0 0 0 0 
</DataArray>
<DataArray type="Float64" Name="cross_section_updated" format="ascii">
1 1 1 1 1 0.052323644722878704 1 1 1 1 1 1 1 0.050087780908942815 1 1 1 1 0.049853576513718828 1 1 0.053719587089570531 1 1 1 1 0.051593216122933314 1 1 1 1 0.055587259998985672 1 1 1 1 1 1 1 1 1 1 1 1 1 0.049939571004050901 1 1 0.049883228552451746 1 1 1 1 1 0.050540350525931206 1 1 1 1 1 1 1 0.053029571893739184 1 1 1 1 0.052431741551038892 1 1 1 1 1 1 1 1 1 0.052541547273007784 1 1 0.055395949050469712 1 1 0.062773075949908275 1 1 1 1 0.049706672566657159 1 1 1 1 1 1 1 0.06264942011568933 0.049957806714166414 0.043122872629937997 1 1 0.044954460547219757 1 1 1 1 1 0.054667606838288661 1 1 1 1 1 1 1 1 1 1 1 1 1 0.049391247021134115 1 1 1 0.047812273187228381 1 1 1 1 1 1 0.049537889713980182 1 1 1 1 1 1 1 1 1 1 1 1 1 1 1 1 1 1 1 1 1 1 1 1 1 0.049985902830183199 1 1 1 0.050553892057460283 1 1 0.049276855130062525 1 1 1 1 1 1 1 1 1 1 1 0.050312471680354229 1 1 1 1 1 1 1 1 0.051309417880142691 1 1 1 1 1 1 1 1 0.052612579980534882 1 1 1 1 1 1 1 1 1 0.0501777174304298 1 1 1 1 1 1 1 1 1 1 1 1 1 1 1 1 1 1 1 1 1 1 1 0.050011595470871792 1 1 1 0.054470928841179343 1 0.050049972686968924 1 0.051535935028640317 1 1 0.060410587030596825 1 1 1 0.051080989527692175 1 0.052154588366082298 1 0.053323380935563054 1 0.051802836393510611 0.058442885012477852 1 0.053566298580664001 1 1 0.056177727274762133 1 0.052677025981274009 1 1 1 0.051852181069521733 1 0.051063596491930908 0.052739286349718348 1 1 0.052786304178055368 1 1 1 0.050505195265434698 1 0.052211048395164696 0.052229938886676833 0.049639867081291977 1 0.051793010333297709 1 1 1 0.049961493699717981 1 0.051997104645615057 0.05261878690573138 0.049966346893704099 1 1 0.05729247001047251 0.058367121169016836 1 1 1 1 0.061055411829132565 1 0.049934240086187728 1 1 0.051605571063096156 1 1 1 0.050434679756126387 1 0.050080822300736939 0.050964445577734947 0.04932991242873324 1 1 1 0.051417062382562689 1 0.050755804382198608 0.054123910897125378 0.05145490410048429 0.053139946938950862 1 1 1 0.051681426513741802 0.049999759851582483 1 1 0.049599405751849943 0.052645327278788116 0.051157197552102095 1 0.050879685217980267 1 1 1 1 0.049999017290452877 1 1 1 1 1 1 1 0.053545862545830117 1 1 1 1 1 1 0.050694084179725492 0.049998490542270221 1 1 1 0.053540167505822925 1 1 1 0.050027472259260741 1 0.051326751747962085 1 0.044543705252687929 0.059789989604011308 1 1 1 1 0.050117679196448064 1 1 0.059418004336611957 1 1 1 1 0.050032829678803376 1 0.049950949069843292 1 1 1 1 1 0.047743311497768684 0.06173683380311832 1 1 1 1 1 1 1 1 0.049859812888617724 1 1 1 0.049004978542825296 1 1 0.056857277679678894 1 0.049994517995948333 1 1 1 1 1 1 1 1 1 1 1 0.058417332445674257 1 0.050440575297577048 1 0.057333865854638941 1 1 1 0.04873982386109213 1 0.050008811959691979 1 0.050780982242953479 1 1 1 1 1 1 0.05322546107725841 1 0.053949746462934031 1 1 1 0.05333636452913066 1 1 1 0.053811460774521834 1 0.052104608450909182 0.049796043977098282 1 1 1 1 0.058356133734083132 1 1 1 1 0.058393224874165636 0.048902059161981336 1 1 0.049010063172242505 1 0.051539524964076419 1 0.057477667749483673 0.056393947801275011 1 1 1 0.05005684639746473 1 1 1 1 0.054538367972368489 1 1 1 1 1 1 1 1 1 1 1 0.050006089078106691 1 1 1 1 0.057218264179433688 1 1 1 0.052448057491149669 1 0.049869704686379336 0.050013727887831878 0.049999458209711876 1 1 1 0.054365154143463539 0.059943421795929083 1 0.062677893101861518 1 1 0.050300321686458239 1 1 1 1 0.062889083056251141 1 1 1 1 1 1 1 1 1 1 1 0.06443157593340397 0.04708860805244286 1 1 0.05777066548746055 1 1 1 0.049992437283718813 1 1 1 1 1 1 0.058172828098104944 1 1 1 0.043590352254551566 1 1 1 0.055373229582258564 1 1 1 1 1 1 1 1 1 1 1 0.054796505903354255 1 1 1 0.05130295650051709 1 1 1 1 1 1 1 0.050186557612873384 1 1 1 1 1 0.050205510681107651 1 1 1 1 1 1 1 1 1 1 1 1 1 1 1 1 1 1 1 0.069345699693367957 1 1 1 1 0.065017616914589904 1 1 0.056153555003325688 1 1 1 1 1 1 1 0.049927831605302127 1 1 1 1 1 1 1 1 0.049510011772681634 1 0.049144944940175656 1 1 0.066236274695510522 1 1 1 0.065150024868633999 1 1 0.072204422687989753 1 1 1 0.050885268344568829 1 0.053014840670421129 1 1 0.049986673618645006 1 0.072077495663573063 1 1 1 1 1 1 1 1 1 1 1 1 1 1 1 1 1 1 1 1 1 1 0.05102756027922406 1 0.050354426271179566 1 0.050180307936612323 1 1 1 1 1 1 1 1 1 1 1 1 1 1 1 0.050454985538811468 1 1 1 1 1 1 1 1 1 0.050572574740412601 1 1 1 1 1 1 1 1 1 1 1 1 1 1 1 1 1 1 1 1 1 1 1 1 1 1 1 1 1 0.051994222266328785 1 1 0.051855334030212044 1 1 1 0.059109339018935843 0.049752913840390975 1 0.053826510412797547 1 1 1 1 1 0.059535485159116081 1 1 1 1 1 0.058188249705794573 1 1 1 1 1 1 1 1 1 1 1 1 1 1 1 1 1 1 1 1 1 1 1 1 1 1 1 1 1 1 1 1 1 1 1 1 1 1 1 1 1 1 1 1 1 1 1 1 1 0.052092053262559723 1 1 1 1 1 1 1 1 1 1 1 1 1 1 1 0.055438994547227921 1 1 1 1 0.052769665333158466 1 1 1 1 1 1 1 1 1 1 1 1 1 1 1 1 1 1 1 1 1 1 1 1 1 1 1 0.054539570751516248 1 1 0.050607400339368086 1 0.056832033218765732 0.05086323071754327 0.047069170362334004 0.049429098952041353 1 1 0.049916308956198654 1 1 1 1 1 1 1 1 1 1 1 1 1 1 1 1 1 0.058468693675051517 1 1 0.060168956422157263 1 0.054064922674568069 1 1 1 1 0.062557106432860624 1 0.049638539449907357 1 1 1 1 0.050068056426751884 1 1 1 0.051764566727509412 1 1 1 1 1 0.051157173106629442 1 0.054920934635562559 1 1 0.050410242592285763 0.054998770607519343 1 0.05331582091919676 1 1 1 1 1 1 1 1 1 1 1 0.065138280090043313 1 1 1 0.061599812245609668 1 1 1 0.056275444266416903 1 1 0.061632644345929119 0.049407076551039548 0.049816845277488003 1 1 1 1 1 1 1 1 1 1 1 0.049995046464059847 1 1 1 1 1 1 1 1 0.059808697460494123 0.068016761402200032 0.0579484557464474 1 1 1 1 1 1 1 1 0.065687559186986891 0.050110405190011739 1 1 1 0.046903757015417338 1 1 0.050480593038946482 1 1 1 1 1 1 1 1 1 1 1 0.050198848281130901 1 1 1 1 1 1 1 1 0.049833803143583572 1 1 1 1 1 1 1 1 1 1 0.049964127636890232 1 0.053852662424921607 0.066155420367228532 0.049414731118122994 1 1 1 1 1 1 1 0.059376798581226124 0.071613263438546432 1 0.048798525996195496 1 1 1 1 1 0.053185489851508949 1 0.049660332143575084 0.052780356583677732 1 1 1 0.056069271598127864 1 0.058472334351552475 1 1 1 1 0.050014899778382367 1 1 1 1 1 1 1 1 1 1 1 1 1 1 1 1 1 0.055865020608734259 1 1 1 0.061257792887186593 1 1 1 1 1 0.052467698253031082 1 1 1 1 1 1 0.058227447408327318 1 0.053196137868969935 1 1 1 1 1 1 1 1 0.049015221078180009 1 1 1 0.05256158316382345 1 1 1 1 1 1 1 1 1 1 1 1 1 1 1 1 1 1 1 1 1 1 1 1 1 0.047452710179778056 0.049668260956501772 0.065309241093975234 1 1 1 1 0.045733338132687415 1 1 1 1 0.042400615762138348 1 1 1 1 1 1 1 0.052794422398065553 1 1 1 1 1 1 1 1 0.054968424041444836 1 1 1 1 1 1 1 1 1 1 1 1 0.053585371529369923 1 1 1 1 1 1 0.050373829089887821 1 1 1 1 1 1 1 1 0.047392390773779949 1 1 1 0.060376456953510751 1 1 1 1 1 1 1 1 1 1 1 1 0.052174001643379278 1 1 1 1 1 1 1 1 1 1 1 1 1 1 1 1 1 1 1 1 1 1 1 1 1 1 1 1 1 1 1 1 1 1 1 1 1 1 1 1 1 1 1 1 1 1 1 0.050123340184949329 1 1 1 1 1 1 1 1 1 1 1 1 1 1 1 1 1 1 1 1 1 1 1 1 0.052340307910164897 1 1 1 1 1 1 1 1 1 1 0.05290459102834584 1 1 0.054974570733006503 1 1 1 1 1 1 1 1 1 0.056348285288487142 1 0.057343305308510222 1 1 1 1 0.055397296655821118 1 1 0.062623900194475016 1 0.051302229899115211 1 1 1 1 1 0.056167872883787412 1 1 1 1 1 1 1 1 0.057056832605612659 1 1 1 1 1 1 1 1 1 1 1 1 1 1 0.063631988907642462 1 0.05921498586781046 0.048028753735775809 1 1 1 1 1 0.049304149385806094 1 1 1 1 1 1 1 1 1 1 1 1 1 1 1 0.055161665618140746 1 1 1 1 1 1 1 1 1 1 1 1 1 1 1 1 0.049314104359926475 1 1 1 1 1 0.0683117449880348 0.051296560032417574 1 1 0.063269579901195167 1 1 1 1 1 1 1 1 1 1 0.049855265080589337 1 1 1 1 1 1 1 1 1 0.051255854769383838 1 0.079835788215402326 1 1 1 1 1 0.049733336394550895 1 1 1 1 0.081233586724528309 1 1 1 0.048687840008535578 1 1 1 0.079774103701594573 1 1 0.047393867416297912 1 1 1 1 1 1 1 1 1 1 1 1 1 1 1 1 0.05072797522993526 1 1 1 1 1 1 1 0.04775232385377632 1 1 1 1 1 1 1 1 1 1 1 1 1 1 1 1 1 1 1 1 1 1 1 1 1 1 1 0.084640090525442052 1 1 1 1 0.049189116749798062 1 1 1 0.022818200650003166 1 1 1 1 1 1 1 1 1 0.025108523419953378 1 0.05000744838358355 1 1 1 1 1 1 1 1 1 1 1 1 1 1 1 1 1 1 0.050036793505404659 0.072688032085146514 1 1 1 0.046192409915360118 1 1 0.062074647127192309 1 1 0.058717205489711134 1 1 1 0.050041250918878032 1 1 0.053208192034942203 1 1 1 1 1 1 1 1 1 1 1 1 1 1 1 1 1 1 1 1 0.049355355278804497 1 0.050303541152057069 1 1 1 1 1 1 1 1 1 1 1 0.048825533879544254 1 0.044589478372560359 1 1 1 0.061950689756081673 1 1 1 1 1 0.050350748622728488 1 1 1 1 1 1 0.056264929406713841 1 1 1 1 1 1 1 1 1 1 1 0.061506124732747192 1 1 1 1 1 1 1 1 0.054724518978267342 1 1 1 0.048986040815069382 1 1 0.066535007866257947 1 1 1 1 1 0.050962532307389848 1 1 1 1 1 1 1 1 1 0.050085939293200758 1 1 0.057938360211898993 1 0.055479475765851778 1 0.050281629044109086 0.051851451119306502 0.050654129472563474 1 0.050048175669847803 1 1 1 1 1 1 0.046063762629336293 1 1 1 1 1 1 0.050185390896719008 1 1 1 1 1 1 1 0.042943651699247569 1 1 1 1 0.039595173164072649 1 1 1 1 1 0.054921037389747726 1 0.05004903706724044 1 1 1 1 1 1 1 1 1 1 0.050421368123763091 1 1 1 1 1 1 1 0.072390181137644533 1 1 1 1 1 1 1 0.049992940106356742 1 0.05055931932486072 1 1 1 1 1 1 1 1 0.070235754368993306 1 1 1 0.096414274192525712 0.050035889927202079 1 1 1 1 1 0.067298471252839998 0.049753410949337669 1 0.061652035110482124 1 1 0.051358221004659615 1 1 0.075274446353500279 1 1 1 1 1 1 1 1 0.07263013041233754 1 1 1 1 1 0.081962854473491609 1 1 1 1 0.11328617475632796 1 1 0.10584791689394109 1 1 1 1 1 1 1 1 1 1 1 1 1 1 1 1 1 1 1 1 1 1 1 1 1 1 1 1 1 1 1 1 1 1 1 1 1 1 1 1 1 0.048240188088654226 1 1 0.050146494215855028 1 1 1 1 1 0.053362446466225184 1 1 1 1 0.048881913968907294 1 1 1 1 1 1 1 1 1 1 1 1 1 1 1 1 1 1 1 1 1 1 1 1 0.052679158456630903 1 1 1 0.051132711924260832 1 1 1 1 1 1 0.050330150243360891 1 1 1 1 1 1 1 1 1 1 1 0.054701411163491732 1 0.048045817810472638 0.053884782248105279 1 1 0.052445768965494854 1 1 1 1 1 1 1 1 1 1 1 0.058391638466306392 1 1 0.054326462345152163 1 1 1 1 1 1 1 1 1 1 1 1 1 1 1 0.056114876523626421 1 1 1 1 1 1 1 0.050051803687831686 1 0.051819747464920046 1 1 1 1 0.04940259188347261 1 0.050527879539448588 1 1 1 1 1 1 1 1 1 0.052542386795675647 1 1 1 1 1 1 1 1 1 1 1 1 1 1 1 1 1 0.049741469431413943 1 1 1 1 1 1 1 1 1 1 1 1 1 1 1 1 1 1 1 1 1 1 1 1 1 0.050049319703800166 0.050217692067511255 1 1 1 1 1 1 1 1 1 1 1 0.050767818325416547 1 1 1 1 0.049142739301536863 1 1 1 1 0.049818259999225692 1 1 1 1 1 1 1 1 0.051271193092576675 1 1 1 1 1 1 1 1 1 0.05057551389104567 1 1 1 1 1 1 1 1 1 1 1 1 1 1 1 1 1 1 1 1 0.060641295600296546 1 1 1 1 1 1 1 1 1 1 1 1 1 1 0.048380897504602727 1 0.050276403949903896 1 1 1 1 1 1 1 1 0.051527093590908457 1 1 0.050606554193264784 1 1 1 1 1 1 1 1 1 1 1 1 1 1 1 1 1 1 1 1 1 1 1 1 1 1 1 1 1 1 1 1 1 1 1 1 0.050109791269908492 1 1 0.050291217161772712 1 1 1 1 0.042641415032372544 1 0.068156508709565494 1 1 0.063544580962576147 1 0.05296427774462923 1 1 1 1 1 0.051281776331073614 1 1 1 1 1 1 1 1 1 1 1 1 0.054243597864928883 1 1 1 0.036898065419507034 1 1 1 1 1 1 1 1 1 0.061463779264330179 1 1 1 1 0.060108763504684859 0.044078461454879522 1 1 1 1 1 1 1 1 0.050274065226285435 1 1 1 1 1 0.049633650595330175 1 1 1 0.050069921168642478 1 1 1 0.058039622712623667 1 1 1 1 0.045056895692499419 1 1 1 1 1 1 1 1 1 1 1 1 1 1 0.054645742568462205 1 1 1 1 1 1 0.042715207364254319 1 0.053728395429374277 0.05000416986752336 1 0.030329979884997377 1 0.05748457443305538 1 1 1 1 0.049864937515713824 1 1 1 1 0.049475245747421973 1 1 1 1 1 1 1 1 1 0.051474004594679448 1 1 1 1 1 1 1 1 1 1 1 1 1 1 0.053156506008235044 1 1 1 0.050236958654534827 1 1 1 0.050635005197148933 1 0.050029358555247483 1 1 1 1 1 1 1 1 1 1 1 1 1 1 1 1 0.052628601735452196 1 1 1 1 1 1 0.058503743256787512 1 1 1 1 1 1 1 1 1 1 1 1 1 1 1 1 1 1 0.069010912226494928 1 1 1 1 1 1 1 1 1 1 1 1 1 1 1 1 1 1 1 1 1 1 1 1 1 1 1 1 1 1 1 1 1 1 0.048672388012583341 1 1 1 1 0.05039498147972684 1 1 1 1 1 1 1 0.066826808156042874 1 1 1 1 1 1 1 1 1 0.047683108878842237 1 1 0.077265363176095794 1 1 1 1 1 0.050002191760756633 1 1 1 0.049943820801373218 1 1 0.052094767802002978 1 1 1 1 1 1 1 1 1 1 1 1 1 1 1 1 1 1 1 1 0.054130153777811427 1 1 1 1 1 1 1 1 1 1 0.051443427246668741 0.05990003297132851 1 0.090066805800976021 1 1 1 1 1 0.095790080846921144 1 1 1 1 0.05078141737223521 1 1 1 1 1 0.049785522619735754 1 0.049922913859277829 1 1 0.047794760156569582 1 1 1 1 1 1 1 1 0.049272556235374888 1 1 1 1 1 1 0.050560855027916705 1 1 1 1 1 1 0.050828958577660177 1 1 1 1 0.052318340641434508 1 1 0.049918835393164482 1 0.053621823689180018 1 1 0.050322601152856535 1 1 1 1 1 1 0.050261951612785696 1 1 1 1 0.050110847347780603 1 1 1 1 1 1 1 1 0.052367377958354347 0.054840286176145892 1 1 1 1 1 1 1 1 0.050744625585774528 1 1 1 1 1 1 0.050355253749448096 1 1 1 1 1 1 1 0.052842606827985542 1 1 1 0.057217623191633656 1 1 1 1 1 1 1 1 1 1 1 1 0.04998745817887134 1 1 1 1 0.052706081856300116 1 1 0.050044697985480509 1 1 1 1 0.048830624215503417 1 1 1 0.050040723568569929 0.047803244969745057 1 1 1 0.051009705900482205 1 1 1 0.049697314667770082 1 1 1 1 1 1 1 1 1 0.048048570273950257 1 1 1 0.049994508629105046 1 1 1 1 1 1 1 1 1 1 1 1 0.046529149542616562 1 0.050237337568984283 1 1 0.050327678430272402 1 1 0.050909724483374517 1 1 1 1 1 1 1 0.050022151138544191 1 1 1 1 1 0.049957435836535322 1 0.048493609198962256 1 1 1 0.04211329144410135 0.061996817513812745 1 0.054634499449155487 0.043746376747278909 1 0.047730580765635508 1 1 1 1 1 1 0.050398416438438544 1 0.063176902014325576 1 1 1 1 1 1 1 1 1 1 1 1 1 0.049908220463197622 1 1 0.057279782774057396 1 0.051269837118733855 1 1 0.061761045848241408 1 1 1 0.051807027317038207 0.051712526147399657 1 1 0.062561211346087595 1 1 1 1 1 1 1 1 1 1 1 1 1 1 1 1 1 1 1 1 1 1 1 0.050056947362700624 0.04994447447986157 1 0.050882195355486083 1 0.053644672142997882 1 1 0.050000178183229126 0.046496695945558587 1 1 0.049996519374464338 1 1 0.053030101311348915 1 1 0.048582048143413749 1 0.053849853159247757 1 1 1 1 0.049932626065018811 1 1 1 1 0.050597926460865916 1 0.051795610832748445 0.051879139846217538 1 0.049778209203500345 1 1 0.06086875170718696 0.050534609910575831 1 1 1 0.054303619349005891 1 1 1 1 0.057459841838764084 0.050442596032252679 1 1 1 1 1 0.049621400522854325 1 1 1 1 1 1 1 1 1 1 1 0.048472006593753204 1 0.050041339316361094 1 0.053632452257748139 1 1 0.049996525604995422 1 0.055737734169301806 1 1 1 1 1 1 1 1 0.052390572502753044 1 1 0.048472617314768249 1 1 1 1 0.049999558297555383 1 1 1 1 1 1 1 1 1 1 1 1 0.051710020519584607 1 1 1 1 1 1 1 1 1 1 1 0.050168173741907754 1 1 1 1 1 1 0.050038518502436076 1 0.048763685431482434 1 1 0.05047725050062947 1 1 1 1 1 1 1 1 1 1 1 1 1 1 1 1 1 0.050352960961341224 0.057341520982418161 1 1 1 0.049891513916509457 1 1 0.058082516998414581 1 1 1 1 1 1 1 1 1 1 1 1 1 1 1 1 1 1 1 1 1 1 1 1 1 0.050003896020946861 0.053900237840384502 1 1 1 1 1 1 1 1 1 1 1 0.054410408997938607 1 1 1 1 1 1 1 1 1 1 1 1 1 1 1 1 1 1 1 1 1 1 1 1 1 1 1 1 1 1 1 1 1 0.05010155967866177 1 1 1 1 1 0.050113418673105758 1 1 0.049505824474565183 1 1 0.055687475243734907 0.046683610922818079 1 1 1 1 1 1 1 1 1 1 1 1 1 0.046846048801619737 1 1 0.049835826833530335 1 1 1 1 1 1 0.049997940702293228 1 1 0.047065854600288719 1 1 1 1 1 1 1 1 1 1 1 1 1 0.049944038942361546 1 1 1 1 1 1 1 0.049997551128020887 1 1 1 1 1 1 1 1 1 1 1 1 0.050053315224568615 1 1 0.050014796722132535 1 1 1 1 1 1 1 1 1 1 1 1 1 1 1 1 1 1 1 1 0.050109722173859061 1 1 0.049985116053051531 1 0.049682738505657978 1 1 1 0.050005031355763473 1 1 0.053177776520247078 1 0.05052225665530112 1 1 1 0.052250495364171583 1 1 1 1 0.050067094200421325 1 1 1 1 1 1 1 0.050194585187287803 1 1 1 0.050767687139339851 1 1 1 1 1 1 1 1 1 1 1 1 0.049986887173615588 1 1 1 1 1 1 1 1 0.05083664726362494 1 1 1 1 1 1 1 1 1 1 1 0.051386962826496047 1 1 1 1 1 1 1 1 1 1 1 1 1 1 1 1 1 1 1 0.05190447333931944 0.050804095787585601 1 1 1 0.05030437849467919 1 1 1 1 1 1 1 1 1 1 1 1 0.050053748075838761 1 1 1 1 1 1 1 1 1 0.050171931275943479 1 1 1 1 1 1 1 1 1 1 1 1 1 1 1 1 0.061397693167701176 1 0.050698718458599794 1 1 1 1 1 0.058550316113699666 1 1 1 1 0.050712443979257699 1 1 1 0.049978635873394725 1 1 1 0.051953569498198029 1 1 1 1 1 1 1 1 1 0.052018163146527852 1 1 1 0.055560916444259534 1 1 0.050914559256551015 1 1 1 1 1 1 0.050465610284266244 1 1 1 1 1 1 1 1 0.051521876329521529 1 1 1 0.050744469036447623 1 1 1 1 1 1 1 1 1 1 1 1 1 1 1 1 1 1 1 1 1 1 1 1 1 1 1 0.05055935139965867 1 1 1 1 1 1 1 0.050352845513462891 1 1 1 1 1 1 1 1 1 1 1 1 1 1 1 1 1 1 1 1 1 1 1 1 1 0.050144858277443201 1 0.050107940564160819 1 1 1 1 1 1 0.050030016049962343 1 1 1 0.049809273120577847 1 1 0.049482715230372384 1 1 1 1 1 1 1 1 1 1 1 1 0.066046677378964816 1 1 1 1 1 0.063280917469855549 1 1 1 1 1 1 1 1 1 1 1 1 1 0.049993098336679996 1 1 1 0.05000372944671877 1 1 1 1 1 1 1 1 1 1 1 1 0.049985602059112844 0.052407391595322116 1 1 1 1 0.050484118814948638 1 1 1 1 1 1 1 1 1 0.049913616234562197 0.05585109521179956 1 1 1 1 1 0.057888835115312343 1 1 1 1 1 0.050336372586169478 1 1 1 1 1 0.049978789056433895 1 0.048644321472713484 1 1 1 1 0.052199314803671036 1 0.048794826467715796 1 0.051298284510727148 0.050006779824085482 1 1 1 1 1 1 1 0.049914121639616268 0.051146502856857644 1 1 1 1 1 1 0.049998542039552916 0.058375290789555528 0.051660521763155373 1 0.049593114579568387 0.048588562978529162 1 1 1 0.049747156619925396 1 1 1 1 1 0.057297992431273773 0.05206347164251815 0.049999048146581113 1 0.048903138340769522 1 1 1 0.050003755584591206 1 0.057945911750170616 0.050069247044341861 1 1 1 1 1 1 1 0.051873371936834223 0.04779343606099401 1 1 0.05923058102353429 0.063633731478357686 0.045392081233064138 1 1 1 1 1 1 1 1 1 1 1 1 1 1 1 1 1 1 1 1 1 1 1 1 1 1 1 1 1 1 1 1 1 1 1 1 1 1 1 1 0.050025587835821367 1 1 1 1 1 1 1 1 1 1 0.050093281293984465 1 1 1 1 1 1 0.050206751710149905 1 1 0.049501041944221169 1 1 1 1 1 1 1 1 1 1 1 1 1 0.049942597661429056 1 0.04923282945827142 1 1 1 1 0.052425908245894229 1 1 1 0.067727804536595715 1 1 0.066860233928997453 1 1 1 0.049993908867176758 1 1 0.050124176411507355 1 1 1 1 1 0.05006334825755248 1 1 1 1 1 1 1 0.050018013126840538 1 1 1 1 1 1 1 0.065428403541464619 1 1 0.063772257900275769 1 1 1 1 0.049731498171955074 1 0.05001466973854353 1 1 1 1 1 0.049171076266512355 1 1 1 1 0.050569280878837261 1 1 1 1 1 1 0.051812065191357684 0.046851474915080051 1 1 1 1 1 0.059231860639458636 1 1 0.054694889163604057 1 1 1 1 1 1 1 1 1 1 0.054579831049844041 1 1 1 1 1 1 1 1 1 1 1 1 1 1 1 1 1 1 0.051556955745869167 1 1 1 1 1 1 0.049783039390596293 1 1 1 1 1 1 1 0.044173156468990921 0.049284005749814196 1 1 1 1 0.049925836230364423 1 1 1 1 1 1 1 0.047385421649900263 1 1 0.051409580601280175 1 0.056085929535827056 0.04685573567233095 0.054667745390704375 1 1 1 1 1 1 0.051134324237676464 1 1 1 1 1 0.04999645370376446 1 1 1 1 0.053325816116874168 1 1 1 0.04338239868893376 1 1 1 0.051592757948805003 1 1 1 1 1 1 1 1 1 1 1 1 1 1 1 1 1 1 1 1 1 1 1 1 1 0.053422207315804146 1 1 1 1 1 1 1 0.050109690294838374 1 0.052098600625469095 1 1 1 1 1 1 0.062570447693621314 1 1 0.050697193854480842 1 1 1 0.050028685466918105 1 1 0.052569301042229989 1 1 1 1 1 0.049880241173309081 1 1 1 0.049955883085717162 0.050640889868316712 1 1 1 1 1 1 1 1 1 1 1 1 0.049000968572794082 1 1 1 1 1 1 1 1 1 0.04645199413964101 1 1 1 1 1 0.049959461671897333 0.052480803805149127 1 1 1 1 1 1 1 1 1 0.05033819604696211 1 1 1 1 1 1 1 1 0.051585821212593051 1 1 1 1 1 1 1 1 1 1 1 1 1 1 1 1 1 1 0.050569571378017403 1 1 1 1 0.051337258517357265 1 0.050548964577406985 1 0.050046662053605834 1 1 1 1 1 1 1 1 1 1 1 1 1 1 1 1 1 0.049773783106936455 1 1 1 1 1 0.053360896263102517 1 1 1 0.048913910816835451 0.054360275484073524 1 1 1 1 1 0.051068247505088725 1 1 1 1 0.049700704019548653 1 1 1 1 1 1 1 1 0.053171134793870728 1 1 1 1 1 1 1 0.051731025725432159 1 1 1 1 1 1 1 1 1 0.049648538467281275 1 1 1 1 1 1 1 1 1 1 1 1 1 1 1 1 1 1 0.049868097083014026 1 1 1 1 1 1 1 1 1 1 1 1 1 0.049967802752924902 1 1 1 1 1 1 0.050118592247515449 1 1 0.050777407293073909 1 1 0.050112161209465905 1 1 1 1 1 1 1 1 1 1 1 1 1 1 1 1 1 1 1 1 1 1 1 1 1 1 0.050065231492532267 1 0.050712290693990553 1 0.050000403250280032 0.04868247166035547 1 1 1 0.050839233770735973 1 1 1 1 1 1 1 1 1 0.049625860010332298 0.049889440120248013 1 0.053218013499676503 1 1 1 1 1 1 1 1 1 1 1 1 1 1 0.049999702866137932 1 0.048382891996206601 0.047563284164464197 1 0.051417720839206912 1 1 1 1 1 1 1 1 1 0.044918530593687785 0.049389643558069914 1 1 1 1 1 1 1 1 1 1 1 1 1 1 1 1 1 1 1 1 1 1 0.051918702773531243 1 1 1 1 1 0.04898559950520464 1 1 1 1 1 0.046579181290605468 1 1 1 0.056176839477332735 1 1 1 1 1 1 1 1 1 0.053469109380617462 1 1 1 1 0.054882146215044537 1 1 1 1 1 1 0.044769487976500065 1 1 1 1 1 1 1 0.050500813319686373 1 1 1 1 0.044823901546275684 1 1 1 1 1 1 1 1 1 1 0.051196502405478732 1 1 1 1 0.054079293320702965 1 1 1 0.058664432482776543 1 1 1 1 1 0.048556350984128992 1 1 1 1 1 1 1 1 1 1 1 1 1 1 0.047706894697912811 0.065688703410911986 1 1 0.060970841141747611 1 1 1 1 1 1 1 0.049181372492552528 1 1 1 1 1 1 0.050408374280891878 1 1 1 1 1 1 1 1 1 1 1 1 1 1 1 1 1 1 1 1 1 1 1 0.051844654099304915 1 1 1 1 1 1 1 1 0.050074450805947981 1 1 1 1 0.050148472732044334 1 1 1 1 1 0.053877455226914638 1 0.049973185226263928 1 0.053538828923925988 1 1 1 1 1 1 1 0.049756279443044615 1 1 1 0.063034468894782564 1 1 1 1 1 0.056450074703199543 1 1 1 1 1 0.049466541340748384 1 0.051223924658607943 1 1 0.051833496064181979 1 0.04902066367245312 1 1 1 1 1 0.049985526943484009 1 1 1 0.049705641547652356 1 1 1 1 1 1 1 1 1 1 0.049170806364150853 1 1 1 1 1 1 1 1 1 1 1 1 1 1 1 1 1 1 1 1 1 1 0.056113398388253466 1 1 1 1 1 1 1 1 1 1 1 1 1 1 1 1 1 1 0.065628920878172681 1 1 1 0.07205400662265242 1 1 1 1 1 1 0.091009528182617816 1 1 1 0.054253967554214244 0.058861995764303392 1 0.073234152367623595 1 0.051551263049810968 0.067369507835330758 1 0.065459651558382653 1 1 0.057802674584782623 1 1 0.04668051489951603 0.058360380170551368 1 1 1 1 1 1 1 1 0.053532016877113398 1 0.053337199102636339 1 1 1 1 1 1 1 1 1 1 1 1 1 1 1 1 1 1 1 1 1 1 0.058327378163066886 1 1 1 1 1 1 1 1 0.062247530410621595 1 1 0.050113052538731898 1 1 0.064746599420556716 0.050361432378640311 1 1 0.050102704441350975 1 1 1 1 1 1 1 1 1 1 1 1 1 1 1 1 1 1 1 1 1 1 1 1 1 1 1 1 1 1 1 1 1 1 1 1 1 1 1 0.11314896831825856 1 0.10268857589534247 1 1 1 1 1 1 1 1 1 1 1 1 1 1 1 1 1 1 1 1 1 1 1 1 1 1 1 1 1 1 1 1 1 1 1 1 1 1 1 1 0.054655644155153629 1 1 0.054641909913765774 1 1 1 1 1 0.049126583411118835 1 0.05009503511873023 1 1 0.048374566544343446 1 1 1 1 1 1 0.040224648362267135 1 1 1 1 1 1 1 1 1 1 1 0.049966231342532495 1 1 0.064423185777955111 0.10876774599665229 1 0.1300700628220462 1 1 0.034392044212841741 1 1 1 1 0.12209086838735142 1 1 1 1 1 1 1 1 1 0.050121023370817308 1 0.046710501515540966 1 1 1 1 1 1 1 0.050232415564519649 1 0.038129746118778701 1 1 1 1 1 1 1 1 1 0.049299699542482769 1 0.041525804561502101 1 1 1 1 1 1 1 1 1 1 0.047833977699181102 1 1 1 0.044561542794126066 1 1 0.050011112758934141 1 1 0.061250392202140097 1 1 1 1 0.056682301460395039 1 1 1 0.049993568961950459 1 1 1 1 1 1 1 1 1 1 1 1 1 1 0.052218668470648016 1 1 1 1 1 1 0.055412178687182727 1 0.047862905064893622 1 0.11472998855185521 1 1 1 0.053287741245858861 1 1 1 1 1 1 1 1 0.12491185881199954 1 1 1 1 1 0.050082924741185447 1 1 0.12852094526894581 1 1 1 1 1 1 1 1 1 0.06237567618470137 1 1 1 0.054248953529976704 1 1 1 1 1 1 0.069692098791961421 1 1 1 1 1 1 1 1 1 1 1 1 1 1 1 1 1 1 1 1 1 1 1 1 1 1 1 1 1 1 1 0.054654592494341445 1 1 1 1 1 0.051169036601023038 1 1 0.048845480582508663 0.05231708678281434 1 1 1 1 0.053172067666045715 1 1 1 1 1 0.051139994835436978 1 1 1 1 1 1 1 1 1 1 1 1 1 1 1 1 0.051858043136683955 1 1 1 1 1 1 1 1 0.052867503463097022 0.056541864032549446 1 1 1 1 1 1 0.05560333803811713 1 1 1 1 0.053727942958947665 1 1 1 1 1 1 1 1 1 1 1 1 1 1 1 1 1 1 1 1 1 1 1 1 0.054370533191937527 1 1 0.051573983834280031 1 1 1 1 1 1 1 1 1 1 1 1 1 1 1 1 1 1 1 1 1 1 1 1 1 1 1 0.052084926507617431 1 0.05498220033563482 1 1 1 1 1 0.060283598987279426 1 1 1 1 1 1 1 1 1 1 1 1 1 1 1 1 1 1 1 1 0.056347688264114085 0.053954125024036979 1 0.05853599103523769 1 1 1 1 1 1 1 1 1 1 1 1 1 1 1 1 0.058556474219852141 1 1 1 0.053959806762743479 1 1 1 1 1 1 1 1 1 1 1 1 1 0.055301398651644594 1 1 1 1 1 1 1 1 1 1 1 1 1 1 1 1 1 1 1 1 1 1 0.097400195905289089 1 1 1 1 1 1 1 1 1 1 1 1 1 0.096702471995384454 1 0.074877564820310563 1 1 0.08641436869763347 0.072671728059145582 1 1 1 1 1 1 1 1 1 1 1 1 1 1 1 1 1 1 1 1 0.047999935199158891 1 1 0.077995690010232724 1 1 1 0.050515965517381217 1 1 1 1 1 1 0.075602312689351192 1 1 1 0.050587002782534841 1 1 1 1 1 1 1 1 0.050045684808827047 1 1 0.052913213362130576 1 1 0.059862795421780315 1 0.059548666776474246 1 1 1 1 0.060343901906610292 0.079480061710971037 1 1 0.049068474656208269 0.079231368088339291 1 1 0.060236110112890082 1 1 1 1 0.050037072952277599 1 1 0.05907406825958611 0.050515213913702978 1 0.050015457373852573 1 1 1 1 1 1 1 1 1 1 1 1 1 1 1 1 1 1 1 1 0.049984610563444123 1 1 1 1 0.051973699602567383 1 1 1 1 0.049846156098808145 0.050576030080602824 1 1 1 1 1 1 1 1 1 1 1 1 0.050213613838244048 1 1 1 0.069005020490495381 1 1 1 1 1 1 1 0.071732609677991055 1 1 1 0.049222748373209592 1 1 0.049973627869077664 0.049517996989483601 1 1 1 0.073691575467222464 1 1 1 0.049848204485296019 1 1 1 1 1 1 1 1 1 1 1 1 1 1 1 1 1 1 0.050751961994843067 1 1 1 1 1 1 1 1 1 1 1 1 1 1 1 1 1 1 0.04982972671209987 0.052111480767938922 1 1 1 1 1 0.053269533304833722 0.049515998111161058 1 0.054362382283673898 1 1 1 1 1 1 1 1 1 0.10960200059828221 1 1 1 0.10426854489291335 1 1 1 1 1 1 1 1 1 1 1 1 1 1 0.076367559954290981 1 1 1 1 1 1 1 0.092638120902914678 1 1 0.098616368784403899 1 1 1 1 1 1 0.0637661692655693 1 1 1 1 0.067982746822500884 1 1 1 1 1 1 0.046502997253611116 1 1 1 1 1 1 1 1 0.049740169373140804 0.059713767225280948 1 1 1 0.054602898140758388 0.046784823867833877 1 1 1 1 1 0.05151349124814239 1 1 1 1 1 1 0.050677654427657981 1 1 1 1 0.050282601954011921 1 1 1 1 1 0.050336160957809961 1 1 1 1 0.043022767152038101 1 1 1 1 1 1 1 1 1 1 1 1 1 1 1 1 1 1 1 1 1 1 1 1 1 0.049881613964686919 1 1 1 1 0.074291577813899459 1 0.053204128309068427 1 0.084389132731938488 1 1 0.05009025582640049 1 1 0.047755697548895817 1 1 0.049403943114426356 1 1 1 1 1 1 0.039832570295929612 1 1 0.044344965304097185 1 0.05240641854182633 0.048730006572862604 0.046908584691891686 1 1 0.0518374806276094 1 0.05179569041549309 0.05169437995344453 1 1 1 0.049793992896391026 1 0.049983368062237236 1 1 1 1 1 1 0.053007873315731119 1 1 1 0.049963454504332996 1 1 1 1 1 1 1 0.052335411322628221 1 1 1 0.05722414693287247 1 0.03139720226933107 0.035513373744528044 1 1 1 1 1 1 1 0.0510783942736708 1 1 1 1 1 1 1 1 0.049427721700856436 0.055362055418101783 1 1 1 1 0.058266749197233972 1 1 0.058311039461954386 1 1 1 0.049998812431697827 1 1 1 0.056242222298740756 0.052411651121438994 1 1 1 1 0.049610861150847098 1 1 1 1 1 0.052873142835751612 0.055729031889910803 1 1 1 1 1 1 1 1 1 1 1 1 1 1 1 1 1 1 1 1 1 1 1 1 1 1 1 1 1 1 1 0.052655662756221508 1 1 1 0.050172239762121519 1 1 1 1 1 1 1 1 1 1 1 1 1 1 1 0.055854576060136087 1 0.049413938629643633 0.045441464067673555 1 1 0.057013148341961958 1 1 1 1 1 1 1 1 1 1 1 1 1 1 1 1 1 1 1 1 1 1 1 0.048978751354050859 1 1 0.054681354360709145 0.050077319816167289 1 1 1 1 1 1 1 0.052923588635594425 1 1 1 0.047357953431337522 1 1 1 1 0.049476703428236471 0.049825589097403866 1 1 1 1 1 1 1 0.056477316021673343 1 1 1 1 0.054166846094321312 1 1 1 1 0.050693674503361444 1 1 1 1 1 1 1 1 1 1 1 1 1 1 1 1 1 1 1 0.048999082015423155 1 1 1 1 1 1 1 1 1 1 1 1 1 1 1 1 0.048738855082930424 1 1 1 0.04955476763883461 1 1 1 1 1 1 1 1 1 0.051486179410382041 1 1 1 1 1 1 1 1 1 1 1 1 1 1 1 1 1 1 1 1 1 0.051166289443404261 1 1 1 1 1 1 1 1 1 1 1 1 1 1 1 1 1 0.053116646878115625 1 1 1 1 1 0.049820911847858876 1 1 1 1 1 1 1 1 1 1 1 1 1 1 1 1 1 1 1 1 1 1 1 1 1 1 1 0.049540529766485299 1 1 0.034493019590402782 1 1 1 0.031740611553431636 1 1 1 1 1 1 1 1 1 1 1 1 1 1 1 0.028231269832394459 1 0.054256290196893993 1 1 1 1 1 1 1 1 1 0.033635465022975472 1 1 1 1 1 1 1 1 1 0.047568550564653367 0.040226758325879582 1 1 1 1 1 1 1 1 1 1 1 1 1 1 1 1 1 1 1 1 1 1 1 1 1 1 1 1 1 1 1 1 1 1 1 1 1 1 1 1 1 1 1 1 1 1 1 1 1 1 1 1 1 1 1 1 1 1 1 1 1 1 1 1 1 1 1 1 1 1 1 0.047829464246266676 1 1 1 1 1 1 0.043816433209252895 1 1 1 1 1 1 1 1 1 0.046930949021479387 1 0.0435555195276396 1 1 1 1 1 1 1 1 1 1 1 1 1 1 1 1 1 1 1 1 1 1 1 1 1 1 1 1 1 1 1 1 1 1 0.052252408389037351 1 1 1 0.052104572703200812 0.048796348831759324 1 1 1 1 1 1 1 1 1 1 1 1 1 1 1 1 1 1 1 1 1 1 0.051057846372274382 0.051380396368766915 1 1 1 1 1 1 1 1 0.047231360208914053 1 1 1 1 1 1 0.048149907395424907 1 1 1 1 1 0.051284319844715001 1 1 1 1 0.050470057946425645 1 1 1 0.039425864944157139 1 1 1 0.043536588744680832 1 1 0.047303322876004465 1 1 1 1 1 1 1 1 1 1 1 1 1 0.050712706866885865 1 1 1 1 1 1 1 1 0.052072029198281002 1 1 1 1 1 1 1 1 1 1 1 0.050033866586086877 1 1 1 0.050029729634767053 1 1 1 1 0.051984230092670759 1 1 1 1 1 1 1 1 0.051179957031059854 1 0.047731206566380233 1 1 0.055709389016258881 1 1 1 1 1 0.049948557747906415 1 1 1 1 1 1 1 1 1 1 1 1 0.050804837738374145 1 1 1 1 1 1 1 1 1 0.052048865571081737 1 1 1 1 1 1 0.049503736430880525 1 1 1 1 1 1 1 0.050851180015479114 1 1 1 1 1 0.051656017753853228 1 1 1 1 1 1 1 1 1 1 1 1 1 1 1 1 1 1 1 1 1 1 1 1 1 1 1 1 1 1 1 1 1 1 1 1 1 1 1 1 1 1 1 1 1 1 1 0.050513934195690384 1 0.05091920037818632 1 1 1 1 1 1 1 1 1 1 1 1 1 1 0.049867512853043069 1 1 1 1 1 1 1 1 1 1 1 1 1 1 1 0.055062904634959012 1 1 0.051303613038038612 1 0.046637962648054358 1 1 1 1 1 0.051488632008195978 1 1 1 1 1 1 1 1 1 1 1 1 1 1 1 1 1 1 1 1 0.057354715924523576 1 1 1 1 1 1 1 1 1 1 1 0.056533619974634852 1 0.050315659335108565 1 1 0.054828067339267553 1 0.067267933029156735 1 1 1 1 1 1 1 0.049936223794762209 1 0.059105833750563136 1 1 1 1 0.058321796769872598 1 1 1 1 0.050990740650974316 0.05168910347326406 1 1 0.044778710326084964 1 1 1 1 1 1 1 1 1 1 1 1 1 1 1 1 0.049597149278041333 1 1 1 1 1 1 1 1 1 1 1 1 1 1 0.048813945795285238 1 0.050263469435075522 1 1 1 1 1 1 1 0.066173347384808887 1 0.067051762527153946 1 1 1 1 1 1 1 1 1 0.050143089410196968 0.063727751895264306 1 1 1 0.063087008673831199 1 1 1 1 0.070989081862897305 1 0.059984990798266996 1 1 0.049353327790966794 1 0.07138716106055551 0.070901658920418359 0.050306629570667005 1 1 0.050004375389776173 1 1 1 0.051196711265677458 0.056937513926886833 0.047734300753367334 1 1 1 1 1 1 1 1 1 1 1 0.048946688975272948 1 1 1 1 1 1 0.070736515134491695 1 1 1 0.050089143854168523 1 1 1 1 1 1 1 1 0.049609994677573807 1 1 1 0.04987615583255757 1 1 1 1 1 1 1 1 1 1 1 1 1 1 1 1 1 1 1 1 1 1 1 1 1 1 1 1 1 1 1 1 1 1 1 1 1 1 1 1 1 1 1 1 1 1 1 1 1 1 1 1 1 1 1 1 1 1 1 1 0.053016347581939738 1 1 1 1 1 0.057709041533531728 1 1 1 1 0.052545127299610243 1 1 1 0.060389325256126267 1 1 1 1 1 1 1 1 1 1 1 1 1 1 1 1 1 1 1 1 1 1 1 1 1 1 1 1 1 1 1 1 1 1 1 1 1 1 1 1 0.054919143057683834 1 1 0.062516338681527464 1 1 1 1 1 1 1 0.049224792743003037 1 1 1 1 1 1 1 1 1 1 1 0.046524231072803693 1 1 0.050116703636344739 1 0.053945299826352724 1 1 1 0.066845688327945879 1 1 1 1 1 1 1 1 0.04967698451874919 1 1 1 1 0.04888522605671812 1 1 1 1 0.065114962076637736 1 0.053218802115081086 1 1 1 1 1 1 1 1 1 1 1 1 0.055935501014240357 1 0.060866150832487476 1 1 1 1 1 1 1 1 1 1 1 1 1 0.050311905671623677 1 1 1 1 1 1 1 1 1 0.050793396939849494 1 1 1 0.05048149126822582 1 1 1 1 1 1 1 1 1 1 1 1 1 1 1 1 1 1 1 1 1 1 1 1 1 1 1 1 1 1 1 1 1 1 1 0.05077600334159954 1 1 0.049955685734523386 1 1 1 1 0.052652490475372821 1 1 1 1 1 1 1 1 1 1 1 1 1 1 1 0.051679022837352331 1 1 1 1 1 1 1 1 1 0.050993634924610211 1 0.050834078975663194 1 1 1 1 1 1 1 0.051139722235499577 1 1 1 1 1 1 1 1 1 1 1 1 1 1 0.052480736361787274 1 1 1 1 1 1 1 1 1 1 1 0.056073280515340371 1 1 1 1 1 1 1 1 1 1 1 1 1 1 1 1 1 1 1 1 1 1 1 0.049699915165922044 1 0.049303781630357715 1 1 1 1 1 1 0.055253038686668844 1 0.053291735093241546 1 1 1 0.054827806081554305 1 1 1 0.047756690797482529 1 1 1 0.054593341996969261 1 1 0.047595019287787976 1 1 1 1 1 1 1 0.048812275332786842 1 1 1 1 1 1 1 0.061886070992378868 1 1 1 1 1 1 1 1 1 1 1 1 1 0.052662759082341137 1 1 1 1 1 1 1 1 0.062714634079482259 1 1 1 1 1 1 1 1 1 1 1 1 1 1 1 1 1 1 1 1 0.058587288339490909 1 1 1 1 1 1 1 1 1 1 1 1 1 1 1 1 1 1 1 1 1 1 1 1 1 1 1 1 1 1 1 1 1 1 1 1 1 1 1 1 1 1 1 1 1 1 1 1 1 1 0.048547566396924105 1 0.056099291907409518 1 1 1 0.050479967209223466 1 1 0.049754806609852056 0.057628512894041493 1 0.045473572814397435 1 1 1 1 1 1 1 1 1 1 1 1 1 1 1 1 1 1 1 1 1 1 1 1 1 1 1 1 1 1 1 1 1 1 1 0.049507750204899018 1 1 1 1 0.047294184742594877 1 1 0.053049805174063956 1 1 1 0.051819743778337063 1 1 1 1 0.044459274463443763 1 0.050121821698776256 0.060553240931179447 1 1 1 1 0.058912851199965088 1 1 1 0.043319751953897902 1 1 1 0.053830336662635786 1 1 1 1 1 1 0.049976667587329146 1 1 1 1 1 1 1 1 1 1 1 1 1 1 1 1 1 1 1 1 0.048013162272676442 1 1 1 1 1 1 1 1 1 1 1 1 1 1 1 1 1 1 0.049339331334618472 1 1 0.048191173516759507 1 1 0.071732524042443416 1 1 1 1 1 1 1 1 1 1 1 0.046867532876697079 1 1 1 1 0.050474396501625621 1 1 1 1 0.054253347016462998 1 1 1 0.052888192553528564 1 1 1 1 1 1 1 1 1 1 1 1 1 1 1 1 1 1 1 1 1 1 1 1 1 0.051293554371841861 1 1 1 1 1 1 1 1 0.052882140000416425 1 1 1 0.070093257229042721 1 1 1 1 1 1 1 1 1 1 1 1 1 1 1 1 1 1 1 1 1 1 1 1 0.045874286250256774 1 1 1 0.053833957296195528 1 1 1 1 1 1 1 1 0.046338124432067418 1 1 0.052252009308648373 1 1 1 1 0.050627044128765043 1 1 1 1 1 1 1 0.068327188325690819 1 0.047027329215098952 1 1 0.04399962914528209 1 1 0.073267518912538937 0.050009534474081505 1 1 1 1 1 1 1 1 1 1 1 1 1 1 1 1 1 1 1 1 1 0.057490692462711206 1 1 1 1 0.062983265715852749 1 1 1 1 1 1 1 1 1 1 1 1 1 0.053834979592627029 1 1 0.050092311355868696 1 1 1 1 1 1 1 1 1 1 1 1 1 1 1 1 1 1 1 1 1 1 1 1 1 1 1 1 1 1 1 1 1 1 1 1 1 1 1 1 1 1 1 1 1 1 1 1 1 1 1 1 1 1 1 1 1 1 1 1 1 1 1 1 1 1 1 1 1 1 1 1 1 1 1 1 1 1 1 1 1 1 1 1 1 1 1 1 1 1 1 1 1 1 1 1 1 1 1 1 1 1 1 1 1 1 1 1 1 1 1 1 1 1 1 1 1 1 1 1 1 1 1 1 1 1 1 1 0.049121937365109884 1 1 1 1 1 1 1 0.048540281343076898 1 1 1 1 1 1 1 1 1 0.046352157957191269 1 0.059349678288188309 1 1 1 0.054162616925872743 1 1 0.055823307273041196 1 1 1 1 1 1 1 1 1 1 1 1 1 1 1 1 1 1 1 1 1 1 1 1 1 1 1 1 1 1 1 1 1 1 1 1 1 0.048087988042602628 1 1 0.055236375007518157 0.044776815092126492 1 1 0.049339718794097681 1 1 0.064237318359139289 1 1 1 0.060895028883911434 1 1 1 1 1 1 1 1 1 0.053997806389675912 1 1 1 1 1 1 0.049579079889470884 1 1 1 1 1 1 1 1 1 1 1 1 1 1 1 1 1 1 1 1 1 1 1 1 1 1 1 1 1 1 1 0.04713441303145896 1 1 1 1 1 1 1 1 1 1 1 1 1 1 1 1 1 1 1 1 1 1 1 1 1 1 1 1 1 1 1 1 1 1 1 1 1 1 1 1 1 1 1 1 1 1 0.063123210243440461 1 0.050635671431475106 1 1 1 1 0.050110388020634486 1 1 1 1 0.061605956182009633 1 1 1 1 0.049775928930927645 1 1 1 1 1 1 1 1 0.050895198592650646 1 1 0.050489662965744059 1 0.050294485585072976 1 1 1 1 0.051384345132059465 1 1 0.051657933902659159 0.054862115249076908 1 1 1 1 1 1 0.050071694484946125 1 1 1 1 1 1 1 1 1 1 0.051455834136194215 0.060538865232149491 1 1 1 1 1 0.060923729467181664 1 1 0.050747326410040781 1 1 1 1 0.051765145399210497 1 1 0.050002903340728364 1 1 1 1 1 1 1 1 1 1 1 1 1 1 1 1 1 1 1 1 1 1 1 1 1 1 1 1 1 0.050108188623732071 1 0.050031788891521434 1 1 1 1 1 1 1 1 1 1 1 1 1 0.049952910887467443 1 1 1 1 0.070119163834690787 0.070638178089478587 1 1 1 1 1 1 1 1 1 1 1 1 1 1 1 1 1 1 1 1 1 1 1 1 1 1 1 1 1 1 1 1 1 1 1 1 1 1 1 1 1 1 0.050050366496592655 1 1 1 0.050097455609125235 1 1 1 1 1 1 1 1 1 1 1 1 1 1 1 1 1 1 1 1 0.069523569737065555 1 1 0.068821814619408367 1 1 1 1 1 1 1 1 1 0.050001651715950488 1 1 1 1 1 0.064116156383694931 1 1 1 1 1 0.0498774804114143 1 0.049895980103702615 1 1 1 1 1 1 1 1 1 1 1 1 1 0.05369929811627807 1 1 1 0.057327171699921547 0.062909049608376955 1 1 1 1 1 1 1 1 0.05000137127284153 1 1 0.059689191227198901 1 1 0.050003608766660615 0.054178551170072815 1 1 1 1 1 0.049928789994395109 1 1 1 1 1 1 1 0.051112442143160082 1 1 0.052542186486100421 0.050780835582477105 1 1 1 1 1 1 0.05800086149444441 0.047384169843768004 1 1 1 0.053159986699637327 1 1 1 1 1 1 1 0.052755474205786267 1 1 1 1 1 1 1 1 1 1 1 1 1 1 1 1 1 1 1 1 1 1 1 1 1 1 0.062622758710567467 1 1 1 1 1 1 1 0.050090194468107925 1 1 1 1 1 1 1 1 1 1 1 0.06337833544165522 1 1 1 1 1 1 1 1 0.052809286995603874 1 1 1 1 1 1 1 1 1 1 1 1 1 1 1 1 0.052836623279487946 1 1 1 0.051706211930903898 1 1 1 1 1 0.057029411594347906 1 1 1 1 1 1 1 1 1 1 1 1 1 1 0.049420367918786713 1 1 1 1 0.048008015506130569 1 1 0.046145240449779884 1 1 1 1 1 0.049998592423576432 1 1 1 1 1 1 1 1 1 1 1 1 1 1 0.050270724016453536 1 0.045631880859741153 1 1 1 0.051578444046650754 1 0.051957180854307602 1 0.052387425992291375 1 1 1 1 1 1 0.050153904062776845 0.056531525315789963 1 1 1 1 1 1 0.057210711648067687 1 0.050660038893347401 1 1 1 1 1 1 1 1 1 1 1 1 1 1 1 1 1 0.057574400097312801 1 1 1 0.049764956481447117 0.057296298713645562 1 1 1 1 1 0.05166088310426202 1 1 0.050119054018703604 0.050700264529594766 1 1 1 1 1 1 1 1 1 1 1 1 1 1 1 1 1 1 1 1 1 1 1 1 1 1 1 1 1 1 1 1 1 1 1 1 1 1 1 1 1 1 1 1 0.045185751410507374 1 1 0.057642989188794715 0.054813481274655129 0.050444519328857615 1 1 1 1 1 1 0.049634252536124995 1 1 1 1 1 1 1 1 1 0.050381771383594287 1 1 1 0.049176704889782971 1 1 1 1 1 1 1 1 1 1 1 1 1 1 1 1 1 1 1 1 0.051301412095108696 1 1 1 1 0.050822844533627433 1 1 1 1 1 1 1 1 1 1 1 1 1 1 1 1 1 1 1 1 1 1 1 1 1 1 1 1 1 1 1 1 1 1 0.049220026460214332 1 0.050512360730582989 1 1 1 1 1 1 1 1 0.051040475702797315 1 1 1 0.048415580076316432 1 0.050528114972214364 1 1 1 1 1 1 1 1 0.061158210090750086 1 1 1 1 0.054501970907903895 1 1 1 1 0.050027727445032387 1 1 1 1 1 1 1 0.051822717348755036 1 1 1 1 0.050990543519824766 1 1 1 1 1 1 1 1 1 1 1 1 1 1 1 1 1 1 1 1 1 1 1 1 1 1 1 1 1 1 1 1 1 1 1 1 1 1 1 1 1 1 1 1 1 1 0.051109837555634238 1 1 1 1 0.050004989633966532 0.050565612001788773 1 1 0.051194416454006603 0.05133277322213245 1 1 1 1 1 1 1 1 1 1 1 1 1 1 1 1 1 1 1 0.050602210611607773 1 1 1 0.050150368497478351 0.050002086778655294 1 1 1 1 1 1 1 1 1 1 1 1 1 1 1 1 1 1 1 1 1 1 1 1 1 1 1 0.050414914276454649 1 1 1 1 1 1 1 0.049816438911482151 1 1 1 1 1 1 1 1 1 1 1 1 1 1 1 0.048883935509571985 1 1 1 1 1 1 1 1 0.050843350943484897 1 0.049328177760331549 0.052177389147842659 1 1 1 1 1 1 1 1 1 1 1 1 0.051103075064699965 1 1 1 1 1 1 1 1 1 1 1 1 1 1 1 1 1 1 0.062448579405447041 1 1 1 0.051613014620590716 1 1 1 1 1 1 1 1 0.050543432757534854 1 1 1 1 1 1 1 1 1 1 1 1 1 1 1 0.052399798079498849 1 1 1 0.050837469375452984 1 1 1 1 1 1 1 1 1 1 1 1 1 1 1 1 1 1 1 1 1 1 1 1 1 1 1 1 1 1 1 1 1 0.050749533272782643 1 0.050335014130792693 1 1 1 1 1 1 1 1 0.049966999299658713 1 1 1 1 1 1 1 1 1 0.04981653865068067 1 1 0.049943157422151552 1 1 1 1 1 0.049953346213162858 1 1 1 1 0.049983419968864587 1 1 1 1 0.049163227255702893 1 1 1 0.050083349571084727 1 0.048247141288279456 1 1 0.049233517898381166 1 1 1 1 1 1 1 1 1 1 1 1 1 1 0.049994272263573683 1 1 0.050011493987200756 1 0.049981505984280167 1 1 1 0.050033616106310401 1 1 0.046752237463670895 1 1 1 1 0.051186285563285978 1 0.050949072382335342 1 1 1 1 1 1 0.050352305514715229 1 0.050253684575465925 1 1 1 1 1 0.066457094507322012 1 1 1 1 0.051013981024842406 1 1 1 1 1 1 0.065896402267847196 1 1 1 1 1 1 1 1 1 1 1 1 1 1 1 1 1 1 1 1 1 1 1 1 1 1 1 1 1 1 1 1 1 0.05008353400422897 0.049999460250022311 1 1 1 1 1 1 1 1 1 1 0.066432710243261472 1 1 0.050798109722336442 0.06424164122878355 1 0.049976671886450469 1 1 1 1 1 1 1 0.064537945381088369 1 1 1 1 1 1 1 1 1 1 1 1 0.048941952173984241 1 1 1 1 0.049615652962795104 1 1 1 1 1 1 1 1 1 1 1 1 0.052669484553003389 1 1 1 1 1 1 1 1 1 1 1 1 1 1 1 1 1 0.052375403473928175 1 1 1 1 1 0.050719572742112508 1 1 1 0.055160592142991703 1 1 1 1 1 1 0.053440445506057387 1 0.05344095103904014 1 1 1 0.052257464833895477 1 1 1 1 1 1 1 1 1 0.056389210744928267 1 1 0.050033803087943599 1 1 1 1 1 1 1 0.05137406583830606 1 1 1 1 1 1 1 1 1 1 1 1 1 0.048248890573893796 1 1 0.050450628772319983 1 1 1 1 1 1 0.049881185680175383 1 1 1 1 1 1 0.058852973164505315 1 1 1 1 1 1 1 0.062542705439637844 1 1 1 1 1 1 1 1 1 1 1 1 1 1 1 1 1 1 1 1 1 1 0.050884364245778878 1 1 1 1 1 1 1 1 1 1 0.055454278520651497 1 1 1 1 0.055102568244386724 0.051789813641866411 1 1 1 1 0.051587198059055303 1 1 1 1 1 1 1 1 1 0.051317297641562037 1 1 1 1 1 1 1 1 1 1 1 0.056545367866996071 1 1 1 0.052953544733522241 1 1 1 0.052514029731716219 1 1 1 1 1 1 1 1 1 1 1 1 0.055757630428142448 1 1 1 1 1 0.049990865923457986 1 1 0.049931944750339803 1 1 1 1 1 1 1 1 1 1 1 1 1 1 0.05533720932385687 1 1 1 1 1 1 1 0.064212456425977116 1 1 1 0.069682014203526932 1 1 1 1 1 0.049869337007253212 1 1 1 1 1 1 1 1 1 0.04992825818037136 1 1 1 1 1 1 1 1 0.072570510057255733 1 1 1 1 1 0.05146809306733096 1 1 1 1 1 1 1 0.050533462887947904 1 1 1 1 1 1 1 1 1 1 1 1 1 1 1 1 1 1 1 1 1 1 1 1 1 1 1 1 1 1 1 1 1 1 1 1 1 1 1 1 1 1 1 1 1 1 1 1 0.05309421247524037 1 1 1 1 1 1 1 0.051199845079721286 1 1 1 1 1 1 1 1 1 1 1 1 1 1 1 1 1 1 1 1 1 1 0.050335679733536198 0.050564234791405205 1 1 0.053590098409983355 0.059366770396170415 1 1 1 1 1 1 1 0.064230141301569565 1 1 1 1 1 1 1 1 1 1 1 1 1 1 0.050057802152547119 1 1 1 1 1 1 1 1 0.049963579140958961 1 1 0.050120588578885128 1 1 1 0.050374179155433033 1 1 1 1 1 1 1 1 1 1 1 1 1 1 1 1 1 1 1 1 1 1 1 1 1 1 1 1 0.049804269452045476 1 1 1 1 1 1 1 1 0.049982490528558153 1 1 1 1 1 1 0.049148568028249608 0.049938137370964919 1 1 1 1 0.050031097367974217 1 1 0.049708182111225969 1 1 0.048675551315427938 1 1 1 1 1 1 0.050005665827669812 1 1 1 1 1 1 1 1 0.050002214077663573 1 1 1 1 1 1 1 1 1 1 1 0.050008661128713106 1 1 0.050006449557205665 1 1 1 1 1 1 1 0.049978627995525701 1 1 1 0.050031236793605105 1 0.050125967865143672 1 0.050001551034502045 1 1 1 1 1 1 1 1 1 1 1 1 1 1 1 1 1 0.050138113922839088 1 0.049999712121809675 1 1 1 1 1 1 1 1 1 1 0.050210676872061759 1 1 1 1 1 1 1 0.050246213767767334 1 1 1 0.049995399715594524 1 0.053758327838737255 0.053211933897960473 1 1 0.057120541315075463 1 1 1 1 0.051942672857145072 1 1 1 0.05363526349074195 1 1 1 0.053949503618351657 1 0.056989309265156218 0.048703518540364581 1 1 1 1 1 1 0.05794802904783368 1 1 1 1 1 1 1 1 0.045146744386510174 0.050001525356252643 0.047408516368241109 1 0.042525177229790462 1 1 0.060458146754847467 0.050001068836622746 1 1 0.07423937861328081 1 1 1 1 1 1 1 1 1 1 1 0.04997289925058869 1 1 1 1 1 1 1 1 1 1 1 1 1 0.04855619791257533 0.046185175885997659 1 1 1 1 0.047935720565166637 1 1 1 0.052063706679055528 1 1 1 1 1 0.047771861636815391 0.049997198036063666 1 1 1 0.052663080640423125 1 1 1 1 1 1 1 1 1 1 1 1 1 1 1 0.051309720447988226 1 1 1 0.051532413977791451 1 1 1 0.050629077568791481 1 1 1 1 1 1 0.055067377691298401 1 1 1 1 1 0.054065834821665965 1 1 1 1 1 1 1 1 0.050012618072278747 1 1 1 1 1 1 1 1 1 0.05004432052248655 1 1 1 1 0.050014997610088124 1 0.050026447992077151 1 1 0.049339231100468957 1 0.051289668190572277 1 1 1 1 1 1 0.050767565966775979 1 0.050023813512255433 0.050826823569882482 1 1 1 1 1 1 1 1 0.056190388221720566 1 0.050295931972955898 1 0.050075219427284018 1 0.049502056086031025 1 1 1 1 1 1 1 1 1 1 1 0.050701040592105805 1 1 1 0.05066339712835205 1 1 1 1 1 1 1 1 0.049962356536246241 1 1 1 1 1 1 1 1 1 0.050686111526382263 1 1 1 1 0.056295669881907234 1 1 0.065992829162663635 1 1 1 1 1 1 1 1 1 0.073602763948152072 1 1 1 0.071263345371971473 1 1 1 1 1 1 1 1 1 1 1 1 1 1 1 1 1 1 1 0.074130414546261736 1 1 1 1 1 1 1 1 1 1 0.049454130114045057 1 1 1 1 1 1 1 1 1 1 1 1 1 1 1 1 1 1 1 1 1 1 1 1 1 1 1 1 1 1 1 1 1 1 1 1 1 1 1 1 1 1 1 1 1 0.045325557564223372 0.050051149153419003 1 1 1 1 1 1 1 1 1 1 1 1 1 0.043251117677358321 0.062150008831916119 1 1 1 0.058975327730342406 1 1 0.04694183778281192 1 1 1 0.042696870593859314 1 1 1 0.04487660817888494 1 1 1 1 1 1 1 1 0.050553615559163101 1 1 0.049259171955652867 1 0.054176924631506453 0.049781284454829697 1 1 1 1 1 1 0.048055370345317698 1 0.052670372669318094 0.049659184418579097 0.049901861799088051 1 1 0.051269572755729256 1 1 0.046655158848526945 0.046735823953580308 1 1 1 1 1 1 1 1 1 1 1 1 1 1 1 1 1 1 1 1 1 0.074321915398862654 1 1 1 1 1 1 1 1 1 0.050455045139723251 1 1 1 1 1 1 1 0.051665436283550754 0.07404196105331752 1 1 1 1 1 1 1 1 1 1 1 1 1 1 1 1 1 1 1 1 1 1 1 0.049010639969427033 1 0.050028065775278269 1 1 1 1 1 1 1 0.048318905465464482 1 1 1 0.056120292261363877 0.076727799484999332 1 1 0.054075603222000924 1 1 1 1 0.054992297863710848 1 1 1 0.073668983079110795 1 1 1 0.046998557021538538 1 1 1 1 1 1 1 1 1 0.042999589630228367 0.055130204227458769 1 1 1 1 1 0.046996663298777795 1 1 0.053603789599185318 0.042744210771849402 0.044415541610462198 1 1 1 1 1 0.072682734759381265 1 1 1 1 1 1 1 1 1 0.050636444170209932 1 0.050270529412268353 1 1 1 1 1 1 1 1 1 1 1 1 1 1 1 1 1 1 1 1 1 1 1 1 0.052260458790626449 1 1 1 1 0.048370340806427846 0.056784993487363496 1 1 1 0.044718101413010108 1 1 1 1 1 1 1 1 1 1 1 1 1 1 1 1 0.065972798390975931 1 1 1 0.050063984939077197 1 1 0.069525733473737569 1 1 1 1 1 1 1 1 1 1 1 1 1 0.061162148986171533 1 1 0.059335715972123587 1 1 1 0.062873213651965396 1 0.051003841056527589 1 0.050438770114946588 1 0.04552753596003975 0.062725985040330029 0.050122629441731653 1 1 1 1 1 1 1 1 0.051328773525099146 1 1 1 1 1 1 1 1 0.069597393772416846 1 1 0.039148851920219309 1 1 1 1 1 1 1 1 1 1 1 1 1 1 1 1 1 1 1 1 1 0.059115022499237418 1 1 1 1 1 1 1 1 1 1 0.055675029769135971 1 0.04724056946676531 1 1 0.053059826655242844 1 0.060944823437730888 1 0.049911898308787256 1 1 0.049875096978520106 1 0.064268715236938917 1 1 0.052019783364090896 1 1 1 0.048809828487221055 1 1 1 1 1 1 1 1 1 1 1 1 1 1 1 1 1 1 1 1 1 1 1 1 1 1 1 1 1 1 1 1 1 1 1 1 1 1 1 1 1 1 1 1 1 1 1 1 1 1 1 1 1 1 1 1 1 1 1 1 1 0.056290827197399806 1 1 0.063247890621967673 1 1 1 1 1 1 0.046138244350589011 0.061331836138834639 1 1 1 1 1 1 1 1 1 1 1 1 1 1 1 1 1 1 0.058122816371081555 1 1 1 0.050159825792782858 1 1 1 1 1 1 1 1 1 1 1 1 1 1 1 1 0.049964000192381577 1 1 1 1 1 1 1 0.064161811130084775 1 1 1 1 1 1 1 1 0.060733691484419941 1 0.050451835473214406 1 1 1 1 1 1 1 1 1 1 1 1 1 1 1 1 0.056524714687308047 1 1 1 1 1 1 1 0.066804013910695723 1 1 1 1 0.048505575704925849 1 1 1 1 1 1 1 0.04414741101041042 1 1 0.060312046700291735 0.049568133013612618 1 1 0.068909816059397638 1 1 1 1 1 1 0.073575857142058942 1 1 1 1 1 1 1 1 1 0.044748906089673926 1 1 0.050151191055687445 1 1 0.049841492201260586 1 1 0.058792610603251708 1 1 1 1 1 0.057038120129587734 1 1 1 1 1 1 1 1 0.050219513553399077 1 1 1 1 1 1 1 0.050688264652619344 1 1 1 1 1 1 1 1 1 1 1 1 0.05197586379898668 1 1 1 1 1 1 1 0.049710720888711604 0.049820238600131281 1 0.02444295393803118 1 0.043245700105553175 1 1 1 1 1 1 1 1 1 1 1 1 1 1 1 0.049995379111564237 1 0.04134334035952672 1 1 1 1 1 1 1 1 0.067044849599503201 1 0.052569589202372834 1 0.041245918265883572 1 0.073481533404424704 1 0.049284386397455388 1 1 0.050029424236409582 1 1 1 1 1 0.049915206122343361 1 1 1 1 1 1 1 1 0.050172839761925159 1 1 1 1 1 0.050539331292164973 1 1 0.024789906968853973 1 0.050848831833870657 0.047361671910086604 1 1 1 1 1 1 1 1 0.049941375874619408 1 1 1 1 1 1 1 1 1 1 1 1 1 0.066232071684230634 1 1 1 1 1 1 1 0.051292203776050815 1 1 1 0.051290385253974807 1 1 1 1 1 1 1 1 1 1 1 1 1 1 1 1 1 0.049413043151911258 1 1 1 1 1 1 1 0.049681609556910818 1 1 0.056121375699626899 1 1 1 1 1 1 1 1 1 1 1 1 1 1 1 0.054638331611921324 1 1 1 1 0.049122669496079907 1 1 1 1 1 1 1 1 1 1 1 1 1 1 1 1 1 1 1 1 1 1 1 1 1 0.042083390625131195 1 1 1 1 1 1 0.049672856500868556 1 1 1 1 1 1 1 1 1 0.042869239648485977 0.057340807111173814 1 1 1 0.056688979965397582 1 0.049162616874522315 1 1 1 1 1 1 1 1 1 1 1 1 1 1 1 0.052288406601164641 1 1 1 1 1 1 1 1 1 1 1 1 0.050618082383674851 0.05166248361204568 1 1 1 1 1 1 1 1 0.056191765646415086 1 1 0.049764294823122224 1 1 0.059156222424209454 0.045966462462302515 1 1 1 1 1 1 1 0.053951004309595665 1 1 1 1 1 1 1 1 1 0.051044401228370839 1 1 1 0.05125855614665558 1 1 1 1 1 0.050488969695208163 1 1 1 1 1 1 1 1 1 1 1 1 0.048999119194568841 1 1 1 0.049434125417608686 1 1 1 0.053335842220637315 1 1 1 1 1 1 1 1 1 1 1 1 1 1 1 1 1 1 1 1 1 1 1 1 1 1 1 1 1 1 1 1 0.048747248920579682 1 1 1 1 1 1 1 1 1 1 1 1 1 1 1 1 1 1 1 1 1 1 1 1 0.051311532300149787 1 0.050071458885749841 1 1 0.040822826894446232 1 1 1 1 1 1 1 1 1 0.05541465923612398 1 1 1 1 1 1 1 1 1 1 1 1 1 1 0.044099914724938488 1 1 1 1 0.047218948661089367 1 1 1 0.049305421873906012 1 1 1 1 1 1 1 1 1 1 1 1 1 1 1 1 1 1 1 1 1 1 1 1 1 1 1 1 1 1 1 1 1 1 1 1 1 1 1 1 1 1 1 1 1 1 1 1 1 1 1 1 1 1 1 1 1 1 1 1 1 1 1 1 1 1 1 1 1 1 1 1 1 1 1 1 1 1 1 1 1 1 1 1 1 1 1 1 1 1 1 1 1 1 1 1 1 1 1 1 1 1 1 1 1 1 1 1 1 1 1 1 1 1 1 1 1 1 1 1 1 1 1 1 1 1 1 1 1 1 1 1 1 1 1 1 1 1 1 1 1 1 1 1 1 1 1 1 1 1 1 1 1 1 1 1 1 1 1 1 1 1 1 1 1 1 1 1 1 1 1 1 1 1 1 1 1 1 1 1 1 1 1 1 1 1 1 1 1 0.080396652360856663 1 1 1 1 1 1 1 1 1 1 1 1 1 1 1 1 0.051913982849978606 1 1 1 1 1 1 1 1 0.070443018631494284 1 1 1 1 0.048890281580323401 1 1 1 1 1 1 1 1 1 1 1 1 1 1 1 1 1 1 1 1 1 1 0.051222652774108715 1 1 1 1 1 1 1 1 1 1 1 1 1 0.046533772345942331 0.078490728750109859 1 1 1 1 1 0.070486902661805614 1 0.041643875461559163 1 1 1 1 1 1 1 1 1 1 1 0.057447555446564574 1 1 1 1 1 1 1 0.088399873063077769 1 1 1 1 1 1 1 1 1 1 1 1 1 1 1 0.051277745209752527 0.083793536096272159 1 1 1 1 1 1 1 1 1 1 1 1 0.045264240506618016 1 1 1 1 1 1 1 1 1 1 1 1 1 1 1 1 0.048507523234349044 1 1 1 1 1 1 1 0.077983055290018269 1 1 1 1 1 1 1 1 1 1 0.050224476385658981 0.06904692877733809 1 1 1 1 1 1 1 1 1 1 1 1 1 1 1 1 1 1 1 1 1 1 1 1 1 1 1 1 1 1 0.054491977650049671 1 1 1 1 1 0.05664447299991042 1 1 1 1 1 1 1 1 1 1 0.052934502894464434 1 1 1 1 0.048864183110405343 1 1 1 1 1 1 1 1 1 1 0.05598898325451155 1 0.052279013149065558 1 1 1 1 1 1 1 1 1 1 1 1 1 1 1 1 1 1 1 1 1 1 1 1 1 1 1 1 1 1 1 0.050708956197729547 1 1 1 1 1 0.051986701407482072 1 1 1 1 1 1 1 1 1 1 1 1 1 1 1 1 1 1 0.051285329923335607 1 1 0.075474598638212792 1 1 1 0.05045326006640443 1 1 1 1 1 0.086488210960948053 1 1 1 1 1 1 1 1 1 1 0.062664760035671146 1 1 1 1 1 1 0.04943494391262919 1 1 1 1 1 0.090670090745431531 0.049806595615009538 1 1 0.085497942499032642 1 1 0.051234161022298205 1 1 1 1 1 1 1 1 1 1 0.051478536700384291 1 1 0.052337461743922724 1 1 0.053371183052436731 1 1 0.053179958299347095 1 1 0.048538515583501932 1 1 0.05247344345369262 1 1 1 1 1 1 0.047636585779837544 1 1 1 1 1 1 1 1 1 1 1 0.082680993921293688 1 1 1 1 1 1 1 0.051411412788673179 1 1 1 1 0.049961517284283594 1 1 1 0.077402647904186106 1 1 1 1 1 1 1 1 1 1 1 0.049718963675669303 1 1 1 1 1 1 1 1 1 1 1 1 1 1 1 1 1 1 1 1 1 1 1 1 0.049975259150554438 1 1 1 1 1 0.050051793709476038 1 1 1 1 1 1 1 1 1 1 1 1 1 1 0.05174535627582566 1 1 0.048953700621835461 1 0.06138560288696629 1 1 1 1 0.065896890653744211 1 0.049655936758174576 0.044751363553257872 1 0.046283660713222347 1 1 1 1 1 1 1 0.050027528162522185 1 0.049301134768927495 1 1 1 1 1 1 0.05035515617032401 1 1 1 1 1 1 0.05048337558060767 1 1 1 1 0.051408684720515845 1 1 1 1 1 0.049856444830729818 1 1 0.05020085503175354 1 1 1 1 0.05214443596938146 1 1 1 1 0.049851317614319962 1 1 1 1 1 1 0.050230781082804515 1 1 1 1 1 1 1 1 1 0.051053905159304337 1 1 1 1 1 1 0.050526460385815569 1 1 1 1 0.05113109486501418 1 1 1 1 1 1 1 1 1 1 1 1 1 1 1 1 0.049636790578815787 1 1 1 0.049436567300695886 1 1 0.063683563449545927 1 1 1 1 1 1 1 1 1 1 1 1 1 1 1 1 0.050025528790015955 1 0.061557209809144156 1 1 1 1 1 1 1 1 1 1 1 1 1 1 1 1 1 1 1 1 1 1 1 1 1 1 0.067631075002641108 1 1 0.058879152711066043 1 1 1 1 1 1 1 1 1 1 0.054877152034132681 1 1 1 1 0.050373701866279486 1 1 1 1 0.050348173076263533 1 1 1 1 1 1 1 1 1 0.054429940249281335 1 1 1 1 1 1 1 1 1 1 1 1 1 1 1 1 1 1 1 1 1 1 1 1 1 1 1 1 
</DataArray>
</CellData>
</Piece>
</UnstructuredGrid>
</VTKFile>
